%%MatrixMarket matrix coordinate real general
%
1138 1138 4054
1 1 1.474779E3
1 5 9.017133
1 563 5.730659
2 2 9.136654
2 10 3.405995
2 563 5.730659
3 3 6.961468E1
3 11 8.810573
3 34 3.115265E1
3 35 1.606684E1
3 104 4.86926
3 475 8.715357
4 4 6.860106E1
4 7 3.462025E1
4 27 4.755112E-1
4 101 2.866497E1
4 102 7.463244E-1
4 103 4.093998
5 1 9.017133
5 5 1.388805E1
5 9 4.870921
6 6 1.168288E2
6 7 1.096124E1
6 37 5.681818E1
6 98 1.088139E1
6 103 3.816794E1
7 4 3.462025E1
7 6 1.096124E1
7 7 5.276726E1
7 37 4.773726
7 101 7.772424E-1
7 102 1.072973
7 103 5.618293E-1
8 8 3.025788E1
8 26 3.752486
8 35 4.975867E-1
8 724 2.60078E1
9 5 4.870921
9 9 7.174451
9 10 9.05633E-1
9 104 1.397898
10 2 3.405995
10 9 9.05633E-1
10 10 5.709526
10 104 1.397898
11 3 8.810573
11 11 2.718584E1
11 12 1.238697
11 38 7.418397
11 566 9.718173
12 11 1.238697
12 12 1.238697
13 13 7.142646
13 34 1.85192
13 104 5.290726
14 14 1.295337E1
14 413 1.295337E1
15 15 1.696756E3
15 16 3.067485E1
15 17 3.04878E1
15 18 3.039514E1
15 19 3.039514E1
15 411 1.574803E3
16 15 3.067485E1
16 16 3.067485E1
17 15 3.04878E1
17 17 3.04878E1
18 15 3.039514E1
18 18 3.039514E1
19 15 3.039514E1
19 19 3.039514E1
20 20 5.746122E3
20 21 5.714287E3
20 37 1.824817E1
20 102 1.358696E1
21 20 5.714287E3
21 21 5.735022E3
21 22 5.205622
21 23 5.186722
21 24 5.181347
21 25 5.162622
22 21 5.205622
22 22 5.205622
23 21 5.186722
23 23 5.186722
24 21 5.181347
24 24 5.181347
25 21 5.162622
25 25 5.162622
26 8 3.752486
26 26 4.371336
26 35 6.188502E-1
27 4 4.755112E-1
27 27 9.123474
27 28 2.373605
27 29 2.439024
27 30 1.190334
27 101 2.644999
28 27 2.373605
28 28 2.373605
29 27 2.439024
29 29 2.439024
30 27 1.190334
30 30 1.190334
31 31 1.688214
31 32 6.254691E-1
31 100 1.062744
32 31 6.254691E-1
32 32 1.688214
32 100 1.062744
33 33 6.581979E-1
33 100 6.581979E-1
34 3 3.115265E1
34 13 1.85192
34 34 5.631459E1
34 104 1.013479E1
34 553 1.317523E1
35 3 1.606684E1
35 8 4.975867E-1
35 26 6.188502E-1
35 35 1.00183E4
35 104 1.112756
35 710 1E4
36 36 1E4
36 711 1E4
37 6 5.681818E1
37 7 4.773726
37 20 1.824817E1
37 37 8.033353E1
37 102 4.934373E-1
38 11 7.418397
38 38 7.499123E1
38 39 1.567398E1
38 98 4.62963E1
38 412 5.602555
39 38 1.567398E1
39 39 1.641742E1
39 99 7.434391E-1
40 40 2.459335E2
40 41 1.265823E2
40 43 5.524862E1
40 45 6.410257E1
41 40 1.265823E2
41 41 9.889011E2
41 42 2.898551E1
41 44 8.333333E2
42 41 2.898551E1
42 42 2.898551E1
43 40 5.524862E1
43 43 4.403075E3
43 146 4.347826E3
44 41 8.333333E2
44 44 1.083333E4
44 486 1E4
45 40 6.410257E1
45 45 1.187474E2
45 49 5.464481E1
46 46 1E4
46 48 1E4
47 47 1.049318E2
47 48 1.049318E2
48 46 1E4
48 47 1.049318E2
48 48 2.018336E4
48 54 7.843137E1
48 506 1E4
49 45 5.464481E1
49 49 2.88754E2
49 50 1.265823E2
49 53 1.075269E2
50 49 1.265823E2
50 50 9.889011E2
50 51 2.898551E1
50 52 8.333333E2
51 50 2.898551E1
51 51 2.898551E1
52 50 8.333333E2
52 52 8.743169E2
52 125 4.098361E1
53 49 1.075269E2
53 53 1.586098E3
53 54 1.428572E3
53 55 5E1
54 48 7.843137E1
54 53 1.428572E3
54 54 1.957633E3
54 425 1.190476E2
54 445 1.845238E2
54 447 1.470588E2
55 53 5E1
55 55 5E1
56 56 2.932551E1
56 63 2.932551E1
57 57 1.123596E2
57 66 1.123596E2
58 58 1.564945E1
58 70 1.564945E1
59 59 2.43309E1
59 67 2.43309E1
60 60 1.041667E2
60 68 1.041667E2
61 61 1.25E2
61 130 1.25E2
62 62 5.076142E1
62 129 5.076142E1
63 56 2.932551E1
63 63 1.005954E4
63 64 3.021148E1
63 65 1E4
64 63 3.021148E1
64 64 1.597102E2
64 71 4.098361E1
64 131 1.605136E1
64 226 7.246377E1
65 63 1E4
65 65 1.001592E4
65 1095 1.592357E1
66 57 1.123596E2
66 66 4.420023E2
66 67 9.708738E1
66 68 2.427184E1
66 74 3.265326E1
66 183 1.470588E2
66 226 2.857143E1
67 59 2.43309E1
67 66 9.708738E1
67 67 1.674071E2
67 68 3.067485E1
67 69 1.531394E1
68 60 1.041667E2
68 66 2.427184E1
68 67 3.067485E1
68 68 2.892932E2
68 74 4.75921E1
68 90 3.233649E1
68 201 5.025126E1
69 67 1.531394E1
69 69 1.907525E2
69 70 1.754386E2
70 58 1.564945E1
70 69 1.754386E2
70 70 2.255077E2
70 182 4.955401
70 196 5.170631
70 1063 4.623209
70 1065 1.647446E1
70 1074 3.195909
71 64 4.098361E1
71 71 9.653917E1
71 72 5.555556E1
72 71 5.555556E1
72 72 8.492064E1
72 73 5.555555
72 121 2.380952E1
73 72 5.555555
73 73 5.555555
74 66 3.265326E1
74 68 4.75921E1
74 74 3.849024E2
74 75 4.032258E1
74 76 2.544529E1
74 78 3.43871E1
74 80 1.582279E1
74 119 1.886792E2
75 74 4.032258E1
75 75 6.931041E2
75 204 6.451613E2
75 810 4.608295
75 918 3.012048
76 74 2.544529E1
76 76 1.473945E2
76 77 3.003003E1
76 78 3.636364E1
76 127 5.555556E1
77 76 3.003003E1
77 77 5.03003E3
77 1050 5E3
78 74 3.43871E1
78 76 3.636364E1
78 78 2.6267E2
78 79 9.090909E1
78 452 1.010101E2
79 78 9.090909E1
79 79 5.644214E2
79 416 4.807692E1
79 417 4.807692E1
79 454 3.773585E2
80 74 1.582279E1
80 80 6.571666E2
80 81 6.71141E1
80 447 4.761905E2
80 452 9.803922E1
81 80 6.71141E1
81 81 4.200095E2
81 448 1.587302E2
81 450 1.754386E2
81 464 1.872659E1
82 82 4.975124
82 94 4.975124
83 83 1.724138E1
83 94 1.724138E1
84 84 1.757469E1
84 95 1.757469E1
85 85 4.390805E2
85 87 1.724138E2
85 126 2.666667E2
86 86 6.807496E3
86 87 5E3
86 241 4.651163E1
86 251 7.194245E1
86 253 7.462687E1
86 267 9.478674E1
86 269 2.777778E2
86 283 1.388889E2
86 291 4.901961E1
86 293 5.714286E1
86 294 5.714286E1
86 302 6.896552E2
86 315 2.5E2
87 85 1.724138E2
87 86 5E3
87 87 5.319472E3
87 88 1.470588E2
88 87 1.470588E2
88 88 1.470588E2
89 89 6.53412E1
89 105 3.831417E1
89 115 2.702703E1
90 68 3.233649E1
90 90 6.483059E1
90 91 3.24941E1
91 90 3.24941E1
91 91 6.45056E2
91 92 1.636515E2
91 108 6.756757E1
91 115 2.419992E1
91 116 3.571429E2
92 91 1.636515E2
92 92 2.588896E2
92 93 9.52381E1
93 92 9.52381E1
93 93 6.121849E2
93 94 1.090512E1
93 252 1.315789E2
93 264 1.267427E1
93 271 6.60066E1
93 288 6.535947E1
93 292 3.184714E1
93 293 3.831417E1
93 294 3.831417E1
93 322 3.215434E1
93 323 3.48432E1
93 324 2.403846E1
93 325 1.440922E1
93 326 1.650165E1
94 82 4.975124
94 83 1.724138E1
94 93 1.090512E1
94 94 4.640852E2
94 96 4.800768
94 264 2.394475E2
94 318 1.106696E2
94 325 7.604562E1
95 84 1.757469E1
95 95 7.657204E1
95 97 8.285004
95 262 9.67118
95 268 7.142857
95 300 3.38983E1
96 94 4.800768
96 96 1.00229E4
96 145 7.24113
96 704 1.085776E1
96 705 1E4
97 95 8.285004
97 97 1.212083E1
97 268 3.835827
98 6 1.088139E1
98 38 4.62963E1
98 98 5.717769E1
99 39 7.434391E-1
99 99 3.134068
99 413 2.390629
100 31 1.062744
100 32 1.062744
100 33 6.581979E-1
100 100 4.073998E1
100 725 3.558719E1
100 732 2.369107
101 4 2.866497E1
101 7 7.772424E-1
101 27 2.644999
101 101 3.42926E1
101 102 7.54091E-1
101 103 1.451295
102 4 7.463244E-1
102 7 1.072973
102 20 1.358696E1
102 37 4.934373E-1
102 101 7.54091E-1
102 102 4.704131E1
102 103 3.038753E1
103 4 4.093998
103 6 3.816794E1
103 7 5.618293E-1
103 101 1.451295
103 102 3.038753E1
103 103 1.007466E4
103 478 1E4
104 3 4.86926
104 9 1.397898
104 10 1.397898
104 13 5.290726
104 34 1.013479E1
104 35 1.112756
104 104 2.420333E1
105 89 3.831417E1
105 105 4.207618E2
105 106 1.207729E1
105 109 3.703704E2
106 105 1.207729E1
106 106 1.207729E1
107 107 3.215434E1
107 108 3.215434E1
108 91 6.756757E1
108 107 3.215434E1
108 108 1.008813E3
108 110 9.090909E2
109 105 3.703704E2
109 109 1.037037E4
109 1029 1E4
110 108 9.090909E2
110 110 1.097479E4
110 111 4.184558E1
110 328 1E4
110 367 1.077006E1
110 370 1.308045E1
111 110 4.184558E1
111 111 1.005695E4
111 367 7.27802
111 368 7.824726
111 701 1E4
112 112 3.017592E2
112 113 7.420491
112 370 8.624407
112 686 2.857143E2
113 112 7.420491
113 113 1.004049E4
113 114 7.624856
113 115 2.544529E1
113 690 1E4
114 113 7.624856
114 114 1.000763E4
114 1009 1E4
115 89 2.702703E1
115 91 2.419992E1
115 113 2.544529E1
115 115 7.667225E1
116 91 3.571429E2
116 116 4.36123E2
116 117 1.09529E1
116 126 6.802721E1
117 116 1.09529E1
117 117 1.09529E1
118 118 5.521811
118 119 5.521811
119 74 1.886792E2
119 118 5.521811
119 119 2.283307E2
119 123 3.412969E1
120 120 1.265823E2
120 121 1.265823E2
121 72 2.380952E1
121 120 1.265823E2
121 121 2.722888E2
121 122 7.087661E1
121 504 5.102041E1
122 121 7.087661E1
122 122 1.526848E2
122 123 4.048583E1
122 124 4.132232E1
123 119 3.412969E1
123 122 4.048583E1
123 123 1.11929E2
123 125 3.731343E1
124 122 4.132232E1
124 124 9.781158E1
124 125 3.267974E1
124 127 2.380952E1
125 52 4.098361E1
125 123 3.731343E1
125 124 3.267974E1
125 125 3.632857E2
125 126 8.138689E1
125 129 7.092198E1
125 546 1E2
126 85 2.666667E2
126 116 6.802721E1
126 125 8.138689E1
126 126 4.781926E2
126 129 6.21118E1
127 76 5.555556E1
127 124 2.380952E1
127 127 8.492064E1
127 128 5.555555
128 127 5.555555
128 128 5.555555
129 62 5.076142E1
129 125 7.092198E1
129 126 6.21118E1
129 129 1.837952E2
130 61 1.25E2
130 130 3.569032E2
130 133 1.369863E2
130 173 5.181347E1
130 213 4.310345E1
131 64 1.605136E1
131 131 8.96646E2
131 132 7.518797E1
131 133 7.692308E2
131 136 3.617595E1
132 131 7.518797E1
132 132 1.010104E2
132 144 4.409171
132 742 2.141328E1
133 130 1.369863E2
133 131 7.692308E2
133 133 9.187799E2
133 134 1.256281E1
134 133 1.256281E1
134 134 1.256281E1
135 135 1.003019E4
135 136 2.544529E1
135 139 4.748338
135 740 1E4
136 131 3.617595E1
136 135 2.544529E1
136 136 9.982595E1
136 141 3.820471E1
137 137 1.08031E2
137 139 7.246377E1
137 141 2.739726E1
137 761 8.169934
138 138 2.17898E2
138 141 2.898551E1
138 877 5.988025E1
138 882 1.290323E2
139 135 4.748338
139 137 7.246377E1
139 139 9.006557E1
139 140 1.285347E1
140 139 1.285347E1
140 140 4.552996E1
140 829 1.862891E1
140 830 1.404757E1
141 136 3.820471E1
141 137 2.739726E1
141 138 2.898551E1
141 141 9.458748E1
142 142 3.670324E1
142 258 2.155172E1
142 366 1.515152E1
143 143 2.001459E4
143 144 1.25E1
143 743 2.090738
143 745 1E4
143 826 1E4
144 132 4.409171
144 143 1.25E1
144 144 1.001691E4
144 827 1E4
145 96 7.24113
145 145 1.002201E4
145 318 1.477105E1
145 703 1E4
146 43 4.347826E3
146 146 7.289003E3
146 147 2.941177E3
147 146 2.941177E3
147 147 1.294118E4
147 148 1E4
148 147 1E4
148 148 1E4
149 149 5.205622
149 166 5.205622
150 150 7.352941E1
150 173 7.352941E1
151 151 1.329787E1
151 175 1.329787E1
152 152 1.040583E1
152 180 1.040583E1
153 153 3.448276E1
153 183 3.448276E1
154 154 1.371742E1
154 207 1.371742E1
155 155 2.898551E1
155 198 2.898551E1
156 156 1.449275E2
156 213 1.449275E2
157 157 3.846154E1
157 219 3.846154E1
158 158 2.80112E1
158 226 2.80112E1
159 159 9.64196
159 182 4.730369
159 205 4.911591
160 160 2.137365E1
160 172 1.001001E1
160 233 1.136364E1
161 161 1.090321E1
161 222 4.730369
161 743 6.17284
162 162 8.751172E1
162 163 4.608295E1
162 169 1.153403E1
162 209 7.451564
162 223 1.261034E1
162 232 9.832842
163 162 4.608295E1
163 163 1.459383E2
163 186 4.651163E1
163 201 1.36612E1
163 227 3.968254E1
164 164 5.205622
164 166 5.205622
165 165 1.176942E2
165 166 6.060606E1
165 167 1.733102E1
165 175 1.118568E1
165 194 2.857143E1
166 149 5.205622
166 164 5.205622
166 165 6.060606E1
166 166 3.413369E2
166 192 8E1
166 201 1.488095E1
166 218 1.754386E2
167 165 1.733102E1
167 167 3.466204E1
167 175 1.733102E1
168 168 6.963064E1
168 180 9.389671
168 209 6.024096E1
169 162 1.153403E1
169 169 2.56384E1
169 187 1.410437E1
170 170 3.028655E1
170 188 2.277904E1
170 194 7.507507
171 171 5.22535E1
171 178 3.921569E1
171 217 1.303781E1
172 160 1.001001E1
172 172 6.685269E1
172 173 4.255319E1
172 222 4.873294
172 755 9.416196
173 130 5.181347E1
173 150 7.352941E1
173 172 4.255319E1
173 173 2.062103E2
173 184 3.831417E1
174 174 5.063389E1
174 211 1.27551E1
174 216 3.787879E1
175 151 1.329787E1
175 165 1.118568E1
175 167 1.733102E1
175 175 5.363491E1
175 179 1.182033E1
176 176 8.608028E2
176 177 1.724138E2
176 178 2.098079E1
176 207 6.674082E2
177 176 1.724138E2
177 177 2.765804E2
177 207 1.041667E2
178 171 3.921569E1
178 176 2.098079E1
178 178 8.817661E1
178 214 1.506024E1
178 217 1.29199E1
179 175 1.182033E1
179 179 2.364066E1
179 203 1.182033E1
180 152 1.040583E1
180 168 9.389671
180 180 2.849115E1
180 209 8.695652
181 181 2.314815E1
181 183 2.314815E1
182 70 4.955401
182 159 4.730369
182 182 6.150294E1
182 183 2.994012E1
182 205 1.672241E1
182 221 5.154639
183 66 1.470588E2
183 153 3.448276E1
183 181 2.314815E1
183 182 2.994012E1
183 183 3.980187E2
183 184 9.174312E1
183 201 3.514939E1
183 226 3.649635E1
184 173 3.831417E1
184 183 9.174312E1
184 184 1.921349E2
184 193 4.140787E1
184 213 2.06697E1
185 185 8.064516
185 187 8.064516
186 163 4.651163E1
186 186 1.262011E2
186 187 4.166667E1
186 218 3.802281E1
187 169 1.410437E1
187 185 8.064516
187 186 4.166667E1
187 187 1.07524E2
187 188 2.967359E1
187 206 8.695652
187 209 5.319149
188 170 2.277904E1
188 187 2.967359E1
188 188 5.245263E1
189 189 4.149792E1
189 211 1.146789E1
189 216 3.003003E1
190 190 3.30033E1
190 199 3.30033E1
191 191 1.149633E3
191 195 1.071811E1
191 197 1.474926E1
191 198 1.111111E3
191 211 1.305483E1
192 166 8E1
192 192 8.246421E2
192 199 6.666667E2
192 218 6.329114E1
192 220 1.468429E1
193 184 4.140787E1
193 193 2.47007E2
193 198 6.060606E1
193 199 1.06383E2
193 208 3.861004E1
194 165 2.857143E1
194 170 7.507507
194 194 7.89974E1
194 216 4.291846E1
195 191 1.071811E1
195 195 3.689613E1
195 211 2.617801E1
196 70 5.170631
196 196 5.170631
197 191 1.474926E1
197 197 3.648839E1
197 212 2.173913E1
198 155 2.898551E1
198 191 1.111111E3
198 193 6.060606E1
198 198 1.200703E3
199 190 3.30033E1
199 192 6.666667E2
199 193 1.06383E2
199 199 8.06053E2
200 200 6.00913E1
200 201 4.387481E1
200 202 1.621649E1
201 68 5.025126E1
201 163 1.36612E1
201 166 1.488095E1
201 183 3.514939E1
201 200 4.387481E1
201 201 1.726985E2
201 218 1.488095E1
202 200 1.621649E1
202 202 2.09357E1
202 203 4.719207
203 179 1.182033E1
203 202 4.719207
203 203 1.653954E1
204 75 6.451613E2
204 204 6.451613E2
205 159 4.911591
205 182 1.672241E1
205 205 2.87262E1
205 221 7.092198
206 187 8.695652
206 206 1.889453E1
206 216 1.019888E1
207 154 1.371742E1
207 176 6.674082E2
207 177 1.041667E2
207 207 8.811484E2
207 208 8.438818E1
207 224 1.146789E1
208 193 3.861004E1
208 207 8.438818E1
208 208 1.229982E2
209 162 7.451564
209 168 6.024096E1
209 180 8.695652
209 187 5.319149
209 209 8.170734E1
210 210 1.796925E3
210 215 1.121076E1
210 217 1.666667E3
210 218 1.190476E2
211 174 1.27551E1
211 189 1.146789E1
211 191 1.305483E1
211 195 2.617801E1
211 211 8.437634E1
211 212 2.09205E1
212 197 2.173913E1
212 211 2.09205E1
212 212 4.265963E1
213 130 4.310345E1
213 156 1.449275E2
213 184 2.06697E1
213 213 2.822301E2
213 504 7.352941E1
214 178 1.506024E1
214 214 6.582166E1
214 217 5.076142E1
215 210 1.121076E1
215 215 1.121076E1
216 174 3.787879E1
216 189 3.003003E1
216 194 4.291846E1
216 206 1.019888E1
216 216 1.481264E2
216 218 2.710027E1
217 171 1.303781E1
217 178 1.29199E1
217 210 1.666667E3
217 214 5.076142E1
217 217 1.743386E3
218 166 1.754386E2
218 186 3.802281E1
218 192 6.329114E1
218 201 1.488095E1
218 210 1.190476E2
218 216 2.710027E1
218 218 4.377814E2
219 157 3.846154E1
219 219 1.509842E2
219 220 8.620689E1
219 230 2.631579E1
220 192 1.468429E1
220 219 8.620689E1
220 220 1.008912E2
221 182 5.154639
221 205 7.092198
221 221 1.899606E1
221 222 3.15856
221 225 3.590664
222 161 4.730369
222 172 4.873294
222 221 3.15856
222 222 9.118269E1
222 225 2.624672E1
222 233 4.950495E1
222 743 2.668802
223 162 1.261034E1
223 223 5.462715E1
223 232 4.201681E1
224 207 1.146789E1
224 224 1.873533E1
224 1026 7.267442
225 221 3.590664
225 222 2.624672E1
225 225 2.983738E1
226 64 7.246377E1
226 66 2.857143E1
226 158 2.80112E1
226 183 3.649635E1
226 226 1.655428E2
227 163 3.968254E1
227 227 8.576549E1
227 228 4.608295E1
228 227 4.608295E1
228 228 9.742727E1
228 229 2.762431E1
228 231 1.27551E1
228 232 1.096491E1
229 228 2.762431E1
229 229 2.762431E1
230 219 2.631579E1
230 230 2.631579E1
231 228 1.27551E1
231 231 3.120529E1
231 232 1.845018E1
232 162 9.832842
232 223 4.201681E1
232 228 1.096491E1
232 231 1.845018E1
232 232 8.126475E1
233 160 1.136364E1
233 222 4.950495E1
233 233 6.086859E1
234 234 2.917592E1
234 236 1.455604E1
234 307 1.461988E1
235 235 2.117081E3
235 236 6.756757E1
235 243 1.459854E1
235 270 2E3
235 272 9.208103
235 298 1.285347E1
235 299 1.285347E1
236 234 1.455604E1
236 235 6.756757E1
236 236 9.02339E1
236 286 8.1103
237 237 1.234571E2
237 261 2.818489
237 287 1.897533E1
237 309 6.968641E1
237 366 4.004806
237 702 2.797203E1
238 238 1.881504E2
238 239 4.125455E1
238 270 1.468959E2
239 238 4.125455E1
239 239 5.924802E1
239 270 1.533742E1
239 281 2.656042
240 240 7.917656
240 259 7.917656
241 86 4.651163E1
241 241 2.888018E3
241 242 1.851852E2
241 246 8.928572E1
241 253 1.234568E2
241 257 9.259259E1
241 266 1.234568E2
241 275 1.344086E1
241 279 3.174603E1
241 289 3.003003E1
241 291 8.333333E2
241 292 8.333333E2
241 293 1.388889E2
241 294 1.388889E2
241 299 1.328021E1
241 310 1.680672E1
241 321 8.849557E1
241 327 8.928572E1
242 241 1.851852E2
242 242 3.147918E2
242 244 5.714286E1
242 245 7.246377E1
243 235 1.459854E1
243 243 1.459854E1
244 242 5.714286E1
244 244 1.184926E2
244 272 6.134969E1
245 242 7.246377E1
245 245 9.593795E1
245 298 2.347418E1
246 241 8.928572E1
246 246 1.131521E2
246 310 2.386635E1
247 247 5.827703E2
247 248 2.702703E2
247 255 3.125E2
248 247 2.702703E2
248 248 5.028284E2
248 255 2.325581E2
249 249 1.666667E3
249 282 1.666667E3
250 250 1.123714E3
250 257 9.259259E1
250 263 7.874016E1
250 289 1.190476E2
250 317 8.333333E2
251 86 7.194245E1
251 251 2.108313E2
251 267 1.388889E2
252 93 1.315789E2
252 252 2.882195E2
252 310 2.150537E1
252 313 1.351351E2
253 86 7.462687E1
253 241 1.234568E2
253 253 1.980837E2
254 254 3.837719E2
254 255 2.083333E2
254 285 1.754386E2
255 247 3.125E2
255 248 2.325581E2
255 254 2.083333E2
255 255 9.102564E2
255 258 3.144654E1
255 260 7.194245E1
255 263 5.347594E1
256 256 1.0133E4
256 290 5.235602E1
256 317 1E4
256 321 8.064516E1
257 241 9.259259E1
257 250 9.259259E1
257 257 1.851852E2
258 142 2.155172E1
258 255 3.144654E1
258 258 2.618486E2
258 261 1.282051E2
258 327 8.064516E1
259 240 7.917656
259 259 2.085427E1
259 278 1.293661E1
260 255 7.194245E1
260 260 1.909901E2
260 289 1.190476E2
261 237 2.818489
261 258 1.282051E2
261 261 1.310236E2
262 95 9.67118
262 262 1.83095E2
262 268 2.617801E1
262 276 6.25E1
262 314 8.474576E1
263 250 7.874016E1
263 255 5.347594E1
263 263 1.322161E2
264 93 1.267427E1
264 94 2.394475E2
264 264 3.837008E2
264 311 1.315789E2
265 265 1.017575E3
265 276 9.999999E2
265 300 1.757469E1
266 241 1.234568E2
266 266 2.469136E2
266 307 1.234568E2
267 86 9.478674E1
267 251 1.388889E2
267 267 5.660127E2
267 282 1.449275E2
267 284 7.751938E1
267 302 1.098901E2
268 95 7.142857
268 97 3.835827
268 262 2.617801E1
268 268 1.586071E2
268 270 5.388283E1
268 301 6.756757E1
269 86 2.777778E2
269 269 4.861111E2
269 284 2.083333E2
270 235 2E3
270 238 1.468959E2
270 239 1.533742E1
270 268 5.388283E1
270 270 2.317201E3
270 275 1.277139E1
270 279 8.257638
270 280 2.932551E1
270 318 3.436426E1
270 320 1.636661E1
271 93 6.60066E1
271 271 6.60066E1
272 235 9.208103
272 244 6.134969E1
272 272 7.05578E1
273 273 1.295094E3
273 274 3.030303E2
273 303 7.142858E2
273 315 2.777778E2
274 273 3.030303E2
274 274 6.060606E2
274 312 3.030303E2
275 241 1.344086E1
275 270 1.277139E1
275 275 2.621225E1
276 262 6.25E1
276 265 9.999999E2
276 276 1.0625E3
277 277 5.086957E3
277 285 8.695652E1
277 289 5E3
278 259 1.293661E1
278 278 2.755649E1
278 309 1.461988E1
279 241 3.174603E1
279 270 8.257638
279 279 4.000367E1
280 270 2.932551E1
280 280 2.932551E1
281 239 2.656042
281 281 2.656042
282 249 1.666667E3
282 267 1.449275E2
282 282 1.811594E3
283 86 1.388889E2
283 283 2.146465E2
283 292 7.575758E1
284 267 7.751938E1
284 269 2.083333E2
284 284 2.858527E2
285 254 1.754386E2
285 277 8.695652E1
285 285 2.623951E2
286 236 8.1103
286 286 8.1103
287 237 1.897533E1
287 287 1.897533E1
288 93 6.535947E1
288 288 1.274713E2
288 291 6.21118E1
289 241 3.003003E1
289 250 1.190476E2
289 260 1.190476E2
289 277 5E3
289 289 5.268125E3
290 256 5.235602E1
290 290 5.235602E1
291 86 4.901961E1
291 241 8.333333E2
291 288 6.21118E1
291 291 9.444647E2
292 93 3.184714E1
292 241 8.333333E2
292 283 7.575758E1
292 292 9.40938E2
293 86 5.714286E1
293 93 3.831417E1
293 241 1.388889E2
293 293 2.343459E2
294 86 5.714286E1
294 93 3.831417E1
294 241 1.388889E2
294 294 2.343459E2
295 295 3.831417E1
295 298 3.831417E1
296 296 1.010101E2
296 297 1.010101E2
297 296 1.010101E2
297 297 1.184317E2
297 299 1.74216E1
298 235 1.285347E1
298 245 2.347418E1
298 295 3.831417E1
298 298 7.464183E1
299 235 1.285347E1
299 241 1.328021E1
299 297 1.74216E1
299 299 4.355529E1
300 95 3.38983E1
300 265 1.757469E1
300 300 1.22395E2
300 696 7.092198E1
301 268 6.756757E1
301 301 1.537745E2
301 314 8.620689E1
302 86 6.896552E2
302 267 1.098901E2
302 302 7.995453E2
303 273 7.142858E2
303 303 1.428572E3
303 312 7.142858E2
304 304 1.380582E3
304 305 2.631579E2
304 315 2.083333E2
304 329 9.090909E2
305 304 2.631579E2
305 305 4.592363E2
305 315 1.960784E2
306 306 3.787879E1
306 322 3.787879E1
307 234 1.461988E1
307 266 1.234568E2
307 307 1.380767E2
308 308 8.130082E1
308 323 8.130082E1
309 237 6.968641E1
309 278 1.461988E1
309 309 8.430629E1
310 241 1.680672E1
310 246 2.386635E1
310 252 2.150537E1
310 310 6.217845E1
311 264 1.315789E2
311 311 2.005445E2
311 326 6.896552E1
312 274 3.030303E2
312 303 7.142858E2
312 312 1.295094E3
312 315 2.777778E2
313 252 1.351351E2
313 313 1.351351E2
314 262 8.474576E1
314 301 8.620689E1
314 314 1.709527E2
315 86 2.5E2
315 273 2.777778E2
315 304 2.083333E2
315 305 1.960784E2
315 312 2.777778E2
315 315 1.688798E3
315 316 3.225806E2
315 319 1.25E2
315 323 3.125E1
316 315 3.225806E2
316 316 3.601746E2
316 322 3.759399E1
317 250 8.333333E2
317 256 1E4
317 317 1.083333E4
318 94 1.106696E2
318 145 1.477105E1
318 270 3.436426E1
318 318 1.69825E2
318 704 1.002004E1
319 315 1.25E2
319 319 1.236111E3
319 329 1.111111E3
320 270 1.636661E1
320 320 1.636661E1
321 241 8.849557E1
321 256 8.064516E1
321 321 1.691407E2
322 93 3.215434E1
322 306 3.787879E1
322 316 3.759399E1
322 322 1.076271E2
323 93 3.48432E1
323 308 8.130082E1
323 315 3.125E1
323 323 1.47394E2
324 93 2.403846E1
324 324 5.189362E1
324 325 2.785515E1
325 93 1.440922E1
325 94 7.604562E1
325 324 2.785515E1
325 325 1.1831E2
326 93 1.650165E1
326 311 6.896552E1
326 326 8.546717E1
327 241 8.928572E1
327 258 8.064516E1
327 327 1.699309E2
328 110 1E4
328 328 1E4
329 304 9.090909E2
329 319 1.111111E3
329 329 2.020202E3
330 330 2.409639
330 335 2.409639
331 331 8.810573E-1
331 336 8.810573E-1
332 332 1.666667
332 337 1.666667
333 333 2.608922
333 350 2.608922
334 334 1.446132
334 350 1.446132
335 330 2.409639
335 335 3.026479E1
335 337 2.785515E1
336 331 8.810573E-1
336 336 2.182724E2
336 337 2.173913E2
337 332 1.666667
337 335 2.785515E1
337 336 2.173913E2
337 337 2.609173E2
337 338 3.840246
337 339 3.955696
337 340 6.208189
338 337 3.840246
338 338 1.908415E1
338 340 1.52439E1
339 337 3.955696
339 339 1.91996E1
339 340 1.52439E1
340 337 6.208189
340 338 1.52439E1
340 339 1.52439E1
340 340 5.970203E1
340 341 8.1103
340 342 1.489573E1
341 340 8.1103
341 341 2.088169E1
341 342 1.277139E1
342 340 1.489573E1
342 341 1.277139E1
342 342 6.67209E1
342 343 5.675369
342 344 1.071237E1
342 345 4.215851
342 370 1.845018E1
343 342 5.675369
343 343 1.514507E1
343 346 9.469697
344 342 1.071237E1
344 344 2.810368E1
344 346 1.73913E1
345 342 4.215851
345 345 2.663738E1
345 346 2.242153E1
346 343 9.469697
346 344 1.73913E1
346 345 2.242153E1
346 346 1.025212E2
346 347 1.408451E1
346 349 2.070393E1
346 367 1.845018E1
347 346 1.408451E1
347 347 5.457034E1
347 348 4.048583E1
348 347 4.048583E1
348 348 7.909587E1
348 349 3.861004E1
349 346 2.070393E1
349 348 3.861004E1
349 349 8.358582E1
349 350 2.427184E1
350 333 2.608922
350 334 1.446132
350 349 2.427184E1
350 350 2.83269E1
351 351 7.374631
351 366 7.374631
352 352 1.491256E1
352 353 5.289326
352 408 2.934273
352 409 6.688963
353 352 5.289326
353 353 1.704893E1
353 363 3.816794
353 382 7.942812
354 354 2.897867E1
354 382 6.199628
354 383 2.277904E1
355 355 2.164971
355 375 2.164971
356 356 1.359556E1
356 383 5.344736
356 398 8.250825
357 357 1.307306
357 394 5.700604E-1
357 395 7.372456E-1
358 358 4.694836E1
358 479 4.694836E1
359 359 1.855447E1
359 474 1.855447E1
360 360 8.05153
360 715 8.05153
361 361 5.094518E2
361 479 9.451796
361 480 5E2
362 362 2.24661E1
362 403 1.103753E1
362 714 1.142857E1
363 353 3.816794
363 363 9.666204E1
363 364 9.149131
363 365 9.149131
363 373 9.149131
363 374 9.149131
363 388 3.496503E1
363 395 4.926108
363 407 1.075847E1
363 474 5.599104
364 363 9.149131
364 364 9.149131
365 363 9.149131
365 365 9.149131
366 142 1.515152E1
366 237 4.004806
366 351 7.374631
366 366 4.186838E1
366 699 1.533742E1
367 110 1.077006E1
367 111 7.27802
367 346 1.845018E1
367 367 3.073316E2
367 368 1.041667E2
367 372 1.666667E2
368 111 7.824726
368 367 1.041667E2
368 368 1.119914E2
369 369 7.29927E1
369 371 7.29927E1
370 110 1.308045E1
370 112 8.624407
370 342 1.845018E1
370 370 4.015504E1
371 369 7.29927E1
371 371 2.396594E2
371 372 1.666667E2
372 367 1.666667E2
372 371 1.666667E2
372 372 3.333333E2
373 363 9.149131
373 373 9.149131
374 363 9.149131
374 374 9.149131
375 355 2.164971
375 375 1.22031E2
375 376 2.019386
375 377 2.019386
375 378 2.019386
375 379 1.959632
375 380 1.959632
375 381 1.959632
375 389 1.058201E2
375 404 2.108815
376 375 2.019386
376 376 2.019386
377 375 2.019386
377 377 2.019386
378 375 2.019386
378 378 2.019386
379 375 1.959632
379 379 1.959632
380 375 1.959632
380 380 1.959632
381 375 1.959632
381 381 1.959632
382 353 7.942812
382 354 6.199628
382 382 1.414244E1
383 354 2.277904E1
383 356 5.344736
383 383 8.426632E1
383 384 8.143323
383 385 8.032128
383 386 1.650165E1
383 387 1.650165E1
383 392 6.963788
384 383 8.143323
384 384 8.143323
385 383 8.032128
385 385 8.032128
386 383 1.650165E1
386 386 1.650165E1
387 383 1.650165E1
387 387 1.650165E1
388 363 3.496503E1
388 388 9.403941E1
388 389 2.298851E1
388 390 7.077141
388 391 7.077141
388 395 4.739336
388 401 9.416196
388 405 7.77605
389 375 1.058201E2
389 388 2.298851E1
389 389 1.288086E2
390 388 7.077141
390 390 7.077141
391 388 7.077141
391 391 7.077141
392 383 6.963788
392 392 1.041564E1
392 395 3.451847
393 393 3.225806E1
393 474 1.612903E1
393 479 1.612903E1
394 357 5.700604E-1
394 394 2.016254E1
394 395 1.959248E1
395 357 7.372456E-1
395 363 4.926108
395 388 4.739336
395 392 3.451847
395 394 1.959248E1
395 395 7.859075E2
395 398 7.633588E1
395 399 7.751938E1
395 405 1.071811E1
395 406 4.737875E2
395 407 8.928572E1
395 474 2.48139E1
396 396 9.703087E1
396 406 8.643042E1
396 716 5.336179
396 717 5.264266
397 397 6.904763E2
397 716 3.571429E2
397 717 3.333333E2
398 356 8.250825
398 395 7.633588E1
398 398 8.45867E1
399 395 7.751938E1
399 399 7.751938E1
400 400 1E4
400 473 1E4
401 388 9.416196
401 401 2.910979E1
401 402 8.038586
401 714 1.165501E1
402 401 8.038586
402 402 8.038586
403 362 1.103753E1
403 403 1.103753E1
404 375 2.108815
404 404 5.644883
404 409 3.536068
405 388 7.77605
405 395 1.071811E1
405 405 1.849416E1
406 395 4.737875E2
406 396 8.643042E1
406 406 1.059118E4
406 479 2.397024E1
406 483 1E4
406 716 3.519887
406 717 3.472463
407 363 1.075847E1
407 395 8.928572E1
407 407 1.000442E2
408 352 2.934273
408 408 2.934273
409 352 6.688963
409 404 3.536068
409 409 1.022503E1
410 410 1.015549E4
410 411 1E4
410 412 8.019246E1
410 731 7.530121E1
411 15 1.574803E3
411 410 1E4
411 411 1.174183E4
411 476 4.889976E1
411 477 6.837394E1
411 486 4.975124E1
412 38 5.602555
412 410 8.019246E1
412 412 1.117064E2
412 413 9.425071
412 478 3.253196
412 709 6.465378E-1
412 724 1.258653E1
413 14 1.295337E1
413 99 2.390629
413 412 9.425071
413 413 2.476907E1
414 414 3.190159E2
414 431 2.272727E2
414 433 9.174312E1
415 415 3.190159E2
415 432 2.272727E2
415 433 9.174312E1
416 79 4.807692E1
416 416 3.620423E2
416 433 9.174312E1
416 462 2.222222E2
417 79 4.807692E1
417 417 3.620423E2
417 433 9.174312E1
417 462 2.222222E2
418 418 3.925825E1
418 419 9.389671
418 545 2.986858E1
419 418 9.389671
419 419 9.389671
420 420 1.716987E3
420 421 3.875969E1
420 422 1.156069E1
420 470 1.666667E3
421 420 3.875969E1
421 421 3.875969E1
422 420 1.156069E1
422 422 1.156069E1
423 423 6.069609E2
423 425 5.263158E2
423 516 8.064516E1
424 424 2.934111E2
424 466 2.12766E2
424 516 8.064516E1
425 54 1.190476E2
425 423 5.263158E2
425 425 9.059952E2
425 426 7.352941E1
425 427 3.558719E1
425 466 1.515152E2
426 425 7.352941E1
426 426 5.36205E2
426 437 4.545455E2
426 519 8.130081
427 425 3.558719E1
427 427 3.558719E1
428 428 3.059395E2
428 429 2.5E1
428 430 3.703704E1
428 431 1.219512E2
428 432 1.219512E2
429 428 2.5E1
429 429 2.5E1
430 428 3.703704E1
430 430 3.703704E1
431 414 2.272727E2
431 428 1.219512E2
431 431 3.49224E2
432 415 2.272727E2
432 428 1.219512E2
432 432 3.49224E2
433 414 9.174312E1
433 415 9.174312E1
433 416 9.174312E1
433 417 9.174312E1
433 433 6.020284E2
433 434 3.205128E1
433 510 1.818182E2
433 564 2.118644E1
434 433 3.205128E1
434 434 3.205128E1
435 435 8.368201E1
435 510 8.368201E1
436 436 2.145923E1
436 534 2.145923E1
437 426 4.545455E2
437 437 5.482252E2
437 438 4.56621E1
437 439 6.222775
437 441 1.212121E1
437 458 2.967359E1
438 437 4.56621E1
438 438 4.56621E1
439 437 6.222775
439 439 2.20206E1
439 440 1.116819E1
439 460 4.62963
440 439 1.116819E1
440 440 1.116819E1
441 437 1.212121E1
441 441 4.541016E1
441 442 3.328895E1
442 441 3.328895E1
442 442 3.328895E1
443 443 1.625394E3
443 444 7.352941E1
443 470 1.111111E3
443 506 1.550388E2
443 516 2.857143E2
444 443 7.352941E1
444 444 1.323529E3
444 458 1.25E3
445 54 1.845238E2
445 445 2.983669E2
445 446 4.672897E1
445 447 6.71141E1
446 445 4.672897E1
446 446 4.672897E1
447 54 1.470588E2
447 80 4.761905E2
447 445 6.71141E1
447 447 1.251698E3
447 449 7.352941E1
447 537 4.878049E2
448 81 1.587302E2
448 448 1.78454E2
448 464 1.972387E1
449 447 7.352941E1
449 449 2.073529E3
449 450 2E3
450 81 1.754386E2
450 449 2E3
450 450 2.196806E3
450 451 2.136752E1
451 450 2.136752E1
451 451 2.136752E1
452 78 1.010101E2
452 80 9.803922E1
452 452 2.373635E2
452 453 3.831417E1
453 452 3.831417E1
453 453 3.831417E1
454 79 3.773585E2
454 454 4.133297E2
454 455 3.597123E1
455 454 3.597123E1
455 455 3.597123E1
456 456 1.055727E2
456 457 2.427184E1
456 564 8.130082E1
457 456 2.427184E1
457 457 2.427184E1
458 437 2.967359E1
458 444 1.25E3
458 458 1.323682E3
458 459 1.869159E1
458 460 2.531645E1
459 458 1.869159E1
459 459 1.869159E1
460 439 4.62963
460 458 2.531645E1
460 460 5.168521E1
460 461 2.173913E1
461 460 2.173913E1
461 461 2.173913E1
462 416 2.222222E2
462 417 2.222222E2
462 462 4.929882E2
462 463 4.854369E1
463 462 4.854369E1
463 463 4.854369E1
464 81 1.872659E1
464 448 1.972387E1
464 464 8.629654E1
464 465 2.688172E1
464 545 2.096436E1
465 464 2.688172E1
465 465 9.26712E1
465 968 6.578947E1
466 424 2.12766E2
466 425 1.515152E2
466 466 4.140324E2
466 467 4.975124E1
467 466 4.975124E1
467 467 4.975124E1
468 468 1E4
468 544 1E4
469 469 1E4
469 543 1E4
470 420 1.666667E3
470 443 1.111111E3
470 470 2.777778E3
471 471 7.130248E1
471 472 2.467105E1
471 478 1.101079E1
471 481 2.51756
471 492 2.24341
471 707 5.08647
471 708 2.57732E1
472 471 2.467105E1
472 472 2.467105E1
473 400 1E4
473 473 1.000409E4
473 474 4.095004
474 359 1.855447E1
474 363 5.599104
474 393 1.612903E1
474 395 2.48139E1
474 473 4.095004
474 474 6.919151E1
475 3 8.715357
475 475 3.194728E1
475 710 1.228501E1
475 724 1.094691E1
476 411 4.889976E1
476 476 8.126222E1
476 482 3.236246E1
477 411 6.837394E1
477 477 2.287589E2
477 478 1.603849E2
478 103 1E4
478 412 3.253196
478 471 1.101079E1
478 477 1.603849E2
478 478 1.019593E4
478 708 2.067495E1
478 709 6.028454E-1
479 358 4.694836E1
479 361 9.451796
479 393 1.612903E1
479 406 2.397024E1
479 479 1.189729E2
479 480 9.02527
479 714 8.410429
479 726 5.037783
480 361 5E2
480 479 9.02527
480 480 5.090252E2
481 471 2.51756
481 481 2.689223E1
481 484 4.597701
481 485 4.425562
481 491 2.892765
481 492 3.441512
481 733 9.017133
482 476 3.236246E1
482 482 1.111026E2
482 483 7.874016E1
483 406 1E4
483 482 7.874016E1
483 483 1.007874E4
484 481 4.597701
484 484 2.231696E1
484 709 1.070664E1
484 733 7.012623
485 481 4.425562
485 485 1.273121E1
485 491 8.305648
486 44 1E4
486 411 4.975124E1
486 486 1.01013E4
486 731 5.154639E1
487 487 5.743825
487 491 5.743825
488 488 5.743825
488 491 5.743825
489 489 6.968641
489 492 6.968641
490 490 7.077141
490 492 7.077141
491 481 2.892765
491 485 8.305648
491 487 5.743825
491 488 5.743825
491 491 4.156859E1
491 492 1.691332E1
491 734 1.969202
492 471 2.24341
492 481 3.441512
492 489 6.968641
492 490 7.077141
492 491 1.691332E1
492 492 1.003664E4
492 707 1E4
493 493 1.123596E1
493 707 1.123596E1
494 494 1.219512E2
494 505 1.219512E2
495 495 4.62963E1
495 513 4.62963E1
496 496 3.030303E2
496 521 3.030303E2
497 497 1.041667E2
497 522 1.041667E2
498 498 2.008032E1
498 523 2.008032E1
499 499 8.733171E1
499 500 3.937008E1
499 819 2.398081E1
499 914 2.398081E1
500 499 3.937008E1
500 500 3.937008E1
501 501 2.279827E2
501 502 3.319632E1
501 505 1.858736E1
501 507 5.813953E1
501 521 3.267974E1
501 531 4.255319E1
501 536 4.282655E1
502 501 3.319632E1
502 502 1.208391E2
502 607 3.333334E1
502 609 1.102536E1
502 613 2.73224E1
502 937 1.596169E1
503 503 1.215155E2
503 507 4.291846E1
503 513 5.555556E1
503 553 2.304147E1
504 121 5.102041E1
504 213 7.352941E1
504 504 1.959784E2
504 505 7.142857E1
505 494 1.219512E2
505 501 1.858736E1
505 504 7.142857E1
505 505 2.925258E2
505 521 4.149377E1
505 526 1.760563E1
505 578 2.145923E1
506 48 1E4
506 443 1.550388E2
506 506 1.015504E4
507 501 5.813953E1
507 503 4.291846E1
507 507 2.957078E2
507 508 1.203369E1
507 509 5.30504E1
507 515 2.04918E1
507 521 3.90625E1
507 522 4.016064E1
507 547 2.985075E1
508 507 1.203369E1
508 508 2.650443E2
508 619 1.754386E2
508 639 5.649718E1
508 781 2.107482E1
509 507 5.30504E1
509 509 9.12198E2
509 511 1.20919E1
509 515 8.264463E1
509 520 2.380952E2
509 534 5.263158E2
510 433 1.818182E2
510 435 8.368201E1
510 510 2.646453E3
510 520 2.380952E3
511 509 1.20919E1
511 511 2.978859E1
511 914 6.779661
511 926 1.091703E1
512 512 9.90099E1
512 520 9.90099E1
513 495 4.62963E1
513 503 5.555556E1
513 513 1.853068E2
513 514 9.380863
513 540 7.407407E1
514 513 9.380863
514 514 2.832451E1
514 790 1.128668E1
514 795 7.656968
515 507 2.04918E1
515 509 8.264463E1
515 515 6.881429E2
515 516 4.166667E2
515 517 1.034126E1
515 518 1.818182E1
515 536 8.064516E1
515 547 5.91716E1
516 423 8.064516E1
516 424 8.064516E1
516 443 2.857143E2
516 515 4.166667E2
516 516 8.636713E2
517 515 1.034126E1
517 517 2.753012E1
517 993 1.295337E1
517 995 4.235493
518 515 1.818182E1
518 518 1.818182E1
519 426 8.130081
519 519 9.304359E1
519 957 1.642036E1
519 967 6.849315E1
520 509 2.380952E2
520 510 2.380952E3
520 512 9.90099E1
520 520 2.718058E3
521 496 3.030303E2
521 501 3.267974E1
521 505 4.149377E1
521 507 3.90625E1
521 521 5.20433E2
521 522 1.041667E2
522 497 1.041667E2
522 507 4.016064E1
522 521 1.041667E2
522 522 2.604988E2
522 523 1.20048E1
523 498 2.008032E1
523 522 1.20048E1
523 523 2.475269E2
523 582 1.960784E2
523 770 3.675795
523 779 1.160093E1
523 802 4.086637
524 524 2.205431E2
524 533 1.587302E2
524 985 4.385965E1
524 1001 1.795332E1
525 525 7.874016E1
525 568 7.874016E1
526 505 1.760563E1
526 526 7.17446E1
526 527 2.145923E1
526 531 3.267974E1
527 526 2.145923E1
527 527 1.497379E2
527 921 4.553734
527 933 5.621135
527 1068 3.527337E1
527 1073 3.067485E1
527 1074 2.583979E1
527 1124 2.631579E1
528 528 3.362918E2
528 529 1.960784E2
528 809 5.617978E1
528 819 8.403362E1
529 528 1.960784E2
529 529 1.960784E2
530 530 2.617177E2
530 578 9.708738
530 583 9.259259
530 780 5.390836
530 797 4.800768
530 803 2.325581E2
531 501 4.255319E1
531 526 3.267974E1
531 531 2.041382E2
531 532 5.371729E1
531 534 7.518797E1
532 531 5.371729E1
532 532 5.278732E2
532 554 3.597123E1
532 647 1.136364E2
532 652 9.13242E1
532 663 4.587156E1
532 668 6.329114E1
532 672 1.297017E1
532 673 3.278688E1
532 677 2.824859E1
532 908 1.375516E1
532 912 1.848429E1
532 918 6.426735
532 1047 1.138952E1
533 524 1.587302E2
533 533 1.587302E2
534 436 2.145923E1
534 509 5.263158E2
534 531 7.518797E1
534 534 7.409194E2
534 535 2.145923E1
534 536 5.649718E1
534 542 4E1
535 534 2.145923E1
535 535 3.748487E1
535 885 1.602564E1
536 501 4.282655E1
536 515 8.064516E1
536 534 5.649718E1
536 536 6.98459E2
536 537 4.166667E2
536 538 2.114165E1
536 539 1.818182E1
536 542 6.25E1
537 447 4.878049E2
537 536 4.166667E2
537 537 9.044716E2
538 536 2.114165E1
538 538 1.059105E2
538 809 3.378378E1
538 914 7.002801
538 948 1.117318E1
538 953 1.048768E1
538 964 2.232143E1
539 536 1.818182E1
539 539 1.818182E1
540 513 7.407407E1
540 540 9.55333E1
540 800 2.145923E1
541 541 1.39958E1
541 543 1.39958E1
542 534 4E1
542 536 6.25E1
542 542 2.569678E2
542 543 4.291846E1
542 545 2.145923E1
542 546 9.00901E1
543 469 1E4
543 541 1.39958E1
543 542 4.291846E1
543 543 1.00751E4
543 544 1.818182E1
544 468 1E4
544 543 1.818182E1
544 544 1.001818E4
545 418 2.986858E1
545 464 2.096436E1
545 542 2.145923E1
545 545 7.229217E1
546 125 1E2
546 542 9.00901E1
546 546 1.900901E2
547 507 2.985075E1
547 515 5.91716E1
547 547 8.902235E1
548 548 7.942812
548 551 7.942812
549 549 8.532423
549 563 8.532423
550 550 3.533569E1
550 566 3.533569E1
551 548 7.942812
551 551 6.562718E1
551 552 1.751313E1
551 555 1.547988E1
551 566 2.469136E1
552 551 1.751313E1
552 552 3.510244E1
552 558 3.012048
552 560 1.457726E1
553 34 1.317523E1
553 503 2.304147E1
553 553 6.798992E1
553 561 2.673797E1
553 710 5.035247
554 532 3.597123E1
554 554 3.516514E2
554 574 9.345794E1
554 909 2.222222E2
555 551 1.547988E1
555 555 5.873003E1
555 556 1.626016E1
555 557 8.591065
555 564 1.09529E1
555 566 7.446017
556 555 1.626016E1
556 556 1.506284E2
556 559 6.493507E1
556 579 7.886436
556 621 4.504505E1
556 903 1.650165E1
557 555 8.591065
557 557 2.514736E1
557 558 1.655629E1
558 552 3.012048
558 557 1.655629E1
558 558 1.033103E2
558 979 4.599816
558 980 1.240695E1
558 986 1.20919E1
558 989 1.44405E1
558 991 1.386001E1
558 998 8.061266
558 1000 1.828154E1
559 556 6.493507E1
559 559 7.391173E1
559 579 8.976661
560 552 1.457726E1
560 560 2.004772E1
560 980 5.470459
561 553 2.673797E1
561 561 2.006328E2
561 562 1.351351E2
561 566 3.875969E1
562 561 1.351351E2
562 562 1.435954E2
562 563 8.460238
563 1 5.730659
563 2 5.730659
563 549 8.532423
563 562 8.460238
563 563 3.184037E1
563 567 3.386387
564 433 2.118644E1
564 456 8.130082E1
564 555 1.09529E1
564 564 1.134402E2
565 565 5.017561
565 567 5.017561
566 11 9.718173
566 550 3.533569E1
566 551 2.469136E1
566 555 7.446017
566 561 3.875969E1
566 566 1.201828E2
566 567 4.231908
567 563 3.386387
567 565 5.017561
567 566 4.231908
567 567 1.263586E1
568 525 7.874016E1
568 568 1.640549E2
568 773 6.574622
568 795 7.874016E1
569 569 2.008032E1
569 785 2.008032E1
570 570 1.470588E1
570 579 1.470588E1
571 571 1.142857E1
571 776 1.142857E1
572 572 1.485884E1
572 783 1.485884E1
573 573 1.851852E1
573 796 1.851852E1
574 554 9.345794E1
574 574 9.345794E1
575 575 4E2
575 581 4E2
576 576 2.374311E1
576 582 1.331558E1
576 784 1.042753E1
577 577 8.972149E2
577 786 7.692308E2
577 802 8.93655
577 1090 1.190476E2
578 505 2.145923E1
578 530 9.708738
578 578 4.598278E1
578 780 1.481481E1
579 556 7.886436
579 559 8.976661
579 570 1.470588E1
579 579 8.446193E1
579 580 2.915452
579 782 2.04918E1
579 783 7.85546
579 895 1.821494E1
579 927 3.4153
580 579 2.915452
580 580 1.674671E1
580 587 1.383126E1
581 575 4E2
581 581 4.27649E2
581 776 9.65717
581 796 4.690432
581 797 7.42942
581 799 5.87199
582 523 1.960784E2
582 576 1.331558E1
582 582 2.09394E2
583 530 9.259259
583 583 2.998347E1
583 780 1.303781E1
583 803 7.686395
584 584 5.225406E1
584 585 4.56621E1
584 1068 6.591958
585 584 4.56621E1
585 585 1.218822E2
585 607 3.891051E1
585 613 3.40136E1
585 659 3.295979
586 586 2.538071
586 597 2.538071
587 580 1.383126E1
587 587 6.682627E1
587 598 1.408451E1
587 614 3.891051E1
588 588 1.000413E1
588 595 5.065856
588 597 4.938272
589 589 6.075334
589 591 6.075334
590 590 1.177992E1
590 595 4.405286
590 616 7.374631
591 589 6.075334
591 591 1.586007E1
591 601 9.784736
592 592 7.564296
592 611 7.564296
593 593 1.053741E1
593 604 1.053741E1
594 594 6.369427E1
594 600 6.369427E1
595 588 5.065856
595 590 4.405286
595 595 9.471143
596 596 2.207258E1
596 597 4.837929
596 603 6.493506
596 607 1.074114E1
597 586 2.538071
597 588 4.938272
597 596 4.837929
597 597 1.231427E1
598 587 1.408451E1
598 598 1.408451E1
599 599 6.038647
599 1105 6.038647
600 594 6.369427E1
600 600 3.461801E2
600 601 4.708098
600 782 2.777778E2
601 591 9.784736
601 600 4.708098
601 601 2.391828E1
601 602 5.24659
601 633 4.178855
602 601 5.24659
602 602 1.019709E1
602 640 4.950495
603 596 6.493506
603 603 4.917807E1
603 604 4.837929
603 605 1.096491E1
603 1092 2.688172E1
604 593 1.053741E1
604 603 4.837929
604 604 3.079998E1
604 612 7.843137
604 615 7.581501
605 603 1.096491E1
605 605 3.129012E1
605 607 2.03252E1
606 606 3.743916
606 610 3.743916
607 502 3.333334E1
607 585 3.891051E1
607 596 1.074114E1
607 605 2.03252E1
607 607 1.033102E2
608 608 4.410909E1
608 610 4.115226E1
608 1101 2.95683
609 502 1.102536E1
609 609 2.031041E1
609 1068 9.285051
610 606 3.743916
610 608 4.115226E1
610 610 4.489618E1
611 592 7.564296
611 611 1.935675E1
611 615 1.179245E1
612 604 7.843137
612 612 7.843137
613 502 2.73224E1
613 585 3.40136E1
613 613 6.133601E1
614 587 3.891051E1
614 614 3.891051E1
615 604 7.581501
615 611 1.179245E1
615 615 1.937395E1
616 590 7.374631
616 616 7.374631
617 617 5.102041E1
617 1123 5.102041E1
618 618 2.757334E1
618 629 1.009082E1
618 639 1.748252E1
619 508 1.754386E2
619 619 1.804386E2
619 620 5
620 619 5
620 620 7.089864
620 632 2.089864
621 556 4.504505E1
621 621 1.372607E2
621 624 8.77193E1
621 1061 4.496403
622 622 1.246672E1
622 625 1.067236E1
622 641 1.794366
623 623 1.84185E1
623 639 1.037344E1
623 642 8.045053
624 621 8.77193E1
624 624 1.107608E2
624 638 2.304147E1
625 622 1.067236E1
625 625 1.712814E1
625 635 6.455778
626 626 8.504332
626 634 5.627462
626 635 2.87687
627 627 1.582279E1
627 639 1.582279E1
628 628 4.310402E1
628 631 3.322259E1
628 642 9.881423
629 618 1.009082E1
629 629 5.125033E3
629 637 5E3
629 643 1.149425E2
630 630 2.786917E1
630 631 5.931198
630 635 4.347826
630 796 1.759015E1
631 628 3.322259E1
631 630 5.931198
631 631 3.915379E1
632 620 2.089864
632 632 1.068662E1
632 634 6.830601
632 641 1.76616
633 601 4.178855
633 633 4.178855
634 626 5.627462
634 632 6.830601
634 634 1.245806E1
635 625 6.455778
635 626 2.87687
635 630 4.347826
635 635 1.868799E1
635 636 5.007511
636 635 5.007511
636 636 8.039652
636 1094 3.03214
637 629 5E3
637 637 5E3
638 624 2.304147E1
638 638 2.304147E1
639 508 5.649718E1
639 618 1.748252E1
639 623 1.037344E1
639 627 1.582279E1
639 639 1.001759E2
640 602 4.950495
640 640 4.950495
641 622 1.794366
641 632 1.76616
641 641 3.560526
642 623 8.045053
642 628 9.881423
642 642 1.792648E1
643 629 1.149425E2
643 643 1.149425E2
644 644 8.781362E1
644 652 5.555556E1
644 662 3.225806E1
645 645 3.223264E1
645 650 2.680965E1
645 1060 5.422993
646 646 3.523614E1
646 664 3.04878E1
646 1051 4.748338
647 532 1.136364E2
647 647 1.324334E2
647 1041 1.879699E1
648 648 8.75595E1
648 678 6.493507E1
648 1042 2.262444E1
649 649 8.950495E1
649 672 4E1
649 1055 4.950495E1
650 645 2.680965E1
650 650 4.37588E1
650 653 1.694915E1
651 651 3.583253E1
651 670 1.512859E1
651 1045 2.070393E1
652 532 9.13242E1
652 644 5.555556E1
652 652 4.092357E3
652 653 4.440497
652 663 3.333333E3
652 666 9.708738E1
652 668 1.587302E2
652 676 1.855288E1
652 1054 3.333333E2
653 650 1.694915E1
653 652 4.440497
653 653 3.19941E1
653 1048 1.060445E1
654 654 1.847682E2
654 677 3.984064E1
654 1057 1.449275E2
655 655 3.306451E2
655 657 8.064516E1
655 665 2.5E2
656 656 4.040404
656 678 4.040404
657 655 8.064516E1
657 657 1.88172E2
657 1055 1.075269E2
658 658 2.982456E2
658 671 1.315789E2
658 672 1.666667E2
659 585 3.295979
659 659 6.579597E1
659 677 6.25E1
660 660 3.660525E1
660 1050 1.703578E1
660 1058 1.956947E1
661 661 5E2
661 677 5E2
662 644 3.225806E1
662 662 9.03976E1
662 672 5.813953E1
663 532 4.587156E1
663 652 3.333333E3
663 663 3.379205E3
664 646 3.04878E1
664 664 6.00736E1
664 1056 2.95858E1
665 655 2.5E2
665 665 3.400901E2
665 682 9.00901E1
666 652 9.708738E1
666 666 6.234032E2
666 681 5.263158E2
667 667 5.494505
667 1051 5.494505
668 532 6.329114E1
668 652 1.587302E2
668 668 2.220213E2
669 669 4E2
669 679 6.666667E1
669 1058 3.333333E2
670 651 1.512859E1
670 670 6.918265E1
670 1121 5.405405E1
671 658 1.315789E2
671 671 1.847704E2
671 679 5.319149E1
672 532 1.297017E1
672 649 4E1
672 658 1.666667E2
672 662 5.813953E1
672 672 6.19955E2
672 673 2.427184E1
672 682 1.17647E2
672 1049 4E1
672 1050 1.680672E1
672 1052 1.834863E1
672 1058 1.984127E1
672 1121 1.052632E2
673 532 3.278688E1
673 672 2.427184E1
673 673 5.705873E1
674 674 3.405986E2
674 675 3.225806E2
674 1046 1.801802E1
675 674 3.225806E2
675 675 3.534448E2
675 1050 3.08642E1
676 652 1.855288E1
676 676 1.72399E2
676 1043 1.538461E2
677 532 2.824859E1
677 654 3.984064E1
677 659 6.25E1
677 661 5E2
677 677 9.455062E2
677 678 4.347826
677 1041 6.666667E1
677 1059 2.439024E2
678 648 6.493507E1
678 656 4.040404
678 677 4.347826
678 678 7.33233E1
679 669 6.666667E1
679 671 5.319149E1
679 679 1.198582E2
680 680 1.035542E2
680 1047 4.608295E1
680 1057 5.747126E1
681 666 5.263158E2
681 681 1.637427E3
681 1053 1.111111E3
682 665 9.00901E1
682 672 1.17647E2
682 682 2.077372E2
683 683 1.579031
683 689 1.579031
684 684 1.923077
684 689 1.923077
685 685 1.764913
685 691 1.764913
686 112 2.857143E2
686 686 3.285128E2
686 687 1.834863E1
686 688 2.444988E1
687 686 1.834863E1
687 687 1.834863E1
688 686 2.444988E1
688 688 7.12075E1
688 689 4.409431
688 694 8.312551
688 699 3.82995
688 700 7.374631
688 702 2.283105E1
689 683 1.579031
689 684 1.923077
689 688 4.409431
689 689 9.846897
689 693 1.935359
690 113 1E4
690 690 1.017892E4
690 691 4.99002
690 694 1.612903E2
690 697 1.264223E1
691 685 1.764913
691 690 4.99002
691 691 1.004088E4
691 692 1E4
691 695 3.412969E1
692 691 1E4
692 692 1E4
693 689 1.935359
693 693 3.606505E1
693 695 3.412969E1
694 688 8.312551
694 690 1.612903E2
694 694 1.879515E2
694 695 1.834863E1
695 691 3.412969E1
695 693 3.412969E1
695 694 1.834863E1
695 695 8.660801E1
696 300 7.092198E1
696 696 7.092198E1
697 690 1.264223E1
697 697 2.345304E1
697 698 1.081081E1
698 697 1.081081E1
698 698 1.081081E1
699 366 1.533742E1
699 688 3.82995
699 699 2.71355E1
699 700 7.968128
700 688 7.374631
700 699 7.968128
700 700 1.534276E1
701 111 1E4
701 701 1E4
702 237 2.797203E1
702 688 2.283105E1
702 702 5.080308E1
703 145 1E4
703 703 1E4
704 96 1.085776E1
704 318 1.002004E1
704 704 2.08778E1
705 96 1E4
705 705 1E4
706 706 1.104972E1
706 707 1.104972E1
707 471 5.08647
707 492 1E4
707 493 1.123596E1
707 706 1.104972E1
707 707 1.006762E4
707 726 4.024145E1
708 471 2.57732E1
708 478 2.067495E1
708 708 7.890948E1
708 709 3.246134E1
709 412 6.465378E-1
709 478 6.028454E-1
709 484 1.070664E1
709 708 3.246134E1
709 709 4.441736E1
710 35 1E4
710 475 1.228501E1
710 553 5.035247
710 710 1.001732E4
711 36 1E4
711 711 1.002415E4
711 724 1.17096E1
711 734 1.243781E1
712 712 1.078749E1
712 714 1.078749E1
713 713 1.092896E1
713 714 1.092896E1
714 362 1.142857E1
714 401 1.165501E1
714 479 8.410429
714 712 1.078749E1
714 713 1.092896E1
714 714 1.022441E2
714 715 2.508151E1
714 734 2.39521E1
715 360 8.05153
715 714 2.508151E1
715 715 3.313305E1
716 396 5.336179
716 397 3.571429E2
716 406 3.519887
716 716 3.705403E2
716 717 4.541326
717 396 5.264266
717 397 3.333333E2
717 406 3.472463
717 716 4.541326
717 717 3.466114E2
718 718 1.451379E1
718 724 1.451379E1
719 719 1.451379E1
719 724 1.451379E1
720 720 1.451379E1
720 724 1.451379E1
721 721 1.451379E1
721 724 1.451379E1
722 722 1.451379E1
722 724 1.451379E1
723 723 1.451379E1
723 724 1.451379E1
724 8 2.60078E1
724 412 1.258653E1
724 475 1.094691E1
724 711 1.17096E1
724 718 1.451379E1
724 719 1.451379E1
724 720 1.451379E1
724 721 1.451379E1
724 722 1.451379E1
724 723 1.451379E1
724 724 1.568111E2
724 725 2.262444
724 734 6.215041
725 100 3.558719E1
725 724 2.262444
725 725 3.784963E1
726 479 5.037783
726 707 4.024145E1
726 726 4.527923E1
727 727 2.277734E1
727 728 1.437174
727 731 2.134016E1
728 727 1.437174
728 728 2.277734E1
728 731 2.134016E1
729 729 2.254354E1
729 730 5.025378E-1
729 731 2.2041E1
730 729 5.025378E-1
730 730 2.263133E1
730 731 2.212879E1
731 410 7.530121E1
731 486 5.154639E1
731 727 2.134016E1
731 728 2.134016E1
731 729 2.2041E1
731 730 2.212879E1
731 731 2.136977E2
732 100 2.369107
732 732 2.369107
733 481 9.017133
733 484 7.012623
733 733 1.602976E1
734 491 1.969202
734 711 1.243781E1
734 714 2.39521E1
734 724 6.215041
734 734 4.457415E1
735 735 3.749531
735 743 3.749531
736 736 5.060729
736 742 5.060729
737 737 1.041667E1
737 743 1.041667E1
738 738 2.525253E1
738 742 2.525253E1
739 739 6.666667
739 744 6.666667
740 135 1E4
740 740 1.011913E4
740 741 2.906977E1
740 742 9.416196
740 744 8.064516E1
741 740 2.906977E1
741 741 6.638967E1
741 749 3.012048E1
741 759 7.199424
742 132 2.141328E1
742 736 5.060729
742 738 2.525253E1
742 740 9.416196
742 742 9.715186E1
742 743 3.600912E1
743 143 2.090738
743 161 6.17284
743 222 2.668802
743 735 3.749531
743 737 1.041667E1
743 742 3.600912E1
743 743 6.514973E1
743 746 4.042037
744 739 6.666667
744 740 8.064516E1
744 744 1.206452E2
744 756 3.333334E1
745 143 1E4
745 745 1.000453E4
745 746 4.531038
746 743 4.042037
746 745 4.531038
746 746 8.573075
747 747 8.311967E1
747 748 1.55521E1
747 758 6.756757E1
748 747 1.55521E1
748 748 3.575412E1
748 757 2.020202E1
749 741 3.012048E1
749 749 1.094856E2
749 753 7.936508E1
750 750 3.615381E1
750 751 9.199632
750 759 2.695418E1
751 750 9.199632
751 751 9.199632
752 752 1.423959E1
752 757 1.020408E1
752 762 4.035512
753 749 7.936508E1
753 753 7.936508E1
754 754 1.017248E2
754 757 4.255319E1
754 765 5.91716E1
755 172 9.416196
755 755 3.441619E1
755 764 2.5E1
756 744 3.333334E1
756 756 6.114975E1
756 757 2.781641E1
757 748 2.020202E1
757 752 1.020408E1
757 754 4.255319E1
757 756 2.781641E1
757 757 1.007757E2
758 747 6.756757E1
758 758 6.756757E1
759 741 7.199424
759 750 2.695418E1
759 759 3.41536E1
760 760 6.238303
760 761 6.238303
761 137 8.169934
761 760 6.238303
761 761 2.713861E1
761 766 4.730369
761 767 8
762 752 4.035512
762 762 8.519817
762 763 4.484305
763 762 4.484305
763 763 4.484305
764 755 2.5E1
764 764 2.5E1
765 754 5.91716E1
765 765 5.91716E1
766 761 4.730369
766 766 7.055951
766 768 2.325581
767 761 8
767 767 8
768 766 2.325581
768 768 8.877011
768 769 3.030303
768 772 3.521127
769 768 3.030303
769 769 3.030303
770 523 3.675795
770 770 1.000368E4
770 823 1E4
771 771 4.694836
771 772 4.694836
772 768 3.521127
772 771 4.694836
772 772 8.215962
773 568 6.574622
773 773 4.197304E1
773 774 9.191176
773 795 6.067961
773 801 5.646527
773 802 1.449275E1
774 773 9.191176
774 774 9.191176
775 775 8.797093E1
775 776 7.936508E1
775 781 8.605852
776 571 1.142857E1
776 581 9.65717
776 775 7.936508E1
776 776 1.45414E2
776 781 7.067138
776 796 2.511932
776 797 3.435246
776 1127 3.194888E1
777 777 2.434617E1
777 793 3.907777
777 795 5.797101
777 800 1.464129E1
778 778 2.751031E1
778 779 2.751031E1
779 523 1.160093E1
779 778 2.751031E1
779 779 5.263487E1
779 780 3.543586
779 787 9.980041
780 530 5.390836
780 578 1.481481E1
780 583 1.303781E1
780 779 3.543586
780 780 5.390431E1
780 797 2.540005
780 949 1.457726E1
781 508 2.107482E1
781 775 8.605852
781 776 7.067138
781 781 3.674781E1
782 579 2.04918E1
782 600 2.777778E2
782 782 3.110084E2
782 783 1.273885E1
783 572 1.485884E1
783 579 7.85546
783 782 1.273885E1
783 783 3.545316E1
784 576 1.042753E1
784 784 2.500479E1
784 802 1.457726E1
785 569 2.008032E1
785 785 8.504397E1
785 786 2.666667E1
785 788 1.680672E1
785 796 5.941771
785 797 1.100715E1
785 802 4.541326
786 577 7.692308E2
786 785 2.666667E1
786 786 1.295897E3
786 1128 5E2
787 779 9.980041
787 787 1.879838E1
787 949 8.818342
788 785 1.680672E1
788 788 2.013442E2
788 789 2.932551
788 796 9.191176
788 1132 1.724138E2
789 788 2.932551
789 789 6.317792
789 1094 3.38524
790 514 1.128668E1
790 790 6.799094E1
790 791 3.289474E1
790 795 2.380952E1
791 790 3.289474E1
791 791 3.289474E1
792 792 1.823483E1
792 799 1.01833E1
792 1110 8.05153
793 777 3.907777
793 793 1.000782E4
793 794 3.907777
793 825 1E4
794 793 3.907777
794 794 2.434617E1
794 795 5.797101
794 800 1.464129E1
795 514 7.656968
795 568 7.874016E1
795 773 6.067961
795 777 5.797101
795 790 2.380952E1
795 794 5.797101
795 795 1.278688E2
796 573 1.851852E1
796 581 4.690432
796 630 1.759015E1
796 776 2.511932
796 785 5.941771
796 788 9.191176
796 796 8.027805E1
796 799 2.183406E1
797 530 4.800768
797 581 7.42942
797 776 3.435246
797 780 2.540005
797 785 1.100715E1
797 797 1.073739E2
797 798 4.818348
797 803 4.5106
797 805 1.883239E1
797 1119 5E1
798 797 4.818348
798 798 1.082075E1
798 1114 6.002401
799 581 5.87199
799 792 1.01833E1
799 796 2.183406E1
799 799 3.788935E1
800 540 2.145923E1
800 777 1.464129E1
800 794 1.464129E1
800 800 5.074181E1
801 773 5.646527
801 801 5.646527
802 523 4.086637
802 577 8.93655
802 773 1.449275E1
802 784 1.457726E1
802 785 4.541326
802 802 1.004663E4
802 1137 1E4
803 530 2.325581E2
803 583 7.686395
803 797 4.5106
803 803 2.902097E2
803 804 4.545454E1
804 803 4.545454E1
804 804 4.545454E1
805 797 1.883239E1
805 805 1.364794E2
805 1138 1.17647E2
806 806 4.975124
806 821 4.975124
807 807 4.065041
807 887 4.065041
808 808 1.333333E1
808 897 1.333333E1
809 528 5.617978E1
809 538 3.378378E1
809 809 2.023231E2
809 920 1.123596E2
810 75 4.608295
810 810 3.962731E1
810 811 2.631579E1
810 918 8.70322
811 810 2.631579E1
811 811 2.631579E1
812 812 5E2
812 909 5E2
813 813 8.055555E2
813 885 1.113586E1
813 940 2.518892E1
813 1122 7.692308E2
814 814 1.490395E2
814 815 1.123596E2
814 909 2.314815E1
814 918 1.35318E1
815 814 1.123596E2
815 815 1.123596E2
816 816 6.798565E1
816 817 4.761905E1
816 927 2.03666E1
817 816 4.761905E1
817 817 1.397763E2
817 818 5.263158E1
817 907 3.952569E1
818 817 5.263158E1
818 818 5.263158E1
819 499 2.398081E1
819 528 8.403362E1
819 819 3.405726E2
819 820 2.325581E2
820 819 2.325581E2
820 820 2.325581E2
821 806 4.975124
821 821 1.487724E2
821 888 2.272727E1
821 897 1.149425E2
821 921 6.127451
822 822 1.335555E2
822 880 7.751938E1
822 885 2.564103E1
822 935 3.039514E1
823 770 1E4
823 823 1E4
824 824 1E4
824 825 1E4
825 793 1E4
825 824 1E4
825 825 2E4
826 143 1E4
826 826 1E4
827 144 1E4
827 827 1E4
828 828 1.259221E1
828 837 3.399953
828 838 4.568296
828 874 4.623957
829 140 1.862891E1
829 829 3.816908E1
829 833 9.785693
829 839 9.75447
830 140 1.404757E1
830 830 3.575804E1
830 833 1.215067E1
830 840 9.559799
831 831 2.156662E1
831 841 1.030197E1
831 869 1.126464E1
832 832 2.483065E1
832 842 6.55914
832 869 1.827151E1
833 829 9.785693
833 830 1.215067E1
833 833 2.506136E1
833 843 3.125
834 834 6.583865E1
834 844 9.816236
834 874 5.602241E1
835 835 9.796513E1
835 845 1.626016
835 862 9.633911E1
836 836 1.304241E1
836 846 6.806048
836 869 6.236358
837 828 3.399953
837 837 3.399953
838 828 4.568296
838 838 1.184409E1
838 859 6.666667
838 860 6.091247E-1
839 829 9.75447
839 839 9.75447
840 830 9.559799
840 840 9.559799
841 831 1.030197E1
841 841 1.030197E1
842 832 6.55914
842 842 6.55914
843 833 3.125
843 843 3.125
844 834 9.816236
844 844 9.816236
845 835 1.626016
845 845 1.626016
846 836 6.806048
846 846 6.806048
847 847 6.595976
847 848 6.595976
848 847 6.595976
848 848 1.446535E1
848 873 7.869369
849 849 7.853637
849 854 3.149802
849 863 2.352
849 864 2.351835
850 850 9.019895
850 855 6.506006
850 873 2.513889
851 851 1.965569
851 856 8.05153E-1
851 858 1.160416
852 852 2.941501
852 857 1.692047
852 869 1.249453
853 853 5.118024
853 876 5.118024
854 849 3.149802
854 854 3.149802
855 850 6.506006
855 855 6.506006
856 851 8.05153E-1
856 856 8.05153E-1
857 852 1.692047
857 857 1.692047
858 851 1.160416
858 858 3.252203
858 873 2.091788
859 838 6.666667
859 859 6.666667
860 838 6.091247E-1
860 860 1.422133
860 861 8.130081E-1
861 860 8.130081E-1
861 861 8.130081E-1
862 835 9.633911E1
862 862 1.017126E2
862 863 5.373455
863 849 2.352
863 862 5.373455
863 863 1.056927E1
863 869 2.843818
864 849 2.351835
864 864 2.618864E1
864 865 2.09205E1
864 869 2.916302
865 864 2.09205E1
865 865 2.09205E1
866 866 7.185119E1
866 869 6.71141E1
866 877 4.737092
867 867 5.135919
867 878 5.135919
868 868 7.989591E1
868 869 6.802721E1
868 871 7.077141
868 877 4.791567
869 831 1.126464E1
869 832 1.827151E1
869 836 6.236358
869 852 1.249453
869 863 2.843818
869 864 2.916302
869 866 6.71141E1
869 868 6.802721E1
869 869 2.450375E2
869 870 6.71141E1
870 869 6.71141E1
870 870 7.894842E1
870 871 7.097232
870 877 4.737092
871 868 7.077141
871 870 7.097232
871 871 1.417437E1
872 872 3.439506
872 882 3.439506
873 848 7.869369
873 850 2.513889
873 858 2.091788
873 873 1.916737E1
873 882 6.692322
874 828 4.623957
874 834 5.602241E1
874 874 6.574321E1
874 878 5.09684
875 875 2.688182E2
875 876 2.272727E2
875 882 4.154549E1
876 853 5.118024
876 875 2.272727E2
876 876 2.323908E2
877 138 5.988025E1
877 866 4.737092
877 868 4.791567
877 870 4.737092
877 877 1.440989E2
877 878 5.44514E1
877 883 1.550147E1
878 867 5.135919
878 874 5.09684
878 877 5.44514E1
878 878 6.468417E1
879 879 1.323977E1
879 882 1.323977E1
880 822 7.751938E1
880 880 7.751938E1
881 881 1.555936E1
881 882 1.555936E1
882 138 1.290323E2
882 872 3.439506
882 873 6.692322
882 875 4.154549E1
882 879 1.323977E1
882 881 1.555936E1
882 882 2.095087E2
883 877 1.550147E1
883 883 1.550147E1
884 884 2.086253E2
884 937 1.142857E2
884 1123 9.433962E1
885 535 1.602564E1
885 813 1.113586E1
885 822 2.564103E1
885 885 6.707021E1
885 914 9.425071
885 918 4.842615
886 886 3.437894E1
886 895 1.32626E1
886 927 6.146282
886 937 1.497006E1
887 807 4.065041
887 887 3.075514E1
887 896 1.594896E1
887 897 1.074114E1
888 821 2.272727E1
888 888 3.451973E1
888 924 1.179245E1
889 889 5.263158E2
889 917 5.263158E2
890 890 9.017906E1
890 891 5.555556E1
890 908 1.179245E1
890 917 2.283105E1
891 890 5.555556E1
891 891 5.555556E1
892 892 1.858299E2
892 893 7.874016E1
892 899 6.802721E1
892 927 3.90625E1
893 892 7.874016E1
893 893 7.874016E1
894 894 1.003721E4
894 921 2.493765E1
894 936 1.226994E1
894 1126 1E4
895 579 1.821494E1
895 886 1.32626E1
895 895 4.86023E2
895 1125 4.545455E2
896 887 1.594896E1
896 896 4.88437E1
896 897 3.289474E1
897 808 1.333333E1
897 821 1.149425E2
897 887 1.074114E1
897 896 3.289474E1
897 897 2.426641E2
897 913 5.405405E1
897 917 3.943218
897 944 1.27551E1
898 898 1.198733E2
898 914 2.183406E1
898 926 9.803922E1
899 892 6.802721E1
899 899 2.08295E2
899 900 3.610108E1
899 908 1.041667E2
900 899 3.610108E1
900 900 3.610108E1
901 901 1.001086E4
901 913 1.085776E1
901 1129 1E4
902 902 4E2
902 906 4E2
903 556 1.650165E1
903 903 2.764992E1
903 987 1.114827E1
904 904 4.79299E2
904 905 2.564103E2
904 939 1.923077E2
904 944 3.058104E1
905 904 2.564103E2
905 905 2.564103E2
906 902 4E2
906 906 6.137151E2
906 922 1.763668E1
906 939 1.960784E2
907 817 3.952569E1
907 907 5.835809E1
907 923 1.883239E1
908 532 1.375516E1
908 890 1.179245E1
908 899 1.041667E2
908 908 2.009013E2
908 912 4.347826E1
908 917 7.668712
908 927 2.004008E1
909 554 2.222222E2
909 812 5E2
909 814 2.314815E1
909 909 9.414488E2
909 910 1.960784E2
910 909 1.960784E2
910 910 1.960784E2
911 911 1.315789E2
911 912 1.315789E2
912 532 1.848429E1
912 908 4.347826E1
912 911 1.315789E2
912 912 1.935415E2
913 897 5.405405E1
913 901 1.085776E1
913 913 6.491182E1
914 499 2.398081E1
914 511 6.779661
914 538 7.002801
914 885 9.425071
914 898 2.183406E1
914 914 1.81033E2
914 935 2.923977E1
914 938 7.874016E1
914 963 4.030633
915 915 1.030928E2
915 926 1.030928E2
916 916 8.196722E1
916 991 8.196722E1
917 889 5.263158E2
917 890 2.283105E1
917 897 3.943218
917 908 7.668712
917 917 7.549636E2
917 918 1.212121E2
917 930 7.29927E1
918 75 3.012048
918 532 6.426735
918 810 8.70322
918 814 1.35318E1
918 885 4.842615
918 917 1.212121E2
918 918 2.32832E2
918 919 5.263158E1
918 1130 2.247191E1
919 918 5.263158E1
919 919 6.987296E1
919 940 1.724138E1
920 809 1.123596E2
920 920 1.123596E2
921 527 4.553734
921 821 6.127451
921 894 2.493765E1
921 921 1.234495E2
921 923 2.298851E1
921 924 2.906977E1
921 927 5.208333
921 933 2.398081E1
921 937 6.583279
922 906 1.763668E1
922 922 1.003382E4
922 930 1.618123E1
922 1133 1E4
923 907 1.883239E1
923 921 2.298851E1
923 923 4.18209E1
924 888 1.179245E1
924 921 2.906977E1
924 924 7.977273E1
924 925 3.891051E1
925 924 3.891051E1
925 925 3.891051E1
926 511 1.091703E1
926 898 9.803922E1
926 915 1.030928E2
926 926 2.12049E2
927 579 3.4153
927 816 2.03666E1
927 886 6.146282
927 892 3.90625E1
927 908 2.004008E1
927 921 5.208333
927 927 1.382073E2
927 928 3.717472E1
927 937 6.793478
928 927 3.717472E1
928 928 1.045494E3
928 929 9.999999E2
928 937 8.319468
929 928 9.999999E2
929 929 9.999999E2
930 917 7.29927E1
930 922 1.618123E1
930 930 1.853278E2
930 931 9.615385E1
931 930 9.615385E1
931 931 9.615385E1
932 932 7.874016E1
932 949 7.874016E1
933 527 5.621135
933 921 2.398081E1
933 933 1.874276E2
933 934 1.315789E2
933 942 2.624672E1
934 933 1.315789E2
934 934 1.315789E2
935 822 3.039514E1
935 914 2.923977E1
935 935 9.447811E1
935 947 3.48432E1
936 894 1.226994E1
936 936 1.004517E4
936 937 3.289474E1
936 1134 1E4
937 502 1.596169E1
937 884 1.142857E2
937 886 1.497006E1
937 921 6.583279
937 927 6.793478
937 928 8.319468
937 936 3.289474E1
937 937 1.998084E2
938 914 7.874016E1
938 938 7.874016E1
939 904 1.923077E2
939 906 1.960784E2
939 939 3.883861E2
940 813 2.518892E1
940 919 1.724138E1
940 940 1.414402E2
940 954 9.90099E1
941 941 4E2
941 954 4E2
942 933 2.624672E1
942 942 2.624672E1
943 943 8.064516E1
943 944 8.064516E1
944 897 1.27551E1
944 904 3.058104E1
944 943 8.064516E1
944 944 1.239813E2
945 945 3.323363
945 961 3.323363
946 946 1.052632E1
946 965 1.052632E1
947 935 3.48432E1
947 947 3.48432E1
948 538 1.117318E1
948 948 1.108715E2
948 952 1.290323E1
948 955 1.088454E1
948 957 1.850139E1
948 958 3.508772E1
948 964 2.232143E1
949 780 1.457726E1
949 787 8.818342
949 932 7.874016E1
949 949 1.021358E2
950 950 5.913499E1
950 951 4.399472
950 955 3.577818E1
950 956 1.895735E1
951 950 4.399472
951 951 2.676585E1
951 965 4.962779
951 969 1.017294E1
951 975 7.230658
952 948 1.290323E1
952 952 7.82627E1
952 960 6.535947E1
953 538 1.048768E1
953 953 3.295959E1
953 955 2.247191E1
954 940 9.90099E1
954 941 4E2
954 954 5.282497E2
954 959 2.923977E1
955 948 1.088454E1
955 950 3.577818E1
955 953 2.247191E1
955 955 6.913462E1
956 950 1.895735E1
956 956 1.895735E1
957 519 1.642036E1
957 948 1.850139E1
957 957 1.53211E2
957 958 1.785714E1
957 967 2.169197E1
957 973 7.874016E1
958 948 3.508772E1
958 957 1.785714E1
958 958 5.294486E1
959 954 2.923977E1
959 959 2.923977E1
960 952 6.535947E1
960 960 4.653595E2
960 973 4E2
961 945 3.323363
961 961 1.772833E1
961 962 6.060606
961 963 2.007226
961 968 6.337135
962 961 6.060606
962 962 4.296098E1
962 966 3.690037E1
963 914 4.030633
963 961 2.007226
963 963 1.088517E1
963 972 4.84731
964 538 2.232143E1
964 948 2.232143E1
964 964 4.464286E1
965 946 1.052632E1
965 951 4.962779
965 965 3.112432E1
965 968 5.945303
965 969 9.689922
966 962 3.690037E1
966 966 1.359103E2
966 971 9.90099E1
967 519 6.849315E1
967 957 2.169197E1
967 967 9.018512E1
968 465 6.578947E1
968 961 6.337135
968 965 5.945303
968 968 7.807191E1
969 951 1.017294E1
969 965 9.689922
969 969 2.628135E1
969 970 6.418485
970 969 6.418485
970 970 6.418485
971 966 9.90099E1
971 971 1.104385E2
971 972 1.142857E1
972 963 4.84731
972 971 1.142857E1
972 972 1.627588E1
973 957 7.874016E1
973 960 4E2
973 973 4.787402E2
974 974 9.999999E2
974 983 9.999999E2
975 951 7.230658
975 975 7.230658
976 976 1.312277E2
976 977 7.29927E1
976 989 1.128668E1
976 1001 4.694836E1
977 976 7.29927E1
977 977 7.29927E1
978 978 1.199041E1
978 989 1.199041E1
979 558 4.599816
979 979 2.129332E2
979 983 2.083333E2
980 558 1.240695E1
980 560 5.470459
980 980 1.787741E1
981 981 2.14386E2
981 982 1.923077E2
981 984 1.204819E1
981 998 1.003009E1
982 981 1.923077E2
982 982 1.923077E2
983 974 9.999999E2
983 979 2.083333E2
983 983 1.216031E3
983 986 7.69823
984 981 1.204819E1
984 984 1.204819E1
985 524 4.385965E1
985 985 7.344217E1
985 987 2.427184E1
985 989 5.310675
986 558 1.20919E1
986 983 7.69823
986 986 1.979013E1
987 903 1.114827E1
987 985 2.427184E1
987 987 7.494581E1
987 999 3.952569E1
988 988 2.527583E1
988 993 1.242236E1
988 995 1.285347E1
989 558 1.44405E1
989 976 1.128668E1
989 978 1.199041E1
989 985 5.310675
989 989 4.893494E1
989 990 5.906674
990 989 5.906674
990 990 5.906674
991 558 1.386001E1
991 916 8.196722E1
991 991 9.875978E1
991 992 2.932551
992 991 2.932551
992 992 2.932551
993 517 1.295337E1
993 988 1.242236E1
993 993 2.940311E1
993 994 4.027386
994 993 4.027386
994 994 4.027386
995 517 4.235493
995 988 1.285347E1
995 995 2.839029E1
995 997 7.267442
995 998 4.033885
996 996 7.874016E1
996 997 7.874016E1
997 995 7.267442
997 996 7.874016E1
997 997 9.507378E1
997 998 9.066183
998 558 8.061266
998 981 1.003009E1
998 995 4.033885
998 997 9.066183
998 998 3.119142E1
999 987 3.952569E1
999 999 3.952569E1
1000 558 1.828154E1
1000 1000 1.828154E1
1001 524 1.795332E1
1001 976 4.694836E1
1001 1001 6.490168E1
1002 1002 8.319468
1002 1027 8.319468
1003 1003 4.084967
1003 1035 4.084967
1004 1004 3.15856
1004 1032 3.15856
1005 1005 1.041667E1
1005 1039 1.041667E1
1006 1006 1.250263E2
1006 1007 4.149378
1006 1013 1.926782E1
1006 1019 1.048218E1
1006 1021 5.524862E1
1006 1030 1.432665E1
1006 1035 2.155167E1
1007 1006 4.149378
1007 1007 4.149378
1008 1008 2.442002E1
1008 1023 2.442002E1
1009 114 1E4
1009 1009 1.009368E4
1009 1010 1.567398
1009 1018 2.118644E1
1009 1019 6.297229
1009 1021 4.244482
1009 1022 5.714286E1
1009 1040 3.239391
1010 1009 1.567398
1010 1010 1.567398
1011 1011 4.115226E1
1011 1040 4.115226E1
1012 1012 5.87199
1012 1040 5.87199
1013 1006 1.926782E1
1013 1013 7.482476E2
1013 1023 1.507159E1
1013 1029 4.544287E2
1013 1030 3.257329E1
1013 1037 1.183432E2
1013 1038 1.025641E2
1013 1039 5.9988
1014 1014 7.575758E1
1014 1039 7.575758E1
1015 1015 3.460208E1
1015 1029 3.460208E1
1016 1016 4.102139
1016 1024 2.283626
1016 1034 1.818512
1017 1017 7.380074E1
1017 1029 7.380074E1
1018 1009 2.118644E1
1018 1018 2.118644E1
1019 1006 1.048218E1
1019 1009 6.297229
1019 1019 6.025767E1
1019 1033 4.347826E1
1020 1020 3.496503E1
1020 1021 3.496503E1
1021 1006 5.524862E1
1021 1009 4.244482
1021 1020 3.496503E1
1021 1021 9.445814E1
1022 1009 5.714286E1
1022 1022 5.714286E1
1023 1008 2.442002E1
1023 1013 1.507159E1
1023 1023 6.638087E1
1023 1024 6.973501
1023 1025 7.352941
1023 1027 1.256281E1
1024 1016 2.283626
1024 1023 6.973501
1024 1024 1.100568E1
1024 1034 1.748557
1025 1023 7.352941
1025 1025 1.17895E1
1025 1028 4.436557
1026 224 7.267442
1026 1026 1.688283E1
1026 1027 9.615384
1027 1002 8.319468
1027 1023 1.256281E1
1027 1026 9.615384
1027 1027 3.877231E1
1027 1028 3.372681
1027 1035 4.901961
1028 1025 4.436557
1028 1027 3.372681
1028 1028 7.809239
1029 109 1E4
1029 1013 4.544287E2
1029 1015 3.460208E1
1029 1017 7.380074E1
1029 1029 1.056283E4
1030 1006 1.432665E1
1030 1013 3.257329E1
1030 1030 5.626324E1
1030 1031 9.363297
1031 1030 9.363297
1031 1031 9.363297
1032 1004 3.15856
1032 1032 1.943661E1
1032 1034 5.455537
1032 1036 1.082251E1
1033 1019 4.347826E1
1033 1033 4.347826E1
1034 1016 1.818512
1034 1024 1.748557
1034 1032 5.455537
1034 1034 9.022608
1035 1003 4.084967
1035 1006 2.155167E1
1035 1027 4.901961
1035 1035 3.463528E1
1035 1036 4.096682
1036 1032 1.082251E1
1036 1035 4.096682
1036 1036 1.491919E1
1037 1013 1.183432E2
1037 1037 1.183432E2
1038 1013 1.025641E2
1038 1038 1.025641E2
1039 1005 1.041667E1
1039 1013 5.9988
1039 1014 7.575758E1
1039 1039 9.217304E1
1040 1009 3.239391
1040 1011 4.115226E1
1040 1012 5.87199
1040 1040 5.026365E1
1041 647 1.879699E1
1041 677 6.666667E1
1041 1041 8.546367E1
1042 648 2.262444E1
1042 1042 2.262444E1
1043 676 1.538461E2
1043 1043 1.798878E2
1043 1050 2.604167E1
1044 1044 5.16919E1
1044 1050 3.38983E1
1044 1053 1.779359E1
1045 651 2.070393E1
1045 1045 6.924763E1
1045 1047 4.854369E1
1046 674 1.801802E1
1046 1046 7.120951E1
1046 1058 5.319149E1
1047 532 1.138952E1
1047 680 4.608295E1
1047 1045 4.854369E1
1047 1047 1.060162E2
1048 653 1.060445E1
1048 1048 1.060445E1
1049 672 4E1
1049 1049 6.617801E1
1049 1054 2.617801E1
1050 77 5E3
1050 660 1.703578E1
1050 672 1.680672E1
1050 675 3.08642E1
1050 1043 2.604167E1
1050 1044 3.38983E1
1050 1050 5.329354E3
1050 1051 4.708098
1050 1052 2E2
1051 646 4.748338
1051 667 5.494505
1051 1050 4.708098
1051 1051 1.855844E1
1051 1056 3.607503
1052 672 1.834863E1
1052 1050 2E2
1052 1052 2.183486E2
1053 681 1.111111E3
1053 1044 1.779359E1
1053 1053 1.128905E3
1054 652 3.333333E2
1054 1049 2.617801E1
1054 1054 3.595114E2
1055 649 4.950495E1
1055 657 1.075269E2
1055 1055 2.675334E2
1055 1056 4.118616
1055 1058 1.06383E2
1056 664 2.95858E1
1056 1051 3.607503
1056 1055 4.118616
1056 1056 3.731192E1
1057 654 1.449275E2
1057 680 5.747126E1
1057 1057 2.023988E2
1058 660 1.956947E1
1058 669 3.333333E2
1058 672 1.984127E1
1058 1046 5.319149E1
1058 1055 1.06383E2
1058 1058 5.323185E2
1059 677 2.439024E2
1059 1059 2.959858E2
1059 1061 5.208333E1
1060 645 5.422993
1060 1060 5.422993
1061 621 4.496403
1061 1059 5.208333E1
1061 1061 5.657973E1
1062 1062 9.573448
1062 1072 6.301197
1062 1085 3.272251
1063 70 4.623209
1063 1063 1.497518E1
1063 1074 1.035197E1
1064 1064 1.577324E1
1064 1075 1.149425E1
1064 1087 4.27899
1065 70 1.647446E1
1065 1065 5.64111E1
1065 1077 7.256895
1065 1080 3.267974E1
1066 1066 1.40056E1
1066 1068 1.40056E1
1067 1067 2.654632
1067 1071 2.654632
1068 527 3.527337E1
1068 584 6.591958
1068 609 9.285051
1068 1066 1.40056E1
1068 1068 9.637038E1
1068 1069 2.164502E1
1068 1092 9.569378
1069 1068 2.164502E1
1069 1069 4.950018E1
1069 1086 2.785515E1
1070 1070 2.763299E1
1070 1077 2.109705E1
1070 1113 6.535948
1071 1067 2.654632
1071 1071 6.953859
1071 1088 4.299226
1072 1062 6.301197
1072 1072 1.051705E1
1072 1075 4.215851
1073 527 3.067485E1
1073 1073 1.946093E2
1073 1074 1.639344E2
1074 70 3.195909
1074 527 2.583979E1
1074 1063 1.035197E1
1074 1073 1.639344E2
1074 1074 3.155717E2
1074 1075 5.040322
1074 1081 8.547009E1
1074 1086 2.173913E1
1075 1064 1.149425E1
1075 1072 4.215851
1075 1074 5.040322
1075 1075 2.504781E1
1075 1082 4.297379
1076 1076 1.869159E1
1076 1077 1.869159E1
1077 1065 7.256895
1077 1070 2.109705E1
1077 1076 1.869159E1
1077 1077 8.205888E1
1077 1078 9.416196
1077 1080 9.328359
1077 1088 1.154734E1
1077 1095 4.721436
1078 1077 9.416196
1078 1078 3.082096E1
1078 1084 1.766784E1
1078 1085 3.736921
1079 1079 3.007519
1079 1117 3.007519
1080 1065 3.267974E1
1080 1077 9.328359
1080 1080 4.200809E1
1081 1074 8.547009E1
1081 1081 8.547009E1
1082 1075 4.297379
1082 1082 4.297379
1083 1083 5E2
1083 1087 5E2
1084 1078 1.766784E1
1084 1084 1.766784E1
1085 1062 3.272251
1085 1078 3.736921
1085 1085 7.009172
1086 1069 2.785515E1
1086 1074 2.173913E1
1086 1086 4.959428E1
1087 1064 4.27899
1087 1083 5E2
1087 1087 5.04279E2
1088 1071 4.299226
1088 1077 1.154734E1
1088 1088 1.584657E1
1089 1089 1.221374E1
1089 1106 9.225092
1089 1112 2.988643
1090 577 1.190476E2
1090 1090 1.237557E2
1090 1091 4.708098
1091 1090 4.708098
1091 1091 1.465977E1
1091 1093 5.681818
1091 1108 4.269855
1092 603 2.688172E1
1092 1068 9.569378
1092 1092 3.64511E1
1093 1091 5.681818
1093 1093 1.498414E1
1093 1098 9.302325
1094 636 3.03214
1094 789 3.38524
1094 1094 6.417381
1095 65 1.592357E1
1095 1077 4.721436
1095 1095 1.363807E2
1095 1096 4.440497
1095 1100 7.342144
1095 1105 1.623377E1
1095 1113 8.77193E1
1096 1095 4.440497
1096 1096 1.650748E1
1096 1103 7.581501
1096 1107 2.338634
1096 1112 2.146844
1097 1097 9.90099E1
1097 1100 9.90099E1
1098 1093 9.302325
1098 1098 1.58597E1
1098 1099 6.557377
1099 1098 6.557377
1099 1099 6.557377
1100 1095 7.342144
1100 1097 9.90099E1
1100 1100 1.109308E2
1100 1101 4.578754
1101 608 2.95683
1101 1100 4.578754
1101 1101 1.303916E1
1101 1120 5.503577
1102 1102 4.524887
1102 1112 4.524887
1103 1096 7.581501
1103 1103 7.581501
1104 1104 4.618962E1
1104 1118 2.314815E1
1104 1119 2.304147E1
1105 599 6.038647
1105 1095 1.623377E1
1105 1105 2.227241E1
1106 1089 9.225092
1106 1106 1.52311E1
1106 1109 6.006006
1107 1096 2.338634
1107 1107 2.338634
1108 1091 4.269855
1108 1108 4.269855
1109 1106 6.006006
1109 1109 6.006006
1110 792 8.05153
1110 1110 1.067965E1
1110 1114 2.628121
1111 1111 7.380074
1111 1119 7.380074
1112 1089 2.988643
1112 1096 2.146844
1112 1102 4.524887
1112 1112 9.660375
1113 1070 6.535948
1113 1095 8.77193E1
1113 1113 9.425525E1
1114 798 6.002401
1114 1110 2.628121
1114 1114 1.525571E1
1114 1115 4.384042
1114 1116 2.241148
1115 1114 4.384042
1115 1115 4.384042
1116 1114 2.241148
1116 1116 2.241148
1117 1079 3.007519
1117 1117 7.461862
1117 1120 4.454343
1118 1104 2.314815E1
1118 1118 2.314815E1
1119 797 5E1
1119 1104 2.304147E1
1119 1111 7.380074
1119 1119 8.042155E1
1120 1101 5.503577
1120 1117 4.454343
1120 1120 9.95792
1121 670 5.405405E1
1121 672 1.052632E2
1121 1121 1.593172E2
1122 813 7.692308E2
1122 1122 7.910173E2
1122 1136 2.178649E1
1123 617 5.102041E1
1123 884 9.433962E1
1123 1123 1.4536E2
1124 527 2.631579E1
1124 1124 3.705693E1
1124 1135 1.074114E1
1125 895 4.545455E2
1125 1125 4.545455E2
1126 894 1E4
1126 1126 1E4
1127 776 3.194888E1
1127 1127 3.194888E1
1128 786 5E2
1128 1128 5E2
1129 901 1E4
1129 1129 1.001582E4
1129 1135 1.582279E1
1130 918 2.247191E1
1130 1130 2.247191E1
1131 1131 2.439024E1
1131 1136 2.439024E1
1132 788 1.724138E2
1132 1132 1.724138E2
1133 922 1E4
1133 1133 1E4
1134 936 1E4
1134 1134 1E4
1135 1124 1.074114E1
1135 1129 1.582279E1
1135 1135 2.656392E1
1136 1122 2.178649E1
1136 1131 2.439024E1
1136 1136 4.617674E1
1137 802 1E4
1137 1137 1E4
1138 805 1.17647E2
1138 1138 1.17647E2
