%%MatrixMarket matrix coordinate real general
%
2395 2395 13151
1 1 3.1085317326728E-1
1 28 9.89094262051847E-7
1 32 7.98161508934244E-6
1 83 1.62762346919924E-6
1 84 1.97192843383754E-6
1 86 9.89094262051847E-7
1 162 9.89094262051847E-7
1 235 4.14417975619192E-6
1 480 5.29100529100529E-2
1 483 5.29100529100529E-2
1 640 6.44305902179373E-5
1 641 6.64532179452482E-5
1 790 6.19485582769434E-5
1 791 6.274622798125125E-5
1 944 1.25028496555071E-4
1 945 1.236037396710895E-4
1 1439 2.03252032520325E-1
1 1598 3.91799566470334E-5
1 1599 3.9165515029690454E-5
1 1748 7.032259617148831E-5
1 1749 7.031963679222765E-5
1 1902 7.032260471868479E-5
1 1903 7.031961093748515E-5
2 2 1.98187834273924E-1
2 1438 1.21951219512195E-1
2 1441 7.62195121951219E-2
3 3 3.11426261957547E-1
3 8 2.96102269588939E-6
3 9 9.89094262051847E-7
3 11 1.97192843383754E-6
3 14 8.52624294249757E-6
3 15 9.87842243998617E-6
3 16 1.20569338526067E-5
3 18 7.90649400614863E-6
3 20 1.97192843383754E-6
3 28 9.89094262051847E-7
3 30 1.97192843383754E-6
3 32 9.89094262051847E-7
3 34 9.89094262051847E-7
3 88 7.90649400614863E-6
3 96 1.97192843383754E-6
3 99 2.21607195421743E-6
3 102 1.96379031649155E-5
3 484 5.29100529100529E-2
3 487 5.29100529100529E-2
3 506 6.32074541046475E-5
3 507 6.14809296471491E-5
3 512 6.20964950844985E-5
3 513 6.260029561307691E-5
3 646 6.21753279205595E-5
3 647 6.252254646108864E-5
3 664 1.2266841157286751E-4
3 665 1.2595837836821E-4
3 1443 2.03252032520325E-1
3 1464 7.031673554307615E-5
3 1465 7.02970833722356E-5
3 1470 7.031762626090435E-5
3 1471 7.031691736543485E-5
3 1604 7.031785002740755E-5
3 1605 7.02980746837631E-5
3 1622 7.031748783061805E-5
3 1623 7.029698005090774E-5
4 4 1.98187834273924E-1
4 1442 1.21951219512195E-1
4 1445 7.62195121951219E-2
5 5 2.68630297284875E-1
5 488 1.58730158730159E-1
5 491 1.0989010989011E-1
6 6 3.68261804181548E-1
6 28 9.89094262051847E-7
6 32 9.89094262051847E-7
6 86 1.08925570631026E-6
6 87 2.87964152242943E-6
6 162 9.89094262051847E-7
6 166 9.89094262051847E-7
6 167 4.98303185185614E-6
6 168 6.09732791923101E-6
6 174 1.97192843383754E-6
6 180 1.97192843383754E-6
6 235 6.52301405732927E-6
6 236 1.6839642815946E-5
6 489 2.85714285714286E-1
6 796 3.680144824735015E-5
6 797 3.66770928889005E-5
6 940 1.2469819757088897E-4
6 941 1.2393337710754648E-4
6 1446 4.0650406504065E-2
6 1449 4.0650406504065E-2
6 1754 3.5211258407038E-5
6 1755 3.51576844126169E-5
6 1898 7.029646442769676E-5
6 1899 7.03158802085141E-5
7 7 2.68630297284875E-1
7 492 1.58730158730159E-1
7 495 1.0989010989011E-1
8 3 2.96102269588939E-6
8 8 3.68665532038414E-1
8 14 2.96102269588939E-6
8 20 2.87964152242943E-6
8 28 1.97192843383754E-6
8 96 1.97192843383754E-6
8 99 4.21304074911958E-6
8 102 5.97212611390799E-6
8 493 2.85714285714286E-1
8 532 1.24298166238424E-4
8 533 1.24338121845496E-4
8 642 6.500808489858346E-5
8 643 6.588332237690035E-5
8 668 1.2504741569159148E-4
8 669 1.23577388137634E-4
8 1450 4.0650406504065E-2
8 1453 4.0650406504065E-2
8 1490 3.51585067918634E-5
8 1491 3.514839282084015E-5
8 1600 3.91766305841675E-5
8 1601 3.916534770426765E-5
8 1626 7.031639837266009E-5
8 1627 7.03168667775596E-5
9 3 9.89094262051847E-7
9 9 3.11270706305976E-1
9 11 9.89094262051847E-7
9 14 2.96102269588939E-6
9 18 2.3725742108712E-6
9 20 1.38974003908551E-6
9 22 9.89094262051847E-7
9 23 1.97192843383754E-6
9 25 1.97192843383754E-6
9 30 2.52281637725883E-6
9 32 1.97192843383754E-6
9 34 9.89094262051847E-7
9 37 9.89094262051847E-7
9 39 1.97192843383754E-6
9 40 4.14417975619192E-6
9 42 6.44789297413546E-7
9 89 9.89094262051847E-7
9 91 9.89094262051847E-7
9 93 9.89094262051847E-7
9 94 9.89094262051847E-7
9 95 9.89094262051847E-7
9 96 9.89094262051847E-7
9 101 9.89094262051847E-7
9 141 9.89094262051847E-7
9 176 9.89094262051847E-7
9 179 9.89094262051847E-7
9 196 7.98161508934244E-6
9 496 5.29100529100529E-2
9 499 5.29100529100529E-2
9 562 1.24748032796887E-4
9 563 1.2388580637641498E-4
9 564 6.45071287221897E-5
9 565 6.637767187332895E-5
9 968 6.204745957757005E-5
9 969 6.264868349881519E-5
9 1455 2.03252032520325E-1
9 1520 7.03216326383886E-5
9 1521 7.031924239271575E-5
9 1522 3.9179379354812997E-5
9 1523 3.91655766927287E-5
9 1926 7.032162790046785E-5
9 1927 7.031925930995795E-5
10 10 1.98187834273924E-1
10 1454 1.21951219512195E-1
10 1457 7.62195121951219E-2
11 3 1.97192843383754E-6
11 9 9.89094262051847E-7
11 11 3.11262491126339E-1
11 13 9.89094262051847E-7
11 14 1.97192843383754E-6
11 20 1.97192843383754E-6
11 30 1.97192843383754E-6
11 32 9.89094262051847E-7
11 34 1.97192843383754E-6
11 89 9.89094262051847E-7
11 91 9.89094262051847E-7
11 93 9.89094262051847E-7
11 94 9.89094262051847E-7
11 95 9.89094262051847E-7
11 96 8.96444926112813E-6
11 101 9.89094262051847E-7
11 105 4.89539058813003E-6
11 112 9.89094262051847E-7
11 115 1.17689697003638E-6
11 117 9.89094262051847E-7
11 130 9.89094262051847E-7
11 176 7.98161508934244E-6
11 183 4.58238607482248E-6
11 184 1.20569338526067E-5
11 187 2.52281637725883E-6
11 190 1.97192843383754E-6
11 194 7.98161508934244E-6
11 500 5.29100529100529E-2
11 503 5.29100529100529E-2
11 504 6.4538884350176E-5
11 505 6.6346240740569E-5
11 656 6.21495042321253E-5
11 657 6.2548009416747E-5
11 828 6.309321759430895E-5
11 829 6.15967389742107E-5
11 854 6.21010216472979E-5
11 855 6.25958267674642E-5
11 1459 2.03252032520325E-1
11 1462 3.9177212704872956E-5
11 1463 3.916545060652595E-5
11 1614 7.031812506873121E-5
11 1615 7.02981295132916E-5
11 1786 7.031742180554771E-5
11 1787 7.02970856121149E-5
11 1812 7.03179282428506E-5
11 1813 7.031693891743765E-5
12 12 1.98187834273924E-1
12 1458 1.21951219512195E-1
12 1461 7.62195121951219E-2
13 11 9.89094262051847E-7
13 13 1.04638495809708E-1
13 14 3.86247569421512E-6
13 32 9.89094262051847E-7
13 505 5.71428571428571E-2
13 540 3.629954445498065E-5
13 541 3.6279211513461E-5
13 1463 4.69043151969981E-2
13 1498 1.13230204977415E-4
13 1499 1.132197038420725E-4
14 3 8.52624294249757E-6
14 8 2.96102269588939E-6
14 9 2.96102269588939E-6
14 11 1.97192843383754E-6
14 13 3.86247569421512E-6
14 14 3.10422155593453E-1
14 15 9.89094262051847E-7
14 20 1.97192843383754E-6
14 30 1.97192843383754E-6
14 31 4.98303185185614E-6
14 32 7.08642218128285E-6
14 34 9.89094262051847E-7
14 86 7.08642218128285E-6
14 91 2.96102269588939E-6
14 96 3.79361470128746E-6
14 98 4.98303185185614E-6
14 506 5.29100529100529E-2
14 509 5.29100529100529E-2
14 538 3.6330311607371795E-5
14 539 3.579820310513125E-5
14 660 3.6329827665598246E-5
14 661 3.579820004670075E-5
14 1465 2.03252032520325E-1
14 1496 1.1321969607643701E-4
14 1497 1.13230212794537E-4
14 1618 1.1324501453739301E-4
14 1619 1.1320410782822399E-4
15 3 9.87842243998617E-6
15 14 9.89094262051847E-7
15 15 3.10169743008391E-1
15 17 2.07208987809596E-6
15 18 1.97192843383754E-6
15 20 9.89094262051847E-7
15 508 6.14771518014942E-5
15 509 6.321124763707475E-5
15 516 5.29100529100529E-2
15 519 5.29100529100529E-2
15 520 6.49509141889876E-5
15 521 6.59395314394072E-5
15 1466 7.0324999042891E-5
15 1467 7.032009072452605E-5
15 1475 2.03252032520325E-1
15 1478 3.918140332362095E-5
15 1479 3.91651737400043E-5
16 3 1.20569338526067E-5
16 16 1.98187834273924E-1
16 1464 1.21951219512195E-1
16 1467 7.62195121951219E-2
17 15 2.07208987809596E-6
17 17 3.09713527162741E-1
17 18 4.58238607482248E-6
17 20 1.97192843383754E-6
17 30 2.07208987809596E-6
17 510 5.29100529100529E-2
17 513 5.29100529100529E-2
17 514 1.908665819592915E-5
17 515 1.8794591248862447E-5
17 1469 2.03252032520325E-1
17 1472 1.2587303771657051E-4
17 1473 1.26298480661199E-4
18 3 7.90649400614863E-6
18 9 2.3725742108712E-6
18 15 1.97192843383754E-6
18 17 4.58238607482248E-6
18 18 3.69034777996632E-1
18 19 1.20569338526067E-5
18 20 9.89094262051847E-7
18 22 4.77644887307316E-6
18 30 1.97192843383754E-6
18 91 3.29906757026154E-6
18 93 2.96102269588939E-6
18 104 5.19587492090527E-6
18 110 5.97212611390799E-6
18 114 4.98303185185614E-6
18 115 6.09732791923101E-6
18 510 6.259824090828454E-5
18 511 6.209869177296464E-5
18 547 2.85714285714286E-1
18 684 1.2418953024928152E-4
18 685 1.24447170043983E-4
18 690 6.55990734120544E-5
18 691 6.529847287407506E-5
18 692 3.68001395633102E-5
18 693 3.6677346184357196E-5
18 1468 7.031530817747076E-5
18 1469 7.029653952654645E-5
18 1504 4.0650406504065E-2
18 1507 4.0650406504065E-2
18 1642 7.029762620999286E-5
18 1643 7.031595265208135E-5
18 1648 3.917601010978015E-5
18 1649 3.91651899253528E-5
18 1650 3.5196535691740796E-5
18 1651 3.515774467793585E-5
19 18 1.20569338526067E-5
19 19 1.98187834273924E-1
19 1468 1.21951219512195E-1
19 1471 7.62195121951219E-2
20 3 1.97192843383754E-6
20 8 2.87964152242943E-6
20 9 1.38974003908551E-6
20 11 1.97192843383754E-6
20 14 1.97192843383754E-6
20 15 9.89094262051847E-7
20 17 1.97192843383754E-6
20 18 9.89094262051847E-7
20 20 1.04916454451818E-1
20 27 4.98303185185614E-6
20 28 7.08642218128285E-6
20 30 9.89094262051847E-7
20 32 9.89094262051847E-7
20 34 9.89094262051847E-7
20 515 5.71428571428571E-2
20 530 1.24551983535134E-4
20 531 1.24084821168535E-4
20 1473 4.69043151969981E-2
20 1488 3.51484455519302E-5
20 1489 3.5158780539573355E-5
21 21 1.98187834273924E-1
21 1474 1.21951219512195E-1
21 1477 7.62195121951219E-2
22 9 9.89094262051847E-7
22 18 4.77644887307316E-6
22 22 1.0584036443009E-1
22 30 9.89094262051847E-7
22 91 9.89094262051847E-7
22 93 9.89094262051847E-7
22 101 1.6839642815946E-5
22 109 9.89094262051847E-7
22 112 2.87964152242943E-6
22 113 1.97192843383754E-6
22 116 6.52301405732927E-6
22 521 5.71428571428571E-2
22 688 3.630391234037175E-5
22 689 3.62826980595389E-5
22 694 3.634992975311625E-5
22 695 3.582264209939255E-5
22 696 3.6342147603379645E-5
22 697 3.57995691659103E-5
22 1479 4.69043151969981E-2
22 1646 1.1319318280878399E-4
22 1647 1.13255529451023E-4
22 1652 1.13162121558532E-4
22 1653 1.132854334392815E-4
22 1654 2.257771739488405E-4
22 1655 2.25799054008832E-4
23 9 1.97192843383754E-6
23 23 3.10130292616251E-1
23 25 9.95354352317998E-6
23 30 1.97192843383754E-6
23 37 1.97192843383754E-6
23 46 9.89094262051847E-7
23 93 1.97192843383754E-6
23 122 9.89094262051847E-7
23 522 5.29100529100529E-2
23 525 5.29100529100529E-2
23 706 6.135463056447025E-5
23 707 6.33321255397672E-5
23 710 6.499948209171935E-5
23 711 6.589158634249501E-5
23 1481 2.03252032520325E-1
23 1664 7.032512530521975E-5
23 1665 7.0320083510995E-5
23 1668 3.9181476233884105E-5
23 1669 3.91651497971625E-5
24 24 1.98187834273924E-1
24 1480 1.21951219512195E-1
24 1483 7.62195121951219E-2
25 9 1.97192843383754E-6
25 23 9.95354352317998E-6
25 25 3.11432945123663E-1
25 30 9.89094262051847E-7
25 37 9.95354352317998E-6
25 39 2.96102269588939E-6
25 41 3.59329181277063E-6
25 45 9.89094262051847E-7
25 46 9.89094262051847E-7
25 48 9.89094262051847E-7
25 51 8.96444926112813E-6
25 57 1.08925570631026E-6
25 58 4.18800038805497E-6
25 60 1.97192843383754E-6
25 61 1.96379031649155E-5
25 78 2.96102269588939E-6
25 93 9.89094262051847E-7
25 120 4.58238607482248E-6
25 121 1.20569338526067E-5
25 122 9.89094262051847E-7
25 526 5.29100529100529E-2
25 529 5.29100529100529E-2
25 574 6.215813463749464E-5
25 575 6.25395040437296E-5
25 580 6.20913270269955E-5
25 581 6.26053924870163E-5
25 590 1.22703482095861E-4
25 591 1.25923511812016E-4
25 704 6.332768822082409E-5
25 705 6.135904787786046E-5
25 1485 2.03252032520325E-1
25 1532 7.031775546333325E-5
25 1533 7.031700878461234E-5
25 1538 7.031798313438335E-5
25 1539 7.029810097916795E-5
25 1548 7.031761188275735E-5
25 1549 7.029700598874019E-5
25 1662 7.031684642491861E-5
25 1663 7.029711200469695E-5
26 26 1.98187834273924E-1
26 1484 1.21951219512195E-1
26 1487 7.62195121951219E-2
27 20 4.98303185185614E-6
27 27 2.68630297284875E-1
27 530 1.58730158730159E-1
27 533 1.0989010989011E-1
28 1 9.89094262051847E-7
28 3 9.89094262051847E-7
28 6 9.89094262051847E-7
28 8 1.97192843383754E-6
28 20 7.08642218128285E-6
28 28 3.67969097383124E-1
28 83 4.58238607482248E-6
28 84 8.96444926112813E-6
28 85 1.20569338526067E-5
28 531 2.85714285714286E-1
28 634 1.790040866223935E-5
28 635 1.817962697234195E-5
28 1488 4.0650406504065E-2
28 1491 4.0650406504065E-2
28 1592 2.2588415315143498E-4
28 1593 2.25692627533347E-4
29 29 2.68630297284875E-1
29 534 1.58730158730159E-1
29 537 1.0989010989011E-1
30 3 1.97192843383754E-6
30 9 2.52281637725883E-6
30 11 1.97192843383754E-6
30 14 1.97192843383754E-6
30 17 2.07208987809596E-6
30 18 1.97192843383754E-6
30 20 9.89094262051847E-7
30 22 9.89094262051847E-7
30 23 1.97192843383754E-6
30 25 9.89094262051847E-7
30 30 3.68517262183635E-1
30 32 9.89094262051847E-7
30 34 9.89094262051847E-7
30 37 9.89094262051847E-7
30 40 6.52301405732927E-6
30 41 1.78287370779979E-5
30 42 1.22697769216558E-6
30 44 2.87964152242943E-6
30 56 4.98303185185614E-6
30 57 6.09732791923101E-6
30 78 1.97192843383754E-6
30 535 2.85714285714286E-1
30 558 1.250154208675965E-4
30 559 1.23619134238347E-4
30 586 3.68018466382601E-5
30 587 3.667700342564785E-5
30 1492 4.0650406504065E-2
30 1495 4.0650406504065E-2
30 1516 7.029645496796184E-5
30 1517 7.031581399227145E-5
30 1544 3.5235799719913756E-5
30 1545 3.515765620330815E-5
31 14 4.98303185185614E-6
31 31 2.68630297284875E-1
31 538 1.58730158730159E-1
31 541 1.0989010989011E-1
32 1 7.98161508934244E-6
32 3 9.89094262051847E-7
32 6 9.89094262051847E-7
32 9 1.97192843383754E-6
32 11 9.89094262051847E-7
32 13 9.89094262051847E-7
32 14 7.08642218128285E-6
32 20 9.89094262051847E-7
32 30 9.89094262051847E-7
32 32 3.68467666125371E-1
32 87 9.89094262051847E-7
32 89 9.89094262051847E-7
32 91 1.97192843383754E-6
32 93 9.89094262051847E-7
32 94 1.97192843383754E-6
32 96 9.89094262051847E-7
32 99 9.89094262051847E-7
32 101 9.89094262051847E-7
32 163 4.58238607482248E-6
32 164 1.20569338526067E-5
32 168 1.97192843383754E-6
32 170 1.97192843383754E-6
32 171 4.58238607482248E-6
32 176 7.98161508934244E-6
32 177 1.20569338526067E-5
32 539 2.85714285714286E-1
32 788 6.274319552242775E-5
32 789 6.19517244920987E-5
32 812 6.23609819596107E-5
32 813 6.233927239763425E-5
32 1496 4.0650406504065E-2
32 1499 4.0650406504065E-2
32 1746 7.031676838532735E-5
32 1747 7.029705392577431E-5
32 1770 7.031709607949896E-5
32 1771 7.02970173208233E-5
33 33 2.68630297284875E-1
33 542 1.58730158730159E-1
33 545 1.0989010989011E-1
34 3 9.89094262051847E-7
34 9 9.89094262051847E-7
34 11 1.97192843383754E-6
34 14 9.89094262051847E-7
34 20 9.89094262051847E-7
34 30 9.89094262051847E-7
34 34 3.68620797453344E-1
34 89 9.89094262051847E-7
34 91 9.89094262051847E-7
34 93 9.89094262051847E-7
34 94 9.89094262051847E-7
34 96 9.89094262051847E-7
34 101 9.89094262051847E-7
34 105 9.89094262051847E-7
34 130 9.89094262051847E-7
34 176 4.87661031733158E-6
34 185 4.09409903406271E-6
34 186 4.98303185185614E-6
34 187 7.08642218128285E-6
34 543 2.85714285714286E-1
34 658 6.540445755602355E-5
34 659 6.549214565532E-5
34 834 1.241360485155445E-4
34 835 1.244957986592135E-4
34 840 1.2410659256590002E-4
34 841 1.24528596753263E-4
34 1500 4.0650406504065E-2
34 1503 4.0650406504065E-2
34 1616 3.91766660858272E-5
34 1617 3.916535791609095E-5
34 1792 3.5148396230263155E-5
34 1793 3.515853867801035E-5
34 1798 3.515853865388845E-5
34 1799 3.514839785765535E-5
35 35 2.68630297284875E-1
35 546 1.58730158730159E-1
35 549 1.0989010989011E-1
36 36 2.68630297284875E-1
36 550 1.58730158730159E-1
36 553 1.0989010989011E-1
37 9 9.89094262051847E-7
37 23 1.97192843383754E-6
37 25 9.95354352317998E-6
37 30 9.89094262051847E-7
37 37 3.69469698359539E-1
37 39 2.96102269588939E-6
37 41 1.18941715056868E-6
37 45 9.89094262051847E-7
37 46 9.89094262051847E-7
37 48 9.89094262051847E-7
37 49 4.58238607482248E-6
37 50 1.20569338526067E-5
37 51 1.97192843383754E-6
37 52 2.96102269588939E-6
37 57 1.97192843383754E-6
37 58 9.89094262051847E-7
37 60 2.96102269588939E-6
37 67 7.73747156896255E-6
37 69 1.97192843383754E-6
37 71 6.18496918295712E-6
37 72 1.97192843383754E-6
37 76 1.97192843383754E-6
37 77 5.97212611390799E-6
37 78 1.97192843383754E-6
37 81 4.98303185185614E-6
37 82 6.09732791923101E-6
37 91 1.97192843383754E-6
37 93 1.97192843383754E-6
37 122 1.97192843383754E-6
37 551 2.85714285714286E-1
37 572 6.253750598805685E-5
37 573 6.21602770093034E-5
37 620 1.2427679400543E-4
37 621 1.24359708453014E-4
37 624 6.54971134089196E-5
37 625 6.540020320004866E-5
37 630 3.6799336222478256E-5
37 631 3.6677240661881646E-5
37 1508 4.0650406504065E-2
37 1511 4.0650406504065E-2
37 1530 7.031539949447081E-5
37 1531 7.029656920683335E-5
37 1578 7.029765564032589E-5
37 1579 7.03160558704409E-5
37 1582 3.91760673457776E-5
37 1583 3.9165203623311147E-5
37 1588 3.521531314716965E-5
37 1589 3.515779553483945E-5
38 38 2.68630297284875E-1
38 554 1.58730158730159E-1
38 557 1.0989010989011E-1
39 9 1.97192843383754E-6
39 25 2.96102269588939E-6
39 37 2.96102269588939E-6
39 39 3.68874049011772E-1
39 45 1.97192843383754E-6
39 49 9.89094262051847E-7
39 58 5.19587492090527E-6
39 60 9.89094262051847E-7
39 61 5.97212611390799E-6
39 63 2.87964152242943E-6
39 78 1.97192843383754E-6
39 555 2.85714285714286E-1
39 576 6.501995482298059E-5
39 577 6.58716073509396E-5
39 594 1.250394233455245E-4
39 595 1.235856411817005E-4
39 598 1.2406038214046549E-4
39 599 1.2457454182680848E-4
39 1512 4.0650406504065E-2
39 1515 4.0650406504065E-2
39 1534 3.91765850204544E-5
39 1535 3.916533857171275E-5
39 1552 7.031632024327925E-5
39 1553 7.03167903639415E-5
39 1556 3.515846600507965E-5
39 1557 3.51483826854693E-5
40 9 4.14417975619192E-6
40 30 6.52301405732927E-6
40 40 3.49689287411805E-1
40 42 3.98141740927199E-6
40 558 1.2987012987013E-1
40 561 1.0989010989011E-1
40 562 1.0989010989011E-1
41 25 3.59329181277063E-6
41 30 1.78287370779979E-5
41 37 1.18941715056868E-6
41 41 3.21671944304371E-1
41 42 1.26453823376249E-6
41 46 9.89094262051847E-7
41 67 9.89094262051847E-7
41 78 9.89094262051847E-7
41 91 9.89094262051847E-7
41 93 1.18941715056868E-6
41 130 9.89094262051847E-7
41 133 9.89094262051847E-7
41 141 1.64014364973154E-6
41 218 9.89094262051847E-7
41 220 1.97192843383754E-6
41 228 9.89094262051847E-7
41 287 9.89094262051847E-7
41 289 2.29119303741124E-6
41 306 1.18941715056868E-6
41 319 9.89094262051847E-7
41 559 1.42857142857143E-1
41 1172 1.9088901344561303E-5
41 1173 1.8795502478565252E-5
41 1516 7.62195121951219E-2
41 1519 1.01626016260163E-1
41 2130 1.261030733145045E-4
41 2131 1.260756089173315E-4
42 9 6.44789297413546E-7
42 30 1.22697769216558E-6
42 40 3.98141740927199E-6
42 41 1.26453823376249E-6
42 42 3.10267554300933E-1
42 43 2.0695858419895E-5
42 45 4.58238607482248E-6
42 46 9.89094262051847E-7
42 57 9.89094262051847E-7
42 58 2.96102269588939E-6
42 78 2.96102269588939E-6
42 560 1.23890473914543E-4
42 561 1.247434723410475E-4
42 566 5.29100529100529E-2
42 569 5.29100529100529E-2
42 570 6.552937526469816E-5
42 571 6.53680166706381E-5
42 1518 7.031683150516155E-5
42 1519 7.029706067526185E-5
42 1525 2.03252032520325E-1
42 1528 3.91770165156953E-5
42 1529 3.9165424969696296E-5
43 42 2.0695858419895E-5
43 43 1.77876021354971E-1
43 1518 1.01626016260163E-1
43 1521 7.62195121951219E-2
44 30 2.87964152242943E-6
44 44 1.04591745367499E-1
44 78 3.43052946585071E-6
44 565 5.71428571428571E-2
44 588 3.634520279498785E-5
44 589 3.58207471940713E-5
44 1523 4.69043151969981E-2
44 1546 1.130984819182575E-4
44 1547 1.133467015943535E-4
45 25 9.89094262051847E-7
45 37 9.89094262051847E-7
45 39 1.97192843383754E-6
45 42 4.58238607482248E-6
45 45 3.67880921671601E-1
45 46 7.98161508934244E-6
45 47 1.20569338526067E-5
45 63 6.09732791923101E-6
45 566 1.789988127804805E-5
45 567 1.8178253568467602E-5
45 597 2.85714285714286E-1
45 1524 2.25828319837307E-4
45 1525 2.257480985461115E-4
45 1554 4.0650406504065E-2
45 1557 4.0650406504065E-2
46 23 9.89094262051847E-7
46 25 9.89094262051847E-7
46 37 9.89094262051847E-7
46 41 9.89094262051847E-7
46 42 9.89094262051847E-7
46 45 7.98161508934244E-6
46 46 9.73229683991723E-2
46 57 9.89094262051847E-7
46 78 1.97192843383754E-6
46 93 9.89094262051847E-7
46 568 1.81798360670472E-5
46 569 1.7900466950442798E-5
46 709 5.29100529100529E-2
46 1526 2.25819873356065E-4
46 1527 2.2575649028374202E-4
46 1667 4.35540069686411E-2
47 45 1.20569338526067E-5
47 47 1.98187834273924E-1
47 1524 1.21951219512195E-1
47 1527 7.62195121951219E-2
48 25 9.89094262051847E-7
48 37 9.89094262051847E-7
48 48 1.04848125526092E-1
48 57 9.89094262051847E-7
48 58 9.89094262051847E-7
48 67 9.89094262051847E-7
48 78 9.89094262051847E-7
48 93 9.89094262051847E-7
48 129 9.89094262051847E-7
48 132 4.14417975619192E-6
48 133 6.44789297413546E-7
48 571 5.71428571428571E-2
48 734 3.58272293905071E-5
48 735 3.6355739391088E-5
48 1529 4.69043151969981E-2
48 1692 2.2578812515486552E-4
48 1693 2.25788031515198E-4
49 37 4.58238607482248E-6
49 39 9.89094262051847E-7
49 49 3.09731348014444E-1
49 60 9.89094262051847E-7
49 65 9.89094262051847E-7
49 67 9.89094262051847E-7
49 78 9.89094262051847E-7
49 93 9.89094262051847E-7
49 137 9.89094262051847E-7
49 572 5.29100529100529E-2
49 575 5.29100529100529E-2
49 742 1.9087001082191752E-5
49 743 1.879479958650215E-5
49 1531 2.03252032520325E-1
49 1700 1.261024851823195E-4
49 1701 1.2607619315881352E-4
50 37 1.20569338526067E-5
50 50 1.98187834273924E-1
50 1530 1.21951219512195E-1
50 1533 7.62195121951219E-2
51 25 8.96444926112813E-6
51 37 1.97192843383754E-6
51 51 1.04500892226289E-1
51 52 4.58238607482248E-6
51 53 1.20569338526067E-5
51 577 5.71428571428571E-2
51 578 1.820329743715775E-5
51 579 1.8150751742385247E-5
51 1535 4.69043151969981E-2
51 1536 7.03332965895096E-5
51 1537 7.031242236781309E-5
52 37 2.96102269588939E-6
52 51 4.58238607482248E-6
52 52 3.10400332725674E-1
52 60 9.89094262051847E-7
52 67 1.97192843383754E-6
52 69 1.97192843383754E-6
52 71 7.98161508934244E-6
52 72 5.19587492090527E-6
52 74 5.97212611390799E-6
52 76 9.89094262051847E-7
52 77 1.96379031649155E-5
52 578 5.29100529100529E-2
52 581 5.29100529100529E-2
52 614 3.58000423935842E-5
52 615 3.636119531990435E-5
52 616 3.630511996420975E-5
52 617 3.63046540024236E-5
52 1537 2.03252032520325E-1
52 1572 2.2573674784921851E-4
52 1573 2.2583974468696647E-4
52 1574 7.033866314419905E-5
52 1575 7.030730180593569E-5
53 51 1.20569338526067E-5
53 53 1.98187834273924E-1
53 1536 1.21951219512195E-1
53 1539 7.62195121951219E-2
54 54 3.11071800529815E-1
54 60 9.89094262051847E-7
54 65 1.97192843383754E-6
54 67 9.89094262051847E-7
54 78 3.43052946585071E-6
54 91 2.94224242509094E-6
54 93 9.89094262051847E-7
54 137 9.89094262051847E-7
54 138 2.96102269588939E-6
54 141 9.89094262051847E-7
54 147 9.89094262051847E-7
54 155 9.89094262051847E-7
54 158 9.89094262051847E-7
54 205 9.89094262051847E-7
54 211 7.0426015494198E-6
54 212 9.89094262051847E-7
54 221 9.89094262051847E-7
54 228 9.89094262051847E-7
54 280 8.89558826820047E-6
54 281 9.89094262051847E-7
54 306 9.89094262051847E-7
54 319 9.89094262051847E-7
54 358 2.96102269588939E-6
54 379 1.97192843383754E-6
54 386 9.89094262051847E-7
54 388 9.89094262051847E-7
54 391 9.89094262051847E-7
54 396 9.89094262051847E-7
54 447 9.95354352317998E-6
54 457 5.56522024660818E-6
54 458 1.20569338526067E-5
54 460 8.28209942211768E-6
54 582 5.29100529100529E-2
54 585 5.29100529100529E-2
54 1022 6.200146549953419E-5
54 1023 6.26940082802611E-5
54 1384 6.31256600233102E-5
54 1385 6.1563843335521E-5
54 1390 6.20516747878092E-5
54 1391 6.264448889999576E-5
54 1541 2.03252032520325E-1
54 1980 7.03182462948489E-5
54 1981 7.029815071241385E-5
54 2342 7.03175210869747E-5
54 2343 7.02971109087201E-5
54 2348 7.031804478897265E-5
54 2349 7.031702789356284E-5
55 55 1.98187834273924E-1
55 1540 1.21951219512195E-1
55 1543 7.62195121951219E-2
56 30 4.98303185185614E-6
56 56 2.68630297284875E-1
56 586 1.58730158730159E-1
56 589 1.0989010989011E-1
57 25 1.08925570631026E-6
57 30 6.09732791923101E-6
57 37 1.97192843383754E-6
57 42 9.89094262051847E-7
57 46 9.89094262051847E-7
57 48 9.89094262051847E-7
57 57 3.68236112893971E-1
57 58 1.62762346919924E-6
57 67 1.97192843383754E-6
57 78 9.89094262051847E-7
57 93 1.97192843383754E-6
57 128 4.14417975619192E-6
57 129 1.78287370779979E-5
57 132 6.52301405732927E-6
57 587 2.85714285714286E-1
57 728 1.2406851954024E-4
57 729 1.24568461446641E-4
57 730 3.67985715407231E-5
57 731 3.6670511055830494E-5
57 1544 4.0650406504065E-2
57 1547 4.0650406504065E-2
57 1686 7.031766628153705E-5
57 1687 7.02980352954121E-5
57 1688 7.031732237038131E-5
57 1689 7.031732294942046E-5
58 25 4.18800038805497E-6
58 37 9.89094262051847E-7
58 39 5.19587492090527E-6
58 42 2.96102269588939E-6
58 48 9.89094262051847E-7
58 57 1.62762346919924E-6
58 58 4.97853912779655E-1
58 59 1.00161444258415E-6
58 60 3.19890612600313E-6
58 67 9.89094262051847E-7
58 78 9.89094262051847E-7
58 93 9.89094262051847E-7
58 128 3.98141740927199E-6
58 131 2.0695858419895E-5
58 591 1.0989010989011E-1
58 594 2.85714285714286E-1
58 726 3.62991194536431E-5
58 727 3.629841987433735E-5
58 1549 1.01626016260163E-1
58 1684 7.0333801547E-5
58 1685 7.031198532964791E-5
59 58 1.00161444258415E-6
59 59 2.28946781028254E-1
59 60 3.00484332775245E-6
59 592 1.0989010989011E-1
59 595 1.19047619047619E-1
60 25 1.97192843383754E-6
60 37 2.96102269588939E-6
60 39 9.89094262051847E-7
60 49 9.89094262051847E-7
60 52 9.89094262051847E-7
60 54 9.89094262051847E-7
60 58 3.19890612600313E-6
60 59 3.00484332775245E-6
60 60 3.22263023719243E-1
60 61 3.98141740927199E-6
60 63 9.89094262051847E-7
60 65 9.89094262051847E-7
60 67 1.78287370779979E-5
60 68 1.26453823376249E-6
60 69 1.97192843383754E-6
60 72 2.21607195421743E-6
60 73 3.00484332775245E-6
60 74 3.98141740927199E-6
60 78 1.97192843383754E-6
60 143 1.97192843383754E-6
60 592 1.25203961514173E-4
60 593 1.234273558334745E-4
60 605 1.42857142857143E-1
60 612 1.243389063089655E-4
60 613 1.2429738242976802E-4
60 1550 7.031754237013936E-5
60 1551 7.031701902676345E-5
60 1562 7.62195121951219E-2
60 1565 1.01626016260163E-1
60 1570 7.03174422302278E-5
60 1571 7.0317426190198E-5
61 25 1.96379031649155E-5
61 39 5.97212611390799E-6
61 60 3.98141740927199E-6
61 61 3.0493383244485E-1
61 1548 1.52439024390244E-1
61 1551 7.62195121951219E-2
61 1552 7.62195121951219E-2
62 62 2.68630297284875E-1
62 63 4.98303185185614E-6
62 596 1.58730158730159E-1
62 599 1.0989010989011E-1
63 39 2.87964152242943E-6
63 45 6.09732791923101E-6
63 60 9.89094262051847E-7
63 62 4.98303185185614E-6
63 63 9.71125076469822E-2
63 65 9.89094262051847E-7
63 67 9.89094262051847E-7
63 78 9.89094262051847E-7
63 93 9.89094262051847E-7
63 137 9.89094262051847E-7
63 596 1.24290313601081E-4
63 597 1.24343854104465E-4
63 743 5.29100529100529E-2
63 1554 3.514845567390335E-5
63 1555 3.5158851620614E-5
63 1701 4.35540069686411E-2
64 64 2.68630297284875E-1
64 600 1.58730158730159E-1
64 603 1.0989010989011E-1
65 49 9.89094262051847E-7
65 54 1.97192843383754E-6
65 60 9.89094262051847E-7
65 63 9.89094262051847E-7
65 65 3.69114857604898E-1
65 67 9.89094262051847E-7
65 78 9.89094262051847E-7
65 91 9.89094262051847E-7
65 93 1.18941715056868E-6
65 137 9.89094262051847E-7
65 138 9.89094262051847E-7
65 141 9.89094262051847E-7
65 147 9.89094262051847E-7
65 149 9.89094262051847E-7
65 158 9.89094262051847E-7
65 205 9.89094262051847E-7
65 209 9.89094262051847E-7
65 221 1.97192843383754E-6
65 228 9.89094262051847E-7
65 278 1.97192843383754E-6
65 281 9.89094262051847E-7
65 306 9.89094262051847E-7
65 319 9.89094262051847E-7
65 358 1.97192843383754E-6
65 379 1.97192843383754E-6
65 396 9.89094262051847E-7
65 447 2.80452043923562E-6
65 457 1.97192843383754E-6
65 459 9.89094262051847E-7
65 462 8.06925635306855E-6
65 463 3.79361470128746E-6
65 465 4.98303185185614E-6
65 601 2.85714285714286E-1
65 1018 6.50152987241334E-5
65 1019 6.58762034470888E-5
65 1400 1.24128523742057E-4
65 1401 1.245034882601475E-4
65 1406 1.2413035254404E-4
65 1407 1.2450497287852752E-4
65 1558 4.0650406504065E-2
65 1561 4.0650406504065E-2
65 1976 3.917654651903645E-5
65 1977 3.91653306448531E-5
65 2358 3.514837443764445E-5
65 2359 3.5158431531300756E-5
65 2364 3.51584315089071E-5
65 2365 3.514837601621975E-5
66 66 3.49689287411805E-1
66 67 6.52301405732927E-6
66 68 3.98141740927199E-6
66 69 4.14417975619192E-6
66 604 1.2987012987013E-1
66 607 1.0989010989011E-1
66 608 1.0989010989011E-1
67 37 7.73747156896255E-6
67 41 9.89094262051847E-7
67 48 9.89094262051847E-7
67 49 9.89094262051847E-7
67 52 1.97192843383754E-6
67 54 9.89094262051847E-7
67 57 1.97192843383754E-6
67 58 9.89094262051847E-7
67 60 1.78287370779979E-5
67 63 9.89094262051847E-7
67 65 9.89094262051847E-7
67 66 6.52301405732927E-6
67 67 9.86471702567381E-2
67 68 1.22697769216558E-6
67 69 1.97192843383754E-6
67 72 9.89094262051847E-7
67 76 9.89094262051847E-7
67 78 1.97192843383754E-6
67 80 2.87964152242943E-6
67 93 9.89094262051847E-7
67 143 1.97192843383754E-6
67 604 3.634266897619925E-5
67 605 3.579981235657075E-5
67 628 3.63044286711728E-5
67 629 3.6283161166518E-5
67 632 3.635044865715245E-5
67 633 3.582288053735685E-5
67 711 5.29100529100529E-2
67 1562 2.256412953232125E-4
67 1563 2.259358182281985E-4
67 1586 1.132530236522825E-4
67 1587 1.13197033332639E-4
67 1590 1.131313655802835E-4
67 1591 1.13315042576574E-4
67 1669 4.35540069686411E-2
68 60 1.26453823376249E-6
68 66 3.98141740927199E-6
68 67 1.22697769216558E-6
68 68 3.10533359979435E-1
68 69 6.44789297413546E-7
68 70 2.0695858419895E-5
68 78 9.89094262051847E-7
68 82 1.62762346919924E-6
68 91 1.97192843383754E-6
68 93 9.89094262051847E-7
68 137 9.89094262051847E-7
68 140 9.89094262051847E-7
68 143 9.89094262051847E-7
68 144 5.56522024660818E-6
68 147 9.89094262051847E-7
68 155 9.89094262051847E-7
68 158 9.89094262051847E-7
68 159 9.89094262051847E-7
68 205 9.89094262051847E-7
68 228 9.89094262051847E-7
68 317 3.98141740927199E-6
68 320 2.0695858419895E-5
68 606 3.63061780122602E-5
68 607 3.62933002162167E-5
68 894 5.29100529100529E-2
68 897 5.29100529100529E-2
68 1098 3.6305363007405994E-5
68 1099 3.630582832467205E-5
68 1564 2.258553643183325E-4
68 1565 2.25721229458861E-4
68 1853 2.03252032520325E-1
68 2056 7.033325826330354E-5
68 2057 7.03124659636772E-5
69 37 1.97192843383754E-6
69 52 1.97192843383754E-6
69 60 1.97192843383754E-6
69 66 4.14417975619192E-6
69 67 1.97192843383754E-6
69 68 6.44789297413546E-7
69 69 1.04978183329183E-1
69 71 1.97192843383754E-6
69 72 2.27241276661279E-6
69 76 1.97192843383754E-6
69 608 3.62962609211422E-5
69 609 3.6309188758036146E-5
69 625 5.71428571428571E-2
69 1566 2.258684490105785E-4
69 1567 2.257082300228575E-4
69 1583 4.69043151969981E-2
70 68 2.0695858419895E-5
70 70 1.77876021354971E-1
70 1564 1.01626016260163E-1
70 1567 7.62195121951219E-2
71 37 6.18496918295712E-6
71 52 7.98161508934244E-6
71 69 1.97192843383754E-6
71 71 4.98101197923492E-1
71 72 3.19890612600313E-6
71 74 1.96379031649155E-5
71 75 1.00161444258415E-6
71 76 3.19890612600313E-6
71 610 3.63612056757103E-5
71 611 3.58014366517807E-5
71 617 1.0989010989011E-1
71 620 2.85714285714286E-1
71 1568 2.257801620897125E-4
71 1569 2.257960463527235E-4
71 1575 1.01626016260163E-1
72 37 1.97192843383754E-6
72 52 5.19587492090527E-6
72 60 2.21607195421743E-6
72 67 9.89094262051847E-7
72 69 2.27241276661279E-6
72 71 3.19890612600313E-6
72 72 4.97827034779792E-1
72 73 1.00161444258415E-6
72 76 2.57289709938803E-6
72 611 1.0989010989011E-1
72 614 2.85714285714286E-1
72 622 6.578636832323965E-5
72 623 6.51116044338238E-5
72 1569 1.01626016260163E-1
72 1580 3.917701148077315E-5
72 1581 3.9165426129428505E-5
73 60 3.00484332775245E-6
73 72 1.00161444258415E-6
73 73 2.28946781028254E-1
73 612 1.0989010989011E-1
73 615 1.19047619047619E-1
74 52 5.97212611390799E-6
74 60 3.98141740927199E-6
74 71 1.96379031649155E-5
74 74 3.0493383244485E-1
74 1568 1.52439024390244E-1
74 1571 7.62195121951219E-2
74 1572 7.62195121951219E-2
75 71 1.00161444258415E-6
75 75 2.28946781028254E-1
75 76 3.00484332775245E-6
75 618 1.0989010989011E-1
75 621 1.19047619047619E-1
76 37 1.97192843383754E-6
76 52 9.89094262051847E-7
76 67 9.89094262051847E-7
76 69 1.97192843383754E-6
76 71 3.19890612600313E-6
76 72 2.57289709938803E-6
76 75 3.00484332775245E-6
76 76 3.67780155654987E-1
76 77 3.98141740927199E-6
76 80 6.09732791923101E-6
76 618 1.24198696248421E-4
76 619 1.2443798712367498E-4
76 627 2.85714285714286E-1
76 1576 7.03177648321017E-5
76 1577 7.02981235257599E-5
76 1584 4.0650406504065E-2
76 1587 4.0650406504065E-2
77 37 5.97212611390799E-6
77 52 1.96379031649155E-5
77 76 3.98141740927199E-6
77 77 3.0493383244485E-1
77 1574 1.52439024390244E-1
77 1577 7.62195121951219E-2
77 1578 7.62195121951219E-2
78 25 2.96102269588939E-6
78 30 1.97192843383754E-6
78 37 1.97192843383754E-6
78 39 1.97192843383754E-6
78 41 9.89094262051847E-7
78 42 2.96102269588939E-6
78 44 3.43052946585071E-6
78 46 1.97192843383754E-6
78 48 9.89094262051847E-7
78 49 9.89094262051847E-7
78 54 3.43052946585071E-6
78 57 9.89094262051847E-7
78 58 9.89094262051847E-7
78 60 1.97192843383754E-6
78 63 9.89094262051847E-7
78 65 9.89094262051847E-7
78 67 1.97192843383754E-6
78 68 9.89094262051847E-7
78 78 1.05365002722053E-1
78 80 5.87196466964957E-6
78 91 9.89094262051847E-7
78 93 9.89094262051847E-7
78 119 9.89094262051847E-7
78 120 1.97192843383754E-6
78 123 9.89094262051847E-7
78 130 9.89094262051847E-7
78 141 2.96102269588939E-6
78 187 9.89094262051847E-7
78 194 9.89094262051847E-7
78 196 9.89094262051847E-7
78 228 4.14417975619192E-6
78 255 1.97192843383754E-6
78 259 2.57289709938803E-6
78 265 1.97192843383754E-6
78 287 9.89094262051847E-7
78 289 9.89094262051847E-7
78 306 9.89094262051847E-7
78 331 9.89094262051847E-7
78 339 9.89094262051847E-7
78 342 1.97192843383754E-6
78 348 9.89094262051847E-7
78 358 9.89094262051847E-7
78 391 9.89094262051847E-7
78 396 9.89094262051847E-7
78 421 9.89094262051847E-7
78 426 9.89094262051847E-7
78 623 5.71428571428571E-2
78 1581 4.69043151969981E-2
79 79 2.68630297284875E-1
79 80 4.98303185185614E-6
79 626 1.58730158730159E-1
79 629 1.0989010989011E-1
80 67 2.87964152242943E-6
80 76 6.09732791923101E-6
80 78 5.87196466964957E-6
80 79 4.98303185185614E-6
80 80 3.68513904618012E-1
80 82 5.76554313512501E-6
80 137 9.89094262051847E-7
80 145 6.09732791923101E-6
80 147 2.96102269588939E-6
80 153 9.89094262051847E-7
80 155 9.89094262051847E-7
80 156 9.89094262051847E-7
80 158 9.89094262051847E-7
80 159 9.89094262051847E-7
80 160 1.97192843383754E-6
80 232 9.89094262051847E-7
80 318 7.08642218128285E-6
80 358 1.97192843383754E-6
80 379 9.89094262051847E-7
80 479 4.98303185185614E-6
80 626 3.633826480329175E-5
80 627 3.5801607827744996E-5
80 769 2.85714285714286E-1
80 1434 3.636057407378795E-5
80 1435 3.580083414768245E-5
80 1584 1.13197136175718E-4
80 1585 1.1325292029488399E-4
80 1726 4.0650406504065E-2
80 1729 4.0650406504065E-2
80 2392 1.1321089700093049E-4
80 2393 1.1323906953898449E-4
81 37 4.98303185185614E-6
81 81 2.68630297284875E-1
81 630 1.58730158730159E-1
81 633 1.0989010989011E-1
82 37 6.09732791923101E-6
82 68 1.62762346919924E-6
82 80 5.76554313512501E-6
82 82 3.68721000851643E-1
82 137 9.89094262051847E-7
82 147 9.89094262051847E-7
82 156 2.96102269588939E-6
82 158 9.89094262051847E-7
82 159 2.94224242509094E-6
82 205 9.89094262051847E-7
82 231 9.89094262051847E-7
82 232 9.89094262051847E-7
82 317 4.14417975619192E-6
82 318 1.97192843383754E-6
82 319 9.89094262051847E-7
82 358 1.97192843383754E-6
82 379 9.89094262051847E-7
82 631 2.85714285714286E-1
82 1100 1.24320339454539E-4
82 1101 1.24316056167844E-4
82 1436 1.243127231398925E-4
82 1437 1.243236535884295E-4
82 1588 4.0650406504065E-2
82 1591 4.0650406504065E-2
82 2058 7.03176874505681E-5
82 2059 7.029804193690501E-5
82 2394 3.515864181713815E-5
82 2395 3.515863761372395E-5
83 1 1.62762346919924E-6
83 28 4.58238607482248E-6
83 83 3.06430232455007E-1
83 235 3.98141740927199E-6
83 237 2.0695858419895E-5
83 634 5.10204081632653E-2
83 637 5.10204081632653E-2
83 786 6.54779249243321E-5
83 787 6.541934904338856E-5
83 942 1.2361134651976902E-4
83 943 1.25020996953735E-4
83 1593 2.03252032520325E-1
83 1744 3.917703473145525E-5
83 1745 3.916542777549565E-5
83 1900 7.031680070748546E-5
83 1901 7.02970708249453E-5
84 1 1.97192843383754E-6
84 28 8.96444926112813E-6
84 84 9.72255057344918E-2
84 86 9.89094262051847E-7
84 636 1.817884729779295E-5
84 637 1.7900120437995902E-5
84 639 5.29100529100529E-2
84 1594 2.2586685631140348E-4
84 1595 2.2570981230312748E-4
84 1597 4.35540069686411E-2
85 28 1.20569338526067E-5
85 85 1.98187834273924E-1
85 1592 1.21951219512195E-1
85 1595 7.62195121951219E-2
86 1 9.89094262051847E-7
86 6 1.08925570631026E-6
86 14 7.08642218128285E-6
86 84 9.89094262051847E-7
86 86 3.67650461284064E-1
86 96 9.89094262051847E-7
86 638 6.541319693944276E-5
86 639 6.548354384361105E-5
86 661 2.85714285714286E-1
86 1596 3.917699812084535E-5
86 1597 3.91654204343729E-5
86 1618 4.0650406504065E-2
86 1621 4.0650406504065E-2
87 6 2.87964152242943E-6
87 32 9.89094262051847E-7
87 87 9.7039605060718E-2
87 641 5.29100529100529E-2
87 798 3.63443758831119E-5
87 799 3.58204375758579E-5
87 1599 4.35540069686411E-2
87 1756 1.131383654613885E-4
87 1757 1.13308304231436E-4
88 3 7.90649400614863E-6
88 88 9.69027499544154E-2
88 89 4.58238607482248E-6
88 90 1.20569338526067E-5
88 643 5.29100529100529E-2
88 644 1.818609812752665E-5
88 645 1.815070146284625E-5
88 1601 4.35540069686411E-2
88 1602 7.03333716622167E-5
88 1603 7.031235630845935E-5
89 9 9.89094262051847E-7
89 11 9.89094262051847E-7
89 32 9.89094262051847E-7
89 34 9.89094262051847E-7
89 88 4.58238607482248E-6
89 89 3.06694340669804E-1
89 91 1.64014364973154E-6
89 94 9.89094262051847E-7
89 95 9.89094262051847E-7
89 99 9.89094262051847E-7
89 101 1.97192843383754E-6
89 104 2.21607195421743E-6
89 105 5.19587492090527E-6
89 107 5.97212611390799E-6
89 110 1.96379031649155E-5
89 644 5.10204081632653E-2
89 647 5.10204081632653E-2
89 678 3.58003198742011E-5
89 679 3.636204755012565E-5
89 680 3.63060681471639E-5
89 681 3.63051088077933E-5
89 1603 2.03252032520325E-1
89 1636 2.258410687248605E-4
89 1637 2.257342701859395E-4
89 1638 7.033859777676174E-5
89 1639 7.03073668684466E-5
90 88 1.20569338526067E-5
90 90 1.98187834273924E-1
90 1602 1.21951219512195E-1
90 1605 7.62195121951219E-2
91 9 9.89094262051847E-7
91 11 9.89094262051847E-7
91 14 2.96102269588939E-6
91 18 3.29906757026154E-6
91 22 9.89094262051847E-7
91 32 1.97192843383754E-6
91 34 9.89094262051847E-7
91 37 1.97192843383754E-6
91 41 9.89094262051847E-7
91 54 2.94224242509094E-6
91 65 9.89094262051847E-7
91 68 1.97192843383754E-6
91 78 9.89094262051847E-7
91 89 1.64014364973154E-6
91 91 3.08092310362823E-1
91 93 1.97192843383754E-6
91 94 9.95354352317998E-6
91 96 9.89094262051847E-7
91 101 9.89094262051847E-7
91 113 4.6950676996132E-6
91 119 9.89094262051847E-7
91 120 9.89094262051847E-7
91 122 9.89094262051847E-7
91 123 9.89094262051847E-7
91 127 9.89094262051847E-7
91 130 9.89094262051847E-7
91 133 9.89094262051847E-7
91 135 9.89094262051847E-7
91 138 9.89094262051847E-7
91 140 4.58238607482248E-6
91 141 9.87842243998617E-6
91 142 1.20569338526067E-5
91 144 7.98161508934244E-6
91 147 1.97192843383754E-6
91 149 9.89094262051847E-7
91 158 9.89094262051847E-7
91 176 9.89094262051847E-7
91 180 9.89094262051847E-7
91 205 9.89094262051847E-7
91 648 5.10204081632653E-2
91 651 5.10204081632653E-2
91 702 6.47654010940452E-5
91 703 6.612268493665945E-5
91 748 6.294748601097965E-5
91 749 6.174449579176631E-5
91 896 6.21183708983296E-5
91 897 6.25787347335378E-5
91 964 6.20566424439656E-5
91 965 6.263961363701525E-5
91 1607 2.03252032520325E-1
91 1660 3.917688017761475E-5
91 1661 3.91653943057523E-5
91 1706 7.031690407575435E-5
91 1707 7.029695852971695E-5
91 1854 7.031734995709555E-5
91 1855 7.03164882764698E-5
91 1922 7.031752556136515E-5
91 1923 7.029800925060584E-5
92 92 1.98187834273924E-1
92 1606 1.21951219512195E-1
92 1609 7.62195121951219E-2
93 9 9.89094262051847E-7
93 11 9.89094262051847E-7
93 18 2.96102269588939E-6
93 22 9.89094262051847E-7
93 23 1.97192843383754E-6
93 25 9.89094262051847E-7
93 32 9.89094262051847E-7
93 34 9.89094262051847E-7
93 37 1.97192843383754E-6
93 41 1.18941715056868E-6
93 46 9.89094262051847E-7
93 48 9.89094262051847E-7
93 49 9.89094262051847E-7
93 54 9.89094262051847E-7
93 57 1.97192843383754E-6
93 58 9.89094262051847E-7
93 63 9.89094262051847E-7
93 65 1.18941715056868E-6
93 67 9.89094262051847E-7
93 68 9.89094262051847E-7
93 78 9.89094262051847E-7
93 91 1.97192843383754E-6
93 93 3.69245010692234E-1
93 96 1.97192843383754E-6
93 109 1.97192843383754E-6
93 113 1.97192843383754E-6
93 122 1.97192843383754E-6
93 137 9.89094262051847E-7
93 141 3.86247569421512E-6
93 143 6.09732791923101E-6
93 144 9.89094262051847E-7
93 145 2.80452043923562E-6
93 150 4.98303185185614E-6
93 652 6.549476610159975E-5
93 653 6.540253867819475E-5
93 671 2.85714285714286E-1
93 764 1.24145212381942E-4
93 765 1.244871797495805E-4
93 770 1.241501770810455E-4
93 771 1.244852619914E-4
93 1610 3.91765005963853E-5
93 1611 3.916532484496415E-5
93 1628 4.0650406504065E-2
93 1631 4.0650406504065E-2
93 1722 3.5148366054670147E-5
93 1723 3.515839043694165E-5
93 1728 3.51583904160655E-5
93 1729 3.51483675510844E-5
94 9 9.89094262051847E-7
94 11 9.89094262051847E-7
94 32 1.97192843383754E-6
94 34 9.89094262051847E-7
94 89 9.89094262051847E-7
94 91 9.95354352317998E-6
94 94 9.78131106864653E-2
94 95 1.97192843383754E-6
94 101 2.96102269588939E-6
94 105 9.89094262051847E-7
94 112 9.89094262051847E-7
94 115 1.17689697003638E-6
94 117 9.89094262051847E-7
94 120 2.87964152242943E-6
94 141 9.89094262051847E-7
94 176 9.89094262051847E-7
94 179 9.89094262051847E-7
94 180 1.97192843383754E-6
94 190 1.97192843383754E-6
94 242 4.58238607482248E-6
94 249 1.20569338526067E-5
94 653 5.29100529100529E-2
94 718 3.6309635445859595E-5
94 719 3.62885487995761E-5
94 962 1.821263692165805E-5
94 963 1.81532118201663E-5
94 1611 4.35540069686411E-2
94 1676 1.13254913812194E-4
94 1677 1.1319515563462001E-4
94 1920 7.033309430460206E-5
94 1921 7.03125960396278E-5
95 9 9.89094262051847E-7
95 11 9.89094262051847E-7
95 89 9.89094262051847E-7
95 94 1.97192843383754E-6
95 95 3.06391725751449E-1
95 96 4.58238607482248E-6
95 101 9.89094262051847E-7
95 176 5.42123817048671E-6
95 178 3.98141740927199E-6
95 179 7.33056570166274E-6
95 181 2.0695858419895E-5
95 182 4.98303185185614E-6
95 654 5.10204081632653E-2
95 657 5.10204081632653E-2
95 820 3.63057267682865E-5
95 821 3.630568482980735E-5
95 824 3.636246307267565E-5
95 825 3.58001773397286E-5
95 1613 2.03252032520325E-1
95 1778 7.033322174449004E-5
95 1779 7.031250066436026E-5
95 1782 1.133499287528935E-4
95 1783 1.130951252034845E-4
96 3 1.97192843383754E-6
96 8 1.97192843383754E-6
96 9 9.89094262051847E-7
96 11 8.96444926112813E-6
96 14 3.79361470128746E-6
96 32 9.89094262051847E-7
96 34 9.89094262051847E-7
96 86 9.89094262051847E-7
96 91 9.89094262051847E-7
96 93 1.97192843383754E-6
96 95 4.58238607482248E-6
96 96 9.75871341281781E-2
96 97 1.20569338526067E-5
96 654 1.81932788733621E-5
96 655 1.815275715378615E-5
96 659 5.29100529100529E-2
96 662 3.63086918835924E-5
96 663 3.62876046178719E-5
96 1612 7.0332897120856E-5
96 1613 7.031279008690226E-5
96 1617 4.35540069686411E-2
96 1620 1.132039767978785E-4
96 1621 1.132451203748785E-4
97 96 1.20569338526067E-5
97 97 1.98187834273924E-1
97 1612 1.21951219512195E-1
97 1615 7.62195121951219E-2
98 14 4.98303185185614E-6
98 98 2.60781003721296E-1
98 660 1.58730158730159E-1
98 663 1.02040816326531E-1
99 3 2.21607195421743E-6
99 8 4.21304074911958E-6
99 32 9.89094262051847E-7
99 89 9.89094262051847E-7
99 99 4.89983474292936E-1
99 100 1.00161444258415E-6
99 101 3.19890612600313E-6
99 168 6.44789297413546E-7
99 170 1.22697769216558E-6
99 173 3.98141740927199E-6
99 175 2.0695858419895E-5
99 665 1.02040816326531E-1
99 668 2.85714285714286E-1
99 808 3.629886644005255E-5
99 809 3.6299209805509E-5
99 1623 1.01626016260163E-1
99 1766 7.033380467033245E-5
99 1767 7.031196974362115E-5
100 99 1.00161444258415E-6
100 100 2.21097487464675E-1
100 101 3.00484332775245E-6
100 666 1.02040816326531E-1
100 669 1.19047619047619E-1
101 9 9.89094262051847E-7
101 11 9.89094262051847E-7
101 22 1.6839642815946E-5
101 32 9.89094262051847E-7
101 34 9.89094262051847E-7
101 89 1.97192843383754E-6
101 91 9.89094262051847E-7
101 94 2.96102269588939E-6
101 95 9.89094262051847E-7
101 99 3.19890612600313E-6
101 100 3.00484332775245E-6
101 101 3.22352419533612E-1
101 102 3.98141740927199E-6
101 105 3.19890612600313E-6
101 106 3.00484332775245E-6
101 107 3.98141740927199E-6
101 112 9.89094262051847E-7
101 115 1.17689697003638E-6
101 117 1.26453823376249E-6
101 190 1.97192843383754E-6
101 666 1.25230196099584E-4
101 667 1.2340097017691598E-4
101 676 1.243383319314435E-4
101 677 1.24297960148035E-4
101 697 1.42857142857143E-1
101 1624 7.03175001678884E-5
101 1625 7.03169873224621E-5
101 1634 7.031739588878421E-5
101 1635 7.03494295524921E-5
101 1654 7.62195121951219E-2
101 1657 1.01626016260163E-1
102 3 1.96379031649155E-5
102 8 5.97212611390799E-6
102 101 3.98141740927199E-6
102 102 3.0493383244485E-1
102 1622 1.52439024390244E-1
102 1625 7.62195121951219E-2
102 1626 7.62195121951219E-2
103 103 2.60781003721296E-1
103 670 1.58730158730159E-1
103 673 1.02040816326531E-1
104 18 5.19587492090527E-6
104 89 2.21607195421743E-6
104 104 4.90222955874418E-1
104 105 2.21607195421743E-6
104 107 1.96379031649155E-5
104 108 1.00161444258415E-6
104 109 3.19890612600313E-6
104 674 3.636221405234865E-5
104 675 3.5801732583138146E-5
104 681 1.02040816326531E-1
104 684 2.85714285714286E-1
104 1632 2.256845770575605E-4
104 1633 2.258887988923875E-4
104 1639 1.01626016260163E-1
105 11 4.89539058813003E-6
105 34 9.89094262051847E-7
105 89 5.19587492090527E-6
105 94 9.89094262051847E-7
105 101 3.19890612600313E-6
105 104 2.21607195421743E-6
105 105 4.90028340772435E-1
105 106 1.00161444258415E-6
105 141 9.89094262051847E-7
105 176 9.89094262051847E-7
105 187 9.89094262051847E-7
105 192 9.89094262051847E-7
105 196 9.89094262051847E-7
105 675 1.02040816326531E-1
105 678 2.85714285714286E-1
105 974 6.545518454255161E-5
105 975 6.544203707670935E-5
105 1633 1.01626016260163E-1
105 1932 3.917697567928395E-5
105 1933 3.916541708427045E-5
106 101 3.00484332775245E-6
106 105 1.00161444258415E-6
106 106 2.21097487464675E-1
106 676 1.02040816326531E-1
106 679 1.19047619047619E-1
107 89 5.97212611390799E-6
107 101 3.98141740927199E-6
107 104 1.96379031649155E-5
107 107 3.0493383244485E-1
107 1632 1.52439024390244E-1
107 1635 7.62195121951219E-2
107 1636 7.62195121951219E-2
108 104 1.00161444258415E-6
108 108 2.21097487464675E-1
108 109 3.00484332775245E-6
108 682 1.02040816326531E-1
108 685 1.19047619047619E-1
109 22 9.89094262051847E-7
109 93 1.97192843383754E-6
109 104 3.19890612600313E-6
109 108 3.00484332775245E-6
109 109 3.67805267651059E-1
109 110 3.98141740927199E-6
109 112 6.09732791923101E-6
109 682 1.24107201667418E-4
109 683 1.24529691220329E-4
109 687 2.85714285714286E-1
109 1640 7.031772773906505E-5
109 1641 7.029811617978935E-5
109 1644 4.0650406504065E-2
109 1647 4.0650406504065E-2
110 18 5.97212611390799E-6
110 89 1.96379031649155E-5
110 109 3.98141740927199E-6
110 110 3.0493383244485E-1
110 1638 1.52439024390244E-1
110 1641 7.62195121951219E-2
110 1642 7.62195121951219E-2
111 111 2.60781003721296E-1
111 112 4.98303185185614E-6
111 686 1.58730158730159E-1
111 689 1.02040816326531E-1
112 11 9.89094262051847E-7
112 22 2.87964152242943E-6
112 94 9.89094262051847E-7
112 101 9.89094262051847E-7
112 109 6.09732791923101E-6
112 111 4.98303185185614E-6
112 112 3.68106282043199E-1
112 115 3.79361470128746E-6
112 130 1.97192843383754E-6
112 185 6.09732791923101E-6
112 187 1.97192843383754E-6
112 189 4.98303185185614E-6
112 190 6.09732791923101E-6
112 686 3.6338104236259195E-5
112 687 3.580148486550295E-5
112 839 2.85714285714286E-1
112 842 3.6360900668359403E-5
112 843 3.580070209528615E-5
112 1644 1.13255633288525E-4
112 1645 1.131930533077225E-4
112 1796 4.0650406504065E-2
112 1799 4.0650406504065E-2
112 1800 1.1328402403579249E-4
112 1801 1.13163564096036E-4
113 22 1.97192843383754E-6
113 91 4.6950676996132E-6
113 93 1.97192843383754E-6
113 113 9.72662444838964E-2
113 116 4.14417975619192E-6
113 117 6.44789297413546E-7
113 691 5.29100529100529E-2
113 700 3.62972900177789E-5
113 701 3.631025329612455E-5
113 1649 4.35540069686411E-2
113 1658 2.258060995946305E-4
113 1659 2.257701743724095E-4
114 18 4.98303185185614E-6
114 114 2.60781003721296E-1
114 692 1.58730158730159E-1
114 695 1.02040816326531E-1
115 11 1.17689697003638E-6
115 18 6.09732791923101E-6
115 94 1.17689697003638E-6
115 101 1.17689697003638E-6
115 112 3.79361470128746E-6
115 115 3.68245687579397E-1
115 117 6.44789297413546E-7
115 130 1.97192843383754E-6
115 187 1.97192843383754E-6
115 190 2.76069980737256E-6
115 191 4.14417975619192E-6
115 693 2.85714285714286E-1
115 844 1.24309755835899E-4
115 845 1.243266038387955E-4
115 850 1.241887618423075E-4
115 851 1.24447944220804E-4
115 1650 4.0650406504065E-2
115 1653 4.0650406504065E-2
115 1802 3.51586461924627E-5
115 1803 3.51948795726461E-5
115 1808 7.031770727754846E-5
115 1809 7.02980459551397E-5
116 22 6.52301405732927E-6
116 113 4.14417975619192E-6
116 116 3.33990700284647E-1
116 117 3.98141740927199E-6
116 696 1.2987012987013E-1
116 699 1.02040816326531E-1
116 700 1.02040816326531E-1
117 11 9.89094262051847E-7
117 94 9.89094262051847E-7
117 101 1.26453823376249E-6
117 113 6.44789297413546E-7
117 115 6.44789297413546E-7
117 116 3.98141740927199E-6
117 117 3.1034901552431E-1
117 118 2.0695858419895E-5
117 130 1.97192843383754E-6
117 187 1.97192843383754E-6
117 190 1.22697769216558E-6
117 191 3.98141740927199E-6
117 193 2.0695858419895E-5
117 194 5.56522024660818E-6
117 698 3.6305994546391E-5
117 699 3.62931053930012E-5
117 848 3.6305213514150003E-5
117 849 3.630484421409285E-5
117 852 5.29100529100529E-2
117 855 5.29100529100529E-2
117 1656 2.2578075918573302E-4
117 1657 2.25795445308718E-4
117 1806 7.03332630798392E-5
117 1807 7.031246945959225E-5
117 1811 2.03252032520325E-1
118 117 2.0695858419895E-5
118 118 1.77876021354971E-1
118 1656 1.01626016260163E-1
118 1659 7.62195121951219E-2
119 78 9.89094262051847E-7
119 91 9.89094262051847E-7
119 119 9.70700608198961E-2
119 120 3.79361470128746E-6
119 130 9.89094262051847E-7
119 703 5.29100529100529E-2
119 900 3.630193381229655E-5
119 901 3.62814908868372E-5
119 1661 4.35540069686411E-2
119 1858 1.132147232955475E-4
119 1859 1.13234791435992E-4
120 25 4.58238607482248E-6
120 78 1.97192843383754E-6
120 91 9.89094262051847E-7
120 94 2.87964152242943E-6
120 119 3.79361470128746E-6
120 120 3.06412479131975E-1
120 122 6.09732791923101E-6
120 125 4.98303185185614E-6
120 130 9.89094262051847E-7
120 141 1.97192843383754E-6
120 196 6.09732791923101E-6
120 216 4.98303185185614E-6
120 704 5.10204081632653E-2
120 707 5.10204081632653E-2
120 716 3.63285200010521E-5
120 717 3.57977221956991E-5
120 898 3.632894218801875E-5
120 899 3.5797681825859454E-5
120 1663 2.03252032520325E-1
120 1674 1.131950573367355E-4
120 1675 1.132550122848325E-4
120 1856 1.132347690232245E-4
120 1857 1.132147507960665E-4
121 25 1.20569338526067E-5
121 121 1.98187834273924E-1
121 1662 1.21951219512195E-1
121 1665 7.62195121951219E-2
122 23 9.89094262051847E-7
122 25 9.89094262051847E-7
122 37 1.97192843383754E-6
122 91 9.89094262051847E-7
122 93 1.97192843383754E-6
122 120 6.09732791923101E-6
122 122 3.67598139554599E-1
122 708 6.55985369601508E-5
122 709 6.529901267428024E-5
122 717 2.85714285714286E-1
122 1666 3.91770143711648E-5
122 1667 3.91654251422547E-5
122 1674 4.0650406504065E-2
122 1677 4.0650406504065E-2
123 78 9.89094262051847E-7
123 91 9.89094262051847E-7
123 123 3.07501162319992E-1
123 127 3.94385686767509E-6
123 130 1.97192843383754E-6
123 133 1.97192843383754E-6
123 135 1.05545121887305E-5
123 141 9.89094262051847E-7
123 147 7.98161508934244E-6
123 158 9.89094262051847E-7
123 200 9.89094262051847E-7
123 202 4.58238607482248E-6
123 203 1.20569338526067E-5
123 205 9.89094262051847E-7
123 206 7.90649400614863E-6
123 221 2.21607195421743E-6
123 223 1.96379031649155E-5
123 712 5.10204081632653E-2
123 715 5.10204081632653E-2
123 868 6.340496554342755E-5
123 869 6.12808005444628E-5
123 874 6.192637532560376E-5
123 875 6.276811790887699E-5
123 878 6.20106098027622E-5
123 879 6.26850296172964E-5
123 910 1.229621413278445E-4
123 911 1.2566643059905899E-4
123 1671 2.03252032520325E-1
123 1826 7.032066488768865E-5
123 1827 7.02977327197604E-5
123 1832 7.03218792838831E-5
123 1833 7.03194718137697E-5
123 1836 7.032234443647901E-5
123 1837 7.02984194290755E-5
123 1868 7.032153088709395E-5
123 1869 7.02974568827777E-5
124 124 1.98187834273924E-1
124 1670 1.21951219512195E-1
124 1673 7.62195121951219E-2
125 120 4.98303185185614E-6
125 125 2.60781003721296E-1
125 716 1.58730158730159E-1
125 719 1.02040816326531E-1
126 126 2.60781003721296E-1
126 720 1.58730158730159E-1
126 723 1.02040816326531E-1
127 91 9.89094262051847E-7
127 123 3.94385686767509E-6
127 127 3.68732614166917E-1
127 130 1.97192843383754E-6
127 133 7.18032353527512E-6
127 135 9.89094262051847E-7
127 141 9.89094262051847E-7
127 147 1.28957859482709E-6
127 201 2.87964152242943E-6
127 205 9.89094262051847E-7
127 206 9.89094262051847E-7
127 221 4.21304074911958E-6
127 223 5.97212611390799E-6
127 721 2.85714285714286E-1
127 880 6.537201723888156E-5
127 881 6.552418826503604E-5
127 908 1.244168875216645E-4
127 909 1.24219744575829E-4
127 914 1.2507834196642201E-4
127 915 1.2354888626364598E-4
127 1678 4.0650406504065E-2
127 1681 4.0650406504065E-2
127 1838 3.91760561881338E-5
127 1839 3.916519891672405E-5
127 1866 3.5157990082543446E-5
127 1867 3.514825586518145E-5
127 1872 7.031510912275495E-5
127 1873 7.0315910231367E-5
128 57 4.14417975619192E-6
128 58 3.98141740927199E-6
128 128 3.33990700284647E-1
128 129 6.52301405732927E-6
128 724 1.2987012987013E-1
128 727 1.02040816326531E-1
128 728 1.02040816326531E-1
129 48 9.89094262051847E-7
129 57 1.78287370779979E-5
129 128 6.52301405732927E-6
129 129 3.21450563680259E-1
129 130 1.6839642815946E-5
129 724 1.245757277938955E-4
129 725 1.24061269662233E-4
129 731 1.42857142857143E-1
129 1682 7.029691173196249E-5
129 1683 7.0317765896857E-5
129 1688 7.62195121951219E-2
129 1691 1.01626016260163E-1
130 11 9.89094262051847E-7
130 34 9.89094262051847E-7
130 41 9.89094262051847E-7
130 78 9.89094262051847E-7
130 91 9.89094262051847E-7
130 112 1.97192843383754E-6
130 115 1.97192843383754E-6
130 117 1.97192843383754E-6
130 119 9.89094262051847E-7
130 120 9.89094262051847E-7
130 123 1.97192843383754E-6
130 127 1.97192843383754E-6
130 129 1.6839642815946E-5
130 130 3.21953124343091E-1
130 133 1.97192843383754E-6
130 135 1.97192843383754E-6
130 141 5.91578530151263E-6
130 147 1.97192843383754E-6
130 166 9.89094262051847E-7
130 185 9.89094262051847E-7
130 187 9.89094262051847E-7
130 190 1.97192843383754E-6
130 192 3.94385686767509E-6
130 194 1.97192843383754E-6
130 196 9.89094262051847E-7
130 238 9.89094262051847E-7
130 241 1.97192843383754E-6
130 245 1.97192843383754E-6
130 246 1.97192843383754E-6
130 252 9.89094262051847E-7
130 254 1.97192843383754E-6
130 255 9.89094262051847E-7
130 256 1.97192843383754E-6
130 257 1.97192843383754E-6
130 259 9.89094262051847E-7
130 260 9.89094262051847E-7
130 262 1.97192843383754E-6
130 287 9.89094262051847E-7
130 289 1.28957859482709E-6
130 293 1.97192843383754E-6
130 323 9.89094262051847E-7
130 324 9.89094262051847E-7
130 325 9.89094262051847E-7
130 725 1.42857142857143E-1
130 1682 7.62195121951219E-2
130 1685 1.01626016260163E-1
131 58 2.0695858419895E-5
131 131 1.77876021354971E-1
131 1684 1.01626016260163E-1
131 1687 7.62195121951219E-2
132 48 4.14417975619192E-6
132 57 6.52301405732927E-6
132 132 3.33990700284647E-1
132 133 3.98141740927199E-6
132 730 1.2987012987013E-1
132 733 1.02040816326531E-1
132 734 1.02040816326531E-1
133 41 9.89094262051847E-7
133 48 6.44789297413546E-7
133 91 9.89094262051847E-7
133 123 1.97192843383754E-6
133 127 7.18032353527512E-6
133 130 1.97192843383754E-6
133 132 3.98141740927199E-6
133 133 3.10060326280756E-1
133 134 2.0695858419895E-5
133 135 1.97192843383754E-6
133 141 9.89094262051847E-7
133 147 2.27241276661279E-6
133 196 4.58238607482248E-6
133 732 3.635519476238315E-5
133 733 3.582701120266215E-5
133 858 5.29100529100529E-2
133 861 5.29100529100529E-2
133 1690 2.257899170255395E-4
133 1691 2.257862514648405E-4
133 1817 2.03252032520325E-1
134 133 2.0695858419895E-5
134 134 1.77876021354971E-1
134 1690 1.01626016260163E-1
134 1693 7.62195121951219E-2
135 91 9.89094262051847E-7
135 123 1.05545121887305E-5
135 127 9.89094262051847E-7
135 130 1.97192843383754E-6
135 133 1.97192843383754E-6
135 135 3.06377938879724E-1
135 141 9.89094262051847E-7
135 147 1.97192843383754E-6
135 736 5.10204081632653E-2
135 739 5.10204081632653E-2
135 740 6.486901540252209E-5
135 741 6.60202826145964E-5
135 870 6.128115239041094E-5
135 871 6.34045011276394E-5
135 1695 2.03252032520325E-1
135 1698 3.9178286471527405E-5
135 1699 3.916557903265705E-5
135 1828 7.031987022532246E-5
135 1829 7.031785105835416E-5
136 136 1.98187834273924E-1
136 1694 1.21951219512195E-1
136 1697 7.62195121951219E-2
137 49 9.89094262051847E-7
137 54 9.89094262051847E-7
137 63 9.89094262051847E-7
137 65 9.89094262051847E-7
137 68 9.89094262051847E-7
137 80 9.89094262051847E-7
137 82 9.89094262051847E-7
137 93 9.89094262051847E-7
137 137 9.84166455432143E-2
137 140 1.97192843383754E-6
137 141 1.97192843383754E-6
137 143 1.97192843383754E-6
137 145 4.05027840219965E-6
137 147 2.87964152242943E-6
137 155 2.87964152242943E-6
137 157 6.52301405732927E-6
137 158 1.6839642815946E-5
137 741 5.29100529100529E-2
137 774 3.634896377362245E-5
137 775 3.582265295982085E-5
137 778 3.6303041431543154E-5
137 779 3.628179412616315E-5
137 780 3.634141967176695E-5
137 781 3.579927391717345E-5
137 1699 4.35540069686411E-2
137 1732 1.1327648280699099E-4
137 1733 1.131737258304185E-4
137 1736 1.13267909256235E-4
137 1737 1.131822440009145E-4
137 1738 2.2564930034415598E-4
137 1739 2.25927761021651E-4
138 54 2.96102269588939E-6
138 65 9.89094262051847E-7
138 91 9.89094262051847E-7
138 138 3.07380819177888E-1
138 141 9.89094262051847E-7
138 147 9.89094262051847E-7
138 149 1.97192843383754E-6
138 158 9.89094262051847E-7
138 205 9.89094262051847E-7
138 208 4.58238607482248E-6
138 209 8.96444926112813E-6
138 210 1.20569338526067E-5
138 212 9.89094262051847E-7
138 213 7.90649400614863E-6
138 221 9.89094262051847E-7
138 228 9.89094262051847E-7
138 272 1.56502256653773E-6
138 274 7.90649400614863E-6
138 744 5.10204081632653E-2
138 747 5.10204081632653E-2
138 882 6.313277976450796E-5
138 883 6.15567013730278E-5
138 892 6.204543524481945E-5
138 893 6.265067777178315E-5
138 1008 6.447453099367925E-5
138 1009 6.640985044136865E-5
138 1012 6.1995925192428E-5
138 1013 6.269951211373639E-5
138 1703 2.03252032520325E-1
138 1840 7.032095652776475E-5
138 1841 7.029768388043349E-5
138 1850 7.032202515878355E-5
138 1851 7.03194152926739E-5
138 1966 3.917961342370365E-5
138 1967 3.916555703151215E-5
138 1970 7.03224616549843E-5
138 1971 7.02984099333618E-5
139 139 1.98187834273924E-1
139 1702 1.21951219512195E-1
139 1705 7.62195121951219E-2
140 68 9.89094262051847E-7
140 91 4.58238607482248E-6
140 137 1.97192843383754E-6
140 140 3.05898842235759E-1
140 143 9.89094262051847E-7
140 748 5.10204081632653E-2
140 751 5.10204081632653E-2
140 754 1.908458499427985E-5
140 755 1.879392099321305E-5
140 1707 2.03252032520325E-1
140 1712 1.2616151246181302E-4
140 1713 1.260175476458975E-4
141 9 9.89094262051847E-7
141 41 1.64014364973154E-6
141 54 9.89094262051847E-7
141 65 9.89094262051847E-7
141 78 2.96102269588939E-6
141 91 9.87842243998617E-6
141 93 3.86247569421512E-6
141 94 9.89094262051847E-7
141 105 9.89094262051847E-7
141 120 1.97192843383754E-6
141 123 9.89094262051847E-7
141 127 9.89094262051847E-7
141 130 5.91578530151263E-6
141 133 9.89094262051847E-7
141 135 9.89094262051847E-7
141 137 1.97192843383754E-6
141 138 9.89094262051847E-7
141 141 1.05328089651376E-1
141 143 9.89094262051847E-7
141 147 9.89094262051847E-7
141 149 1.64014364973154E-6
141 192 3.94385686767509E-6
141 196 9.87842243998617E-6
141 228 1.97192843383754E-6
141 238 1.97192843383754E-6
141 239 4.14417975619192E-6
141 241 9.89094262051847E-7
141 242 5.49635925368052E-6
141 245 1.97192843383754E-6
141 246 9.89094262051847E-7
141 750 6.174619814127276E-5
141 751 6.294591007102755E-5
141 766 1.2394561746509048E-4
141 767 1.24688657785859E-4
141 860 6.23785246779478E-5
141 861 6.23219468203527E-5
141 952 1.24229268732577E-4
141 953 1.244073441902125E-4
141 961 5.49450549450549E-2
141 1030 1.2430023628702102E-4
141 1031 1.243360688128735E-4
141 1708 7.03174398619442E-5
141 1709 7.03165891300428E-5
141 1724 3.5158779414869496E-5
141 1725 3.51484428195165E-5
141 1818 7.031744339000724E-5
141 1819 7.031657013097204E-5
141 1910 7.031762361413261E-5
141 1911 7.029802843945015E-5
141 1919 4.69043151969981E-2
141 1988 3.51586138872327E-5
141 1989 3.5158605718636454E-5
142 91 1.20569338526067E-5
142 142 1.98187834273924E-1
142 1706 1.21951219512195E-1
142 1709 7.62195121951219E-2
143 60 1.97192843383754E-6
143 67 1.97192843383754E-6
143 68 9.89094262051847E-7
143 93 6.09732791923101E-6
143 137 1.97192843383754E-6
143 140 9.89094262051847E-7
143 141 9.89094262051847E-7
143 143 3.67669939374891E-1
143 752 1.908651090227245E-5
143 753 1.87946638348948E-5
143 765 2.85714285714286E-1
143 1710 1.26224500472606E-4
143 1711 1.2595496436343E-4
143 1722 4.0650406504065E-2
143 1725 4.0650406504065E-2
144 68 5.56522024660818E-6
144 91 7.98161508934244E-6
144 93 9.89094262051847E-7
144 144 9.7036262662664E-2
144 147 9.89094262051847E-7
144 158 9.89094262051847E-7
144 205 9.89094262051847E-7
144 215 1.20569338526067E-5
144 753 5.29100529100529E-2
144 894 6.2577262505283E-5
144 895 6.211996779060294E-5
144 1711 4.35540069686411E-2
144 1852 7.031717435494476E-5
144 1853 7.029702822917215E-5
145 80 6.09732791923101E-6
145 93 2.80452043923562E-6
145 137 4.05027840219965E-6
145 145 9.70365307809393E-2
145 151 4.98303185185614E-6
145 755 5.29100529100529E-2
145 768 1.243543620527725E-4
145 769 1.2428077961227848E-4
145 1713 4.35540069686411E-2
145 1726 3.514845926630515E-5
145 1727 3.5158865021866194E-5
146 146 2.60781003721296E-1
146 756 1.58730158730159E-1
146 759 1.02040816326531E-1
147 54 9.89094262051847E-7
147 65 9.89094262051847E-7
147 68 9.89094262051847E-7
147 80 2.96102269588939E-6
147 82 9.89094262051847E-7
147 91 1.97192843383754E-6
147 123 7.98161508934244E-6
147 127 1.28957859482709E-6
147 130 1.97192843383754E-6
147 133 2.27241276661279E-6
147 135 1.97192843383754E-6
147 137 2.87964152242943E-6
147 138 9.89094262051847E-7
147 141 9.89094262051847E-7
147 144 9.89094262051847E-7
147 147 3.69438310705821E-1
147 149 9.89094262051847E-7
147 152 4.98303185185614E-6
147 153 8.06925635306855E-6
147 155 9.89094262051847E-7
147 156 9.89094262051847E-7
147 158 1.97192843383754E-6
147 159 1.97192843383754E-6
147 200 4.58238607482248E-6
147 204 1.20569338526067E-5
147 205 1.97192843383754E-6
147 231 4.21304074911958E-6
147 232 9.89094262051847E-7
147 318 1.97192843383754E-6
147 322 5.97212611390799E-6
147 757 2.85714285714286E-1
147 772 3.67918450317497E-5
147 773 3.6676600398393E-5
147 872 6.27653650182026E-5
147 873 6.192923097697295E-5
147 1102 6.53133641585025E-5
147 1103 6.558204384540936E-5
147 1108 1.24420303492071E-4
147 1109 1.24213055691495E-4
147 1714 4.0650406504065E-2
147 1717 4.0650406504065E-2
147 1730 3.51583212282012E-5
147 1731 3.5158335201625155E-5
147 1830 7.03161656658916E-5
147 1831 7.029687522984161E-5
147 2060 3.9176593282027895E-5
147 2061 3.9165342538670356E-5
147 2066 7.02979455483838E-5
147 2067 7.031700742846054E-5
148 148 2.60781003721296E-1
148 760 1.58730158730159E-1
148 763 1.02040816326531E-1
149 65 9.89094262051847E-7
149 91 9.89094262051847E-7
149 138 1.97192843383754E-6
149 141 1.64014364973154E-6
149 147 9.89094262051847E-7
149 149 3.687242027923E-1
149 158 9.89094262051847E-7
149 200 1.97192843383754E-6
149 205 9.89094262051847E-7
149 206 1.97192843383754E-6
149 209 3.86247569421512E-6
149 211 3.86247569421512E-6
149 212 7.08642218128285E-6
149 221 9.89094262051847E-7
149 224 4.98303185185614E-6
149 228 1.97192843383754E-6
149 275 9.89094262051847E-7
149 761 2.85714285714286E-1
149 916 1.2442476914056898E-4
149 917 1.2421188056869998E-4
149 922 1.244316575524205E-4
149 923 1.2420500785423848E-4
149 1006 6.53233501853342E-5
149 1007 6.55722146108214E-5
149 1718 4.0650406504065E-2
149 1721 4.0650406504065E-2
149 1874 3.514824829704065E-5
149 1875 3.515796619683215E-5
149 1880 3.51579662026319E-5
149 1881 3.514824778286775E-5
149 1964 3.91760297992463E-5
149 1965 3.9165189450951355E-5
150 93 4.98303185185614E-6
150 150 2.60781003721296E-1
150 764 1.58730158730159E-1
150 767 1.02040816326531E-1
151 145 4.98303185185614E-6
151 151 2.60781003721296E-1
151 768 1.58730158730159E-1
151 771 1.02040816326531E-1
152 147 4.98303185185614E-6
152 152 2.60781003721296E-1
152 772 1.58730158730159E-1
152 775 1.02040816326531E-1
153 80 9.89094262051847E-7
153 147 8.06925635306855E-6
153 153 3.683411777718E-1
153 155 4.85156995626697E-6
153 158 9.89094262051847E-7
153 159 1.62762346919924E-6
153 205 9.89094262051847E-7
153 226 4.14417975619192E-6
153 227 9.89094262051847E-7
153 228 9.89094262051847E-7
153 773 2.85714285714286E-1
153 928 1.23807117809557E-4
153 929 1.24830456413655E-4
153 932 1.243039100415145E-4
153 933 1.24332416008678E-4
153 1730 4.0650406504065E-2
153 1733 4.0650406504065E-2
153 1886 7.03177808155094E-5
153 1887 7.029806075268345E-5
153 1890 3.515868266854255E-5
153 1891 3.5160388382657695E-5
154 154 2.60781003721296E-1
154 155 4.98303185185614E-6
154 776 1.58730158730159E-1
154 779 1.02040816326531E-1
155 54 9.89094262051847E-7
155 68 9.89094262051847E-7
155 80 9.89094262051847E-7
155 137 2.87964152242943E-6
155 147 9.89094262051847E-7
155 153 4.85156995626697E-6
155 154 4.98303185185614E-6
155 155 3.68217704027211E-1
155 156 6.09732791923101E-6
155 158 9.89094262051847E-7
155 159 9.89094262051847E-7
155 205 9.89094262051847E-7
155 211 6.09732791923101E-6
155 212 9.89094262051847E-7
155 227 7.08642218128285E-6
155 228 9.89094262051847E-7
155 230 4.98303185185614E-6
155 776 3.63397435933052E-5
155 777 3.580219530897995E-5
155 921 2.85714285714286E-1
155 930 3.636368828684745E-5
155 931 3.5801391029388846E-5
155 1734 1.1318237862727049E-4
155 1735 1.132677741635025E-4
155 1878 4.0650406504065E-2
155 1881 4.0650406504065E-2
155 1888 1.13227745519946E-4
155 1889 1.132220201641885E-4
156 80 9.89094262051847E-7
156 82 2.96102269588939E-6
156 147 9.89094262051847E-7
156 155 6.09732791923101E-6
156 156 3.67891759959038E-1
156 158 9.89094262051847E-7
156 159 9.89094262051847E-7
156 205 9.89094262051847E-7
156 231 3.19890612600313E-6
156 232 9.89094262051847E-7
156 321 3.00484332775245E-6
156 322 3.98141740927199E-6
156 777 2.85714285714286E-1
156 1106 1.24616569001145E-4
156 1107 1.2401812194091553E-4
156 1734 4.0650406504065E-2
156 1737 4.0650406504065E-2
156 2064 7.031777440811356E-5
156 2065 7.029811941380715E-5
157 137 6.52301405732927E-6
157 157 3.33990700284647E-1
157 159 3.98141740927199E-6
157 160 4.14417975619192E-6
157 780 1.2987012987013E-1
157 783 1.02040816326531E-1
157 784 1.02040816326531E-1
158 54 9.89094262051847E-7
158 65 9.89094262051847E-7
158 68 9.89094262051847E-7
158 80 9.89094262051847E-7
158 82 9.89094262051847E-7
158 91 9.89094262051847E-7
158 123 9.89094262051847E-7
158 137 1.6839642815946E-5
158 138 9.89094262051847E-7
158 144 9.89094262051847E-7
158 147 1.97192843383754E-6
158 149 9.89094262051847E-7
158 153 9.89094262051847E-7
158 155 9.89094262051847E-7
158 156 9.89094262051847E-7
158 158 3.22316472694728E-1
158 159 1.26453823376249E-6
158 160 9.89094262051847E-7
158 205 1.18941715056868E-6
158 221 2.21607195421743E-6
158 222 3.00484332775245E-6
158 223 3.98141740927199E-6
158 232 2.21607195421743E-6
158 233 3.00484332775245E-6
158 234 3.98141740927199E-6
158 781 1.42857142857143E-1
158 912 1.249067115882965E-4
158 913 1.237263113090205E-4
158 936 1.2433997851221E-4
158 937 1.2429630399137702E-4
158 1738 7.62195121951219E-2
158 1741 1.01626016260163E-1
158 1870 7.031758108639505E-5
158 1871 7.03168266165145E-5
158 1894 7.031744297067571E-5
158 1895 7.031741224834135E-5
159 68 9.89094262051847E-7
159 80 9.89094262051847E-7
159 82 2.94224242509094E-6
159 147 1.97192843383754E-6
159 153 1.62762346919924E-6
159 155 9.89094262051847E-7
159 156 9.89094262051847E-7
159 157 3.98141740927199E-6
159 158 1.26453823376249E-6
159 159 3.1043535984707E-1
159 160 1.62762346919924E-6
159 161 2.0695858419895E-5
159 205 9.89094262051847E-7
159 213 4.58238607482248E-6
159 226 3.98141740927199E-6
159 229 2.0695858419895E-5
159 782 3.63053851348584E-5
159 783 3.62926728763504E-5
159 890 5.29100529100529E-2
159 893 5.29100529100529E-2
159 926 3.630468331900375E-5
159 927 3.63032638438972E-5
159 1740 2.258409921314965E-4
159 1741 2.25735508364796E-4
159 1849 2.03252032520325E-1
159 1884 7.0333274272915E-5
159 1885 7.03124816702324E-5
160 80 1.97192843383754E-6
160 157 4.14417975619192E-6
160 158 9.89094262051847E-7
160 159 1.62762346919924E-6
160 160 1.02780519803582E-1
160 784 3.629451560554705E-5
160 785 3.63072542549431E-5
160 1103 5.49450549450549E-2
160 1742 2.2587471389063398E-4
160 1743 2.25702005513183E-4
160 2061 4.69043151969981E-2
161 159 2.0695858419895E-5
161 161 1.77876021354971E-1
161 1740 1.01626016260163E-1
161 1743 7.62195121951219E-2
162 1 9.89094262051847E-7
162 6 9.89094262051847E-7
162 162 1.02730948988991E-1
162 166 9.89094262051847E-7
162 168 9.89094262051847E-7
162 169 4.14417975619192E-6
162 171 6.44789297413546E-7
162 787 5.49450549450549E-2
162 804 3.582702082821555E-5
162 805 3.635519003414315E-5
162 1745 4.69043151969981E-2
162 1762 2.25720975305102E-4
162 1763 2.25854147483857E-4
163 32 4.58238607482248E-6
163 163 3.09638787836244E-1
163 788 5.29100529100529E-2
163 791 5.29100529100529E-2
163 794 3.6304828288823254E-5
163 795 3.62834958618336E-5
163 1747 2.03252032520325E-1
163 1752 1.1321296761428599E-4
163 1753 1.13236467180446E-4
164 32 1.20569338526067E-5
164 164 2.09076336016084E-1
164 1746 1.21951219512195E-1
164 1749 8.71080139372822E-2
165 165 2.68630297284875E-1
165 792 1.58730158730159E-1
165 795 1.0989010989011E-1
166 6 9.89094262051847E-7
166 130 9.89094262051847E-7
166 162 9.89094262051847E-7
166 166 3.68438337014057E-1
166 174 9.89094262051847E-7
166 180 9.89094262051847E-7
166 192 9.89094262051847E-7
166 236 9.89094262051847E-7
166 238 5.83440412805267E-6
166 241 2.96102269588939E-6
166 245 2.21607195421743E-6
166 254 9.89094262051847E-7
166 324 1.97192843383754E-6
166 327 9.89094262051847E-7
166 328 3.00484332775245E-6
166 329 3.98141740927199E-6
166 793 2.85714285714286E-1
166 1118 1.24328430096467E-4
166 1119 1.24307919171709E-4
166 1132 1.243096123478585E-4
166 1133 1.243267466100705E-4
166 1750 4.0650406504065E-2
166 1753 4.0650406504065E-2
166 2076 7.031749694611566E-5
166 2077 7.03169475779995E-5
166 2090 3.515883747249365E-5
166 2091 3.5148455308949204E-5
167 6 4.98303185185614E-6
167 167 2.68630297284875E-1
167 796 1.58730158730159E-1
167 799 1.0989010989011E-1
168 6 6.09732791923101E-6
168 32 1.97192843383754E-6
168 99 6.44789297413546E-7
168 162 9.89094262051847E-7
168 168 3.68187357861794E-1
168 169 6.52301405732927E-6
168 170 1.78287370779979E-5
168 171 1.22697769216558E-6
168 173 4.14417975619192E-6
168 797 2.85714285714286E-1
168 800 3.67984309719673E-5
168 801 3.66702945104535E-5
168 810 1.2431978919494303E-4
168 811 1.24316609795316E-4
168 1754 4.0650406504065E-2
168 1757 4.0650406504065E-2
168 1758 7.040012898444434E-5
168 1759 7.031733701814565E-5
168 1768 7.031769194410645E-5
168 1769 7.029804050447E-5
169 162 4.14417975619192E-6
169 168 6.52301405732927E-6
169 169 3.49689287411805E-1
169 171 3.98141740927199E-6
169 800 1.2987012987013E-1
169 803 1.0989010989011E-1
169 804 1.0989010989011E-1
170 32 1.97192843383754E-6
170 99 1.22697769216558E-6
170 168 1.78287370779979E-5
170 170 3.32349895437071E-1
170 173 6.52301405732927E-6
170 174 1.6839642815946E-5
170 801 1.42857142857143E-1
170 806 1.243357711177945E-4
170 807 1.24300666112295E-4
170 1758 8.71080139372822E-2
170 1761 1.01626016260163E-1
170 1764 7.029690016982059E-5
170 1765 7.03177252918005E-5
171 32 4.58238607482248E-6
171 162 6.44789297413546E-7
171 168 1.22697769216558E-6
171 169 3.98141740927199E-6
171 171 3.09945859580041E-1
171 172 2.0695858419895E-5
171 174 9.89094262051847E-7
171 176 9.89094262051847E-7
171 802 3.63547569250128E-5
171 803 3.58268473186555E-5
171 812 5.29100529100529E-2
171 815 5.29100529100529E-2
171 1760 2.2571563336099552E-4
171 1761 2.25857922975406E-4
171 1771 2.03252032520325E-1
172 171 2.0695858419895E-5
172 172 1.88764523097131E-1
172 1760 1.01626016260163E-1
172 1763 8.71080139372822E-2
173 99 3.98141740927199E-6
173 168 4.14417975619192E-6
173 170 6.52301405732927E-6
173 173 3.49689287411805E-1
173 806 1.2987012987013E-1
173 809 1.0989010989011E-1
173 810 1.0989010989011E-1
174 6 1.97192843383754E-6
174 166 9.89094262051847E-7
174 170 1.6839642815946E-5
174 171 9.89094262051847E-7
174 174 3.3215808682909E-1
174 180 2.96102269588939E-6
174 236 9.89094262051847E-7
174 241 2.96102269588939E-6
174 254 9.89094262051847E-7
174 807 1.42857142857143E-1
174 1764 8.71080139372822E-2
174 1767 1.01626016260163E-1
175 99 2.0695858419895E-5
175 175 1.88764523097131E-1
175 1766 1.01626016260163E-1
175 1769 8.71080139372822E-2
176 9 9.89094262051847E-7
176 11 7.98161508934244E-6
176 32 7.98161508934244E-6
176 34 4.87661031733158E-6
176 91 9.89094262051847E-7
176 94 9.89094262051847E-7
176 95 5.42123817048671E-6
176 105 9.89094262051847E-7
176 171 9.89094262051847E-7
176 176 1.04584221933321E-1
176 178 4.14417975619192E-6
176 179 9.89094262051847E-7
176 187 9.89094262051847E-7
176 814 6.233928038199596E-5
176 815 6.23609745158082E-5
176 817 5.49450549450549E-2
176 822 1.24310525849014E-4
176 823 1.24325900032226E-4
176 826 1.24294061263458E-4
176 827 1.2434220838971049E-4
176 830 6.159856877210136E-5
176 831 6.309152921148904E-5
176 836 1.2388411082951E-4
176 837 1.247498132805795E-4
176 1772 7.031752219618705E-5
176 1773 7.031663144180234E-5
176 1775 4.69043151969981E-2
176 1780 7.031770510386126E-5
176 1781 7.02980457045419E-5
176 1784 3.515864103686635E-5
176 1785 3.523519155384075E-5
176 1788 7.031752777845895E-5
176 1789 7.031660130118835E-5
176 1794 3.5158819911479454E-5
176 1795 3.514844995493E-5
177 32 1.20569338526067E-5
177 177 2.09076336016084E-1
177 1770 1.21951219512195E-1
177 1773 8.71080139372822E-2
178 95 3.98141740927199E-6
178 176 4.14417975619192E-6
178 178 3.49689287411805E-1
178 179 6.52301405732927E-6
178 818 1.2987012987013E-1
178 821 1.0989010989011E-1
178 822 1.0989010989011E-1
179 9 9.89094262051847E-7
179 94 9.89094262051847E-7
179 95 7.33056570166274E-6
179 176 9.89094262051847E-7
179 178 6.52301405732927E-6
179 179 3.67815122138459E-1
179 180 1.6839642815946E-5
179 818 1.24346013845354E-4
179 819 1.242904583045435E-4
179 825 2.85714285714286E-1
179 1776 7.029689356776331E-5
179 1777 7.031768137875595E-5
179 1782 4.0650406504065E-2
179 1785 4.0650406504065E-2
180 6 1.97192843383754E-6
180 91 9.89094262051847E-7
180 94 1.97192843383754E-6
180 166 9.89094262051847E-7
180 174 2.96102269588939E-6
180 179 1.6839642815946E-5
180 180 3.32254529779731E-1
180 236 9.89094262051847E-7
180 241 2.96102269588939E-6
180 254 9.89094262051847E-7
180 819 1.42857142857143E-1
180 1776 8.71080139372822E-2
180 1779 1.01626016260163E-1
181 95 2.0695858419895E-5
181 181 1.88764523097131E-1
181 1778 1.01626016260163E-1
181 1781 8.71080139372822E-2
182 95 4.98303185185614E-6
182 182 2.68630297284875E-1
182 824 1.58730158730159E-1
182 827 1.0989010989011E-1
183 11 4.58238607482248E-6
183 183 3.09632286717873E-1
183 828 5.29100529100529E-2
183 831 5.29100529100529E-2
183 832 1.908372311171005E-5
183 833 1.87936066385916E-5
183 1787 2.03252032520325E-1
183 1790 1.26179956478752E-4
183 1791 1.2599922211375053E-4
184 11 1.20569338526067E-5
184 184 2.09076336016084E-1
184 1786 1.21951219512195E-1
184 1789 8.71080139372822E-2
185 34 4.09409903406271E-6
185 112 6.09732791923101E-6
185 130 9.89094262051847E-7
185 185 1.02450811797468E-1
185 187 1.08988171533688E-5
185 188 4.98303185185614E-6
185 833 5.49450549450549E-2
185 838 1.243587902919975E-4
185 839 1.24276011674187E-4
185 1791 4.69043151969981E-2
185 1796 3.51484600562156E-5
185 1797 3.515887301573335E-5
186 34 4.98303185185614E-6
186 186 2.68630297284875E-1
186 834 1.58730158730159E-1
186 837 1.0989010989011E-1
187 11 2.52281637725883E-6
187 34 7.08642218128285E-6
187 78 9.89094262051847E-7
187 105 9.89094262051847E-7
187 112 1.97192843383754E-6
187 115 1.97192843383754E-6
187 117 1.97192843383754E-6
187 130 9.89094262051847E-7
187 176 9.89094262051847E-7
187 185 1.08988171533688E-5
187 187 3.67822953965024E-1
187 190 1.97192843383754E-6
187 194 9.89094262051847E-7
187 835 2.85714285714286E-1
187 856 1.908630475843105E-5
187 857 1.879459630591475E-5
187 1792 4.0650406504065E-2
187 1795 4.0650406504065E-2
187 1814 1.262500399396035E-4
187 1815 1.25929587768923E-4
188 185 4.98303185185614E-6
188 188 2.68630297284875E-1
188 838 1.58730158730159E-1
188 841 1.0989010989011E-1
189 112 4.98303185185614E-6
189 189 2.68630297284875E-1
189 842 1.58730158730159E-1
189 845 1.0989010989011E-1
190 11 1.97192843383754E-6
190 94 1.97192843383754E-6
190 101 1.97192843383754E-6
190 112 6.09732791923101E-6
190 115 2.76069980737256E-6
190 117 1.22697769216558E-6
190 130 1.97192843383754E-6
190 187 1.97192843383754E-6
190 190 3.67804394154159E-1
190 191 6.52301405732927E-6
190 192 1.6839642815946E-5
190 843 2.85714285714286E-1
190 846 1.2445498994338402E-4
190 847 1.241817321428675E-4
190 1800 4.0650406504065E-2
190 1803 4.0650406504065E-2
190 1804 7.02969029861626E-5
190 1805 7.03177256229682E-5
191 115 4.14417975619192E-6
191 117 3.98141740927199E-6
191 190 6.52301405732927E-6
191 191 3.49689287411805E-1
191 846 1.2987012987013E-1
191 849 1.0989010989011E-1
191 850 1.0989010989011E-1
192 105 9.89094262051847E-7
192 130 3.94385686767509E-6
192 141 3.94385686767509E-6
192 166 9.89094262051847E-7
192 190 1.6839642815946E-5
192 192 3.32496619990503E-1
192 196 9.89094262051847E-7
192 238 9.89094262051847E-7
192 241 1.97192843383754E-6
192 245 9.89094262051847E-7
192 246 1.97192843383754E-6
192 252 9.89094262051847E-7
192 254 9.89094262051847E-7
192 256 1.97192843383754E-6
192 265 1.97192843383754E-6
192 287 9.89094262051847E-7
192 289 9.89094262051847E-7
192 293 1.97192843383754E-6
192 323 9.89094262051847E-7
192 324 9.89094262051847E-7
192 325 9.89094262051847E-7
192 847 1.42857142857143E-1
192 1804 8.71080139372822E-2
192 1807 1.01626016260163E-1
193 117 2.0695858419895E-5
193 193 1.88764523097131E-1
193 1806 1.01626016260163E-1
193 1809 8.71080139372822E-2
194 11 7.98161508934244E-6
194 78 9.89094262051847E-7
194 117 5.56522024660818E-6
194 130 1.97192843383754E-6
194 187 9.89094262051847E-7
194 194 1.02441729074931E-1
194 195 1.20569338526067E-5
194 852 6.259399902668705E-5
194 853 6.210299769875024E-5
194 857 5.49450549450549E-2
194 1810 7.031714620826995E-5
194 1811 7.02970369078927E-5
194 1815 4.69043151969981E-2
195 194 1.20569338526067E-5
195 195 2.09076336016084E-1
195 1810 1.21951219512195E-1
195 1813 8.71080139372822E-2
196 9 7.98161508934244E-6
196 78 9.89094262051847E-7
196 105 9.89094262051847E-7
196 120 6.09732791923101E-6
196 130 9.89094262051847E-7
196 133 4.58238607482248E-6
196 141 9.87842243998617E-6
196 192 9.89094262051847E-7
196 196 3.68403696919779E-1
196 197 1.20569338526067E-5
196 228 2.96102269588939E-6
196 250 4.58238607482248E-6
196 251 1.20569338526067E-5
196 858 6.23219519078463E-5
196 859 6.23785196297379E-5
196 899 2.85714285714286E-1
196 966 6.2646254376146E-5
196 967 6.2050014372143E-5
196 1816 7.03170929296461E-5
196 1817 7.02970149563576E-5
196 1856 4.0650406504065E-2
196 1859 4.0650406504065E-2
196 1924 7.031681553709584E-5
196 1925 7.02970463806664E-5
197 196 1.20569338526067E-5
197 197 2.09076336016084E-1
197 1816 1.21951219512195E-1
197 1819 8.71080139372822E-2
198 198 3.10745369798009E-1
198 202 9.89094262051847E-7
198 209 1.97192843383754E-6
198 218 1.97192843383754E-6
198 220 9.89094262051847E-7
198 228 3.59329181277063E-6
198 269 2.61671773125109E-6
198 271 9.89094262051847E-7
198 272 7.90649400614863E-6
198 274 9.89094262051847E-7
198 306 1.97192843383754E-6
198 319 1.97192843383754E-6
198 382 4.14417975619192E-6
198 862 5.29100529100529E-2
198 865 5.29100529100529E-2
198 1004 6.19620937045124E-5
198 1005 6.27328289898031E-5
198 1198 6.4348019529474E-5
198 1199 6.6534614016958E-5
198 1234 1.25498329407265E-4
198 1235 1.231311391801535E-4
198 1821 2.03252032520325E-1
198 1962 7.03184238142104E-5
198 1963 7.031731101091949E-5
198 2156 3.9177498832556E-5
198 2157 3.916549248978275E-5
198 2192 7.031842170804015E-5
198 2193 7.03173156922522E-5
199 199 2.09076336016084E-1
199 1820 1.21951219512195E-1
199 1823 8.71080139372822E-2
200 123 9.89094262051847E-7
200 147 4.58238607482248E-6
200 149 1.97192843383754E-6
200 200 3.09735239347778E-1
200 201 9.89094262051847E-7
200 202 1.97192843383754E-6
200 228 1.97192843383754E-6
200 866 1.9085648143548947E-5
200 867 1.879430847794205E-5
200 872 5.29100529100529E-2
200 875 5.29100529100529E-2
200 1824 1.26126987969983E-4
200 1825 1.2605184927624798E-4
200 1831 2.03252032520325E-1
201 127 2.87964152242943E-6
201 200 9.89094262051847E-7
201 201 1.02451558731976E-1
201 219 4.98303185185614E-6
201 220 7.08642218128285E-6
201 867 5.49450549450549E-2
201 906 1.24336706334824E-4
201 907 1.24299744427767E-4
201 1825 4.69043151969981E-2
201 1864 3.5148458421513053E-5
201 1865 3.5158856298590755E-5
202 123 4.58238607482248E-6
202 198 9.89094262051847E-7
202 200 1.97192843383754E-6
202 202 3.10176611528674E-1
202 220 1.97192843383754E-6
202 228 9.89094262051847E-7
202 267 6.09732791923101E-6
202 272 6.09732791923101E-6
202 274 2.80452043923562E-6
202 275 3.79361470128746E-6
202 296 4.98303185185614E-6
202 297 4.98303185185614E-6
202 868 5.29100529100529E-2
202 871 5.29100529100529E-2
202 1056 3.6327839316544196E-5
202 1057 3.5797418319230095E-5
202 1060 3.632830079793095E-5
202 1061 3.5797466410742896E-5
202 1827 2.03252032520325E-1
202 2014 1.13166850847552E-4
202 2015 1.132834019956485E-4
202 2018 1.13076057585577E-4
202 2019 1.1337477968983249E-4
203 123 1.20569338526067E-5
203 203 2.09076336016084E-1
203 1826 1.21951219512195E-1
203 1829 8.71080139372822E-2
204 147 1.20569338526067E-5
204 204 2.09076336016084E-1
204 1830 1.21951219512195E-1
204 1833 8.71080139372822E-2
205 54 9.89094262051847E-7
205 65 9.89094262051847E-7
205 68 9.89094262051847E-7
205 82 9.89094262051847E-7
205 91 9.89094262051847E-7
205 123 9.89094262051847E-7
205 127 9.89094262051847E-7
205 138 9.89094262051847E-7
205 144 9.89094262051847E-7
205 147 1.97192843383754E-6
205 149 9.89094262051847E-7
205 153 9.89094262051847E-7
205 155 9.89094262051847E-7
205 156 9.89094262051847E-7
205 158 1.18941715056868E-6
205 159 9.89094262051847E-7
205 205 3.10592657922235E-1
205 206 4.58238607482248E-6
205 231 2.21607195421743E-6
205 232 4.21304074911958E-6
205 234 5.97212611390799E-6
205 322 1.96379031649155E-5
205 876 5.29100529100529E-2
205 879 5.29100529100529E-2
205 938 3.579973581837435E-5
205 939 3.63604921267259E-5
205 1104 3.63041309381119E-5
205 1105 3.63871106199162E-5
205 1835 2.03252032520325E-1
205 1896 2.256896405215375E-4
205 1897 2.258871591360605E-4
205 2062 7.033819132886225E-5
205 2063 7.03077442476218E-5
206 123 7.90649400614863E-6
206 127 9.89094262051847E-7
206 149 1.97192843383754E-6
206 205 4.58238607482248E-6
206 206 1.02361384964527E-1
206 207 1.20569338526067E-5
206 209 1.97192843383754E-6
206 228 1.97192843383754E-6
206 876 1.822114853242935E-5
206 877 1.8152571658704503E-5
206 881 5.49450549450549E-2
206 1834 7.033129902463719E-5
206 1835 7.03142817997997E-5
206 1839 4.69043151969981E-2
207 206 1.20569338526067E-5
207 207 2.09076336016084E-1
207 1834 1.21951219512195E-1
207 1837 8.71080139372822E-2
208 138 4.58238607482248E-6
208 208 3.09632123593294E-1
208 212 9.13973178858036E-7
208 882 5.29100529100529E-2
208 885 5.29100529100529E-2
208 886 1.908349719226485E-5
208 887 1.87935256163085E-5
208 1841 2.03252032520325E-1
208 1844 1.2618602712208748E-4
208 1845 1.259931903999905E-4
209 65 9.89094262051847E-7
209 138 8.96444926112813E-6
209 149 3.86247569421512E-6
209 198 1.97192843383754E-6
209 206 1.97192843383754E-6
209 209 9.93087554884928E-2
209 218 9.89094262051847E-7
209 221 9.89094262051847E-7
209 228 9.89094262051847E-7
209 269 9.89094262051847E-7
209 271 9.89094262051847E-7
209 272 8.89558826820047E-6
209 276 5.42123817048671E-6
209 306 9.89094262051847E-7
209 319 9.89094262051847E-7
209 358 2.96102269588939E-6
209 379 1.97192843383754E-6
209 383 9.89094262051847E-7
209 391 9.89094262051847E-7
209 396 9.89094262051847E-7
209 443 1.97192843383754E-6
209 444 1.97192843383754E-6
209 445 9.89094262051847E-7
209 448 4.14417975619192E-6
209 449 9.89094262051847E-7
209 884 6.156029196369649E-5
209 885 6.312928631632775E-5
209 918 1.2450897420118E-4
209 919 1.241278714742115E-4
209 1016 6.235552850763605E-5
209 1017 6.234489013464665E-5
209 1197 5.29100529100529E-2
209 1372 1.24359294003953E-4
209 1373 1.2427687552159602E-4
209 1376 1.24295222704995E-4
209 1377 1.2434105354353048E-4
209 1842 7.031762021205204E-5
209 1843 7.031630769177699E-5
209 1876 3.5158840303575804E-5
209 1877 3.514845703396125E-5
209 1974 7.031756337871556E-5
209 1975 7.031665483511366E-5
209 2155 4.35540069686411E-2
209 2330 7.031774626993956E-5
209 2331 7.02980535405661E-5
209 2334 3.51586690878828E-5
209 2335 3.5158660489473354E-5
210 138 1.20569338526067E-5
210 210 2.09076336016084E-1
210 1840 1.21951219512195E-1
210 1843 8.71080139372822E-2
211 54 7.0426015494198E-6
211 149 3.86247569421512E-6
211 155 6.09732791923101E-6
211 211 1.02471085732195E-1
211 212 1.97192843383754E-6
211 225 4.98303185185614E-6
211 228 1.97192843383754E-6
211 887 5.49450549450549E-2
211 920 1.2435397415607748E-4
211 921 1.242825163494525E-4
211 1845 4.69043151969981E-2
211 1878 3.514846156124035E-5
211 1879 3.51588687307008E-5
212 54 9.89094262051847E-7
212 138 9.89094262051847E-7
212 149 7.08642218128285E-6
212 155 9.89094262051847E-7
212 208 9.13973178858036E-7
212 211 1.97192843383754E-6
212 212 3.67684036559467E-1
212 888 1.90889561149074E-5
212 889 1.8795572868561303E-5
212 917 2.85714285714286E-1
212 1846 1.262356268023365E-4
212 1847 1.259439099945225E-4
212 1874 4.0650406504065E-2
212 1877 4.0650406504065E-2
213 138 7.90649400614863E-6
213 159 4.58238607482248E-6
213 213 1.02400216419626E-1
213 214 1.20569338526067E-5
213 889 5.49450549450549E-2
213 890 6.264813473067585E-5
213 891 6.204810797945596E-5
213 1847 4.69043151969981E-2
213 1848 7.031687009317245E-5
213 1849 7.029706968187025E-5
214 213 1.20569338526067E-5
214 214 2.09076336016084E-1
214 1848 1.21951219512195E-1
214 1851 8.71080139372822E-2
215 144 1.20569338526067E-5
215 215 2.09076336016084E-1
215 1852 1.21951219512195E-1
215 1855 8.71080139372822E-2
216 120 4.98303185185614E-6
216 216 2.68630297284875E-1
216 898 1.58730158730159E-1
216 901 1.0989010989011E-1
217 217 2.68630297284875E-1
217 902 1.58730158730159E-1
217 905 1.0989010989011E-1
218 41 9.89094262051847E-7
218 198 1.97192843383754E-6
218 209 9.89094262051847E-7
218 218 3.68320054539402E-1
218 220 9.89094262051847E-7
218 228 9.89094262051847E-7
218 267 9.89094262051847E-7
218 271 9.89094262051847E-7
218 276 9.89094262051847E-7
218 306 9.89094262051847E-7
218 319 9.89094262051847E-7
218 358 1.97192843383754E-6
218 368 4.85156995626697E-6
218 382 6.52301405732927E-6
218 383 1.78287370779979E-5
218 385 4.98303185185614E-6
218 386 6.09732791923101E-6
218 903 2.85714285714286E-1
218 1230 1.2423418366628398E-4
218 1231 1.243921936099155E-4
218 1236 3.6790990502044E-5
218 1237 3.667632689558485E-5
218 1860 4.0650406504065E-2
218 1863 4.0650406504065E-2
218 2188 7.02967994384077E-5
218 2189 7.031721981457911E-5
218 2194 3.51583980318828E-5
218 2195 3.515842777177305E-5
219 201 4.98303185185614E-6
219 219 2.68630297284875E-1
219 906 1.58730158730159E-1
219 909 1.0989010989011E-1
220 41 1.97192843383754E-6
220 198 9.89094262051847E-7
220 201 7.08642218128285E-6
220 202 1.97192843383754E-6
220 218 9.89094262051847E-7
220 220 3.67843019558167E-1
220 228 9.89094262051847E-7
220 268 7.98161508934244E-6
220 269 4.58238607482248E-6
220 270 1.20569338526067E-5
220 907 2.85714285714286E-1
220 998 1.790029478301035E-5
220 999 1.817936083595945E-5
220 1864 4.0650406504065E-2
220 1867 4.0650406504065E-2
220 1956 2.258558489483905E-4
220 1957 2.2572074834959952E-4
221 54 9.89094262051847E-7
221 65 1.97192843383754E-6
221 123 2.21607195421743E-6
221 127 4.21304074911958E-6
221 138 9.89094262051847E-7
221 149 9.89094262051847E-7
221 158 2.21607195421743E-6
221 209 9.89094262051847E-7
221 221 4.97923201916224E-1
221 222 1.00161444258415E-6
221 228 9.89094262051847E-7
221 280 9.89094262051847E-7
221 281 9.89094262051847E-7
221 306 9.89094262051847E-7
221 319 9.89094262051847E-7
221 386 6.44789297413546E-7
221 390 3.98141740927199E-6
221 392 2.0695858419895E-5
221 911 1.0989010989011E-1
221 914 2.85714285714286E-1
221 1248 3.6300476949887206E-5
221 1249 3.63154180545268E-5
221 1869 1.01626016260163E-1
221 2206 7.033360497043275E-5
221 2207 7.03121502588217E-5
222 158 3.00484332775245E-6
222 221 1.00161444258415E-6
222 222 2.28946781028254E-1
222 912 1.0989010989011E-1
222 915 1.19047619047619E-1
223 123 1.96379031649155E-5
223 127 5.97212611390799E-6
223 158 3.98141740927199E-6
223 223 3.2671083592917E-1
223 1868 1.52439024390244E-1
223 1871 8.71080139372822E-2
223 1872 8.71080139372822E-2
224 149 4.98303185185614E-6
224 224 2.68630297284875E-1
224 916 1.58730158730159E-1
224 919 1.0989010989011E-1
225 211 4.98303185185614E-6
225 225 2.68630297284875E-1
225 920 1.58730158730159E-1
225 923 1.0989010989011E-1
226 153 4.14417975619192E-6
226 159 3.98141740927199E-6
226 226 3.49689287411805E-1
226 227 6.52301405732927E-6
226 924 1.2987012987013E-1
226 927 1.0989010989011E-1
226 928 1.0989010989011E-1
227 153 9.89094262051847E-7
227 155 7.08642218128285E-6
227 226 6.52301405732927E-6
227 227 3.67750123803674E-1
227 228 1.78287370779979E-5
227 924 1.24850523773629E-4
227 925 1.23787093647206E-4
227 931 2.85714285714286E-1
227 1882 7.029691531245995E-5
227 1883 7.0317763332909E-5
227 1888 4.0650406504065E-2
227 1891 4.0650406504065E-2
228 41 9.89094262051847E-7
228 54 9.89094262051847E-7
228 65 9.89094262051847E-7
228 68 9.89094262051847E-7
228 78 4.14417975619192E-6
228 138 9.89094262051847E-7
228 141 1.97192843383754E-6
228 149 1.97192843383754E-6
228 153 9.89094262051847E-7
228 155 9.89094262051847E-7
228 196 2.96102269588939E-6
228 198 3.59329181277063E-6
228 200 1.97192843383754E-6
228 202 9.89094262051847E-7
228 206 1.97192843383754E-6
228 209 9.89094262051847E-7
228 211 1.97192843383754E-6
228 218 9.89094262051847E-7
228 220 9.89094262051847E-7
228 221 9.89094262051847E-7
228 227 1.78287370779979E-5
228 228 3.32607060502979E-1
228 265 1.28957859482709E-6
228 287 9.89094262051847E-7
228 289 9.89094262051847E-7
228 295 1.97192843383754E-6
228 306 9.89094262051847E-7
228 319 9.89094262051847E-7
228 331 3.86247569421512E-6
228 339 9.89094262051847E-7
228 348 1.97192843383754E-6
228 351 9.89094262051847E-7
228 358 1.97192843383754E-6
228 379 9.89094262051847E-7
228 391 9.89094262051847E-7
228 396 9.89094262051847E-7
228 421 9.89094262051847E-7
228 424 9.89094262051847E-7
228 435 1.97192843383754E-6
228 925 1.42857142857143E-1
228 1882 8.71080139372822E-2
228 1885 1.01626016260163E-1
229 159 2.0695858419895E-5
229 229 1.88764523097131E-1
229 1884 1.01626016260163E-1
229 1887 8.71080139372822E-2
230 155 4.98303185185614E-6
230 230 2.68630297284875E-1
230 930 1.58730158730159E-1
230 933 1.0989010989011E-1
231 82 9.89094262051847E-7
231 147 4.21304074911958E-6
231 156 3.19890612600313E-6
231 205 2.21607195421743E-6
231 231 4.90229174425807E-1
231 232 2.21607195421743E-6
231 234 1.96379031649155E-5
231 321 1.00161444258415E-6
231 934 3.6358050620319697E-5
231 935 3.580029624373345E-5
231 1105 1.02040816326531E-1
231 1108 2.85714285714286E-1
231 1892 2.258003236140485E-4
231 1893 2.257759126306535E-4
231 2063 1.01626016260163E-1
232 80 9.89094262051847E-7
232 82 9.89094262051847E-7
232 147 9.89094262051847E-7
232 156 9.89094262051847E-7
232 158 2.21607195421743E-6
232 205 4.21304074911958E-6
232 231 2.21607195421743E-6
232 232 4.97896905923687E-1
232 233 1.00161444258415E-6
232 935 1.0989010989011E-1
232 938 2.85714285714286E-1
232 1220 6.542035168307285E-5
232 1221 6.547648279746885E-5
232 1893 1.01626016260163E-1
232 2178 3.917702353055215E-5
232 2179 3.91654253384389E-5
233 158 3.00484332775245E-6
233 232 1.00161444258415E-6
233 233 2.28946781028254E-1
233 936 1.0989010989011E-1
233 939 1.19047619047619E-1
234 158 3.98141740927199E-6
234 205 5.97212611390799E-6
234 231 1.96379031649155E-5
234 234 3.2671083592917E-1
234 1892 1.52439024390244E-1
234 1895 8.71080139372822E-2
234 1896 8.71080139372822E-2
235 1 4.14417975619192E-6
235 6 6.52301405732927E-6
235 83 3.98141740927199E-6
235 235 3.33990700284647E-1
235 940 1.2987012987013E-1
235 943 1.02040816326531E-1
235 944 1.02040816326531E-1
236 6 1.6839642815946E-5
236 166 9.89094262051847E-7
236 174 9.89094262051847E-7
236 180 9.89094262051847E-7
236 236 3.32219065166948E-1
236 241 1.97192843383754E-6
236 941 1.42857142857143E-1
236 946 1.90871737613489E-5
236 947 1.8794850166647148E-5
236 1898 8.71080139372822E-2
236 1901 1.01626016260163E-1
236 1904 1.260661254552215E-4
236 1905 1.261117131558125E-4
237 83 2.0695858419895E-5
237 237 1.88764523097131E-1
237 1900 1.01626016260163E-1
237 1903 8.71080139372822E-2
238 130 9.89094262051847E-7
238 141 1.97192843383754E-6
238 166 5.83440412805267E-6
238 192 9.89094262051847E-7
238 238 1.03126071420027E-1
238 241 2.96102269588939E-6
238 245 4.21304074911958E-6
238 254 9.89094262051847E-7
238 327 9.89094262051847E-7
238 329 5.97212611390799E-6
238 330 6.09732791923101E-6
238 336 4.98303185185614E-6
238 947 5.49450549450549E-2
238 1120 1.2432616948459998E-4
238 1121 1.243101084029435E-4
238 1130 1.243094709342235E-4
238 1131 1.24326817143395E-4
238 1905 4.69043151969981E-2
238 2078 7.031694271547294E-5
238 2079 7.031749131806395E-5
238 2088 3.51484548010623E-5
238 2089 3.515883448637195E-5
239 141 4.14417975619192E-6
239 239 3.33990700284647E-1
239 240 6.52301405732927E-6
239 242 3.98141740927199E-6
239 948 1.2987012987013E-1
239 951 1.02040816326531E-1
239 952 1.02040816326531E-1
240 239 6.52301405732927E-6
240 240 3.67720686858216E-1
240 241 1.6839642815946E-5
240 242 6.34147143961089E-6
240 948 1.244181760035525E-4
240 949 1.242184619059745E-4
240 1029 2.85714285714286E-1
240 1906 7.029691230099895E-5
240 1907 7.031778317132225E-5
240 1986 4.0650406504065E-2
240 1989 4.0650406504065E-2
241 130 1.97192843383754E-6
241 141 9.89094262051847E-7
241 166 2.96102269588939E-6
241 174 2.96102269588939E-6
241 180 2.96102269588939E-6
241 192 1.97192843383754E-6
241 236 1.97192843383754E-6
241 238 2.96102269588939E-6
241 240 1.6839642815946E-5
241 241 3.32503581210879E-1
241 242 1.26453823376249E-6
241 246 1.97192843383754E-6
241 254 9.89094262051847E-7
241 323 1.97192843383754E-6
241 324 1.97192843383754E-6
241 325 3.94385686767509E-6
241 327 1.97192843383754E-6
241 330 9.13973178858036E-7
241 331 1.97192843383754E-6
241 332 1.97192843383754E-6
241 333 9.13973178858036E-7
241 334 3.16134558440622E-6
241 345 1.97192843383754E-6
241 347 1.97192843383754E-6
241 356 1.97192843383754E-6
241 404 2.96102269588939E-6
241 406 1.97192843383754E-6
241 949 1.42857142857143E-1
241 1906 8.71080139372822E-2
241 1909 1.01626016260163E-1
242 94 4.58238607482248E-6
242 141 5.49635925368052E-6
242 239 3.98141740927199E-6
242 240 6.34147143961089E-6
242 241 1.26453823376249E-6
242 242 3.10161167067745E-1
242 243 2.0695858419895E-5
242 245 9.89094262051847E-7
242 246 9.89094262051847E-7
242 285 4.98303185185614E-6
242 293 1.97192843383754E-6
242 950 3.630472270949185E-5
242 951 3.6304458816250546E-5
242 962 5.29100529100529E-2
242 965 5.29100529100529E-2
242 1028 3.636029172297E-5
242 1029 3.579990238693555E-5
242 1908 7.033334492395255E-5
242 1909 7.031239154248965E-5
242 1921 2.03252032520325E-1
242 1986 1.13197359146641E-4
242 1987 1.1325269577306749E-4
243 242 2.0695858419895E-5
243 243 1.88764523097131E-1
243 1908 1.01626016260163E-1
243 1911 8.71080139372822E-2
244 244 3.09573684826976E-1
244 245 4.58238607482248E-6
244 954 5.29100529100529E-2
244 957 5.29100529100529E-2
244 958 6.544228052892905E-5
244 959 6.545484259665304E-5
244 1913 2.03252032520325E-1
244 1916 3.91770147372577E-5
244 1917 3.91654239577943E-5
245 130 1.97192843383754E-6
245 141 1.97192843383754E-6
245 166 2.21607195421743E-6
245 192 9.89094262051847E-7
245 238 4.21304074911958E-6
245 242 9.89094262051847E-7
245 244 4.58238607482248E-6
245 245 4.90759873985417E-1
245 246 9.87842243998617E-6
245 247 1.20569338526067E-5
245 250 2.87964152242943E-6
245 254 9.89094262051847E-7
245 287 9.89094262051847E-7
245 288 4.98303185185614E-6
245 289 6.09732791923101E-6
245 293 1.97192843383754E-6
245 327 2.21607195421743E-6
245 328 1.00161444258415E-6
245 954 1.79001519498072E-5
245 955 1.817898941415625E-5
245 1036 3.63387566771043E-5
245 1037 3.58018149532088E-5
245 1117 1.02040816326531E-1
245 1120 2.85714285714286E-1
245 1912 2.25778394675449E-4
245 1913 2.2579782534240251E-4
245 1994 1.13236510697902E-4
245 1995 1.1321291541314401E-4
245 2075 1.01626016260163E-1
246 130 1.97192843383754E-6
246 141 9.89094262051847E-7
246 192 1.97192843383754E-6
246 241 1.97192843383754E-6
246 242 9.89094262051847E-7
246 245 9.87842243998617E-6
246 246 3.22152322066839E-1
246 250 3.86247569421512E-6
246 254 1.97192843383754E-6
246 286 4.98303185185614E-6
246 287 6.09732791923101E-6
246 293 1.97192843383754E-6
246 324 4.89539058813003E-6
246 331 9.89094262051847E-7
246 334 1.26453823376249E-6
246 339 1.97192843383754E-6
246 356 9.89094262051847E-7
246 402 1.6839642815946E-5
246 404 9.89094262051847E-7
246 406 9.89094262051847E-7
246 956 1.817651653241185E-5
246 957 1.789923419205125E-5
246 1032 3.63342215902993E-5
246 1033 3.579991885193775E-5
246 1287 1.42857142857143E-1
246 1914 2.25860101367605E-4
246 1915 2.25716522999548E-4
246 1990 1.132728471494815E-4
246 1991 1.13175179277003E-4
246 2244 7.62195121951219E-2
246 2247 1.01626016260163E-1
247 245 1.20569338526067E-5
247 247 2.09076336016084E-1
247 1912 1.21951219512195E-1
247 1915 8.71080139372822E-2
248 248 1.02391161356401E-1
248 959 5.49450549450549E-2
248 960 1.908808597739195E-5
248 961 1.8795122936955448E-5
248 1917 4.69043151969981E-2
248 1918 1.258742923623465E-4
248 1919 1.262972634021465E-4
249 94 1.20569338526067E-5
249 249 2.09076336016084E-1
249 1920 1.21951219512195E-1
249 1923 8.71080139372822E-2
250 196 4.58238607482248E-6
250 245 2.87964152242943E-6
250 246 3.86247569421512E-6
250 250 3.10145183891386E-1
250 287 9.89094262051847E-7
250 293 2.96102269588939E-6
250 966 5.29100529100529E-2
250 969 5.29100529100529E-2
250 1034 3.63058889185957E-5
250 1035 3.628476797448875E-5
250 1038 3.63059055627496E-5
250 1039 3.628448781743375E-5
250 1925 2.03252032520325E-1
250 1992 1.1317516602162101E-4
250 1993 1.132728592157475E-4
250 1996 1.132129570755895E-4
250 1997 1.1323647729252149E-4
251 196 1.20569338526067E-5
251 251 2.09076336016084E-1
251 1924 1.21951219512195E-1
251 1927 8.71080139372822E-2
252 130 9.89094262051847E-7
252 192 9.89094262051847E-7
252 252 3.10096181759283E-1
252 254 9.89094262051847E-7
252 257 8.89558826820047E-6
252 265 9.89094262051847E-7
252 287 9.89094262051847E-7
252 289 9.89094262051847E-7
252 293 9.89094262051847E-7
252 339 9.89094262051847E-7
252 341 9.89094262051847E-7
252 970 5.29100529100529E-2
252 973 5.29100529100529E-2
252 1140 6.123443862406981E-5
252 1141 6.34505854826894E-5
252 1144 6.466805684327104E-5
252 1145 6.621863601534504E-5
252 1929 2.03252032520325E-1
252 2098 7.03200787465336E-5
252 2099 7.03179978283186E-5
252 2102 3.9178408752249845E-5
252 2103 3.9165584438415396E-5
253 253 2.09076336016084E-1
253 1928 1.21951219512195E-1
253 1931 8.71080139372822E-2
254 130 1.97192843383754E-6
254 166 9.89094262051847E-7
254 174 9.89094262051847E-7
254 180 9.89094262051847E-7
254 192 9.89094262051847E-7
254 238 9.89094262051847E-7
254 241 9.89094262051847E-7
254 245 9.89094262051847E-7
254 246 1.97192843383754E-6
254 252 9.89094262051847E-7
254 254 1.02496312910518E-1
254 256 1.97192843383754E-6
254 262 1.97192843383754E-6
254 265 1.97192843383754E-6
254 287 9.89094262051847E-7
254 289 1.13933642843947E-6
254 293 1.97192843383754E-6
254 339 1.97192843383754E-6
254 975 5.49450549450549E-2
254 1933 4.69043151969981E-2
255 78 1.97192843383754E-6
255 130 9.89094262051847E-7
255 255 3.09829161537323E-1
255 256 4.58238607482248E-6
255 257 9.89094262051847E-7
255 259 9.89094262051847E-7
255 262 9.89094262051847E-7
255 264 9.89094262051847E-7
255 265 2.96102269588939E-6
255 289 1.97192843383754E-6
255 293 9.89094262051847E-7
255 295 1.97192843383754E-6
255 306 1.97192843383754E-6
255 339 1.97192843383754E-6
255 976 5.29100529100529E-2
255 979 5.29100529100529E-2
255 990 1.908532894952815E-5
255 991 1.879419022478125E-5
255 1935 2.03252032520325E-1
255 1948 1.261274645725575E-4
255 1949 1.260513757290715E-4
256 130 1.97192843383754E-6
256 192 1.97192843383754E-6
256 254 1.97192843383754E-6
256 255 4.58238607482248E-6
256 256 3.69022089812438E-1
256 257 1.03792296612782E-5
256 258 1.20569338526067E-5
256 262 1.97192843383754E-6
256 265 9.89094262051847E-7
256 287 9.89094262051847E-7
256 289 9.89094262051847E-7
256 293 1.97192843383754E-6
256 306 1.97192843383754E-6
256 331 2.62297782151724E-6
256 339 9.89094262051847E-7
256 342 3.86247569421512E-6
256 344 4.98303185185614E-6
256 345 7.78755229109176E-6
256 347 1.97192843383754E-6
256 356 9.89094262051847E-7
256 358 9.89094262051847E-7
256 391 1.97192843383754E-6
256 421 9.89094262051847E-7
256 423 9.89094262051847E-7
256 426 4.21304074911958E-6
256 428 5.97212611390799E-6
256 976 6.28192405039099E-5
256 977 6.187460676964596E-5
256 1041 2.85714285714286E-1
256 1150 3.679163717676E-5
256 1151 3.6676507396233996E-5
256 1154 6.527563086024045E-5
256 1155 6.561928032162935E-5
256 1324 1.24437421138491E-4
256 1325 1.24195503391501E-4
256 1934 7.031622355039091E-5
256 1935 7.029688686243415E-5
256 1998 4.0650406504065E-2
256 2001 4.0650406504065E-2
256 2108 3.515834315615265E-5
256 2109 3.5158361555527804E-5
256 2112 3.917662426354275E-5
256 2113 3.91653485214527E-5
256 2282 7.029795843737495E-5
256 2283 7.031706323771376E-5
257 130 1.97192843383754E-6
257 252 8.89558826820047E-6
257 255 9.89094262051847E-7
257 256 1.03792296612782E-5
257 257 3.11383789736097E-1
257 259 9.89094262051847E-7
257 260 7.90649400614863E-6
257 262 2.96102269588939E-6
257 265 3.94385686767509E-6
257 287 9.89094262051847E-7
257 289 2.96102269588939E-6
257 293 2.96102269588939E-6
257 306 1.97192843383754E-6
257 324 1.97192843383754E-6
257 338 4.58238607482248E-6
257 339 9.89094262051847E-7
257 340 1.20569338526067E-5
257 341 9.89094262051847E-7
257 342 9.89094262051847E-7
257 345 9.89094262051847E-7
257 347 1.97192843383754E-6
257 356 4.18800038805497E-6
257 358 9.89094262051847E-7
257 359 1.96379031649155E-5
257 391 1.97192843383754E-6
257 978 6.18717155016526E-5
257 979 6.28220365696527E-5
257 982 6.194851169129406E-5
257 983 6.27462843128505E-5
257 986 5.29100529100529E-2
257 989 5.29100529100529E-2
257 1138 6.345057153171906E-5
257 1139 6.123457443325425E-5
257 1174 1.2296604679423E-4
257 1175 1.2566254758841148E-4
257 1936 7.032171923406714E-5
257 1937 7.031939446051994E-5
257 1940 7.032216811987E-5
257 1941 7.029843115110719E-5
257 1945 2.03252032520325E-1
257 2096 7.03205253107441E-5
257 2097 7.02977202289241E-5
257 2132 7.032138938299165E-5
257 2133 7.029745259392811E-5
258 256 1.20569338526067E-5
258 258 2.09076336016084E-1
258 1934 1.21951219512195E-1
258 1937 8.71080139372822E-2
259 78 2.57289709938803E-6
259 130 9.89094262051847E-7
259 255 9.89094262051847E-7
259 257 9.89094262051847E-7
259 259 3.10456324890027E-1
259 260 5.56522024660818E-6
259 262 9.89094262051847E-7
259 265 2.94224242509094E-6
259 287 9.89094262051847E-7
259 289 9.89094262051847E-7
259 293 9.89094262051847E-7
259 306 9.89094262051847E-7
259 331 9.89094262051847E-7
259 339 9.89094262051847E-7
259 342 1.97192843383754E-6
259 347 9.89094262051847E-7
259 358 9.89094262051847E-7
259 379 9.89094262051847E-7
259 391 9.89094262051847E-7
259 396 1.97192843383754E-6
259 421 1.97192843383754E-6
259 424 4.21304074911958E-6
259 426 4.18800038805497E-6
259 428 1.96379031649155E-5
259 430 5.97212611390799E-6
259 980 5.29100529100529E-2
259 983 5.29100529100529E-2
259 1320 3.63034462769152E-5
259 1321 3.63984670688737E-5
259 1330 3.579948403056175E-5
259 1331 3.63598638564955E-5
259 1939 2.03252032520325E-1
259 2278 7.03382549320128E-5
259 2279 7.030768343377835E-5
259 2288 2.25681034206997E-4
259 2289 2.2589582135279398E-4
260 130 9.89094262051847E-7
260 257 7.90649400614863E-6
260 259 5.56522024660818E-6
260 260 1.02344694189988E-1
260 261 1.20569338526067E-5
260 262 1.97192843383754E-6
260 293 1.97192843383754E-6
260 980 1.82332915689333E-5
260 981 1.8152116988301897E-5
260 985 5.49450549450549E-2
260 1938 7.03314155839771E-5
260 1939 7.03141727194703E-5
260 1943 4.69043151969981E-2
261 260 1.20569338526067E-5
261 261 2.09076336016084E-1
261 1938 1.21951219512195E-1
261 1941 8.71080139372822E-2
262 130 1.97192843383754E-6
262 254 1.97192843383754E-6
262 255 9.89094262051847E-7
262 256 1.97192843383754E-6
262 257 2.96102269588939E-6
262 259 9.89094262051847E-7
262 260 1.97192843383754E-6
262 262 3.68751295708894E-1
262 264 2.87964152242943E-6
262 265 9.89094262051847E-7
262 287 9.89094262051847E-7
262 289 9.89094262051847E-7
262 293 2.96102269588939E-6
262 339 1.13933642843947E-6
262 356 4.21304074911958E-6
262 359 5.97212611390799E-6
262 984 6.52861709203904E-5
262 985 6.5608903785289E-5
262 1045 2.85714285714286E-1
262 1050 1.245371793331195E-4
262 1051 1.24099724226766E-4
262 1178 1.2507712624005202E-4
262 1179 1.235501304417975E-4
262 1942 3.9176040522720995E-5
262 1943 3.9165193646513506E-5
262 2002 4.0650406504065E-2
262 2005 4.0650406504065E-2
262 2008 3.51579759555044E-5
262 2009 3.514825251922755E-5
262 2136 7.03150895950013E-5
262 2137 7.03158813536723E-5
263 263 2.09076336016084E-1
263 1944 1.21951219512195E-1
263 1947 8.71080139372822E-2
264 255 9.89094262051847E-7
264 262 2.87964152242943E-6
264 264 1.02456572885398E-1
264 292 4.98303185185614E-6
264 293 7.08642218128285E-6
264 991 5.49450549450549E-2
264 1048 1.2445404731931098E-4
264 1049 1.241826726673205E-4
264 1949 4.69043151969981E-2
264 2006 3.51484593278248E-5
264 2007 3.5158855950596606E-5
265 78 1.97192843383754E-6
265 192 1.97192843383754E-6
265 228 1.28957859482709E-6
265 252 9.89094262051847E-7
265 254 1.97192843383754E-6
265 255 2.96102269588939E-6
265 256 9.89094262051847E-7
265 257 3.94385686767509E-6
265 259 2.94224242509094E-6
265 262 9.89094262051847E-7
265 265 3.11261191332283E-1
265 287 3.94385686767509E-6
265 289 3.94385686767509E-6
265 295 1.97192843383754E-6
265 306 1.97192843383754E-6
265 331 7.98161508934244E-6
265 339 1.19254719570175E-5
265 348 7.90649400614863E-6
265 351 4.58238607482248E-6
265 352 1.20569338526067E-5
265 992 5.29100529100529E-2
265 995 5.29100529100529E-2
265 1142 6.4495382935991E-5
265 1143 6.638926870623095E-5
265 1158 6.20563122303676E-5
265 1159 6.26399515827789E-5
265 1162 6.309331850294324E-5
265 1163 6.159670384417816E-5
265 1170 6.194491370177085E-5
265 1171 6.27498313955864E-5
265 1951 2.03252032520325E-1
265 2100 3.91795093284535E-5
265 2101 3.916556672002775E-5
265 2116 7.03218474663249E-5
265 2117 7.031935129988465E-5
265 2120 7.03208180662228E-5
265 2121 7.029767147616076E-5
265 2128 7.032227311442155E-5
265 2129 7.02984253725197E-5
266 266 2.09076336016084E-1
266 1950 1.21951219512195E-1
266 1953 8.71080139372822E-2
267 202 6.09732791923101E-6
267 218 9.89094262051847E-7
267 267 3.67593693551098E-1
267 268 9.13973178858036E-7
267 269 9.89094262051847E-7
267 274 9.89094262051847E-7
267 996 6.543426482382854E-5
267 997 6.546275295857306E-5
267 1057 2.85714285714286E-1
267 1954 3.917702448070835E-5
267 1955 3.9165425617748004E-5
267 2014 4.0650406504065E-2
267 2017 4.0650406504065E-2
268 220 7.98161508934244E-6
268 267 9.13973178858036E-7
268 268 1.02560231297577E-1
268 997 5.49450549450549E-2
268 1000 1.817896277700955E-5
268 1001 1.7900147536365247E-5
268 1955 4.69043151969981E-2
268 1958 2.258114729035435E-4
268 1959 2.257648360014355E-4
269 198 2.61671773125109E-6
269 209 9.89094262051847E-7
269 220 4.58238607482248E-6
269 267 9.89094262051847E-7
269 269 3.10377738082832E-1
269 271 9.89094262051847E-7
269 276 9.89094262051847E-7
269 306 9.89094262051847E-7
269 319 9.89094262051847E-7
269 358 1.97192843383754E-6
269 368 1.97192843383754E-6
269 382 3.98141740927199E-6
269 383 1.26453823376249E-6
269 384 2.0695858419895E-5
269 386 9.89094262051847E-7
269 391 1.97192843383754E-6
269 998 5.29100529100529E-2
269 1001 5.29100529100529E-2
269 1200 6.5436944061591E-5
269 1201 6.546010797055211E-5
269 1232 1.231375809189855E-4
269 1233 1.2549204642469E-4
269 1957 2.03252032520325E-1
269 2158 3.9177019901728304E-5
269 2159 3.916542483073365E-5
269 2190 7.031705516233119E-5
269 2191 7.02970223619263E-5
270 220 1.20569338526067E-5
270 270 2.09076336016084E-1
270 1956 1.21951219512195E-1
270 1959 8.71080139372822E-2
271 198 9.89094262051847E-7
271 209 9.89094262051847E-7
271 218 9.89094262051847E-7
271 269 9.89094262051847E-7
271 271 3.09771022904967E-1
271 272 5.56522024660818E-6
271 274 9.89094262051847E-7
271 276 9.89094262051847E-7
271 306 2.29119303741124E-6
271 319 9.89094262051847E-7
271 358 2.17225132235437E-6
271 367 2.29119303741124E-6
271 379 9.89094262051847E-7
271 391 1.08925570631026E-6
271 396 9.89094262051847E-7
271 443 1.08925570631026E-6
271 444 1.18941715056868E-6
271 445 9.89094262051847E-7
271 449 9.89094262051847E-7
271 1002 5.29100529100529E-2
271 1005 5.29100529100529E-2
271 1362 1.90858612460058E-5
271 1363 1.87943817308604E-5
271 1961 2.03252032520325E-1
271 2320 1.2611859971727702E-4
271 2321 1.26060183189063E-4
272 138 1.56502256653773E-6
272 198 7.90649400614863E-6
272 202 6.09732791923101E-6
272 209 8.89558826820047E-6
272 271 5.56522024660818E-6
272 272 3.68140849406769E-1
272 273 1.20569338526067E-5
272 274 1.97192843383754E-6
272 276 9.89094262051847E-7
272 278 4.58238607482248E-6
272 279 1.20569338526067E-5
272 1002 6.273059597807686E-5
272 1003 6.1964499584079E-5
272 1014 6.23448975921858E-5
272 1015 6.235552074482425E-5
272 1061 2.85714285714286E-1
272 1960 7.03171147399193E-5
272 1961 7.029704041484825E-5
272 1972 7.03171740796018E-5
272 1973 7.029703794068649E-5
272 2018 4.0650406504065E-2
272 2021 4.0650406504065E-2
273 272 1.20569338526067E-5
273 273 2.09076336016084E-1
273 1960 1.21951219512195E-1
273 1963 8.71080139372822E-2
274 138 7.90649400614863E-6
274 198 9.89094262051847E-7
274 202 2.80452043923562E-6
274 267 9.89094262051847E-7
274 271 9.89094262051847E-7
274 272 1.97192843383754E-6
274 274 1.02858159386414E-1
274 276 4.58238607482248E-6
274 277 1.20569338526067E-5
274 1007 5.49450549450549E-2
274 1010 1.822387815062305E-5
274 1011 1.8152316515899148E-5
274 1058 3.6307838363377E-5
274 1059 3.6286960899760556E-5
274 1965 4.69043151969981E-2
274 1968 7.033129718248026E-5
274 1969 7.031428434784135E-5
274 2016 1.132833133920685E-4
274 2017 1.131669396993685E-4
275 149 9.89094262051847E-7
275 202 3.79361470128746E-6
275 275 1.02451862958738E-1
275 1009 5.49450549450549E-2
275 1062 3.62988823915432E-5
275 1063 3.6278740204054647E-5
275 1967 4.69043151969981E-2
275 2020 1.13374772913037E-4
275 2021 1.1307606460102699E-4
276 209 5.42123817048671E-6
276 218 9.89094262051847E-7
276 269 9.89094262051847E-7
276 271 9.89094262051847E-7
276 272 9.89094262051847E-7
276 274 4.58238607482248E-6
276 276 3.10292652499467E-1
276 306 9.89094262051847E-7
276 319 9.89094262051847E-7
276 358 2.96102269588939E-6
276 368 9.89094262051847E-7
276 379 1.97192843383754E-6
276 383 9.89094262051847E-7
276 391 9.89094262051847E-7
276 396 9.89094262051847E-7
276 443 1.28957859482709E-6
276 444 1.97192843383754E-6
276 445 9.89094262051847E-7
276 448 3.98141740927199E-6
276 449 8.31339987344844E-6
276 451 2.0695858419895E-5
276 452 4.98303185185614E-6
276 1010 5.29100529100529E-2
276 1013 5.29100529100529E-2
276 1370 3.630403244895025E-5
276 1371 3.63125613910525E-5
276 1374 3.63605267038807E-5
276 1375 3.57996566595322E-5
276 1969 2.03252032520325E-1
276 2328 7.033333941194159E-5
276 2329 7.031239205471026E-5
276 2332 1.131963986330825E-4
276 2333 1.132536625279285E-4
277 274 1.20569338526067E-5
277 277 2.09076336016084E-1
277 1968 1.21951219512195E-1
277 1971 8.71080139372822E-2
278 65 1.97192843383754E-6
278 272 4.58238607482248E-6
278 278 3.09927531972001E-1
278 306 9.89094262051847E-7
278 319 9.89094262051847E-7
278 369 6.44789297413546E-7
278 387 3.98141740927199E-6
278 389 2.0695858419895E-5
278 1014 5.29100529100529E-2
278 1017 5.29100529100529E-2
278 1242 3.6354932919040696E-5
278 1243 3.582694356090025E-5
278 1973 2.03252032520325E-1
278 2200 2.258095654060295E-4
278 2201 2.257667310813465E-4
279 272 1.20569338526067E-5
279 279 2.09076336016084E-1
279 1972 1.21951219512195E-1
279 1975 8.71080139372822E-2
280 54 8.89558826820047E-6
280 221 9.89094262051847E-7
280 280 1.02318704154421E-1
280 281 4.58238607482248E-6
280 282 1.20569338526067E-5
280 1019 5.49450549450549E-2
280 1020 1.8221482751286253E-5
280 1021 1.815071364756395E-5
280 1977 4.69043151969981E-2
280 1978 7.033317675914745E-5
280 1979 7.03125309444505E-5
281 54 9.89094262051847E-7
281 65 9.89094262051847E-7
281 221 9.89094262051847E-7
281 280 4.58238607482248E-6
281 281 3.10222893862398E-1
281 306 9.89094262051847E-7
281 319 9.89094262051847E-7
281 358 2.96102269588939E-6
281 379 1.97192843383754E-6
281 386 9.89094262051847E-7
281 388 9.89094262051847E-7
281 391 9.89094262051847E-7
281 396 4.48222463056407E-6
281 447 5.42123817048671E-6
281 453 3.98141740927199E-6
281 454 7.33056570166274E-6
281 456 2.0695858419895E-5
281 464 4.98303185185614E-6
281 1020 5.29100529100529E-2
281 1023 5.29100529100529E-2
281 1380 3.63040818579499E-5
281 1381 3.63153071889986E-5
281 1396 3.6361820187685346E-5
281 1397 3.5799680853116955E-5
281 1979 2.03252032520325E-1
281 2338 7.03333145354463E-5
281 2339 7.031241490943629E-5
281 2354 1.1318879594736E-4
281 2355 1.1326131478093149E-4
282 280 1.20569338526067E-5
282 282 2.09076336016084E-1
282 1978 1.21951219512195E-1
282 1981 8.71080139372822E-2
283 283 3.10819423648284E-1
283 299 9.89094262051847E-7
283 300 2.21607195421743E-6
283 302 9.89094262051847E-7
283 303 1.96379031649155E-5
283 306 1.97192843383754E-6
283 307 3.94385686767509E-6
283 310 1.97192843383754E-6
283 311 8.96444926112813E-6
283 319 1.97192843383754E-6
283 372 8.96444926112813E-6
283 1024 5.29100529100529E-2
283 1027 5.29100529100529E-2
283 1068 1.2213207805579E-4
283 1069 1.264916412630855E-4
283 1206 6.195635961748664E-5
283 1207 6.273848636692115E-5
283 1210 6.190281627677826E-5
283 1211 6.2791297522847E-5
283 1983 2.03252032520325E-1
283 2026 7.031814279156651E-5
283 2027 7.02971157807617E-5
283 2164 7.03185850245252E-5
283 2165 7.029821060215245E-5
283 2168 7.031836853583725E-5
283 2169 7.031727817261165E-5
284 284 2.09076336016084E-1
284 1982 1.21951219512195E-1
284 1985 8.71080139372822E-2
285 242 4.98303185185614E-6
285 285 2.60781003721296E-1
285 1028 1.58730158730159E-1
285 1031 1.02040816326531E-1
286 246 4.98303185185614E-6
286 286 2.60781003721296E-1
286 1032 1.58730158730159E-1
286 1035 1.02040816326531E-1
287 41 9.89094262051847E-7
287 78 9.89094262051847E-7
287 130 9.89094262051847E-7
287 192 9.89094262051847E-7
287 228 9.89094262051847E-7
287 245 9.89094262051847E-7
287 246 6.09732791923101E-6
287 250 9.89094262051847E-7
287 252 9.89094262051847E-7
287 254 9.89094262051847E-7
287 256 9.89094262051847E-7
287 257 9.89094262051847E-7
287 259 9.89094262051847E-7
287 262 9.89094262051847E-7
287 265 3.94385686767509E-6
287 287 3.68486454561621E-1
287 293 9.89094262051847E-7
287 295 1.97192843383754E-6
287 306 9.89094262051847E-7
287 319 9.89094262051847E-7
287 338 6.65447595291844E-6
287 339 2.96102269588939E-6
287 346 2.74817962684026E-6
287 355 5.61530096873738E-6
287 363 4.98303185185614E-6
287 364 6.09732791923101E-6
287 365 6.09732791923101E-6
287 380 4.98303185185614E-6
287 1033 2.85714285714286E-1
287 1190 1.243111478694705E-4
287 1191 1.2432512392795048E-4
287 1222 1.244397980225325E-4
287 1223 1.24196889323935E-4
287 1990 4.0650406504065E-2
287 1993 4.0650406504065E-2
287 2148 3.51484531224898E-5
287 2149 3.51588251421658E-5
287 2180 3.514845406536575E-5
287 2181 3.51588251264165E-5
288 245 4.98303185185614E-6
288 288 2.60781003721296E-1
288 1036 1.58730158730159E-1
288 1039 1.02040816326531E-1
289 41 2.29119303741124E-6
289 78 9.89094262051847E-7
289 130 1.28957859482709E-6
289 192 9.89094262051847E-7
289 228 9.89094262051847E-7
289 245 6.09732791923101E-6
289 252 9.89094262051847E-7
289 254 1.13933642843947E-6
289 255 1.97192843383754E-6
289 256 9.89094262051847E-7
289 257 2.96102269588939E-6
289 259 9.89094262051847E-7
289 262 9.89094262051847E-7
289 265 3.94385686767509E-6
289 289 3.68622452902355E-1
289 293 9.89094262051847E-7
289 295 1.97192843383754E-6
289 306 9.89094262051847E-7
289 319 9.89094262051847E-7
289 358 1.97192843383754E-6
289 364 9.89094262051847E-7
289 366 2.87964152242943E-6
289 367 6.09732791923101E-6
289 379 9.89094262051847E-7
289 381 4.98303185185614E-6
289 391 9.89094262051847E-7
289 396 9.89094262051847E-7
289 436 9.89094262051847E-7
289 437 9.89094262051847E-7
289 438 2.80452043923562E-6
289 443 1.97192843383754E-6
289 1037 2.85714285714286E-1
289 1226 1.243068575868175E-4
289 1227 1.24329373607384E-4
289 1354 1.243141963561985E-4
289 1355 1.243221887335135E-4
289 1994 4.0650406504065E-2
289 1997 4.0650406504065E-2
289 2184 3.514845528530315E-5
289 2185 3.515883725438535E-5
289 2312 3.51588372530873E-5
289 2313 3.5148455362593955E-5
290 290 2.60781003721296E-1
290 1040 1.58730158730159E-1
290 1043 1.02040816326531E-1
291 291 2.60781003721296E-1
291 1044 1.58730158730159E-1
291 1047 1.02040816326531E-1
292 264 4.98303185185614E-6
292 292 2.60781003721296E-1
292 1048 1.58730158730159E-1
292 1051 1.02040816326531E-1
293 130 1.97192843383754E-6
293 192 1.97192843383754E-6
293 242 1.97192843383754E-6
293 245 1.97192843383754E-6
293 246 1.97192843383754E-6
293 250 2.96102269588939E-6
293 252 9.89094262051847E-7
293 254 1.97192843383754E-6
293 255 9.89094262051847E-7
293 256 1.97192843383754E-6
293 257 2.96102269588939E-6
293 259 9.89094262051847E-7
293 260 1.97192843383754E-6
293 262 2.96102269588939E-6
293 264 7.08642218128285E-6
293 287 9.89094262051847E-7
293 289 9.89094262051847E-7
293 293 3.6809060822984E-1
293 333 7.98161508934244E-6
293 334 4.58238607482248E-6
293 335 1.20569338526067E-5
293 1049 2.85714285714286E-1
293 1126 1.790054551538155E-5
293 1127 1.8180013100700848E-5
293 2006 4.0650406504065E-2
293 2009 4.0650406504065E-2
293 2084 2.25880056460109E-4
293 2085 2.25696697854652E-4
294 294 2.60781003721296E-1
294 1052 1.58730158730159E-1
294 1055 1.02040816326531E-1
295 228 1.97192843383754E-6
295 255 1.97192843383754E-6
295 265 1.97192843383754E-6
295 287 1.97192843383754E-6
295 289 1.97192843383754E-6
295 295 3.68666675958401E-1
295 306 1.97192843383754E-6
295 319 9.89094262051847E-7
295 331 5.36489735809135E-6
295 339 1.97192843383754E-6
295 350 7.08642218128285E-6
295 353 9.89094262051847E-7
295 358 1.97192843383754E-6
295 362 4.98303185185614E-6
295 379 2.49151592592807E-6
295 391 1.53998220547313E-6
295 396 9.89094262051847E-7
295 421 9.89094262051847E-7
295 432 9.89094262051847E-7
295 435 2.80452043923562E-6
295 1053 2.85714285714286E-1
295 1166 6.54505096953614E-5
295 1167 6.544670110151634E-5
295 1186 1.24395337588188E-4
295 1187 1.2424124552024701E-4
295 1346 1.2440657792577898E-4
295 1347 1.24230030705972E-4
295 2010 4.0650406504065E-2
295 2013 4.0650406504065E-2
295 2124 3.9176020957815296E-5
295 2125 3.91651878540534E-5
295 2144 3.514824579915765E-5
295 2145 3.5157958249927056E-5
295 2304 3.515795825561735E-5
295 2305 3.5148245292940605E-5
296 202 4.98303185185614E-6
296 296 2.60781003721296E-1
296 1056 1.58730158730159E-1
296 1059 1.02040816326531E-1
297 202 4.98303185185614E-6
297 297 2.60781003721296E-1
297 1060 1.58730158730159E-1
297 1063 1.02040816326531E-1
298 298 2.60781003721296E-1
298 1064 1.58730158730159E-1
298 1067 1.02040816326531E-1
299 283 9.89094262051847E-7
299 299 3.68141769717075E-1
299 300 4.21304074911958E-6
299 303 5.97212611390799E-6
299 306 9.89094262051847E-7
299 319 9.89094262051847E-7
299 1065 2.85714285714286E-1
299 1072 1.253069059561195E-4
299 1073 1.233142463937535E-4
299 1202 6.511258873688345E-5
299 1203 6.578018290506231E-5
299 2022 4.0650406504065E-2
299 2025 4.0650406504065E-2
299 2030 7.03165459897156E-5
299 2031 7.031709913919029E-5
299 2160 3.91767606745243E-5
299 2161 3.9165374207769354E-5
300 283 2.21607195421743E-6
300 299 4.21304074911958E-6
300 300 4.89925229686967E-1
300 301 1.00161444258415E-6
300 302 2.21607195421743E-6
300 304 3.98141740927199E-6
300 307 1.62762346919924E-6
300 308 2.0695858419895E-5
300 1069 1.02040816326531E-1
300 1072 2.85714285714286E-1
300 1076 3.6295818796974305E-5
300 1077 3.6442736816094846E-5
300 2027 1.01626016260163E-1
300 2034 7.03344133258462E-5
300 2035 7.031139199982104E-5
301 300 1.00161444258415E-6
301 301 2.21097487464675E-1
301 302 3.00484332775245E-6
301 1070 1.02040816326531E-1
301 1073 1.19047619047619E-1
302 283 9.89094262051847E-7
302 300 2.21607195421743E-6
302 301 3.00484332775245E-6
302 302 3.21877453850134E-1
302 303 3.98141740927199E-6
302 306 9.89094262051847E-7
302 311 9.89094262051847E-7
302 319 9.89094262051847E-7
302 358 1.97192843383754E-6
302 370 3.86247569421512E-6
302 372 9.89094262051847E-7
302 375 1.88115712497835E-5
302 377 1.97192843383754E-6
302 379 9.89094262051847E-7
302 393 4.98303185185614E-6
302 394 6.09732791923101E-6
302 396 9.89094262051847E-7
302 459 1.26453823376249E-6
302 467 9.89094262051847E-7
302 1070 1.2550459082653E-4
302 1071 1.23125003932978E-4
302 1252 3.67871022809978E-5
302 1253 3.667534097159505E-5
302 1415 1.42857142857143E-1
302 2028 7.031756301513156E-5
302 2029 7.0316971588053E-5
302 2210 3.5158685640951E-5
302 2211 3.5158695201241346E-5
302 2372 7.62195121951219E-2
302 2375 1.01626016260163E-1
303 283 1.96379031649155E-5
303 299 5.97212611390799E-6
303 302 3.98141740927199E-6
303 303 3.2671083592917E-1
303 2026 1.52439024390244E-1
303 2029 8.71080139372822E-2
303 2030 8.71080139372822E-2
304 300 3.98141740927199E-6
304 304 3.33990700284647E-1
304 305 6.52301405732927E-6
304 307 4.14417975619192E-6
304 1074 1.2987012987013E-1
304 1077 1.02040816326531E-1
304 1078 1.02040816326531E-1
305 304 6.52301405732927E-6
305 305 3.32342573265279E-1
305 306 1.78287370779979E-5
305 307 1.78287370779979E-5
305 310 1.26453823376249E-6
305 311 9.89094262051847E-7
305 1074 1.24715644849131E-4
305 1075 1.239159252481035E-4
305 1081 1.42857142857143E-1
305 2032 7.029692632099771E-5
305 2033 7.031788838750464E-5
305 2038 8.71080139372822E-2
305 2041 1.01626016260163E-1
306 41 1.18941715056868E-6
306 54 9.89094262051847E-7
306 65 9.89094262051847E-7
306 78 9.89094262051847E-7
306 198 1.97192843383754E-6
306 209 9.89094262051847E-7
306 218 9.89094262051847E-7
306 221 9.89094262051847E-7
306 228 9.89094262051847E-7
306 255 1.97192843383754E-6
306 256 1.97192843383754E-6
306 257 1.97192843383754E-6
306 259 9.89094262051847E-7
306 265 1.97192843383754E-6
306 269 9.89094262051847E-7
306 271 2.29119303741124E-6
306 276 9.89094262051847E-7
306 278 9.89094262051847E-7
306 281 9.89094262051847E-7
306 283 1.97192843383754E-6
306 287 9.89094262051847E-7
306 289 9.89094262051847E-7
306 295 1.97192843383754E-6
306 299 9.89094262051847E-7
306 302 9.89094262051847E-7
306 305 1.78287370779979E-5
306 306 3.3257110254449E-1
306 307 9.89094262051847E-7
306 311 1.97192843383754E-6
306 331 9.89094262051847E-7
306 339 9.89094262051847E-7
306 342 1.97192843383754E-6
306 345 1.97192843383754E-6
306 347 2.96102269588939E-6
306 348 9.89094262051847E-7
306 356 1.97192843383754E-6
306 358 9.89094262051847E-7
306 391 9.89094262051847E-7
306 415 9.89094262051847E-7
306 1075 1.42857142857143E-1
306 2032 8.71080139372822E-2
306 2035 1.01626016260163E-1
307 283 3.94385686767509E-6
307 300 1.62762346919924E-6
307 304 4.14417975619192E-6
307 305 1.78287370779979E-5
307 306 9.89094262051847E-7
307 307 3.3289095847915E-1
307 309 6.52301405732927E-6
307 310 2.21607195421743E-6
307 311 9.89094262051847E-7
307 314 1.78287370779979E-5
307 319 2.96102269588939E-6
307 372 2.96102269588939E-6
307 1078 1.25029739779876E-4
307 1079 1.23602428332301E-4
307 1080 3.68039713630097E-5
307 1081 3.6670594861427396E-5
307 1087 1.42857142857143E-1
307 2036 7.031705285101024E-5
307 2037 7.029790061168154E-5
307 2038 7.03166782513308E-5
307 2039 7.031678380773414E-5
307 2044 8.71080139372822E-2
307 2047 1.01626016260163E-1
308 300 2.0695858419895E-5
308 308 1.88764523097131E-1
308 2034 1.01626016260163E-1
308 2037 8.71080139372822E-2
309 307 6.52301405732927E-6
309 309 3.33990700284647E-1
309 310 3.98141740927199E-6
309 311 4.14417975619192E-6
309 1080 1.2987012987013E-1
309 1083 1.02040816326531E-1
309 1084 1.02040816326531E-1
310 283 1.97192843383754E-6
310 305 1.26453823376249E-6
310 307 2.21607195421743E-6
310 309 3.98141740927199E-6
310 310 3.06162345480659E-1
310 311 6.44789297413546E-7
310 312 2.0695858419895E-5
310 319 9.89094262051847E-7
310 372 4.58238607482248E-6
310 1082 3.6349947974002194E-5
310 1083 3.58248429854851E-5
310 1208 5.10204081632653E-2
310 1211 5.10204081632653E-2
310 2040 2.260344278773845E-4
310 2041 2.2554331779966E-4
310 2167 2.03252032520325E-1
311 283 8.96444926112813E-6
311 302 9.89094262051847E-7
311 305 9.89094262051847E-7
311 306 1.97192843383754E-6
311 307 9.89094262051847E-7
311 309 4.14417975619192E-6
311 310 6.44789297413546E-7
311 311 9.76908562767681E-2
311 319 9.89094262051847E-7
311 358 1.97192843383754E-6
311 370 5.56522024660818E-6
311 371 1.20569338526067E-5
311 394 9.89094262051847E-7
311 1084 3.58253901108097E-5
311 1085 3.6351300197526496E-5
311 1203 5.29100529100529E-2
311 1204 1.8230965715622948E-5
311 1205 1.8151210998751148E-5
311 2042 2.25919285234596E-4
311 2043 2.25657721964793E-4
311 2161 4.35540069686411E-2
311 2162 7.033294403389315E-5
311 2163 7.031274506391871E-5
312 310 2.0695858419895E-5
312 312 1.88764523097131E-1
312 2040 1.01626016260163E-1
312 2043 8.71080139372822E-2
313 313 3.33990700284647E-1
313 314 6.52301405732927E-6
313 1086 1.2987012987013E-1
313 1089 1.02040816326531E-1
313 1090 1.02040816326531E-1
314 307 1.78287370779979E-5
314 313 6.52301405732927E-6
314 314 3.67696212216425E-1
314 1086 4.512266248073095E-4
314 1087 2.9701484607751606E-4
314 1093 2.85714285714286E-1
314 2044 7.147629418905675E-5
314 2045 7.032092658714745E-5
314 2050 4.0650406504065E-2
314 2053 4.0650406504065E-2
315 315 1.88764523097131E-1
315 2046 1.01626016260163E-1
315 2049 8.71080139372822E-2
316 316 2.60781003721296E-1
316 1092 1.58730158730159E-1
316 1095 1.02040816326531E-1
317 68 3.98141740927199E-6
317 82 4.14417975619192E-6
317 317 3.33990700284647E-1
317 318 6.52301405732927E-6
317 1096 1.2987012987013E-1
317 1099 1.02040816326531E-1
317 1100 1.02040816326531E-1
318 80 7.08642218128285E-6
318 82 1.97192843383754E-6
318 147 1.97192843383754E-6
318 317 6.52301405732927E-6
318 318 3.67890710330108E-1
318 319 1.78287370779979E-5
318 358 1.97192843383754E-6
318 379 9.89094262051847E-7
318 1096 1.24308857213675E-4
318 1097 1.2432747907557248E-4
318 1435 2.85714285714286E-1
318 2054 7.029690930572285E-5
318 2055 7.03177744422006E-5
318 2392 4.0650406504065E-2
318 2395 4.0650406504065E-2
319 41 9.89094262051847E-7
319 54 9.89094262051847E-7
319 65 9.89094262051847E-7
319 82 9.89094262051847E-7
319 198 1.97192843383754E-6
319 209 9.89094262051847E-7
319 218 9.89094262051847E-7
319 221 9.89094262051847E-7
319 228 9.89094262051847E-7
319 269 9.89094262051847E-7
319 271 9.89094262051847E-7
319 276 9.89094262051847E-7
319 278 9.89094262051847E-7
319 281 9.89094262051847E-7
319 283 1.97192843383754E-6
319 287 9.89094262051847E-7
319 289 9.89094262051847E-7
319 295 9.89094262051847E-7
319 299 9.89094262051847E-7
319 302 9.89094262051847E-7
319 307 2.96102269588939E-6
319 310 9.89094262051847E-7
319 311 9.89094262051847E-7
319 318 1.78287370779979E-5
319 319 3.3255065082959E-1
319 331 1.97192843383754E-6
319 351 9.89094262051847E-7
319 353 9.89094262051847E-7
319 358 1.97192843383754E-6
319 372 1.97192843383754E-6
319 379 9.89094262051847E-7
319 391 9.89094262051847E-7
319 396 9.89094262051847E-7
319 421 9.89094262051847E-7
319 424 9.89094262051847E-7
319 432 1.97192843383754E-6
319 435 2.17225132235437E-6
319 1097 1.42857142857143E-1
319 2054 8.71080139372822E-2
319 2057 1.01626016260163E-1
320 68 2.0695858419895E-5
320 320 1.88764523097131E-1
320 2056 1.01626016260163E-1
320 2059 8.71080139372822E-2
321 156 3.00484332775245E-6
321 231 1.00161444258415E-6
321 321 2.21097487464675E-1
321 1106 1.02040816326531E-1
321 1109 1.19047619047619E-1
322 147 5.97212611390799E-6
322 156 3.98141740927199E-6
322 205 1.96379031649155E-5
322 322 3.2671083592917E-1
322 2062 1.52439024390244E-1
322 2065 8.71080139372822E-2
322 2066 8.71080139372822E-2
323 130 9.89094262051847E-7
323 192 9.89094262051847E-7
323 241 1.97192843383754E-6
323 323 3.05914169703159E-1
323 324 4.58238607482248E-6
323 1110 5.10204081632653E-2
323 1113 5.10204081632653E-2
323 1114 1.908590650586195E-5
323 1115 1.8794398614280198E-5
323 2069 2.03252032520325E-1
323 2072 1.261184100171065E-4
323 2073 1.260603716625875E-4
324 130 9.89094262051847E-7
324 166 1.97192843383754E-6
324 192 9.89094262051847E-7
324 241 1.97192843383754E-6
324 246 4.89539058813003E-6
324 257 1.97192843383754E-6
324 323 4.58238607482248E-6
324 324 3.63242019782092E-1
324 325 7.90649400614863E-6
324 326 1.20569338526067E-5
324 327 1.97192843383754E-6
324 331 9.95354352317998E-6
324 334 9.89094262051847E-7
324 338 6.09732791923101E-6
324 341 9.89094262051847E-7
324 345 9.89094262051847E-7
324 347 9.89094262051847E-7
324 356 1.03917498418105E-6
324 412 5.56522024660818E-6
324 413 1.20569338526067E-5
324 415 9.89094262051847E-7
324 1110 6.272272264720115E-5
324 1111 6.19724822442763E-5
324 1147 2.85714285714286E-1
324 1294 6.236499206752394E-5
324 1295 6.233520601447011E-5
324 2068 7.03171024608601E-5
324 2069 7.029703502575081E-5
324 2104 3.8109756097561E-2
324 2107 3.8109756097561E-2
324 2252 7.031715344093869E-5
324 2253 7.02970333223301E-5
325 130 9.89094262051847E-7
325 192 9.89094262051847E-7
325 241 3.94385686767509E-6
325 324 7.90649400614863E-6
325 325 3.07021517969359E-1
325 334 6.44789297413546E-7
325 356 9.89094262051847E-7
325 402 1.97192843383754E-6
325 404 9.89094262051847E-7
325 406 9.89094262051847E-7
325 409 4.14417975619192E-6
325 1112 6.19697174065357E-5
325 1113 6.272531208667374E-5
325 1266 5.10204081632653E-2
325 1269 5.10204081632653E-2
325 1270 6.43131889348964E-5
325 1271 6.656900109026784E-5
325 1290 1.2537440442385902E-4
325 1291 1.23255777719352E-4
325 2070 7.03183471388313E-5
325 2071 7.0317257794694E-5
325 2225 2.03252032520325E-1
325 2228 3.917745486307435E-5
325 2229 3.916548595630405E-5
325 2248 7.031834619729655E-5
325 2249 7.0317257275102E-5
326 324 1.20569338526067E-5
326 326 1.98187834273924E-1
326 2068 1.21951219512195E-1
326 2071 7.62195121951219E-2
327 166 9.89094262051847E-7
327 238 9.89094262051847E-7
327 241 1.97192843383754E-6
327 245 2.21607195421743E-6
327 324 1.97192843383754E-6
327 327 9.71791198885532E-2
327 329 1.96379031649155E-5
327 1115 5.29100529100529E-2
327 1116 1.2429991091423702E-4
327 1117 1.2433639167491202E-4
327 2073 4.35540069686411E-2
327 2074 7.031737723587581E-5
327 2075 7.029698012169055E-5
328 166 3.00484332775245E-6
328 245 1.00161444258415E-6
328 328 2.21097487464675E-1
328 1118 1.02040816326531E-1
328 1121 1.19047619047619E-1
329 166 3.98141740927199E-6
329 238 5.97212611390799E-6
329 327 1.96379031649155E-5
329 329 3.0493383244485E-1
329 2074 1.52439024390244E-1
329 2077 7.62195121951219E-2
329 2078 7.62195121951219E-2
330 238 6.09732791923101E-6
330 241 9.13973178858036E-7
330 330 3.62499604869507E-1
330 1122 1.908805182258455E-5
330 1123 1.87952039491906E-5
330 1131 2.85714285714286E-1
330 2080 1.261380769582115E-4
330 2081 1.26040832347375E-4
330 2088 3.8109756097561E-2
330 2091 3.8109756097561E-2
331 78 9.89094262051847E-7
331 228 3.86247569421512E-6
331 241 1.97192843383754E-6
331 246 9.89094262051847E-7
331 256 2.62297782151724E-6
331 259 9.89094262051847E-7
331 265 7.98161508934244E-6
331 295 5.36489735809135E-6
331 306 9.89094262051847E-7
331 319 1.97192843383754E-6
331 324 9.95354352317998E-6
331 331 9.94733331358373E-2
331 334 9.89094262051847E-7
331 342 1.97192843383754E-6
331 345 1.97192843383754E-6
331 347 9.89094262051847E-7
331 350 9.89094262051847E-7
331 351 9.89094262051847E-7
331 353 4.43840399870101E-6
331 356 9.89094262051847E-7
331 358 3.94385686767509E-6
331 379 1.97192843383754E-6
331 391 2.96102269588939E-6
331 396 3.26150702866464E-6
331 412 9.89094262051847E-7
331 415 9.89094262051847E-7
331 421 9.89094262051847E-7
331 431 4.14417975619192E-6
331 432 9.89094262051847E-7
331 435 1.97192843383754E-6
331 1123 5.29100529100529E-2
331 1164 6.160044397900255E-5
331 1165 6.308968068553781E-5
331 1188 1.244775162802855E-4
331 1189 1.24159257594538E-4
331 1296 6.233521564471349E-5
331 1297 6.236498300547059E-5
331 1336 1.24359339297451E-4
331 1337 1.2427683002637748E-4
331 1350 1.242957976195465E-4
331 1351 1.243404819545845E-4
331 2081 4.35540069686411E-2
331 2122 7.03176467886322E-5
331 2123 7.031634707374245E-5
331 2146 3.515885505639455E-5
331 2147 3.5148459452845394E-5
331 2254 7.031759166725596E-5
331 2255 7.03166791778041E-5
331 2294 7.031777596000335E-5
331 2295 7.02980593820831E-5
331 2308 3.515868240013325E-5
331 2309 3.51586737798216E-5
332 241 1.97192843383754E-6
332 332 3.62513037878229E-1
332 334 9.89094262051847E-7
332 338 7.08642218128285E-6
332 1124 6.543368580713934E-5
332 1125 6.54633243111269E-5
332 1135 2.85714285714286E-1
332 2082 3.917702422477965E-5
332 2083 3.9165425567878946E-5
332 2092 3.8109756097561E-2
332 2095 3.8109756097561E-2
333 241 9.13973178858036E-7
333 293 7.98161508934244E-6
333 333 9.71747898191285E-2
333 1125 5.29100529100529E-2
333 1128 1.8178957700298298E-5
333 1129 1.790015519851215E-5
333 2083 4.35540069686411E-2
333 2086 2.25838307969412E-4
333 2087 2.257381754239935E-4
334 241 3.16134558440622E-6
334 246 1.26453823376249E-6
334 293 4.58238607482248E-6
334 324 9.89094262051847E-7
334 325 6.44789297413546E-7
334 331 9.89094262051847E-7
334 332 9.89094262051847E-7
334 334 3.06491134739645E-1
334 345 1.97192843383754E-6
334 347 1.97192843383754E-6
334 356 9.89094262051847E-7
334 402 1.22697769216558E-6
334 404 1.97192843383754E-6
334 406 1.97192843383754E-6
334 409 3.98141740927199E-6
334 410 2.0695858419895E-5
334 415 9.89094262051847E-7
334 1126 5.10204081632653E-2
334 1129 5.10204081632653E-2
334 1288 1.23262077096832E-4
334 1289 1.25368263731442E-4
334 1292 6.54369569908864E-5
334 1293 6.546009519497269E-5
334 2085 2.03252032520325E-1
334 2246 7.03170739139641E-5
334 2247 7.029702793392119E-5
334 2250 3.91770289510252E-5
334 2251 3.9165426429265646E-5
335 293 1.20569338526067E-5
335 335 1.98187834273924E-1
335 2084 1.21951219512195E-1
335 2087 7.62195121951219E-2
336 238 4.98303185185614E-6
336 336 2.60781003721296E-1
336 1130 1.58730158730159E-1
336 1133 1.02040816326531E-1
337 337 2.60781003721296E-1
337 338 4.98303185185614E-6
337 1134 1.58730158730159E-1
337 1137 1.02040816326531E-1
338 257 4.58238607482248E-6
338 287 6.65447595291844E-6
338 324 6.09732791923101E-6
338 332 7.08642218128285E-6
338 337 4.98303185185614E-6
338 338 3.06359362511359E-1
338 339 2.87964152242943E-6
338 341 3.86247569421512E-6
338 343 4.98303185185614E-6
338 1134 3.63272814238469E-5
338 1135 3.57972241228245E-5
338 1138 5.10204081632653E-2
338 1141 5.10204081632653E-2
338 1146 3.6327799045814696E-5
338 1147 3.5797248278306005E-5
338 2092 1.131675619450375E-4
338 2093 1.132826862481975E-4
338 2097 2.03252032520325E-1
338 2104 1.131092611971645E-4
338 2105 1.13341363232736E-4
339 78 9.89094262051847E-7
339 228 9.89094262051847E-7
339 246 1.97192843383754E-6
339 252 9.89094262051847E-7
339 254 1.97192843383754E-6
339 255 1.97192843383754E-6
339 256 9.89094262051847E-7
339 257 9.89094262051847E-7
339 259 9.89094262051847E-7
339 262 1.13933642843947E-6
339 265 1.19254719570175E-5
339 287 2.96102269588939E-6
339 295 1.97192843383754E-6
339 306 9.89094262051847E-7
339 338 2.87964152242943E-6
339 339 9.77055636056911E-2
339 353 4.58238607482248E-6
339 354 1.20569338526067E-5
339 1136 3.630917300347985E-5
339 1137 3.6288202161409644E-5
339 1167 5.29100529100529E-2
339 1168 1.82347155268178E-5
339 1169 1.815296968820425E-5
339 2094 1.132825662951125E-4
339 2095 1.1316768207785501E-4
339 2125 4.35540069686411E-2
339 2126 7.03312889854499E-5
339 2127 7.03142850202006E-5
340 257 1.20569338526067E-5
340 340 1.98187834273924E-1
340 2096 1.21951219512195E-1
340 2099 7.62195121951219E-2
341 252 9.89094262051847E-7
341 257 9.89094262051847E-7
341 324 9.89094262051847E-7
341 338 3.86247569421512E-6
341 341 9.70845877560656E-2
341 1143 5.29100529100529E-2
341 1148 3.62991010217301E-5
341 1149 3.627895309180835E-5
341 2101 4.35540069686411E-2
341 2106 1.13341352564634E-4
341 2107 1.131092721303045E-4
342 78 1.97192843383754E-6
342 256 3.86247569421512E-6
342 257 9.89094262051847E-7
342 259 1.97192843383754E-6
342 306 1.97192843383754E-6
342 331 1.97192843383754E-6
342 342 9.82809789441654E-2
342 345 9.89094262051847E-7
342 347 2.21607195421743E-6
342 356 1.990708704636E-6
342 358 1.78287370779979E-5
342 360 6.52301405732927E-6
342 391 1.97192843383754E-6
342 396 1.97192843383754E-6
342 421 3.79361470128746E-6
342 426 1.97192843383754E-6
342 1145 5.29100529100529E-2
342 1152 3.63468026010061E-5
342 1153 3.582182731547685E-5
342 1180 3.633938611023065E-5
342 1181 3.579845197097835E-5
342 1316 3.6300922237144455E-5
342 1317 3.6279873718833105E-5
342 2103 4.35540069686411E-2
342 2110 1.13292352556825E-4
342 2111 1.13157958205729E-4
342 2138 2.256888267106805E-4
342 2139 2.25887977614975E-4
342 2274 1.13273973921808E-4
342 2275 1.13176218376888E-4
343 338 4.98303185185614E-6
343 343 2.60781003721296E-1
343 1146 1.58730158730159E-1
343 1149 1.02040816326531E-1
344 256 4.98303185185614E-6
344 344 2.60781003721296E-1
344 1150 1.58730158730159E-1
344 1153 1.02040816326531E-1
345 241 1.97192843383754E-6
345 256 7.78755229109176E-6
345 257 9.89094262051847E-7
345 306 1.97192843383754E-6
345 324 9.89094262051847E-7
345 331 1.97192843383754E-6
345 334 1.97192843383754E-6
345 342 9.89094262051847E-7
345 345 3.63305848962165E-1
345 347 2.61671773125109E-6
345 356 9.89094262051847E-7
345 391 1.97192843383754E-6
345 404 9.89094262051847E-7
345 406 9.89094262051847E-7
345 414 4.14417975619192E-6
345 415 9.89094262051847E-7
345 421 2.80452043923562E-6
345 1151 2.85714285714286E-1
345 1302 1.24351400629412E-4
345 1303 1.2428481468001052E-4
345 1312 1.243030955988875E-4
345 1313 1.2433322577224152E-4
345 2108 3.8109756097561E-2
345 2111 3.8109756097561E-2
345 2260 7.03177909885019E-5
345 2261 7.029806286494735E-5
345 2270 3.51586877969722E-5
345 2271 3.515868582713325E-5
346 287 2.74817962684026E-6
346 346 9.72318331847755E-2
346 347 6.44789297413546E-7
346 360 4.14417975619192E-6
346 1155 5.29100529100529E-2
346 1184 3.62942114734718E-5
346 1185 3.6306854208855953E-5
346 2113 4.35540069686411E-2
346 2142 2.258549808580175E-4
346 2143 2.257216106179605E-4
347 241 1.97192843383754E-6
347 256 1.97192843383754E-6
347 257 1.97192843383754E-6
347 259 9.89094262051847E-7
347 306 2.96102269588939E-6
347 324 9.89094262051847E-7
347 331 9.89094262051847E-7
347 334 1.97192843383754E-6
347 342 2.21607195421743E-6
347 345 2.61671773125109E-6
347 346 6.44789297413546E-7
347 347 3.06776758119511E-1
347 348 5.56522024660818E-6
347 356 1.97192843383754E-6
347 358 2.25363249581434E-6
347 360 3.98141740927199E-6
347 361 2.0695858419895E-5
347 391 2.96102269588939E-6
347 404 9.89094262051847E-7
347 406 9.89094262051847E-7
347 414 3.98141740927199E-6
347 417 2.0695858419895E-5
347 1156 5.10204081632653E-2
347 1159 5.10204081632653E-2
347 1182 3.63054999033259E-5
347 1183 3.629287316648995E-5
347 1300 3.630469502903515E-5
347 1301 3.631157031794085E-5
347 2115 2.03252032520325E-1
347 2140 2.2582087418687052E-4
347 2141 2.25755495701841E-4
347 2258 7.03332628383254E-5
347 2259 7.03124628119901E-5
348 78 9.89094262051847E-7
348 228 1.97192843383754E-6
348 265 7.90649400614863E-6
348 306 9.89094262051847E-7
348 347 5.56522024660818E-6
348 348 9.70977134628014E-2
348 349 1.20569338526067E-5
348 350 9.89094262051847E-7
348 358 1.97192843383754E-6
348 391 1.97192843383754E-6
348 396 1.97192843383754E-6
348 1156 6.26371615685956E-5
348 1157 6.20592339294732E-5
348 1161 5.29100529100529E-2
348 2114 7.031687784897686E-5
348 2115 7.029706615054715E-5
348 2119 4.35540069686411E-2
349 348 1.20569338526067E-5
349 349 1.98187834273924E-1
349 2114 1.21951219512195E-1
349 2117 7.62195121951219E-2
350 295 7.08642218128285E-6
350 331 9.89094262051847E-7
350 348 9.89094262051847E-7
350 350 3.62548840800416E-1
350 358 1.97192843383754E-6
350 1160 1.9088781607572648E-5
350 1161 1.87955032599646E-5
350 1187 2.85714285714286E-1
350 2118 1.2622111420798398E-4
350 2119 1.259583297313065E-4
350 2144 3.8109756097561E-2
350 2147 3.8109756097561E-2
351 228 9.89094262051847E-7
351 265 4.58238607482248E-6
351 319 9.89094262051847E-7
351 331 9.89094262051847E-7
351 351 3.05897318166534E-1
351 353 1.38974003908551E-6
351 358 1.97192843383754E-6
351 379 9.89094262051847E-7
351 391 9.89094262051847E-7
351 396 2.29119303741124E-6
351 432 9.89094262051847E-7
351 435 9.89094262051847E-7
351 1162 5.10204081632653E-2
351 1165 5.10204081632653E-2
351 1338 1.9083733754502E-5
351 1339 1.87935971994932E-5
351 2121 2.03252032520325E-1
351 2296 1.26139663987089E-4
351 2297 1.26039255032961E-4
352 265 1.20569338526067E-5
352 352 1.98187834273924E-1
352 2120 1.21951219512195E-1
352 2123 7.62195121951219E-2
353 295 9.89094262051847E-7
353 319 9.89094262051847E-7
353 331 4.43840399870101E-6
353 339 4.58238607482248E-6
353 351 1.38974003908551E-6
353 353 3.06396003362366E-1
353 358 2.96102269588939E-6
353 379 1.97192843383754E-6
353 391 9.89094262051847E-7
353 396 1.03917498418105E-6
353 421 9.89094262051847E-7
353 431 3.98141740927199E-6
353 432 8.51372276196527E-6
353 434 2.0695858419895E-5
353 435 1.97192843383754E-6
353 440 4.98303185185614E-6
353 1168 5.10204081632653E-2
353 1171 5.10204081632653E-2
353 1334 3.63034787994475E-5
353 1335 3.631202160328715E-5
353 1348 3.635985776466375E-5
353 1349 3.5799446638280153E-5
353 2127 2.03252032520325E-1
353 2292 7.03333708863969E-5
353 2293 7.031236400976219E-5
353 2306 1.131964446527045E-4
353 2307 1.1325361618624399E-4
354 339 1.20569338526067E-5
354 354 1.98187834273924E-1
354 2126 1.21951219512195E-1
354 2129 7.62195121951219E-2
355 287 5.61530096873738E-6
355 355 9.75398109125837E-2
355 358 2.96102269588939E-6
355 364 9.89094262051847E-7
355 1173 5.29100529100529E-2
355 1192 1.243064143374515E-4
355 1193 1.243299262874345E-4
355 1224 1.244326294466535E-4
355 1225 1.2420404163170198E-4
355 2131 4.35540069686411E-2
355 2150 3.515884500188565E-5
355 2151 3.51484567002871E-5
355 2182 3.5158844985979846E-5
355 2183 3.51484576444676E-5
356 241 1.97192843383754E-6
356 246 9.89094262051847E-7
356 256 9.89094262051847E-7
356 257 4.18800038805497E-6
356 262 4.21304074911958E-6
356 306 1.97192843383754E-6
356 324 1.03917498418105E-6
356 325 9.89094262051847E-7
356 331 9.89094262051847E-7
356 334 9.89094262051847E-7
356 342 1.990708704636E-6
356 345 9.89094262051847E-7
356 347 1.97192843383754E-6
356 356 4.90166500682808E-1
356 357 1.00161444258415E-6
356 358 3.19890612600313E-6
356 391 1.97192843383754E-6
356 402 9.89094262051847E-7
356 404 1.62762346919924E-6
356 405 3.98141740927199E-6
356 408 2.0695858419895E-5
356 1175 1.02040816326531E-1
356 1178 2.85714285714286E-1
356 1282 3.630049988078385E-5
356 1283 3.6313833505566897E-5
356 2133 1.01626016260163E-1
356 2240 7.033359905770869E-5
356 2241 7.031215646436145E-5
357 356 1.00161444258415E-6
357 357 2.21097487464675E-1
357 358 3.00484332775245E-6
357 1176 1.02040816326531E-1
357 1179 1.19047619047619E-1
358 54 2.96102269588939E-6
358 65 1.97192843383754E-6
358 78 9.89094262051847E-7
358 80 1.97192843383754E-6
358 82 1.97192843383754E-6
358 209 2.96102269588939E-6
358 218 1.97192843383754E-6
358 228 1.97192843383754E-6
358 256 9.89094262051847E-7
358 257 9.89094262051847E-7
358 259 9.89094262051847E-7
358 269 1.97192843383754E-6
358 271 2.17225132235437E-6
358 276 2.96102269588939E-6
358 281 2.96102269588939E-6
358 289 1.97192843383754E-6
358 295 1.97192843383754E-6
358 302 1.97192843383754E-6
358 306 9.89094262051847E-7
358 311 1.97192843383754E-6
358 318 1.97192843383754E-6
358 319 1.97192843383754E-6
358 331 3.94385686767509E-6
358 342 1.78287370779979E-5
358 347 2.25363249581434E-6
358 348 1.97192843383754E-6
358 350 1.97192843383754E-6
358 351 1.97192843383754E-6
358 353 2.96102269588939E-6
358 355 2.96102269588939E-6
358 356 3.19890612600313E-6
358 357 3.00484332775245E-6
358 358 3.23493517399887E-1
358 359 3.98141740927199E-6
358 364 4.41336363763641E-6
358 366 3.43052946585071E-6
358 367 2.17225132235437E-6
358 368 1.97192843383754E-6
358 369 2.74817962684026E-6
358 370 2.96102269588939E-6
358 372 1.97192843383754E-6
358 374 1.97192843383754E-6
358 375 3.94385686767509E-6
358 376 2.96102269588939E-6
358 377 2.96102269588939E-6
358 379 9.89094262051847E-7
358 383 1.97192843383754E-6
358 386 2.96102269588939E-6
358 388 1.97192843383754E-6
358 391 9.89094262051847E-7
358 394 1.97192843383754E-6
358 396 9.89094262051847E-7
358 421 9.89094262051847E-7
358 424 4.18800038805497E-6
358 426 9.89094262051847E-7
358 429 3.00484332775245E-6
358 430 3.98141740927199E-6
358 432 2.3725742108712E-6
358 435 2.17225132235437E-6
358 437 1.97192843383754E-6
358 438 1.97192843383754E-6
358 443 1.97192843383754E-6
358 444 1.97192843383754E-6
358 447 1.74030509398996E-6
358 449 1.97192843383754E-6
358 454 1.97192843383754E-6
358 457 1.97192843383754E-6
358 459 2.96102269588939E-6
358 460 2.17225132235437E-6
358 462 1.97192843383754E-6
358 463 4.25060129071648E-6
358 473 3.16134558440622E-6
358 475 1.97192843383754E-6
358 1176 1.2490344409797502E-4
358 1177 1.23729597418517E-4
358 1181 1.42857142857143E-1
358 1328 1.24340323989071E-4
358 1329 1.24295956499973E-4
358 2134 7.031756604089964E-5
358 2135 7.031683051858635E-5
358 2138 7.62195121951219E-2
358 2141 1.01626016260163E-1
358 2286 7.031743203393244E-5
358 2287 7.031739867899601E-5
359 257 1.96379031649155E-5
359 262 5.97212611390799E-6
359 358 3.98141740927199E-6
359 359 3.0493383244485E-1
359 2132 1.52439024390244E-1
359 2135 7.62195121951219E-2
359 2136 7.62195121951219E-2
360 342 6.52301405732927E-6
360 346 4.14417975619192E-6
360 347 3.98141740927199E-6
360 360 3.33990700284647E-1
360 1180 1.2987012987013E-1
360 1183 1.02040816326531E-1
360 1184 1.02040816326531E-1
361 347 2.0695858419895E-5
361 361 1.77876021354971E-1
361 2140 1.01626016260163E-1
361 2143 7.62195121951219E-2
362 295 4.98303185185614E-6
362 362 2.60781003721296E-1
362 1186 1.58730158730159E-1
362 1189 1.02040816326531E-1
363 287 4.98303185185614E-6
363 363 2.60781003721296E-1
363 1190 1.58730158730159E-1
363 1193 1.02040816326531E-1
364 287 6.09732791923101E-6
364 289 9.89094262051847E-7
364 355 9.89094262051847E-7
364 358 4.41336363763641E-6
364 364 3.62542899474397E-1
364 379 9.89094262051847E-7
364 391 9.89094262051847E-7
364 396 9.89094262051847E-7
364 437 9.89094262051847E-7
364 438 9.89094262051847E-7
364 1191 2.85714285714286E-1
364 1342 1.908805088159865E-5
364 1343 1.879518681646325E-5
364 2148 3.8109756097561E-2
364 2151 3.8109756097561E-2
364 2300 1.260907792277215E-4
364 2301 1.2608782295229202E-4
365 287 6.09732791923101E-6
365 365 3.62499616987946E-1
365 1194 1.9088788090550302E-5
365 1195 1.8795459348021397E-5
365 1223 2.85714285714286E-1
365 2152 1.260906575004455E-4
365 2153 1.2608794372416402E-4
365 2180 3.8109756097561E-2
365 2183 3.8109756097561E-2
366 289 2.87964152242943E-6
366 358 3.43052946585071E-6
366 366 9.70309808215032E-2
366 1195 5.29100529100529E-2
366 1228 1.24304494598706E-4
366 1229 1.24331835049881E-4
366 2153 4.35540069686411E-2
366 2186 3.5158841867451E-5
366 2187 3.51484560414497E-5
367 271 2.29119303741124E-6
367 289 6.09732791923101E-6
367 358 2.17225132235437E-6
367 367 3.62559501675564E-1
367 391 1.97192843383754E-6
367 443 1.97192843383754E-6
367 1196 1.90880332498475E-5
367 1197 1.87951787763895E-5
367 1227 2.85714285714286E-1
367 2154 1.26086440762661E-4
367 2155 1.26092059049904E-4
367 2184 3.8109756097561E-2
367 2187 3.8109756097561E-2
368 218 4.85156995626697E-6
368 269 1.97192843383754E-6
368 276 9.89094262051847E-7
368 358 1.97192843383754E-6
368 368 9.70743685843655E-2
368 391 1.97192843383754E-6
368 396 1.97192843383754E-6
368 1199 5.29100529100529E-2
368 1238 3.63433631239145E-5
368 1239 3.58205278545004E-5
368 2157 4.35540069686411E-2
368 2196 1.13332133840619E-4
368 2197 1.131184317159885E-4
369 278 6.44789297413546E-7
369 358 2.74817962684026E-6
369 369 9.7229206601251E-2
369 387 4.14417975619192E-6
369 1201 5.29100529100529E-2
369 1244 3.5826869849244045E-5
369 1245 3.635474895023145E-5
369 2159 4.35540069686411E-2
369 2202 2.2580346468135948E-4
369 2203 2.257727920847235E-4
370 302 3.86247569421512E-6
370 311 5.56522024660818E-6
370 358 2.96102269588939E-6
370 370 3.06580074319773E-1
370 372 6.44789297413546E-7
370 394 9.89094262051847E-7
370 395 4.14417975619192E-6
370 1204 5.10204081632653E-2
370 1207 5.10204081632653E-2
370 1254 3.63508248485818E-5
370 1255 3.582362622103435E-5
370 1260 3.631359939191855E-5
370 1261 3.630359651253825E-5
370 2163 2.03252032520325E-1
370 2212 1.13256644536532E-4
370 2213 1.131934359273765E-4
370 2218 2.258793844865075E-4
370 2219 2.25697364801828E-4
371 311 1.20569338526067E-5
371 371 1.98187834273924E-1
371 2162 1.21951219512195E-1
371 2165 7.62195121951219E-2
372 283 8.96444926112813E-6
372 302 9.89094262051847E-7
372 307 2.96102269588939E-6
372 310 4.58238607482248E-6
372 319 1.97192843383754E-6
372 358 1.97192843383754E-6
372 370 6.44789297413546E-7
372 372 4.90676947220737E-1
372 373 1.20569338526067E-5
372 375 5.19587492090527E-6
372 377 3.19890612600313E-6
372 379 9.89094262051847E-7
372 394 2.21607195421743E-6
372 395 3.98141740927199E-6
372 396 2.25363249581434E-6
372 397 2.0695858419895E-5
372 459 9.89094262051847E-7
372 467 3.19890612600313E-6
372 468 1.00161444258415E-6
372 1208 6.278873895336441E-5
372 1209 6.19055475112146E-5
372 1258 1.242697303599085E-4
372 1259 1.24366397314771E-4
372 1409 1.02040816326531E-1
372 1412 2.85714285714286E-1
372 2166 7.031706260557125E-5
372 2167 7.029702467481136E-5
372 2216 7.03177759229641E-5
372 2217 7.029691640148535E-5
372 2367 1.01626016260163E-1
373 372 1.20569338526067E-5
373 373 1.98187834273924E-1
373 2166 1.21951219512195E-1
373 2169 7.62195121951219E-2
374 358 1.97192843383754E-6
374 374 3.05876010342454E-1
374 375 9.89094262051847E-7
374 376 1.97192843383754E-6
374 377 9.89094262051847E-7
374 1212 6.447375454254035E-5
374 1213 6.641055340516795E-5
374 1216 5.10204081632653E-2
374 1219 5.10204081632653E-2
374 2170 3.9184140939616704E-5
374 2171 3.91638850212513E-5
374 2175 2.03252032520325E-1
375 302 1.88115712497835E-5
375 358 3.94385686767509E-6
375 372 5.19587492090527E-6
375 374 9.89094262051847E-7
375 375 9.85223203226612E-2
375 376 4.77644887307316E-6
375 377 1.97192843383754E-6
375 379 2.96102269588939E-6
375 394 1.97192843383754E-6
375 396 1.97192843383754E-6
375 459 3.19890612600313E-6
375 467 2.96102269588939E-6
375 469 5.97212611390799E-6
375 470 6.52301405732927E-6
375 1213 5.29100529100529E-2
375 1412 3.57979548286185E-5
375 1413 3.6329024514602246E-5
375 1414 3.6337381143602954E-5
375 1415 3.579771292360935E-5
375 1422 3.6344840217462056E-5
375 1423 3.582059327790735E-5
375 2171 4.35540069686411E-2
375 2370 2.2571788945742E-4
375 2371 2.25858725482762E-4
375 2372 2.25613591922865E-4
375 2373 2.25963699747836E-4
375 2380 1.1321286199978751E-4
375 2381 1.132365885536975E-4
376 358 2.96102269588939E-6
376 374 1.97192843383754E-6
376 375 4.77644887307316E-6
376 376 3.62853823819258E-1
376 377 1.97192843383754E-6
376 379 9.89094262051847E-7
376 459 9.89094262051847E-7
376 467 9.89094262051847E-7
376 472 4.98303185185614E-6
376 473 6.09732791923101E-6
376 1214 6.546353978897455E-5
376 1215 6.54337005730232E-5
376 1263 2.85714285714286E-1
376 1420 3.6801783589215895E-5
376 1421 3.66773441823944E-5
376 2172 3.917593594576485E-5
376 2173 3.91651643829964E-5
376 2220 3.8109756097561E-2
376 2223 3.8109756097561E-2
376 2378 3.51653563990385E-5
376 2379 3.51576590870305E-5
377 302 1.97192843383754E-6
377 358 2.96102269588939E-6
377 372 3.19890612600313E-6
377 374 9.89094262051847E-7
377 375 1.97192843383754E-6
377 376 1.97192843383754E-6
377 377 9.80433350453373E-2
377 379 1.97192843383754E-6
377 459 3.01736350828475E-6
377 467 1.97192843383754E-6
377 469 1.96379031649155E-5
377 470 4.14417975619192E-6
377 1215 5.29100529100529E-2
377 1408 3.6360467996166245E-5
377 1409 3.58011838962487E-5
377 1418 3.62961584455045E-5
377 1419 3.6308823776679E-5
377 2173 4.35540069686411E-2
377 2366 2.25812912117449E-4
377 2367 2.2576340612621602E-4
377 2376 2.258873474349045E-4
377 2377 2.2568945396282198E-4
378 378 1.98187834273924E-1
378 2174 1.21951219512195E-1
378 2177 7.62195121951219E-2
379 54 1.97192843383754E-6
379 65 1.97192843383754E-6
379 80 9.89094262051847E-7
379 82 9.89094262051847E-7
379 209 1.97192843383754E-6
379 228 9.89094262051847E-7
379 259 9.89094262051847E-7
379 271 9.89094262051847E-7
379 276 1.97192843383754E-6
379 281 1.97192843383754E-6
379 289 9.89094262051847E-7
379 295 2.49151592592807E-6
379 302 9.89094262051847E-7
379 318 9.89094262051847E-7
379 319 9.89094262051847E-7
379 331 1.97192843383754E-6
379 351 9.89094262051847E-7
379 353 1.97192843383754E-6
379 358 9.89094262051847E-7
379 364 9.89094262051847E-7
379 372 9.89094262051847E-7
379 375 2.96102269588939E-6
379 376 9.89094262051847E-7
379 377 1.97192843383754E-6
379 379 9.73898583680648E-2
379 383 9.89094262051847E-7
379 421 9.89094262051847E-7
379 424 1.97192843383754E-6
379 426 9.89094262051847E-7
379 432 1.97192843383754E-6
379 435 1.97192843383754E-6
379 436 1.97192843383754E-6
379 437 1.97192843383754E-6
379 438 1.97192843383754E-6
379 443 1.97192843383754E-6
379 444 1.97192843383754E-6
379 445 1.97192843383754E-6
379 447 4.93295112972693E-6
379 449 1.97192843383754E-6
379 454 1.97192843383754E-6
379 457 1.97192843383754E-6
379 459 2.96102269588939E-6
379 460 1.97192843383754E-6
379 462 1.97192843383754E-6
379 463 1.97192843383754E-6
379 467 2.96102269588939E-6
379 473 2.96102269588939E-6
379 475 1.97192843383754E-6
379 1221 5.29100529100529E-2
379 2179 4.35540069686411E-2
380 287 4.98303185185614E-6
380 380 2.60781003721296E-1
380 1222 1.58730158730159E-1
380 1225 1.02040816326531E-1
381 289 4.98303185185614E-6
381 381 2.60781003721296E-1
381 1226 1.58730158730159E-1
381 1229 1.02040816326531E-1
382 198 4.14417975619192E-6
382 218 6.52301405732927E-6
382 269 3.98141740927199E-6
382 382 3.33990700284647E-1
382 1230 1.2987012987013E-1
382 1233 1.02040816326531E-1
382 1234 1.02040816326531E-1
383 209 9.89094262051847E-7
383 218 1.78287370779979E-5
383 269 1.26453823376249E-6
383 276 9.89094262051847E-7
383 358 1.97192843383754E-6
383 379 9.89094262051847E-7
383 383 3.21362017339115E-1
383 391 9.89094262051847E-7
383 396 9.89094262051847E-7
383 443 9.89094262051847E-7
383 444 2.09087014889441E-6
383 449 9.89094262051847E-7
383 1231 1.42857142857143E-1
383 1364 1.908441131564325E-5
383 1365 1.8793854328713853E-5
383 2188 7.62195121951219E-2
383 2191 1.01626016260163E-1
383 2322 1.26142782085377E-4
383 2323 1.2603615716762852E-4
384 269 2.0695858419895E-5
384 384 1.77876021354971E-1
384 2190 1.01626016260163E-1
384 2193 7.62195121951219E-2
385 218 4.98303185185614E-6
385 385 2.60781003721296E-1
385 1236 1.58730158730159E-1
385 1239 1.02040816326531E-1
386 54 9.89094262051847E-7
386 218 6.09732791923101E-6
386 221 6.44789297413546E-7
386 269 9.89094262051847E-7
386 281 9.89094262051847E-7
386 358 2.96102269588939E-6
386 386 3.63115097203312E-1
386 387 6.52301405732927E-6
386 388 1.78287370779979E-5
386 390 4.14417975619192E-6
386 1237 2.85714285714286E-1
386 1240 3.67974840987017E-5
386 1241 3.6670500694164704E-5
386 1250 1.243900862006625E-4
386 1251 1.24245905242716E-4
386 2194 3.8109756097561E-2
386 2197 3.8109756097561E-2
386 2198 7.031744891031579E-5
386 2199 7.031746041556865E-5
386 2208 7.03178165072698E-5
386 2209 7.029806651515341E-5
387 278 3.98141740927199E-6
387 369 4.14417975619192E-6
387 386 6.52301405732927E-6
387 387 3.33990700284647E-1
387 1240 1.2987012987013E-1
387 1243 1.02040816326531E-1
387 1244 1.02040816326531E-1
388 54 9.89094262051847E-7
388 281 9.89094262051847E-7
388 358 1.97192843383754E-6
388 386 1.78287370779979E-5
388 388 3.21485373115001E-1
388 390 6.52301405732927E-6
388 391 1.88115712497835E-5
388 462 1.97192843383754E-6
388 1241 1.42857142857143E-1
388 1246 1.242701737530295E-4
388 1247 1.2436536834295751E-4
388 2198 7.62195121951219E-2
388 2201 1.01626016260163E-1
388 2204 7.02969089659918E-5
388 2205 7.031777723341256E-5
389 278 2.0695858419895E-5
389 389 1.77876021354971E-1
389 2200 1.01626016260163E-1
389 2203 7.62195121951219E-2
390 221 3.98141740927199E-6
390 386 4.14417975619192E-6
390 388 6.52301405732927E-6
390 390 3.33990700284647E-1
390 1246 1.2987012987013E-1
390 1249 1.02040816326531E-1
390 1250 1.02040816326531E-1
391 54 9.89094262051847E-7
391 78 9.89094262051847E-7
391 209 9.89094262051847E-7
391 228 9.89094262051847E-7
391 256 1.97192843383754E-6
391 257 1.97192843383754E-6
391 259 9.89094262051847E-7
391 269 1.97192843383754E-6
391 271 1.08925570631026E-6
391 276 9.89094262051847E-7
391 281 9.89094262051847E-7
391 289 9.89094262051847E-7
391 295 1.53998220547313E-6
391 306 9.89094262051847E-7
391 319 9.89094262051847E-7
391 331 2.96102269588939E-6
391 342 1.97192843383754E-6
391 345 1.97192843383754E-6
391 347 2.96102269588939E-6
391 348 1.97192843383754E-6
391 351 9.89094262051847E-7
391 353 9.89094262051847E-7
391 356 1.97192843383754E-6
391 358 9.89094262051847E-7
391 364 9.89094262051847E-7
391 367 1.97192843383754E-6
391 368 1.97192843383754E-6
391 383 9.89094262051847E-7
391 388 1.88115712497835E-5
391 391 3.21537448089328E-1
391 415 9.89094262051847E-7
391 435 1.97192843383754E-6
391 443 1.97192843383754E-6
391 462 1.97192843383754E-6
391 1247 1.42857142857143E-1
391 2204 7.62195121951219E-2
391 2207 1.01626016260163E-1
392 221 2.0695858419895E-5
392 392 1.77876021354971E-1
392 2206 1.01626016260163E-1
392 2209 7.62195121951219E-2
393 302 4.98303185185614E-6
393 393 2.60781003721296E-1
393 1252 1.58730158730159E-1
393 1255 1.02040816326531E-1
394 302 6.09732791923101E-6
394 311 9.89094262051847E-7
394 358 1.97192843383754E-6
394 370 9.89094262051847E-7
394 372 2.21607195421743E-6
394 375 1.97192843383754E-6
394 394 3.62729371378462E-1
394 395 6.52301405732927E-6
394 396 1.88115712497835E-5
394 1253 2.85714285714286E-1
394 1256 1.24302122238079E-4
394 1257 1.2433379803483598E-4
394 2210 3.8109756097561E-2
394 2213 3.8109756097561E-2
394 2214 7.029691083481605E-5
394 2215 7.031778572219985E-5
395 370 4.14417975619192E-6
395 372 3.98141740927199E-6
395 394 6.52301405732927E-6
395 395 3.33990700284647E-1
395 1256 1.2987012987013E-1
395 1259 1.02040816326531E-1
395 1260 1.02040816326531E-1
396 54 9.89094262051847E-7
396 65 9.89094262051847E-7
396 78 9.89094262051847E-7
396 209 9.89094262051847E-7
396 228 9.89094262051847E-7
396 259 1.97192843383754E-6
396 271 9.89094262051847E-7
396 276 9.89094262051847E-7
396 281 4.48222463056407E-6
396 289 9.89094262051847E-7
396 295 9.89094262051847E-7
396 302 9.89094262051847E-7
396 319 9.89094262051847E-7
396 331 3.26150702866464E-6
396 342 1.97192843383754E-6
396 348 1.97192843383754E-6
396 351 2.29119303741124E-6
396 353 1.03917498418105E-6
396 358 9.89094262051847E-7
396 364 9.89094262051847E-7
396 368 1.97192843383754E-6
396 372 2.25363249581434E-6
396 375 1.97192843383754E-6
396 383 9.89094262051847E-7
396 394 1.88115712497835E-5
396 396 3.21544246547357E-1
396 421 9.89094262051847E-7
396 426 9.89094262051847E-7
396 435 1.97192843383754E-6
396 443 1.97192843383754E-6
396 462 1.97192843383754E-6
396 1257 1.42857142857143E-1
396 2214 7.62195121951219E-2
396 2217 1.01626016260163E-1
397 372 2.0695858419895E-5
397 397 1.77876021354971E-1
397 2216 1.01626016260163E-1
397 2219 7.62195121951219E-2
398 398 2.60781003721296E-1
398 1262 1.58730158730159E-1
398 1265 1.02040816326531E-1
399 399 1.98187834273924E-1
399 2224 1.21951219512195E-1
399 2227 7.62195121951219E-2
400 400 9.70083665628172E-2
400 402 6.23504990508633E-6
400 1271 5.29100529100529E-2
400 1278 3.63429815357044E-5
400 1279 3.5820418072227044E-5
400 2229 4.35540069686411E-2
400 2236 1.1333882068522401E-4
400 2237 1.1311178754196699E-4
401 401 2.60781003721296E-1
401 1272 1.58730158730159E-1
401 1275 1.02040816326531E-1
402 246 1.6839642815946E-5
402 325 1.97192843383754E-6
402 334 1.22697769216558E-6
402 356 9.89094262051847E-7
402 400 6.23504990508633E-6
402 402 3.68114290638526E-1
402 403 4.98303185185614E-6
402 404 8.06925635306855E-6
402 406 9.89094262051847E-7
402 409 6.52301405732927E-6
402 1273 2.85714285714286E-1
402 1276 3.6790241543660404E-5
402 1277 3.6676148045676046E-5
402 1286 1.24457762329322E-4
402 1287 1.2417043584112399E-4
402 2230 4.0650406504065E-2
402 2233 4.0650406504065E-2
402 2234 3.515845489577645E-5
402 2235 3.51584870106405E-5
402 2244 7.02968265337347E-5
402 2245 7.031734928164031E-5
403 402 4.98303185185614E-6
403 403 2.60781003721296E-1
403 1276 1.58730158730159E-1
403 1279 1.02040816326531E-1
404 241 2.96102269588939E-6
404 246 9.89094262051847E-7
404 325 9.89094262051847E-7
404 334 1.97192843383754E-6
404 345 9.89094262051847E-7
404 347 9.89094262051847E-7
404 356 1.62762346919924E-6
404 402 8.06925635306855E-6
404 404 3.68267294560876E-1
404 405 4.14417975619192E-6
404 406 1.78287370779979E-5
404 412 1.22697769216558E-6
404 415 9.89094262051847E-7
404 418 6.52301405732927E-6
404 1277 2.85714285714286E-1
404 1284 1.24382362889231E-4
404 1285 1.2425367330614E-4
404 1304 3.67974646673257E-5
404 1305 3.6670492309448605E-5
404 2234 4.0650406504065E-2
404 2237 4.0650406504065E-2
404 2242 7.03178207710498E-5
404 2243 7.02980673530355E-5
404 2262 7.031745290123035E-5
404 2263 7.03174642001893E-5
405 356 3.98141740927199E-6
405 404 4.14417975619192E-6
405 405 3.33990700284647E-1
405 406 6.52301405732927E-6
405 1280 1.2987012987013E-1
405 1283 1.02040816326531E-1
405 1284 1.02040816326531E-1
406 241 1.97192843383754E-6
406 246 9.89094262051847E-7
406 325 9.89094262051847E-7
406 334 1.97192843383754E-6
406 345 9.89094262051847E-7
406 347 9.89094262051847E-7
406 402 9.89094262051847E-7
406 404 1.78287370779979E-5
406 405 6.52301405732927E-6
406 406 3.21538765731599E-1
406 407 1.6839642815946E-5
406 412 1.26453823376249E-6
406 415 9.89094262051847E-7
406 1280 1.24287376642993E-4
406 1281 1.24348328021162E-4
406 1305 1.42857142857143E-1
406 2238 7.029690911461076E-5
406 2239 7.03177771447742E-5
406 2262 7.62195121951219E-2
406 2265 1.01626016260163E-1
407 406 1.6839642815946E-5
407 407 3.20837551217302E-1
407 1281 1.42857142857143E-1
407 2238 7.62195121951219E-2
407 2241 1.01626016260163E-1
408 356 2.0695858419895E-5
408 408 1.77876021354971E-1
408 2240 1.01626016260163E-1
408 2243 7.62195121951219E-2
409 325 4.14417975619192E-6
409 334 3.98141740927199E-6
409 402 6.52301405732927E-6
409 409 3.33990700284647E-1
409 1286 1.2987012987013E-1
409 1289 1.02040816326531E-1
409 1290 1.02040816326531E-1
410 334 2.0695858419895E-5
410 410 1.77876021354971E-1
410 2246 1.01626016260163E-1
410 2249 7.62195121951219E-2
411 411 9.72281737243073E-2
411 412 6.44789297413546E-7
411 415 2.74817962684026E-6
411 418 4.14417975619192E-6
411 1293 5.29100529100529E-2
411 1308 3.58268723617251E-5
411 1309 3.6354748598396553E-5
411 2251 4.35540069686411E-2
411 2266 2.2580341932783798E-4
411 2267 2.25772837142873E-4
412 324 5.56522024660818E-6
412 331 9.89094262051847E-7
412 404 1.22697769216558E-6
412 406 1.26453823376249E-6
412 411 6.44789297413546E-7
412 412 3.06137143031041E-1
412 415 1.97192843383754E-6
412 418 3.98141740927199E-6
412 419 2.0695858419895E-5
412 1294 5.10204081632653E-2
412 1297 5.10204081632653E-2
412 1306 3.635470645529655E-5
412 1307 3.5826855476220494E-5
412 2253 2.03252032520325E-1
412 2264 2.25808927471034E-4
412 2265 2.2576736485714952E-4
413 324 1.20569338526067E-5
413 413 1.98187834273924E-1
413 2252 1.21951219512195E-1
413 2255 7.62195121951219E-2
414 345 4.14417975619192E-6
414 347 3.98141740927199E-6
414 414 3.33990700284647E-1
414 415 6.52301405732927E-6
414 1298 1.2987012987013E-1
414 1301 1.02040816326531E-1
414 1302 1.02040816326531E-1
415 306 9.89094262051847E-7
415 324 9.89094262051847E-7
415 331 9.89094262051847E-7
415 334 9.89094262051847E-7
415 345 9.89094262051847E-7
415 391 9.89094262051847E-7
415 404 9.89094262051847E-7
415 406 9.89094262051847E-7
415 411 2.74817962684026E-6
415 412 1.97192843383754E-6
415 414 6.52301405732927E-6
415 415 3.67835609454179E-1
415 416 1.6839642815946E-5
415 421 7.08642218128285E-6
415 1298 1.243063035155005E-4
415 1299 1.24329763980199E-4
415 1311 2.85714285714286E-1
415 2256 7.029690821332375E-5
415 2257 7.031777078629294E-5
415 2268 4.0650406504065E-2
415 2271 4.0650406504065E-2
416 415 1.6839642815946E-5
416 416 3.20837551217302E-1
416 1299 1.42857142857143E-1
416 2256 7.62195121951219E-2
416 2259 1.01626016260163E-1
417 347 2.0695858419895E-5
417 417 1.77876021354971E-1
417 2258 1.01626016260163E-1
417 2261 7.62195121951219E-2
418 404 6.52301405732927E-6
418 411 4.14417975619192E-6
418 412 3.98141740927199E-6
418 418 3.33990700284647E-1
418 1304 1.2987012987013E-1
418 1307 1.02040816326531E-1
418 1308 1.02040816326531E-1
419 412 2.0695858419895E-5
419 419 1.77876021354971E-1
419 2264 1.01626016260163E-1
419 2267 7.62195121951219E-2
420 420 2.60781003721296E-1
420 421 4.98303185185614E-6
420 1310 1.58730158730159E-1
420 1313 1.02040816326531E-1
421 78 9.89094262051847E-7
421 228 9.89094262051847E-7
421 256 9.89094262051847E-7
421 259 1.97192843383754E-6
421 295 9.89094262051847E-7
421 319 9.89094262051847E-7
421 331 9.89094262051847E-7
421 342 3.79361470128746E-6
421 345 2.80452043923562E-6
421 353 9.89094262051847E-7
421 358 9.89094262051847E-7
421 379 9.89094262051847E-7
421 396 9.89094262051847E-7
421 415 7.08642218128285E-6
421 420 4.98303185185614E-6
421 421 3.68246987389032E-1
421 422 4.98303185185614E-6
421 423 6.09732791923101E-6
421 424 1.97192843383754E-6
421 426 1.97192843383754E-6
421 432 9.89094262051847E-7
421 435 7.08642218128285E-6
421 1310 3.636350890127415E-5
421 1311 3.580127809571455E-5
421 1314 3.633956441550785E-5
421 1315 3.58020742744085E-5
421 1345 2.85714285714286E-1
421 2268 1.132184548178715E-4
421 2269 1.13231462258828E-4
421 2272 1.131763585106675E-4
421 2273 1.132738334640215E-4
421 2302 4.0650406504065E-2
421 2305 4.0650406504065E-2
422 421 4.98303185185614E-6
422 422 2.60781003721296E-1
422 1314 1.58730158730159E-1
422 1317 1.02040816326531E-1
423 256 9.89094262051847E-7
423 421 6.09732791923101E-6
423 423 3.67734613865725E-1
423 426 2.21607195421743E-6
423 427 3.00484332775245E-6
423 428 3.98141740927199E-6
423 1315 2.85714285714286E-1
423 1322 1.24657613637066E-4
423 1323 1.2397684134374801E-4
423 2272 4.0650406504065E-2
423 2275 4.0650406504065E-2
423 2280 7.031778030724045E-5
423 2281 7.029811976151185E-5
424 228 9.89094262051847E-7
424 259 4.21304074911958E-6
424 319 9.89094262051847E-7
424 358 4.18800038805497E-6
424 379 1.97192843383754E-6
424 421 1.97192843383754E-6
424 424 4.89941406671359E-1
424 426 2.21607195421743E-6
424 429 1.00161444258415E-6
424 1318 6.54433606636603E-5
424 1319 6.54537767630413E-5
424 1327 1.02040816326531E-1
424 1330 2.85714285714286E-1
424 2276 3.9177025905345504E-5
424 2277 3.91654259422629E-5
424 2285 1.01626016260163E-1
425 425 9.65667316191492E-2
425 1319 5.29100529100529E-2
425 2277 4.35540069686411E-2
426 78 9.89094262051847E-7
426 256 4.21304074911958E-6
426 259 4.18800038805497E-6
426 342 1.97192843383754E-6
426 358 9.89094262051847E-7
426 379 9.89094262051847E-7
426 396 9.89094262051847E-7
426 421 1.97192843383754E-6
426 423 2.21607195421743E-6
426 424 2.21607195421743E-6
426 426 4.9026015791905E-1
426 427 1.00161444258415E-6
426 430 1.96379031649155E-5
426 1321 1.02040816326531E-1
426 1324 2.85714285714286E-1
426 1326 3.6357721680629296E-5
426 1327 3.58001798905645E-5
426 2279 1.01626016260163E-1
426 2284 2.2580503007205898E-4
426 2285 2.257712367917375E-4
427 423 3.00484332775245E-6
427 426 1.00161444258415E-6
427 427 2.21097487464675E-1
427 1322 1.02040816326531E-1
427 1325 1.19047619047619E-1
428 256 5.97212611390799E-6
428 259 1.96379031649155E-5
428 423 3.98141740927199E-6
428 428 3.0493383244485E-1
428 2278 1.52439024390244E-1
428 2281 7.62195121951219E-2
428 2282 7.62195121951219E-2
429 358 3.00484332775245E-6
429 424 1.00161444258415E-6
429 429 2.21097487464675E-1
429 1328 1.02040816326531E-1
429 1331 1.19047619047619E-1
430 259 5.97212611390799E-6
430 358 3.98141740927199E-6
430 426 1.96379031649155E-5
430 430 3.0493383244485E-1
430 2284 1.52439024390244E-1
430 2287 7.62195121951219E-2
430 2288 7.62195121951219E-2
431 331 4.14417975619192E-6
431 353 3.98141740927199E-6
431 431 3.33990700284647E-1
431 432 6.52301405732927E-6
431 1332 1.2987012987013E-1
431 1335 1.02040816326531E-1
431 1336 1.02040816326531E-1
432 295 9.89094262051847E-7
432 319 1.97192843383754E-6
432 331 9.89094262051847E-7
432 351 9.89094262051847E-7
432 353 8.51372276196527E-6
432 358 2.3725742108712E-6
432 379 1.97192843383754E-6
432 421 9.89094262051847E-7
432 431 6.52301405732927E-6
432 432 3.67826099689656E-1
432 433 1.6839642815946E-5
432 435 2.17225132235437E-6
432 1332 1.242975760032925E-4
432 1333 1.24338375720767E-4
432 1349 2.85714285714286E-1
432 2290 7.02969105243852E-5
432 2291 7.031778379132814E-5
432 2306 4.0650406504065E-2
432 2309 4.0650406504065E-2
433 432 1.6839642815946E-5
433 433 3.20837551217302E-1
433 1333 1.42857142857143E-1
433 2290 7.62195121951219E-2
433 2293 1.01626016260163E-1
434 353 2.0695858419895E-5
434 434 1.77876021354971E-1
434 2292 1.01626016260163E-1
434 2295 7.62195121951219E-2
435 228 1.97192843383754E-6
435 295 2.80452043923562E-6
435 319 2.17225132235437E-6
435 331 1.97192843383754E-6
435 351 9.89094262051847E-7
435 353 1.97192843383754E-6
435 358 2.17225132235437E-6
435 379 1.97192843383754E-6
435 391 1.97192843383754E-6
435 396 1.97192843383754E-6
435 421 7.08642218128285E-6
435 432 2.17225132235437E-6
435 435 9.71332702511066E-2
435 439 4.98303185185614E-6
435 1339 5.29100529100529E-2
435 1344 1.2432048627057852E-4
435 1345 1.2431592714591002E-4
435 2297 4.35540069686411E-2
435 2302 3.51484589738792E-5
435 2303 3.515885543580435E-5
436 289 9.89094262051847E-7
436 379 1.97192843383754E-6
436 436 3.67627153955765E-1
436 437 9.89094262051847E-7
436 438 7.08642218128285E-6
436 1340 1.90880932480698E-5
436 1341 1.87952023875121E-5
436 1353 2.85714285714286E-1
436 2298 1.2609050850923448E-4
436 2299 1.26088091907298E-4
436 2310 4.0650406504065E-2
436 2313 4.0650406504065E-2
437 289 9.89094262051847E-7
437 358 1.97192843383754E-6
437 364 9.89094262051847E-7
437 379 1.97192843383754E-6
437 436 9.89094262051847E-7
437 437 9.72211838786914E-2
437 438 1.97192843383754E-6
437 442 3.98141740927199E-6
437 445 1.62762346919924E-6
437 446 2.0695858419895E-5
437 1341 5.29100529100529E-2
437 1358 1.243063956902795E-4
437 1359 1.243299444765985E-4
437 2299 4.35540069686411E-2
437 2316 7.03170895151742E-5
437 2317 7.029701720008005E-5
438 289 2.80452043923562E-6
438 358 1.97192843383754E-6
438 364 9.89094262051847E-7
438 379 1.97192843383754E-6
438 436 7.08642218128285E-6
438 437 1.97192843383754E-6
438 438 9.70908084573386E-2
438 441 4.98303185185614E-6
438 1343 5.29100529100529E-2
438 1352 1.24317954427427E-4
438 1353 1.243184199536765E-4
438 2301 4.35540069686411E-2
438 2310 3.5148456125026146E-5
438 2311 3.515884178973405E-5
439 435 4.98303185185614E-6
439 439 2.60781003721296E-1
439 1344 1.58730158730159E-1
439 1347 1.02040816326531E-1
440 353 4.98303185185614E-6
440 440 2.60781003721296E-1
440 1348 1.58730158730159E-1
440 1351 1.02040816326531E-1
441 438 4.98303185185614E-6
441 441 2.60781003721296E-1
441 1352 1.58730158730159E-1
441 1355 1.02040816326531E-1
442 437 3.98141740927199E-6
442 442 3.33990700284647E-1
442 443 6.52301405732927E-6
442 445 4.14417975619192E-6
442 1356 1.2987012987013E-1
442 1359 1.02040816326531E-1
442 1360 1.02040816326531E-1
443 209 1.97192843383754E-6
443 271 1.08925570631026E-6
443 276 1.28957859482709E-6
443 289 1.97192843383754E-6
443 358 1.97192843383754E-6
443 367 1.97192843383754E-6
443 379 1.97192843383754E-6
443 383 9.89094262051847E-7
443 391 1.97192843383754E-6
443 396 1.97192843383754E-6
443 442 6.52301405732927E-6
443 443 9.72876955921711E-2
443 444 1.78287370779979E-5
443 445 9.89094262051847E-7
443 449 9.89094262051847E-7
443 1356 1.2429647759966747E-4
443 1357 1.24339709284626E-4
443 1365 5.29100529100529E-2
443 2314 7.029691284725316E-5
443 2315 7.031780442726709E-5
443 2323 4.35540069686411E-2
444 209 1.97192843383754E-6
444 271 1.18941715056868E-6
444 276 1.97192843383754E-6
444 358 1.97192843383754E-6
444 379 1.97192843383754E-6
444 383 2.09087014889441E-6
444 443 1.78287370779979E-5
444 444 3.21403697578447E-1
444 445 9.89094262051847E-7
444 449 1.97192843383754E-6
444 1357 1.42857142857143E-1
444 1366 1.90880028766286E-5
444 1367 1.879519358500685E-5
444 2314 7.62195121951219E-2
444 2317 1.01626016260163E-1
444 2324 1.26159874452004E-4
444 2325 1.26019175717046E-4
445 209 9.89094262051847E-7
445 271 9.89094262051847E-7
445 276 9.89094262051847E-7
445 379 1.97192843383754E-6
445 437 1.62762346919924E-6
445 442 4.14417975619192E-6
445 443 9.89094262051847E-7
445 444 9.89094262051847E-7
445 445 9.72155241747824E-2
445 449 9.89094262051847E-7
445 1360 1.2432994660242699E-4
445 1361 1.24306393514324E-4
445 1363 5.29100529100529E-2
445 2318 7.031757954500655E-5
445 2319 7.031667677398665E-5
445 2321 4.35540069686411E-2
446 437 2.0695858419895E-5
446 446 1.77876021354971E-1
446 2316 1.01626016260163E-1
446 2319 7.62195121951219E-2
447 54 9.95354352317998E-6
447 65 2.80452043923562E-6
447 281 5.42123817048671E-6
447 358 1.74030509398996E-6
447 379 4.93295112972693E-6
447 447 9.86423728572277E-2
447 453 4.14417975619192E-6
447 454 1.97192843383754E-6
447 457 9.89094262051847E-7
447 459 9.89094262051847E-7
447 460 1.97192843383754E-6
447 462 9.89094262051847E-7
447 1367 5.29100529100529E-2
447 1382 1.2437232255912598E-4
447 1383 1.24263771350947E-4
447 1386 6.156614123927276E-5
447 1387 6.312351679451465E-5
447 1398 1.24288320063823E-4
447 1399 1.2434791657734247E-4
447 1402 1.239101631386335E-4
447 1403 1.24723910318792E-4
447 2325 4.35540069686411E-2
447 2340 7.031778855529535E-5
447 2341 7.029806215648341E-5
447 2344 7.03176101685839E-5
447 2345 7.031665474407464E-5
447 2356 3.51586885111238E-5
447 2357 3.51586775618647E-5
447 2360 3.515886136785245E-5
447 2361 3.514845746864815E-5
448 209 4.14417975619192E-6
448 276 3.98141740927199E-6
448 448 3.33990700284647E-1
448 449 6.52301405732927E-6
448 1368 1.2987012987013E-1
448 1371 1.02040816326531E-1
448 1372 1.02040816326531E-1
449 209 9.89094262051847E-7
449 271 9.89094262051847E-7
449 276 8.31339987344844E-6
449 358 1.97192843383754E-6
449 379 1.97192843383754E-6
449 383 9.89094262051847E-7
449 443 9.89094262051847E-7
449 444 1.97192843383754E-6
449 445 9.89094262051847E-7
449 448 6.52301405732927E-6
449 449 3.67807187915547E-1
449 450 1.6839642815946E-5
449 1368 1.2429809052179E-4
449 1369 1.24337864548893E-4
449 1375 2.85714285714286E-1
449 2326 7.02969105337731E-5
449 2327 7.031778382158939E-5
449 2332 4.0650406504065E-2
449 2335 4.0650406504065E-2
450 449 1.6839642815946E-5
450 450 3.20837807881003E-1
450 1369 1.42857142857143E-1
450 2326 7.62195121951219E-2
450 2329 1.01626016260163E-1
451 276 2.0695858419895E-5
451 451 1.77876021354971E-1
451 2328 1.01626016260163E-1
451 2331 7.62195121951219E-2
452 276 4.98303185185614E-6
452 452 2.60781003721296E-1
452 1374 1.58730158730159E-1
452 1377 1.02040816326531E-1
453 281 3.98141740927199E-6
453 447 4.14417975619192E-6
453 453 3.33990700284647E-1
453 454 6.52301405732927E-6
453 1378 1.2987012987013E-1
453 1381 1.02040816326531E-1
453 1382 1.02040816326531E-1
454 281 7.33056570166274E-6
454 358 1.97192843383754E-6
454 379 1.97192843383754E-6
454 447 1.97192843383754E-6
454 453 6.52301405732927E-6
454 454 3.67767185487248E-1
454 455 1.6839642815946E-5
454 1378 1.242924716274015E-4
454 1379 1.243433443793515E-4
454 1397 2.85714285714286E-1
454 2336 7.029691123195155E-5
454 2337 7.031778873862121E-5
454 2354 4.0650406504065E-2
454 2357 4.0650406504065E-2
455 454 1.6839642815946E-5
455 455 3.20837551217302E-1
455 1379 1.42857142857143E-1
455 2336 7.62195121951219E-2
455 2339 1.01626016260163E-1
456 281 2.0695858419895E-5
456 456 1.77876021354971E-1
456 2338 1.01626016260163E-1
456 2341 7.62195121951219E-2
457 54 5.56522024660818E-6
457 65 1.97192843383754E-6
457 358 1.97192843383754E-6
457 379 1.97192843383754E-6
457 447 9.89094262051847E-7
457 457 3.05953395287671E-1
457 459 9.89094262051847E-7
457 460 2.17225132235437E-6
457 462 1.97192843383754E-6
457 1384 5.10204081632653E-2
457 1387 5.10204081632653E-2
457 1394 1.9083533212652647E-5
457 1395 1.87935335041943E-5
457 2343 2.03252032520325E-1
457 2352 1.26174318332435E-4
457 2353 1.260048239829875E-4
458 54 1.20569338526067E-5
458 458 1.98187834273924E-1
458 2342 1.21951219512195E-1
458 2345 7.62195121951219E-2
459 65 9.89094262051847E-7
459 302 1.26453823376249E-6
459 358 2.96102269588939E-6
459 372 9.89094262051847E-7
459 375 3.19890612600313E-6
459 376 9.89094262051847E-7
459 377 3.01736350828475E-6
459 379 2.96102269588939E-6
459 447 9.89094262051847E-7
459 457 9.89094262051847E-7
459 459 3.06707061417587E-1
459 460 5.56522024660818E-6
459 462 1.97192843383754E-6
459 467 1.97192843383754E-6
459 470 3.98141740927199E-6
459 471 2.0695858419895E-5
459 473 3.3679285631892E-6
459 474 3.98141740927199E-6
459 477 2.0695858419895E-5
459 1388 5.10204081632653E-2
459 1391 5.10204081632653E-2
459 1416 3.6305444760119154E-5
459 1417 3.62928341286493E-5
459 1426 3.630464037516E-5
459 1427 3.631049708530455E-5
459 2347 2.03252032520325E-1
459 2374 2.258643289479095E-4
459 2375 2.25712322814882E-4
459 2384 7.033329220445229E-5
459 2385 7.031243525388214E-5
460 54 8.28209942211768E-6
460 358 2.17225132235437E-6
460 379 1.97192843383754E-6
460 447 1.97192843383754E-6
460 457 2.17225132235437E-6
460 459 5.56522024660818E-6
460 460 9.70769173928515E-2
460 461 1.20569338526067E-5
460 462 9.89094262051847E-7
460 1388 6.264215030124245E-5
460 1389 6.205417554933611E-5
460 1393 5.29100529100529E-2
460 2346 7.031714042955931E-5
460 2347 7.029703777327125E-5
460 2351 4.35540069686411E-2
461 460 1.20569338526067E-5
461 461 1.98187834273924E-1
461 2346 1.21951219512195E-1
461 2349 7.62195121951219E-2
462 65 8.06925635306855E-6
462 358 1.97192843383754E-6
462 379 1.97192843383754E-6
462 388 1.97192843383754E-6
462 391 1.97192843383754E-6
462 396 1.97192843383754E-6
462 447 9.89094262051847E-7
462 457 1.97192843383754E-6
462 459 1.97192843383754E-6
462 460 9.89094262051847E-7
462 462 3.67687427911504E-1
462 1392 1.908635729836825E-5
462 1393 1.8794617379244248E-5
462 1401 2.85714285714286E-1
462 2350 1.2625389613127552E-4
462 2351 1.259257561513615E-4
462 2358 4.0650406504065E-2
462 2361 4.0650406504065E-2
463 65 3.79361470128746E-6
463 358 4.25060129071648E-6
463 379 1.97192843383754E-6
463 463 9.70519756659725E-2
463 466 4.98303185185614E-6
463 467 6.09732791923101E-6
463 1395 5.29100529100529E-2
463 1404 1.2434348847489802E-4
463 1405 1.24291467579443E-4
463 2353 4.35540069686411E-2
463 2362 3.514845980345335E-5
463 2363 3.515886902185125E-5
464 281 4.98303185185614E-6
464 464 2.60781003721296E-1
464 1396 1.58730158730159E-1
464 1399 1.02040816326531E-1
465 65 4.98303185185614E-6
465 465 2.60781003721296E-1
465 1400 1.58730158730159E-1
465 1403 1.02040816326531E-1
466 463 4.98303185185614E-6
466 466 2.60781003721296E-1
466 1404 1.58730158730159E-1
466 1407 1.02040816326531E-1
467 302 9.89094262051847E-7
467 372 3.19890612600313E-6
467 375 2.96102269588939E-6
467 376 9.89094262051847E-7
467 377 1.97192843383754E-6
467 379 2.96102269588939E-6
467 459 1.97192843383754E-6
467 463 6.09732791923101E-6
467 467 3.6840453917332E-1
467 468 3.00484332775245E-6
467 469 3.98141740927199E-6
467 473 5.76554313512501E-6
467 475 7.08642218128285E-6
467 478 4.98303185185614E-6
467 1405 2.85714285714286E-1
467 1410 3.628718751698525E-5
467 1411 3.6308290057679405E-5
467 1430 3.63607301625868E-5
467 1431 3.580077011868455E-5
467 2362 4.0650406504065E-2
467 2365 4.0650406504065E-2
467 2368 2.258583781000365E-4
467 2369 2.2571823549623002E-4
467 2388 1.1321287198904701E-4
467 2389 1.13237081625272E-4
468 372 1.00161444258415E-6
468 467 3.00484332775245E-6
468 468 2.21097487464675E-1
468 1410 1.02040816326531E-1
468 1413 1.19047619047619E-1
469 375 5.97212611390799E-6
469 377 1.96379031649155E-5
469 467 3.98141740927199E-6
469 469 3.0493383244485E-1
469 2366 1.52439024390244E-1
469 2369 7.62195121951219E-2
469 2370 7.62195121951219E-2
470 375 6.52301405732927E-6
470 377 4.14417975619192E-6
470 459 3.98141740927199E-6
470 470 3.33990700284647E-1
470 1414 1.2987012987013E-1
470 1417 1.02040816326531E-1
470 1418 1.02040816326531E-1
471 459 2.0695858419895E-5
471 471 1.77876021354971E-1
471 2374 1.01626016260163E-1
471 2377 7.62195121951219E-2
472 376 4.98303185185614E-6
472 472 2.60781003721296E-1
472 1420 1.58730158730159E-1
472 1423 1.02040816326531E-1
473 358 3.16134558440622E-6
473 376 6.09732791923101E-6
473 379 2.96102269588939E-6
473 459 3.3679285631892E-6
473 467 5.76554313512501E-6
473 473 3.68241432210958E-1
473 474 4.14417975619192E-6
473 475 9.89094262051847E-7
473 1421 2.85714285714286E-1
473 1428 1.243464365041285E-4
473 1429 1.24289807930602E-4
473 1432 1.24310905382401E-4
473 1433 1.2432546089532798E-4
473 2378 4.0650406504065E-2
473 2381 4.0650406504065E-2
473 2386 7.03177399365829E-5
473 2387 7.029805246153346E-5
473 2390 3.5158665258521195E-5
473 2391 3.515866162403715E-5
474 459 3.98141740927199E-6
474 473 4.14417975619192E-6
474 474 3.33990700284647E-1
474 475 6.52301405732927E-6
474 1424 1.2987012987013E-1
474 1427 1.02040816326531E-1
474 1428 1.02040816326531E-1
475 358 1.97192843383754E-6
475 379 1.97192843383754E-6
475 467 7.08642218128285E-6
475 473 9.89094262051847E-7
475 474 6.52301405732927E-6
475 475 3.67752476789554E-1
475 476 1.6839642815946E-5
475 1424 1.243023333873005E-4
475 1425 1.2433375176127548E-4
475 1431 2.85714285714286E-1
475 2382 7.02969088377968E-5
475 2383 7.031777459366831E-5
475 2388 4.0650406504065E-2
475 2391 4.0650406504065E-2
476 475 1.6839642815946E-5
476 476 3.20838196006599E-1
476 1425 1.42857142857143E-1
476 2382 7.62195121951219E-2
476 2385 1.01626016260163E-1
477 459 2.0695858419895E-5
477 477 1.77876021354971E-1
477 2384 1.01626016260163E-1
477 2387 7.62195121951219E-2
478 467 4.98303185185614E-6
478 478 2.60781003721296E-1
478 1430 1.58730158730159E-1
478 1433 1.02040816326531E-1
479 80 4.98303185185614E-6
479 479 2.60781003721296E-1
479 1434 1.58730158730159E-1
479 1437 1.02040816326531E-1
480 1 5.29100529100529E-2
480 480 5.29551605032573E-2
480 481 4.5440349069159815E-10
481 480 4.5440349069159815E-10
481 481 6.80913550400279E-2
482 482 6.8532294846138E-2
482 483 1.976902116057826E-4
483 1 5.29100529100529E-2
483 482 1.976902116057826E-4
483 483 5.29773058603484E-2
484 3 5.29100529100529E-2
484 484 5.29768065102819E-2
484 485 1.9886258858465382E-4
485 484 1.9886258858465382E-4
485 485 6.85347933137868E-2
486 486 6.80913550539703E-2
486 487 4.6138302090251234E-10
487 3 5.29100529100529E-2
487 486 4.6138302090251234E-10
487 487 5.29548373277696E-2
488 5 1.58730158730159E-1
488 488 1.58868990449481E-1
488 489 2.7257103948882945E-9
489 6 2.85714285714286E-1
489 488 2.7257103948882945E-9
489 489 2.85772306220815E-1
490 490 2.86657408797585E-1
490 491 7.661237966485694E-4
491 5 1.0989010989011E-1
491 490 7.661237966485694E-4
491 491 1.10944869162593E-1
492 7 1.58730158730159E-1
492 492 1.5916048337178E-1
492 493 1.047379919588498E-4
493 8 2.85714285714286E-1
493 492 1.047379919588498E-4
493 493 2.85777083931103E-1
494 494 2.85804661589884E-1
494 495 6.773364794543733E-10
495 7 1.0989010989011E-1
495 494 6.773364794543733E-10
495 495 1.10004608668867E-1
496 9 5.29100529100529E-2
496 496 5.29551018291436E-2
496 497 4.556464320716462E-10
497 496 4.556464320716462E-10
497 497 6.80913550425109E-2
498 498 6.85327417677095E-2
498 499 1.9789930038103165E-4
499 9 5.29100529100529E-2
499 498 1.9789930038103165E-4
499 499 5.29772145195855E-2
500 11 5.29100529100529E-2
500 500 5.29768343575637E-2
500 501 1.9879500312349496E-4
501 500 1.9879500312349496E-4
501 501 6.85346497474323E-2
502 502 6.80913550531676E-2
502 503 4.6098119026476663E-10
503 11 5.29100529100529E-2
503 502 4.6098119026476663E-10
503 503 5.29548555254877E-2
504 11 6.4538884350176E-5
504 504 4.04839641753525E-2
504 505 6.408045045395095E-4
505 11 6.6346240740569E-5
505 13 5.71428571428571E-2
505 504 6.408045045395095E-4
505 505 5.79298395776446E-2
506 3 6.32074541046475E-5
506 14 5.29100529100529E-2
506 506 5.3660753742848E-2
506 507 6.11436922568778E-4
507 3 6.14809296471491E-5
507 506 6.11436922568778E-4
507 507 6.87511728484394E-2
508 15 6.14771518014942E-5
508 508 6.8719327319188E-2
508 509 5.795578083447304E-4
509 14 5.29100529100529E-2
509 15 6.321124763707475E-5
509 508 5.795578083447304E-4
509 509 5.36288433865369E-2
510 17 5.29100529100529E-2
510 18 6.259824090828454E-5
510 510 5.36684785750997E-2
510 511 6.20506186042374E-4
511 18 6.209869177296464E-5
511 510 6.20506186042374E-4
511 511 6.87614177855645E-2
512 3 6.20964950844985E-5
512 512 6.87512253085088E-2
512 513 6.103030491462425E-4
513 3 6.260029561307691E-5
513 17 5.29100529100529E-2
513 512 6.103030491462425E-4
513 513 5.36582705128674E-2
514 17 1.908665819592915E-5
514 514 3.97923757946389E-2
514 515 4.724373841509983E-10
515 17 1.8794591248862447E-5
515 20 5.71428571428571E-2
515 514 4.724373841509983E-10
515 515 5.71898651226277E-2
516 15 5.29100529100529E-2
516 516 5.29552897333555E-2
516 517 4.5170259770059967E-10
517 516 4.5170259770059967E-10
517 517 6.80913550346321E-2
518 518 6.85313213955646E-2
518 519 1.972357619132595E-4
519 15 5.29100529100529E-2
519 518 1.972357619132595E-4
519 519 5.29775081561633E-2
520 15 6.49509141889876E-5
520 520 4.04519488703164E-2
520 521 6.079568279694499E-4
521 15 6.59395314394072E-5
521 22 5.71428571428571E-2
521 520 6.079568279694499E-4
521 521 5.78960503133057E-2
522 23 5.29100529100529E-2
522 522 5.29552955617097E-2
522 523 4.515819589652101E-10
523 522 4.515819589652101E-10
523 523 6.80913550343911E-2
524 524 6.85312777943554E-2
524 525 1.972154391740232E-4
525 23 5.29100529100529E-2
525 524 1.972154391740232E-4
525 525 5.29775173132675E-2
526 25 5.29100529100529E-2
526 526 5.29768200019893E-2
526 527 1.988298844087332E-4
527 526 1.988298844087332E-4
527 527 6.85347238535594E-2
528 528 6.80913550535812E-2
528 529 4.611882542606318E-10
529 25 5.29100529100529E-2
529 528 4.611882542606318E-10
529 529 5.29548461420844E-2
530 20 1.24551983535134E-4
530 27 1.58730158730159E-1
530 530 1.60195685133899E-1
530 531 1.2243806568000251E-3
531 20 1.24084821168535E-4
531 28 2.85714285714286E-1
531 530 1.2243806568000251E-3
531 531 2.87128047611296E-1
532 8 1.24298166238424E-4
532 532 2.87133912547832E-1
532 533 1.229962171232285E-3
533 8 1.24338121845496E-4
533 27 1.0989010989011E-1
533 532 1.229962171232285E-3
533 533 1.11394058307469E-1
534 29 1.58730158730159E-1
534 534 1.58868990450407E-1
534 535 2.7261741701377186E-9
535 30 2.85714285714286E-1
535 534 2.7261741701377186E-9
535 535 2.85772303152831E-1
536 536 2.86657408797586E-1
536 537 7.661237966451655E-4
537 29 1.0989010989011E-1
537 536 7.661237966451655E-4
537 537 1.10944869162585E-1
538 14 3.6330311607371795E-5
538 31 1.58730158730159E-1
538 538 1.58863969930188E-1
538 539 4.907638579872615E-10
539 14 3.579820310513125E-5
539 32 2.85714285714286E-1
539 538 4.907638579872615E-10
539 539 2.85772421155283E-1
540 13 3.629954445498065E-5
540 540 2.85804661682537E-1
540 541 1.06109430598157E-9
541 13 3.6279211513461E-5
541 31 1.0989010989011E-1
541 540 1.06109430598157E-9
541 541 1.10055807720747E-1
542 33 1.58730158730159E-1
542 542 1.59160472170599E-1
542 543 1.047324751876696E-4
543 34 2.85714285714286E-1
543 542 1.047324751876696E-4
543 543 2.85777088331965E-1
544 544 2.85804661589875E-1
544 545 6.773322191299967E-10
545 33 1.0989010989011E-1
545 544 6.773322191299967E-10
545 545 1.10004609325904E-1
546 35 1.58730158730159E-1
546 546 1.58868990447434E-1
546 547 2.7246860452083127E-9
547 18 2.85714285714286E-1
547 546 2.7246860452083127E-9
547 547 2.85772313003047E-1
548 548 2.86657408797586E-1
548 549 7.661237966469045E-4
549 35 1.0989010989011E-1
549 548 7.661237966469045E-4
549 549 1.10944869162589E-1
550 36 1.58730158730159E-1
550 550 1.58868990445644E-1
550 551 2.7237904777347074E-9
551 37 2.85714285714286E-1
551 550 2.7237904777347074E-9
551 551 2.85772318939313E-1
552 552 2.86657408797586E-1
552 553 7.66123796647701E-4
553 36 1.0989010989011E-1
553 552 7.66123796647701E-4
553 553 1.10944869162591E-1
554 38 1.58730158730159E-1
554 554 1.59160517634668E-1
554 555 1.0475502308272823E-4
555 39 2.85714285714286E-1
555 554 1.0475502308272823E-4
555 555 2.85777078966266E-1
556 556 2.85804661589885E-1
556 557 6.773370069695514E-10
557 38 1.0989010989011E-1
557 556 6.773370069695514E-10
557 557 1.10004608587514E-1
558 30 1.250154208675965E-4
558 40 1.2987012987013E-1
558 558 1.31371433614939E-1
558 559 1.24512520527996E-3
559 30 1.23619134238347E-4
559 41 1.42857142857143E-1
559 558 1.24512520527996E-3
559 559 1.44328761300045E-1
560 42 1.23890473914543E-4
560 560 1.44308050269605E-1
560 561 1.22397377392763E-3
561 40 1.0989010989011E-1
561 42 1.247434723410475E-4
561 560 1.22397377392763E-3
561 561 1.11388960031516E-1
562 9 1.24748032796887E-4
562 40 1.0989010989011E-1
562 562 1.11350454440929E-1
562 563 1.18550010531865E-3
563 9 1.2388580637641498E-4
563 562 1.18550010531865E-3
563 563 1.44269619109862E-1
564 9 6.45071287221897E-5
564 564 4.04655386289918E-2
564 565 6.22417663315387E-4
565 9 6.637767187332895E-5
565 44 5.71428571428571E-2
565 564 6.22417663315387E-4
565 565 5.79114986485711E-2
566 42 5.29100529100529E-2
566 45 1.789988127804805E-5
566 566 5.29548322069007E-2
566 567 4.53257394749035E-10
567 45 1.8178253568467602E-5
567 566 4.53257394749035E-10
567 567 6.80913550393237E-2
568 46 1.81798360670472E-5
568 568 6.80913550705981E-2
568 569 4.699941689399948E-10
569 42 5.29100529100529E-2
569 46 1.7900466950442798E-5
569 568 4.699941689399948E-10
569 569 5.29548322070237E-2
570 42 6.552937526469816E-5
570 570 4.04884076160278E-2
570 571 6.407373999581335E-4
571 42 6.53680166706381E-5
571 48 5.71428571428571E-2
571 570 6.407373999581335E-4
571 571 5.79249551212121E-2
572 37 6.253750598805685E-5
572 49 5.29100529100529E-2
572 572 5.36676883107473E-2
572 573 6.198519268432174E-4
573 37 6.21602770093034E-5
573 572 6.198519268432174E-4
573 573 6.87608835810405E-2
574 25 6.215813463749464E-5
574 574 6.87505910079769E-2
574 575 6.09548490134901E-4
575 25 6.25395040437296E-5
575 49 5.29100529100529E-2
575 574 6.09548490134901E-4
575 575 5.36573797499986E-2
576 39 6.501995482298059E-5
576 576 4.04896721536014E-2
576 577 6.456071340610655E-4
577 39 6.58716073509396E-5
577 51 5.71428571428571E-2
577 576 6.456071340610655E-4
577 577 5.79335897670292E-2
578 51 1.820329743715775E-5
578 52 5.29100529100529E-2
578 578 5.29949295006027E-2
578 579 8.59262097293071E-10
579 51 1.8150751742385247E-5
579 578 8.59262097293071E-10
579 579 6.80913549728352E-2
580 25 6.20913270269955E-5
580 580 6.87505853861445E-2
580 581 6.09672353068012E-4
581 25 6.26053924870163E-5
581 52 5.29100529100529E-2
581 580 6.09672353068012E-4
581 581 5.36576504159255E-2
582 54 5.29100529100529E-2
582 582 5.29768465904242E-2
582 583 1.98765233452863E-4
583 582 1.98765233452863E-4
583 583 6.85345864843142E-2
584 584 6.80913550528155E-2
584 585 4.6080491669302274E-10
585 54 5.29100529100529E-2
585 584 4.6080491669302274E-10
585 585 5.2954863523801E-2
586 30 3.68018466382601E-5
586 56 1.58730158730159E-1
586 586 1.58812752898113E-1
586 587 1.7769283272342976E-8
587 30 3.667700342564785E-5
587 57 2.85714285714286E-1
587 586 1.7769283272342976E-8
587 587 2.85772417348674E-1
588 44 3.634520279498785E-5
588 588 2.85804661899864E-1
588 589 8.222814414891865E-10
589 44 3.58207471940713E-5
589 56 1.0989010989011E-1
589 588 8.222814414891865E-10
589 589 1.0998258894596E-1
590 25 1.22703482095861E-4
590 590 1.2052372889136E-1
590 591 1.2241695545789151E-3
591 25 1.25923511812016E-4
591 58 1.0989010989011E-1
591 590 1.2241695545789151E-3
591 591 1.1139176741974E-1
592 59 1.0989010989011E-1
592 60 1.25203961514173E-4
592 592 1.11390578933684E-1
592 593 1.224575453820735E-3
593 60 1.234273558334745E-4
593 592 1.224575453820735E-3
593 593 2.87126854139915E-1
594 39 1.250394233455245E-4
594 58 2.85714285714286E-1
594 594 2.87146016762492E-1
594 595 1.23545632337556E-3
595 39 1.235856411817005E-4
595 59 1.19047619047619E-1
595 594 1.23545632337556E-3
595 595 1.20537078708001E-1
596 62 1.58730158730159E-1
596 63 1.24290313601081E-4
596 596 1.60190279554899E-1
596 597 1.2243639142664451E-3
597 45 2.85714285714286E-1
597 63 1.24343854104465E-4
597 596 1.2243639142664451E-3
597 597 2.87133557287162E-1
598 39 1.2406038214046549E-4
598 598 2.87134685832125E-1
598 599 1.23119634461894E-3
599 39 1.2457454182680848E-4
599 62 1.0989010989011E-1
599 598 1.23119634461894E-3
599 599 1.11395817211834E-1
600 64 1.58730158730159E-1
600 600 1.59160554853574E-1
600 601 1.0477355084665565E-4
601 65 2.85714285714286E-1
601 600 1.0477355084665565E-4
601 601 2.85777075051324E-1
602 602 2.85804661589882E-1
602 603 6.7733540701999E-10
603 64 1.0989010989011E-1
603 602 6.7733540701999E-10
603 603 1.10004608834259E-1
604 66 1.2987012987013E-1
604 67 3.634266897619925E-5
604 604 1.30018635493309E-1
604 605 6.491493217942628E-10
605 60 1.42857142857143E-1
605 67 3.579981235657075E-5
605 604 6.491493217942628E-10
605 605 1.42928402678391E-1
606 68 3.63061780122602E-5
606 606 1.42985567303205E-1
606 607 1.4437919798897E-9
607 66 1.0989010989011E-1
607 68 3.62933002162167E-5
607 606 1.4437919798897E-9
607 607 1.10057215318818E-1
608 66 1.0989010989011E-1
608 69 3.62962609211422E-5
608 608 1.10057215328054E-1
608 609 1.49537904410016E-9
609 69 3.6309188758036146E-5
609 608 1.49537904410016E-9
609 609 1.42985567345277E-1
610 71 3.63612056757103E-5
610 610 1.19203314304273E-1
610 611 9.958098654563372E-10
611 71 3.58014366517807E-5
611 72 1.0989010989011E-1
611 610 9.958098654563372E-10
611 611 1.09979661489864E-1
612 60 1.243389063089655E-4
612 73 1.0989010989011E-1
612 612 1.113870769526E-1
612 613 1.22298755856121E-3
613 60 1.2429738242976802E-4
613 612 1.22298755856121E-3
613 613 2.87126944569709E-1
614 52 3.58000423935842E-5
614 72 2.85714285714286E-1
614 614 2.85772421730862E-1
614 615 9.568965400324161E-10
615 52 3.636119531990435E-5
615 73 1.19047619047619E-1
615 614 9.568965400324161E-10
615 615 1.19203323567851E-1
616 52 3.630511996420975E-5
616 616 1.1920331418607E-1
616 617 1.7969850464669E-9
617 52 3.63046540024236E-5
617 71 1.0989010989011E-1
617 616 1.7969850464669E-9
617 617 1.10059494324203E-1
618 75 1.0989010989011E-1
618 76 1.24198696248421E-4
618 618 1.11381798000631E-1
618 619 1.223086245235875E-3
619 76 1.2443798712367498E-4
619 618 1.223086245235875E-3
619 619 2.87132353676963E-1
620 37 1.2427679400543E-4
620 71 2.85714285714286E-1
620 620 2.87145369758778E-1
620 621 1.24147960138896E-3
621 37 1.24359708453014E-4
621 75 1.19047619047619E-1
621 620 1.24147960138896E-3
621 621 1.20549269117421E-1
622 72 6.578636832323965E-5
622 622 4.04884219308335E-2
622 623 6.40457944663393E-4
623 72 6.51116044338238E-5
623 78 5.71428571428571E-2
623 622 6.40457944663393E-4
623 623 5.79242458434683E-2
624 37 6.54971134089196E-5
624 624 4.04981967918497E-2
624 625 6.505524558411285E-4
625 37 6.540020320004866E-5
625 69 5.71428571428571E-2
625 624 6.505524558411285E-4
625 625 5.79348122505426E-2
626 79 1.58730158730159E-1
626 80 3.633826480329175E-5
626 626 1.58863869986649E-1
626 627 5.311955931803509E-10
627 76 2.85714285714286E-1
627 80 3.5801607827744996E-5
627 626 5.311955931803509E-10
627 627 2.85772421933901E-1
628 67 3.63044286711728E-5
628 628 2.85804661736655E-1
628 629 1.089475397097482E-9
629 67 3.6283161166518E-5
629 79 1.0989010989011E-1
629 628 1.089475397097482E-9
629 629 1.10055661876392E-1
630 37 3.6799336222478256E-5
630 81 1.58730158730159E-1
630 630 1.58812753333297E-1
630 631 1.6284861979754767E-8
631 37 3.6677240661881646E-5
631 82 2.85714285714286E-1
631 630 1.6284861979754767E-8
631 631 2.85772418427039E-1
632 67 3.635044865715245E-5
632 632 2.85804661999754E-1
632 633 8.730015704122393E-10
633 67 3.582288053735685E-5
633 81 1.0989010989011E-1
633 632 8.730015704122393E-10
633 633 1.09982593534613E-1
634 28 1.790040866223935E-5
634 83 5.10204081632653E-2
634 634 5.10648236873434E-2
634 635 4.677350653815851E-10
635 28 1.817962697234195E-5
635 634 4.677350653815851E-10
635 635 6.80913550677585E-2
636 84 1.817884729779295E-5
636 636 6.80913550502386E-2
636 637 4.594597245202725E-10
637 83 5.10204081632653E-2
637 84 1.7900120437995902E-5
637 636 4.594597245202725E-10
637 637 5.10648236870872E-2
638 86 6.541319693944276E-5
638 638 4.04859190148755E-2
638 639 6.410913662422549E-4
639 84 5.29100529100529E-2
639 86 6.548354384361105E-5
639 638 6.410913662422549E-4
639 639 5.36963149701552E-2
640 1 6.44305902179373E-5
640 640 4.04612441922694E-2
640 641 6.182623525452201E-4
641 1 6.64532179452482E-5
641 87 5.29100529100529E-2
641 640 6.182623525452201E-4
641 641 5.36756354561278E-2
642 8 6.500808489858346E-5
642 642 4.04892527782585E-2
642 643 6.45210065730254E-4
643 8 6.588332237690035E-5
643 88 5.29100529100529E-2
643 642 6.45210065730254E-4
643 643 5.37013368900487E-2
644 88 1.818609812752665E-5
644 89 5.10204081632653E-2
644 644 5.11061176848291E-2
644 645 8.490319492833775E-10
645 88 1.815070146284625E-5
645 644 8.490319492833775E-10
645 645 6.80913549699678E-2
646 3 6.21753279205595E-5
646 646 6.87512323005712E-2
646 647 6.101571870960165E-4
647 3 6.252254646108864E-5
647 89 5.10204081632653E-2
647 646 6.101571870960165E-4
647 647 5.17691827291201E-2
648 91 5.10204081632653E-2
648 648 5.10867638720861E-2
648 649 1.9894061523781492E-4
649 648 1.9894061523781492E-4
649 649 6.85349590043531E-2
650 650 6.80913550549215E-2
650 651 4.6185926183916005E-10
651 91 5.10204081632653E-2
651 650 4.6185926183916005E-10
651 651 5.10648047507691E-2
652 93 6.549476610159975E-5
652 652 4.04931561991638E-2
652 653 6.45518844422086E-4
653 93 6.540253867819475E-5
653 94 5.29100529100529E-2
653 652 6.45518844422086E-4
653 653 5.36978986977945E-2
654 95 5.10204081632653E-2
654 96 1.81932788733621E-5
654 654 5.11061313616736E-2
654 655 8.936429159260604E-10
655 96 1.815275715378615E-5
655 654 8.936429159260604E-10
655 655 6.80913550182297E-2
656 11 6.21495042321253E-5
656 656 6.8749911312666E-2
656 657 6.08884562669172E-4
657 11 6.2548009416747E-5
657 95 5.10204081632653E-2
657 656 6.08884562669172E-4
657 657 5.17679658841484E-2
658 34 6.540445755602355E-5
658 658 4.04889471309322E-2
658 659 6.44139024339677E-4
659 34 6.549214565532E-5
659 96 5.29100529100529E-2
659 658 6.44139024339677E-4
659 659 5.36993861333658E-2
660 14 3.6329827665598246E-5
660 98 1.58730158730159E-1
660 660 1.58863908143689E-1
660 661 4.836729798991393E-10
661 14 3.579820004670075E-5
661 86 2.85714285714286E-1
661 660 4.836729798991393E-10
661 661 2.85772420235749E-1
662 96 3.63086918835924E-5
662 662 2.8580466180809E-1
662 663 1.1582622837037776E-9
663 96 3.62876046178719E-5
663 98 1.02040816326531E-1
663 662 1.1582622837037776E-9
663 663 1.02208029623906E-1
664 3 1.2266841157286751E-4
664 664 1.20525005346545E-1
664 665 1.2255144341959449E-3
665 3 1.2595837836821E-4
665 99 1.02040816326531E-1
665 664 1.2255144341959449E-3
665 665 1.03545673395855E-1
666 100 1.02040816326531E-1
666 101 1.25230196099584E-4
666 666 1.03543577582612E-1
666 667 1.22504701675081E-3
667 101 1.2340097017691598E-4
667 666 1.22504701675081E-3
667 667 2.87127274484557E-1
668 8 1.2504741569159148E-4
668 99 2.85714285714286E-1
668 668 2.8714535118194E-1
668 669 1.23477518785528E-3
669 8 1.23577388137634E-4
669 100 1.19047619047619E-1
669 668 1.23477518785528E-3
669 669 1.20536394855249E-1
670 103 1.58730158730159E-1
670 670 1.59160633622959E-1
670 671 1.0481284992937277E-4
671 93 2.85714285714286E-1
671 670 1.0481284992937277E-4
671 671 2.85777071556245E-1
672 672 2.85804661589854E-1
672 673 6.773216864524694E-10
673 103 1.02040816326531E-1
673 672 6.773216864524694E-10
673 673 1.02155220598489E-1
674 104 3.636221405234865E-5
674 674 1.1920331432645E-1
674 675 1.0074071077444953E-9
675 104 3.5801732583138146E-5
675 105 1.02040816326531E-1
675 674 1.0074071077444953E-9
675 675 1.02129627176048E-1
676 101 1.243383319314435E-4
676 106 1.02040816326531E-1
676 676 1.03539950921176E-1
676 677 1.223410084702525E-3
677 101 1.24297960148035E-4
677 676 1.223410084702525E-3
677 677 2.87127367710228E-1
678 89 3.58003198742011E-5
678 105 2.85714285714286E-1
678 678 2.85772418242768E-1
678 679 9.673509608678476E-10
679 89 3.636204755012565E-5
679 106 1.19047619047619E-1
679 678 9.673509608678476E-10
679 679 1.19203323338255E-1
680 89 3.63060681471639E-5
680 680 1.19203314206359E-1
680 681 1.804424393686765E-9
681 89 3.63051088077933E-5
681 104 1.02040816326531E-1
681 680 1.804424393686765E-9
681 681 1.02211849736688E-1
682 108 1.02040816326531E-1
682 109 1.24107201667418E-4
682 682 1.03534351596217E-1
682 683 1.223344524983455E-3
683 109 1.24529691220329E-4
683 682 1.223344524983455E-3
683 683 2.87132717502472E-1
684 18 1.2418953024928152E-4
684 104 2.85714285714286E-1
684 684 2.87145990895665E-1
684 685 1.242242794572545E-3
685 18 1.24447170043983E-4
685 108 1.19047619047619E-1
685 684 1.242242794572545E-3
685 685 1.20550086250503E-1
686 111 1.58730158730159E-1
686 112 3.6338104236259195E-5
686 686 1.58863874833655E-1
686 687 5.305666585700588E-10
687 109 2.85714285714286E-1
687 112 3.580148486550295E-5
687 686 5.305666585700588E-10
687 687 2.85772419857034E-1
688 22 3.630391234037175E-5
688 688 2.85804661730544E-1
688 689 1.084587433445766E-9
689 22 3.62826980595389E-5
689 111 1.02040816326531E-1
689 688 1.084587433445766E-9
689 689 1.02207979268027E-1
690 18 6.55990734120544E-5
690 690 4.04987519803407E-2
690 691 6.509904700722304E-4
691 18 6.529847287407506E-5
691 113 5.29100529100529E-2
691 690 6.509904700722304E-4
691 691 5.37031865828637E-2
692 18 3.68001395633102E-5
692 114 1.58730158730159E-1
692 692 1.58812751629476E-1
692 693 1.6755835345390183E-8
693 18 3.6677346184357196E-5
693 115 2.85714285714286E-1
693 692 1.6755835345390183E-8
693 693 2.85772419519109E-1
694 22 3.634992975311625E-5
694 694 2.85804661990944E-1
694 695 8.678370709916027E-10
695 22 3.582264209939255E-5
695 114 1.02040816326531E-1
695 694 8.678370709916027E-10
695 695 1.02132626197588E-1
696 22 3.6342147603379645E-5
696 116 1.2987012987013E-1
696 696 1.30018633382322E-1
696 697 6.450859845639763E-10
697 22 3.57995691659103E-5
697 101 1.42857142857143E-1
697 696 6.450859845639763E-10
697 697 1.42928398588563E-1
698 117 3.6305994546391E-5
698 698 1.42985567301446E-1
698 699 1.440210858371815E-9
699 116 1.02040816326531E-1
699 117 3.62931053930012E-5
699 698 1.440210858371815E-9
699 699 1.02209578879942E-1
700 113 3.62972900177789E-5
700 116 1.02040816326531E-1
700 700 1.02209578900636E-1
700 701 1.513502395761765E-9
701 113 3.631025329612455E-5
701 700 1.513502395761765E-9
701 701 1.42985567368025E-1
702 91 6.47654010940452E-5
702 702 4.04869948798468E-2
702 703 6.434076006446265E-4
703 91 6.612268493665945E-5
703 119 5.29100529100529E-2
703 702 6.434076006446265E-4
703 703 5.37000725806489E-2
704 25 6.332768822082409E-5
704 120 5.10204081632653E-2
704 704 5.1771847987189E-2
704 705 6.110190981760664E-4
705 25 6.135904787786046E-5
705 704 6.110190981760664E-4
705 705 6.87505223403577E-2
706 23 6.135463056447025E-5
706 706 6.87189182867431E-2
706 707 5.793827891539805E-4
707 23 6.33321255397672E-5
707 120 5.10204081632653E-2
707 706 5.793827891539805E-4
707 707 5.1740181983112E-2
708 122 6.55985369601508E-5
708 708 4.04884185672841E-2
708 709 6.406693118790845E-4
709 46 5.29100529100529E-2
709 122 6.529901267428024E-5
709 708 6.406693118790845E-4
709 709 5.36928789430047E-2
710 23 6.499948209171935E-5
710 710 4.04515351168591E-2
710 711 6.074490641833836E-4
711 23 6.589158634249501E-5
711 67 5.29100529100529E-2
711 710 6.074490641833836E-4
711 711 5.3663554650756E-2
712 123 5.10204081632653E-2
712 712 5.10651145780524E-2
712 713 4.552724585524485E-10
713 712 4.552724585524485E-10
713 713 6.80913550417638E-2
714 714 6.85326026924783E-2
714 715 1.9783420395568495E-4
715 123 5.10204081632653E-2
715 714 1.9783420395568495E-4
715 715 5.10872383879302E-2
716 120 3.63285200010521E-5
716 125 1.58730158730159E-1
716 716 1.58863911947785E-1
716 717 4.765720728530038E-10
717 120 3.57977221956991E-5
717 122 2.85714285714286E-1
717 716 4.765720728530038E-10
717 717 2.85772422001803E-1
718 94 3.6309635445859595E-5
718 718 2.85804661826132E-1
718 719 1.1723769047174039E-9
719 94 3.62885487995761E-5
719 125 1.02040816326531E-1
719 718 1.1723769047174039E-9
719 719 1.02208035409735E-1
720 126 1.58730158730159E-1
720 720 1.58868954513269E-1
720 721 2.6872601801714324E-9
721 127 2.85714285714286E-1
721 720 2.6872601801714324E-9
721 721 2.85772317382593E-1
722 722 2.86657426899745E-1
722 723 7.659601350045085E-4
723 126 1.02040816326531E-1
723 722 7.659601350045085E-4
723 723 1.03097073256569E-1
724 128 1.2987012987013E-1
724 129 1.245757277938955E-4
724 724 1.31347748576031E-1
724 725 1.2225112706713498E-3
725 129 1.24061269662233E-4
725 130 1.42857142857143E-1
725 724 1.2225112706713498E-3
725 725 1.44306921634356E-1
726 58 3.62991194536431E-5
726 726 1.42985567286207E-1
726 727 1.670297101437725E-9
727 58 3.629841987433735E-5
727 128 1.02040816326531E-1
727 726 1.670297101437725E-9
727 727 1.02211896293547E-1
728 57 1.2406851954024E-4
728 128 1.02040816326531E-1
728 728 1.03534823999575E-1
728 729 1.22388323746857E-3
729 57 1.24568461446641E-4
729 728 1.22388323746857E-3
729 729 1.44314206070981E-1
730 57 3.67985715407231E-5
730 132 1.2987012987013E-1
730 730 1.29956428843527E-1
730 731 1.56190425962616E-8
731 57 3.6670511055830494E-5
731 129 1.42857142857143E-1
731 730 1.56190425962616E-8
731 731 1.42928398993303E-1
732 133 3.635519476238315E-5
732 732 1.42985567396986E-1
732 733 9.212675263147577E-10
733 132 1.02040816326531E-1
733 133 3.582701120266215E-5
733 732 9.212675263147577E-10
733 733 1.02132894437257E-1
734 48 3.58272293905071E-5
734 132 1.02040816326531E-1
734 734 1.02132894437265E-1
734 735 9.270391010074167E-10
735 48 3.6355739391088E-5
735 734 9.270391010074167E-10
735 735 1.4298556740764E-1
736 135 5.10204081632653E-2
736 736 5.10870214178499E-2
736 737 1.983292606097599E-4
737 736 1.983292606097599E-4
737 737 6.85336588298414E-2
738 738 6.80913550476719E-2
738 739 4.5822997178852237E-10
739 135 5.10204081632653E-2
739 738 4.5822997178852237E-10
739 739 5.10649737509345E-2
740 135 6.486901540252209E-5
740 740 4.04745160531087E-2
740 741 6.307074435423965E-4
741 135 6.60202826145964E-5
741 137 5.29100529100529E-2
741 740 6.307074435423965E-4
741 741 5.36871314110924E-2
742 49 1.9087001082191752E-5
742 742 3.97923757994066E-2
742 743 4.759574648390305E-10
743 49 1.879479958650215E-5
743 63 5.29100529100529E-2
743 742 4.759574648390305E-10
743 743 5.2956683951721E-2
744 138 5.10204081632653E-2
744 744 5.10651213584989E-2
744 745 4.551315592162328E-10
745 744 4.551315592162328E-10
745 745 6.80913550414824E-2
746 746 6.85325520055964E-2
746 747 1.9781048675418305E-4
747 138 5.10204081632653E-2
747 746 1.9781048675418305E-4
747 747 5.10872488614054E-2
748 91 6.294748601097965E-5
748 140 5.10204081632653E-2
748 748 5.17724969709178E-2
748 749 6.125163701169931E-4
749 91 6.174449579176631E-5
749 748 6.125163701169931E-4
749 749 6.8752756465629E-2
750 141 6.174619814127276E-5
750 750 6.87522593526498E-2
750 751 6.120178066754035E-4
751 140 5.10204081632653E-2
751 141 6.294591007102755E-5
751 750 6.120178066754035E-4
751 751 5.17719919017752E-2
752 143 1.908651090227245E-5
752 752 3.97923757623747E-2
752 753 4.709543816871043E-10
753 143 1.87946638348948E-5
753 144 5.29100529100529E-2
753 752 4.709543816871043E-10
753 753 5.29566889546817E-2
754 140 1.908458499427985E-5
754 754 3.97923757952909E-2
754 755 4.514735471152213E-10
755 140 1.879392099321305E-5
755 145 5.29100529100529E-2
755 754 4.514735471152213E-10
755 755 5.29566863644917E-2
756 146 1.58730158730159E-1
756 756 1.59160618519941E-1
756 757 1.0480551972614692E-4
757 147 2.85714285714286E-1
757 756 1.0480551972614692E-4
757 757 2.85777083505624E-1
758 758 2.85804661589825E-1
758 759 6.773070626999092E-10
759 146 1.02040816326531E-1
759 758 6.773070626999092E-10
759 759 1.02155222920116E-1
760 148 1.58730158730159E-1
760 760 1.58868954514381E-1
760 761 2.687816716979707E-9
761 149 2.85714285714286E-1
761 760 2.687816716979707E-9
761 761 2.85772313646612E-1
762 762 2.86657426899746E-1
762 763 7.659601350022359E-4
763 148 1.02040816326531E-1
763 762 7.659601350022359E-4
763 763 1.03097073256564E-1
764 93 1.24145212381942E-4
764 150 1.58730158730159E-1
764 764 1.60199607396665E-1
764 765 1.23394356263703E-3
765 93 1.244871797495805E-4
765 143 2.85714285714286E-1
765 764 1.23394356263703E-3
765 765 2.87143427707229E-1
766 141 1.2394561746509048E-4
766 766 2.87128562317318E-1
766 767 1.2252873342290301E-3
767 141 1.24688657785859E-4
767 150 1.02040816326531E-1
767 766 1.2252873342290301E-3
767 767 1.03542611971108E-1
768 145 1.243543620527725E-4
768 151 1.58730158730159E-1
768 768 1.60194688801768E-1
768 769 1.2235699988592751E-3
769 80 2.85714285714286E-1
769 145 1.2428077961227848E-4
769 768 1.2235699988592751E-3
769 769 2.87127518639565E-1
770 93 1.241501770810455E-4
770 770 2.87136173734006E-1
770 771 1.23251243028474E-3
771 93 1.244852619914E-4
771 151 1.02040816326531E-1
771 770 1.23251243028474E-3
771 771 1.03549392196917E-1
772 147 3.67918450317497E-5
772 152 1.58730158730159E-1
772 772 1.58812776466403E-1
772 773 1.2216432740664286E-8
773 147 3.6676600398393E-5
773 153 2.85714285714286E-1
773 772 1.2216432740664286E-8
773 773 2.85772423286959E-1
774 137 3.634896377362245E-5
774 774 2.85804661974966E-1
774 775 8.581831935554469E-10
775 137 3.582265295982085E-5
775 152 1.02040816326531E-1
775 774 8.581831935554469E-10
775 775 1.02132673549517E-1
776 154 1.58730158730159E-1
776 155 3.63397435933052E-5
776 776 1.58863867567548E-1
776 777 5.40356672165197E-10
777 155 3.580219530897995E-5
777 156 2.85714285714286E-1
777 776 5.40356672165197E-10
777 777 2.85772422446654E-1
778 137 3.6303041431543154E-5
778 778 2.85804661717219E-1
778 779 1.071271286925429E-9
779 137 3.628179412616315E-5
779 154 1.02040816326531E-1
779 778 1.071271286925429E-9
779 779 1.02207968265598E-1
780 137 3.634141967176695E-5
780 157 1.2987012987013E-1
780 780 1.30018658460747E-1
780 781 6.414622928397035E-10
781 137 3.579927391717345E-5
781 158 1.42857142857143E-1
781 780 6.414622928397035E-10
781 781 1.42928402438723E-1
782 159 3.63053851348584E-5
782 782 1.42985567290883E-1
782 783 1.435832478661335E-9
783 157 1.02040816326531E-1
783 159 3.62926728763504E-5
783 782 1.435832478661335E-9
783 783 1.02209610132843E-1
784 157 1.02040816326531E-1
784 160 3.629451560554705E-5
784 784 1.0220961012083E-1
784 785 1.467511582693695E-9
785 160 3.63072542549431E-5
785 784 1.467511582693695E-9
785 785 1.42985567308561E-1
786 83 6.54779249243321E-5
786 786 4.04882475938221E-2
786 787 6.4063637153041E-4
787 83 6.541934904338856E-5
787 162 5.49450549450549E-2
787 786 6.4063637153041E-4
787 787 5.57263503609744E-2
788 32 6.274319552242775E-5
788 163 5.29100529100529E-2
788 788 5.36585520260421E-2
788 789 6.11022636723256E-4
789 32 6.19517244920987E-5
789 788 6.11022636723256E-4
789 789 6.87516615068159E-2
790 1 6.19485582769434E-5
790 790 6.87282621573092E-2
790 791 5.87597767666158E-4
791 1 6.274622798125125E-5
791 163 5.29100529100529E-2
791 790 5.87597767666158E-4
791 791 5.36351078405429E-2
792 165 1.58730158730159E-1
792 792 1.58863862027389E-1
792 793 5.3463911656083E-10
793 166 2.85714285714286E-1
793 792 5.3463911656083E-10
793 793 2.85772420548603E-1
794 163 3.6304828288823254E-5
794 794 2.85804661730444E-1
794 795 1.0919672838448891E-9
795 163 3.62834958618336E-5
795 165 1.0989010989011E-1
795 794 1.0919672838448891E-9
795 795 1.10054161145614E-1
796 6 3.680144824735015E-5
796 167 1.58730158730159E-1
796 796 1.58812754253009E-1
796 797 1.7528386231371586E-8
797 6 3.66770928889005E-5
797 168 2.85714285714286E-1
797 796 1.7528386231371586E-8
797 797 2.85772418723689E-1
798 87 3.63443758831119E-5
798 798 2.85804661886412E-1
798 799 8.145524243999356E-10
799 87 3.58204375758579E-5
799 167 1.0989010989011E-1
799 798 8.145524243999356E-10
799 799 1.09981202818194E-1
800 168 3.67984309719673E-5
800 169 1.2987012987013E-1
800 800 1.2995642981366E-1
800 801 1.5538026234095483E-8
801 168 3.66702945104535E-5
801 170 1.42857142857143E-1
801 800 1.5538026234095483E-8
801 801 1.4292839474255E-1
802 171 3.63547569250128E-5
802 802 1.42985567386827E-1
802 803 9.166537919258463E-10
803 169 1.0989010989011E-1
803 171 3.58268473186555E-5
803 802 9.166537919258463E-10
803 803 1.09981463450087E-1
804 162 3.582702082821555E-5
804 169 1.0989010989011E-1
804 804 1.09981463450267E-1
804 805 9.212156303141591E-10
805 162 3.635519003414315E-5
805 804 9.212156303141591E-10
805 805 1.42985567396649E-1
806 170 1.243357711177945E-4
806 173 1.2987012987013E-1
806 806 1.3134891100406E-1
806 807 1.22382359116876E-3
807 170 1.24300666112295E-4
807 174 1.42857142857143E-1
807 806 1.22382359116876E-3
807 807 1.443086978541E-1
808 99 3.629886644005255E-5
808 808 1.42985567279627E-1
808 809 1.68186184481079E-9
809 99 3.6299209805509E-5
809 173 1.0989010989011E-1
809 808 1.68186184481079E-9
809 809 1.10058092799719E-1
810 168 1.2431978919494303E-4
810 173 1.0989010989011E-1
810 810 1.11386513217694E-1
810 811 1.223948702372785E-3
811 168 1.24316609795316E-4
811 810 1.223948702372785E-3
811 811 1.4430884707674E-1
812 32 6.23609819596107E-5
812 171 5.29100529100529E-2
812 812 5.36569819164754E-2
812 813 6.10304490266859E-4
813 32 6.233927239763425E-5
813 812 6.10304490266859E-4
813 813 6.87516949483581E-2
814 176 6.233928038199596E-5
814 814 6.87519173213564E-2
814 815 6.10527122044996E-4
815 171 5.29100529100529E-2
815 176 6.23609745158082E-5
815 814 6.10527122044996E-4
815 815 5.36572047864805E-2
816 816 3.97923757920618E-2
816 817 4.877010396382203E-10
817 176 5.49450549450549E-2
817 816 4.877010396382203E-10
817 817 5.49913444812248E-2
818 178 1.2987012987013E-1
818 179 1.24346013845354E-4
818 818 1.31349256091369E-1
818 819 1.2241617601449501E-3
819 179 1.242904583045435E-4
819 180 1.42857142857143E-1
819 818 1.2241617601449501E-3
819 819 1.44309017447669E-1
820 95 3.63057267682865E-5
820 820 1.42985567429861E-1
820 821 1.820327850718155E-9
821 95 3.630568482980735E-5
821 178 1.0989010989011E-1
821 820 1.820327850718155E-9
821 821 1.10058088255057E-1
822 176 1.24310525849014E-4
822 178 1.0989010989011E-1
822 822 1.11381222460997E-1
822 823 1.2238089228541501E-3
823 176 1.24325900032226E-4
823 822 1.2238089228541501E-3
823 823 1.44313853896875E-1
824 95 3.636246307267565E-5
824 182 1.58730158730159E-1
824 824 1.58866559320956E-1
824 825 9.648548357703216E-10
825 95 3.58001773397286E-5
825 179 2.85714285714286E-1
825 824 9.648548357703216E-10
825 825 2.85772416459593E-1
826 176 1.24294061263458E-4
826 826 2.87127812229387E-1
826 827 1.223862679572855E-3
827 176 1.2434220838971049E-4
827 182 1.0989010989011E-1
827 826 1.223862679572855E-3
827 827 1.11386476756537E-1
828 11 6.309321759430895E-5
828 183 5.29100529100529E-2
828 828 5.36582113868975E-2
828 829 6.09903470502787E-4
829 11 6.15967389742107E-5
829 828 6.09903470502787E-4
829 829 6.87498633487196E-2
830 176 6.159856877210136E-5
830 830 6.87518533393954E-2
830 831 6.11895328895622E-4
831 176 6.309152921148904E-5
831 183 5.29100529100529E-2
831 830 6.11895328895622E-4
831 831 5.36601992694772E-2
832 183 1.908372311171005E-5
832 832 3.97923757898545E-2
832 833 4.430734690494886E-10
833 183 1.87936066385916E-5
833 185 5.49450549450549E-2
833 832 4.430734690494886E-10
833 833 5.49913510253113E-2
834 34 1.241360485155445E-4
834 186 1.58730158730159E-1
834 834 1.60196960934933E-1
834 835 1.2312910418588E-3
835 34 1.244957986592135E-4
835 187 2.85714285714286E-1
835 834 1.2312910418588E-3
835 835 2.8714079150179E-1
836 176 1.2388411082951E-4
836 836 2.87127769615798E-1
836 837 1.22461239540959E-3
837 176 1.247498132805795E-4
837 186 1.0989010989011E-1
837 836 1.22461239540959E-3
837 837 1.11388129426212E-1
838 185 1.243587902919975E-4
838 188 1.58730158730159E-1
838 838 1.6019475930412E-1
838 839 1.223623844083135E-3
839 112 2.85714285714286E-1
839 185 1.24276011674187E-4
839 838 1.223623844083135E-3
839 839 2.87127570488248E-1
840 34 1.2410659256590002E-4
840 840 2.8713327069493E-1
840 841 1.2296902073719801E-3
841 34 1.24528596753263E-4
841 188 1.0989010989011E-1
841 840 1.2296902073719801E-3
841 841 1.1139272410585E-1
842 112 3.6360900668359403E-5
842 189 1.58730158730159E-1
842 842 1.58866553889814E-1
842 843 9.766114697315503E-10
843 112 3.580070209528615E-5
843 190 2.85714285714286E-1
843 842 9.766114697315503E-10
843 843 2.85772418840253E-1
844 115 1.24309755835899E-4
844 844 2.8712779289321E-1
844 845 1.223812933400665E-3
845 115 1.243266038387955E-4
845 189 1.0989010989011E-1
845 844 1.223812933400665E-3
845 845 1.11386392384091E-1
846 190 1.2445498994338402E-4
846 191 1.2987012987013E-1
846 846 1.31348481806404E-1
846 847 1.2233230835697801E-3
847 190 1.241817321428675E-4
847 192 1.42857142857143E-1
847 846 1.2233230835697801E-3
847 847 1.44307964703818E-1
848 117 3.6305213514150003E-5
848 848 1.42985567402326E-1
848 849 1.801311912635255E-9
849 117 3.630484421409285E-5
849 191 1.0989010989011E-1
849 848 1.801311912635255E-9
849 849 1.10058026377248E-1
850 115 1.241887618423075E-4
850 191 1.0989010989011E-1
850 850 1.11380847064862E-1
850 851 1.223636561420125E-3
851 115 1.24447944220804E-4
851 850 1.223636561420125E-3
851 851 1.44313821092617E-1
852 117 5.29100529100529E-2
852 194 6.259399902668705E-5
852 852 5.36575099517054E-2
852 853 6.10313331295775E-4
853 194 6.210299769875024E-5
853 852 6.10313331295775E-4
853 853 6.87512455037623E-2
854 11 6.21010216472979E-5
854 854 6.87499067943248E-2
854 855 6.089740488040274E-4
855 11 6.25958267674642E-5
855 117 5.29100529100529E-2
855 854 6.089740488040274E-4
855 855 5.36561758392712E-2
856 187 1.908630475843105E-5
856 856 3.97923757596726E-2
856 857 4.688387948752262E-10
857 187 1.879459630591475E-5
857 194 5.49450549450549E-2
857 856 4.688387948752262E-10
857 857 5.49913538274462E-2
858 133 5.29100529100529E-2
858 196 6.23219519078463E-5
858 858 5.36543502822062E-2
858 859 6.10296896423293E-4
859 196 6.23785196297379E-5
859 858 6.10296896423293E-4
859 859 6.87542938701341E-2
860 141 6.23785246779478E-5
860 860 6.87548626076525E-2
860 861 6.108649647795255E-4
861 133 5.29100529100529E-2
861 141 6.23219468203527E-5
861 860 6.108649647795255E-4
861 861 5.36549176533143E-2
862 198 5.29100529100529E-2
862 862 5.29761986070983E-2
862 863 1.9866894708783466E-4
863 862 1.9866894708783466E-4
863 863 6.85343818073781E-2
864 864 6.80913550516742E-2
864 865 4.6023356189917754E-10
865 198 5.29100529100529E-2
865 864 4.6023356189917754E-10
865 865 5.29542018329564E-2
866 200 1.9085648143548947E-5
866 866 3.97923757584594E-2
866 867 4.6217267695107654E-10
867 200 1.879430847794205E-5
867 201 5.49450549450549E-2
867 866 4.6217267695107654E-10
867 867 5.49913489228315E-2
868 123 6.340496554342755E-5
868 202 5.29100529100529E-2
868 868 5.36406575224883E-2
868 869 5.916826464233351E-4
869 123 6.12808005444628E-5
869 868 5.916826464233351E-4
869 869 6.87310602897261E-2
870 135 6.128115239041094E-5
870 870 6.87408030656421E-2
870 871 6.01435030163507E-4
871 135 6.34045011276394E-5
871 202 5.29100529100529E-2
871 870 6.01435030163507E-4
871 871 5.36504230917722E-2
872 147 6.27653650182026E-5
872 200 5.29100529100529E-2
872 872 5.36622519827669E-2
872 873 6.146686727131635E-4
873 147 6.192923097697295E-5
873 872 6.146686727131635E-4
873 873 6.87552599786808E-2
874 123 6.192637532560376E-5
874 874 6.87311185188656E-2
874 875 5.90500851140745E-4
875 123 6.276811790887699E-5
875 200 5.29100529100529E-2
875 874 5.90500851140745E-4
875 875 5.36380628884415E-2
876 205 5.29100529100529E-2
876 206 1.822114853242935E-5
876 876 5.29942161815035E-2
876 877 9.056553081811731E-10
877 206 1.8152571658704503E-5
877 876 9.056553081811731E-10
877 877 6.80913550126662E-2
878 123 6.20106098027622E-5
878 878 6.87311263766674E-2
878 879 5.903458862440069E-4
879 123 6.26850296172964E-5
879 205 5.29100529100529E-2
879 878 5.903458862440069E-4
879 879 5.36377231231807E-2
880 127 6.537201723888156E-5
880 880 4.04956419602267E-2
880 881 6.509059494108325E-4
881 127 6.552418826503604E-5
881 206 5.49450549450549E-2
881 880 6.509059494108325E-4
881 881 5.57395305180517E-2
882 138 6.313277976450796E-5
882 208 5.29100529100529E-2
882 882 5.36390863538944E-2
882 883 5.907150570954325E-4
883 138 6.15567013730278E-5
883 882 5.907150570954325E-4
883 883 6.8730621638145E-2
884 209 6.156029196369649E-5
884 884 6.87516515819127E-2
884 885 6.117668543520955E-4
885 208 5.29100529100529E-2
885 209 6.312928631632775E-5
885 884 6.117668543520955E-4
885 885 5.36601543540697E-2
886 208 1.908349719226485E-5
886 886 3.97923757794402E-2
886 887 4.409193362206808E-10
887 208 1.87935256163085E-5
887 211 5.49450549450549E-2
887 886 4.409193362206808E-10
887 887 5.49913512786563E-2
888 212 1.90889561149074E-5
888 888 3.97923758080054E-2
888 889 4.967521388416712E-10
889 212 1.8795572868561303E-5
889 213 5.49450549450549E-2
889 888 4.967521388416712E-10
889 889 5.49913532553595E-2
890 159 5.29100529100529E-2
890 213 6.264813473067585E-5
890 890 5.36577720257681E-2
890 891 6.10454760337788E-4
891 213 6.204810797945596E-5
891 890 6.10454760337788E-4
891 891 6.87512805570433E-2
892 138 6.204543524481945E-5
892 892 6.87306658896709E-2
892 893 5.898174073655505E-4
893 138 6.265067777178315E-5
893 159 5.29100529100529E-2
893 892 5.898174073655505E-4
893 893 5.36371176610927E-2
894 68 5.29100529100529E-2
894 144 6.2577262505283E-5
894 894 5.36575118633897E-2
894 895 6.103524596443391E-4
895 144 6.211996779060294E-5
895 894 6.103524596443391E-4
895 895 6.87513174330069E-2
896 91 6.21183708983296E-5
896 896 6.87527883733272E-2
896 897 6.118259482208705E-4
897 68 5.29100529100529E-2
897 91 6.25787347335378E-5
897 896 6.118259482208705E-4
897 897 5.36589926475047E-2
898 120 3.632894218801875E-5
898 216 1.58730158730159E-1
898 898 1.58863964735937E-1
898 899 4.825979857726287E-10
899 120 3.5797681825859454E-5
899 196 2.85714285714286E-1
899 898 4.825979857726287E-10
899 899 2.8577242061513E-1
900 119 3.630193381229655E-5
900 900 2.85804661717769E-1
900 901 1.08916350523737E-9
901 119 3.62814908868372E-5
901 216 1.0989010989011E-1
901 900 1.08916350523737E-9
901 901 1.10054311304057E-1
902 217 1.58730158730159E-1
902 902 1.59159548506463E-1
902 903 1.0427042979111164E-4
903 218 2.85714285714286E-1
903 902 1.0427042979111164E-4
903 903 2.8577706186406E-1
904 904 2.85804661590324E-1
904 905 6.775548013099757E-10
905 217 1.0989010989011E-1
905 904 6.775548013099757E-10
905 905 1.10003096257688E-1
906 201 1.24336706334824E-4
906 219 1.58730158730159E-1
906 906 1.60193952160537E-1
906 907 1.2229527119793052E-3
907 201 1.24299744427767E-4
907 220 2.85714285714286E-1
907 906 1.2229527119793052E-3
907 907 2.87126901414673E-1
908 127 1.244168875216645E-4
908 908 2.87151230466758E-1
908 909 1.24196508006474E-3
909 127 1.24219744575829E-4
909 219 1.0989010989011E-1
909 908 1.24196508006474E-3
909 909 1.11399205670661E-1
910 123 1.229621413278445E-4
910 910 1.20484844048807E-1
910 911 1.18474342846377E-3
911 123 1.2566643059905899E-4
911 221 1.0989010989011E-1
911 910 1.18474342846377E-3
911 911 1.11350242644827E-1
912 158 1.249067115882965E-4
912 222 1.0989010989011E-1
912 912 1.1138791953096E-1
912 913 1.224056287974935E-3
913 158 1.237263113090205E-4
913 912 1.224056287974935E-3
913 913 2.87126910270913E-1
914 127 1.2507834196642201E-4
914 221 2.85714285714286E-1
914 914 2.87156385058136E-1
914 915 1.245751825622605E-3
915 127 1.2354888626364598E-4
915 222 1.19047619047619E-1
915 914 1.245751825622605E-3
915 915 1.20547157129879E-1
916 149 1.2442476914056898E-4
916 224 1.58730158730159E-1
916 916 1.60213286318575E-1
916 917 1.24220152554587E-3
917 149 1.2421188056869998E-4
917 212 2.85714285714286E-1
917 916 1.24220152554587E-3
917 917 2.87145985271657E-1
918 209 1.2450897420118E-4
918 918 2.87132535344987E-1
918 919 1.223186319728255E-3
919 209 1.241278714742115E-4
919 224 1.0989010989011E-1
919 918 1.223186319728255E-3
919 919 1.11380296185782E-1
920 211 1.2435397415607748E-4
920 225 1.58730158730159E-1
920 920 1.60193582120383E-1
920 921 1.22256934902414E-3
921 155 2.85714285714286E-1
921 211 1.242825163494525E-4
921 920 1.22256934902414E-3
921 921 2.87126491466763E-1
922 149 1.244316575524205E-4
922 922 2.87151909735025E-1
922 923 1.24262663254003E-3
923 149 1.2420500785423848E-4
923 225 1.0989010989011E-1
923 922 1.24262663254003E-3
923 923 1.11399841866171E-1
924 226 1.2987012987013E-1
924 227 1.24850523773629E-4
924 924 1.31347022401669E-1
924 925 1.221598690672445E-3
925 227 1.23787093647206E-4
925 228 1.42857142857143E-1
925 924 1.221598690672445E-3
925 925 1.44305487673179E-1
926 159 3.630468331900375E-5
926 926 1.42985567388453E-1
926 927 1.7637446766769749E-9
927 159 3.63032638438972E-5
927 226 1.0989010989011E-1
927 926 1.7637446766769749E-9
927 927 1.10057833048087E-1
928 153 1.23807117809557E-4
928 226 1.0989010989011E-1
928 928 1.11379028270058E-1
928 929 1.222452725837265E-3
929 153 1.24830456413655E-4
929 928 1.222452725837265E-3
929 929 1.44313073896047E-1
930 155 3.636368828684745E-5
930 230 1.58730158730159E-1
930 930 1.58866555935107E-1
930 931 9.97253081762871E-10
931 155 3.5801391029388846E-5
931 227 2.85714285714286E-1
931 930 9.97253081762871E-10
931 931 2.857724208735E-1
932 153 1.243039100415145E-4
932 932 2.87127083664353E-1
932 933 1.223114177712615E-3
933 153 1.24332416008678E-4
933 230 1.0989010989011E-1
933 932 1.223114177712615E-3
933 933 1.11385705678912E-1
934 231 3.6358050620319697E-5
934 934 1.19203314241891E-1
934 935 9.604613790880933E-10
935 231 3.580029624373345E-5
935 232 1.0989010989011E-1
935 934 9.604613790880933E-10
935 935 1.09978295425772E-1
936 158 1.2433997851221E-4
936 233 1.0989010989011E-1
936 936 1.11385622569835E-1
936 937 1.2230144378102851E-3
937 158 1.2429630399137702E-4
937 936 1.2230144378102851E-3
937 937 2.87126969332762E-1
938 205 3.579973581837435E-5
938 232 2.85714285714286E-1
938 938 2.8577242289813E-1
938 939 9.472813524592227E-10
939 205 3.63604921267259E-5
939 233 1.19047619047619E-1
939 938 9.472813524592227E-10
939 939 1.1920332402505E-1
940 6 1.2469819757088897E-4
940 235 1.2987012987013E-1
940 940 1.31372047070182E-1
940 941 1.24605986723958E-3
941 6 1.2393337710754648E-4
941 236 1.42857142857143E-1
941 940 1.24605986723958E-3
941 941 1.44330308018993E-1
942 83 1.2361134651976902E-4
942 942 1.44307709982306E-1
942 943 1.22417046066409E-3
943 83 1.25020996953735E-4
943 235 1.02040816326531E-1
943 942 1.22417046066409E-3
943 943 1.03539249335426E-1
944 1 1.25028496555071E-4
944 235 1.02040816326531E-1
944 944 1.03492871649499E-1
944 945 1.177827738467705E-3
945 1 1.236037396710895E-4
945 944 1.177827738467705E-3
945 945 1.44261414737267E-1
946 236 1.90871737613489E-5
946 946 3.97923758084023E-2
946 947 4.777424504858357E-10
947 236 1.8794850166647148E-5
947 238 5.49450549450549E-2
947 946 4.777424504858357E-10
947 947 5.4991274636045E-2
948 239 1.2987012987013E-1
948 240 1.244181760035525E-4
948 948 1.31348043945139E-1
948 949 1.22290813657155E-3
949 240 1.242184619059745E-4
949 241 1.42857142857143E-1
949 948 1.22290813657155E-3
949 949 1.44307622606283E-1
950 242 3.630472270949185E-5
950 950 1.42985567403825E-1
950 951 1.79367987039992E-9
951 239 1.02040816326531E-1
951 242 3.6304458816250546E-5
951 950 1.79367987039992E-9
951 951 1.0220900658619E-1
952 141 1.24229268732577E-4
952 239 1.02040816326531E-1
952 952 1.03532731853537E-1
952 953 1.224495104952785E-3
953 141 1.244073441902125E-4
953 952 1.224495104952785E-3
953 953 1.44314634159139E-1
954 244 5.29100529100529E-2
954 245 1.79001519498072E-5
954 954 5.2954075783291E-2
954 955 4.60964713838369E-10
955 245 1.817898941415625E-5
955 954 4.60964713838369E-10
955 955 6.80913550524898E-2
956 246 1.817651653241185E-5
956 956 6.8091355014458E-2
956 957 4.3556738751048604E-10
957 244 5.29100529100529E-2
957 246 1.789923419205125E-5
957 956 4.3556738751048604E-10
957 957 5.29540757839679E-2
958 244 6.544228052892905E-5
958 958 4.04857519731594E-2
958 959 6.40867773103435E-4
959 244 6.545484259665304E-5
959 248 5.49450549450549E-2
959 958 6.40867773103435E-4
959 959 5.5729453588249E-2
960 248 1.908808597739195E-5
960 960 3.97923757912654E-2
960 961 4.874515695062353E-10
961 141 5.49450549450549E-2
961 248 1.8795122936955448E-5
961 960 4.874515695062353E-10
961 961 5.49912669565557E-2
962 94 1.821263692165805E-5
962 242 5.29100529100529E-2
962 962 5.29943081888971E-2
962 963 9.14044170656528E-10
963 94 1.81532118201663E-5
963 962 9.14044170656528E-10
963 963 6.80913550276065E-2
964 91 6.20566424439656E-5
964 964 6.87527832907144E-2
964 965 6.11940427590359E-4
965 91 6.263961363701525E-5
965 242 5.29100529100529E-2
965 964 6.11940427590359E-4
965 965 5.36593577835087E-2
966 196 6.2646254376146E-5
966 250 5.29100529100529E-2
966 966 5.36583177962756E-2
966 967 6.10889200226889E-4
967 196 6.2050014372143E-5
967 966 6.10889200226889E-4
967 967 6.87517181541851E-2
968 9 6.204745957757005E-5
968 968 6.87323604765628E-2
968 969 5.915102769771981E-4
969 9 6.264868349881519E-5
969 250 5.29100529100529E-2
969 968 5.915102769771981E-4
969 969 5.36389231237464E-2
970 252 5.29100529100529E-2
970 970 5.29762923371317E-2
970 971 1.9828066879829987E-4
971 970 1.9828066879829987E-4
971 971 6.85335552902237E-2
972 972 6.80913550470685E-2
972 973 4.579279224025292E-10
973 252 5.29100529100529E-2
973 972 4.579279224025292E-10
973 973 5.29542384769534E-2
974 105 6.545518454255161E-5
974 974 4.04887900939108E-2
974 975 6.412042545553365E-4
975 105 6.544203707670935E-5
975 254 5.49450549450549E-2
975 974 6.412042545553365E-4
975 975 5.57270832516284E-2
976 255 5.29100529100529E-2
976 256 6.28192405039099E-5
976 976 5.36623163668761E-2
976 977 6.144980070546754E-4
977 256 6.187460676964596E-5
977 976 6.144980070546754E-4
977 977 6.87549841529687E-2
978 257 6.18717155016526E-5
978 978 6.87318179357944E-2
978 979 5.913067434549564E-4
979 255 5.29100529100529E-2
979 257 6.28220365696527E-5
979 978 5.913067434549564E-4
979 979 5.36391049702161E-2
980 259 5.29100529100529E-2
980 260 1.82332915689333E-5
980 980 5.29943632574194E-2
980 981 9.031808112899095E-10
981 260 1.8152116988301897E-5
981 980 9.031808112899095E-10
981 981 6.80913550036989E-2
982 257 6.194851169129406E-5
982 982 6.87318250983456E-2
982 983 5.911656057990285E-4
983 257 6.27462843128505E-5
983 259 5.29100529100529E-2
983 982 5.911656057990285E-4
983 983 5.36387952067387E-2
984 262 6.52861709203904E-5
984 984 4.0495819201278E-2
984 985 6.51249438524125E-4
985 260 5.49450549450549E-2
985 262 6.5608903785289E-5
985 984 6.51249438524125E-4
985 985 5.57401913962753E-2
986 257 5.29100529100529E-2
986 986 5.29543519299616E-2
986 987 4.5548643354730053E-10
987 986 4.5548643354730053E-10
987 987 6.80913550421913E-2
988 988 6.85326844307724E-2
988 989 1.9787245841361886E-4
989 257 5.29100529100529E-2
989 988 1.9787245841361886E-4
989 989 5.2976468729267E-2
990 255 1.908532894952815E-5
990 990 3.97923757535971E-2
990 991 4.5897156278991843E-10
991 255 1.879419022478125E-5
991 264 5.49450549450549E-2
991 990 4.5897156278991843E-10
991 991 5.49912770815554E-2
992 265 5.29100529100529E-2
992 992 5.29543579241452E-2
992 993 4.5535856308205207E-10
993 992 4.5535856308205207E-10
993 993 6.80913550419359E-2
994 994 6.8532638438158E-2
994 995 1.9785093246825486E-4
995 265 5.29100529100529E-2
995 994 1.9785093246825486E-4
995 995 5.29764780624217E-2
996 267 6.543426482382854E-5
996 996 4.04856627045677E-2
996 997 6.40793934290265E-4
997 267 6.546275295857306E-5
997 268 5.49450549450549E-2
997 996 6.40793934290265E-4
997 997 5.57293973312284E-2
998 220 1.790029478301035E-5
998 269 5.29100529100529E-2
998 998 5.29540763972767E-2
998 999 4.649017012982461E-10
999 220 1.817936083595945E-5
999 998 4.649017012982461E-10
999 999 6.80913550603434E-2
1000 268 1.817896277700955E-5
1000 1000 6.80913550523454E-2
1000 1001 4.606818116557727E-10
1001 268 1.7900147536365247E-5
1001 269 5.29100529100529E-2
1001 1000 4.606818116557727E-10
1001 1001 5.29540763972352E-2
1002 271 5.29100529100529E-2
1002 272 6.273059597807686E-5
1002 1002 5.36581683952882E-2
1002 1003 6.10552352043547E-4
1003 272 6.1964499584079E-5
1003 1002 6.10552352043547E-4
1003 1003 6.87512164607606E-2
1004 198 6.19620937045124E-5
1004 1004 6.87474425003103E-2
1004 1005 6.0677510483302E-4
1005 198 6.27328289898031E-5
1005 271 5.29100529100529E-2
1005 1004 6.0677510483302E-4
1005 1005 5.36543947767137E-2
1006 149 6.53233501853342E-5
1006 1006 4.04959957567853E-2
1006 1007 6.51354352648062E-4
1007 149 6.55722146108214E-5
1007 274 5.49450549450549E-2
1007 1006 6.51354352648062E-4
1007 1007 5.57402145036792E-2
1008 138 6.447453099367925E-5
1008 1008 4.04637585497073E-2
1008 1009 6.206971287775105E-4
1009 138 6.640985044136865E-5
1009 275 5.49450549450549E-2
1009 1008 6.206971287775105E-4
1009 1009 5.57113884051243E-2
1010 274 1.822387815062305E-5
1010 276 5.29100529100529E-2
1010 1010 5.29943388141575E-2
1010 1011 9.019562810946001E-10
1011 274 1.8152316515899148E-5
1011 1010 9.019562810946001E-10
1011 1011 6.80913550089669E-2
1012 138 6.1995925192428E-5
1012 1012 6.87306616338276E-2
1012 1013 5.899089051474275E-4
1013 138 6.269951211373639E-5
1013 276 5.29100529100529E-2
1013 1012 5.899089051474275E-4
1013 1013 5.3637433012807E-2
1014 272 6.23448975921858E-5
1014 278 5.29100529100529E-2
1014 1014 5.36540373149582E-2
1014 1015 6.09830724695217E-4
1015 272 6.235552074482425E-5
1015 1014 6.09830724695217E-4
1015 1015 6.87538006364937E-2
1016 209 6.235552850763605E-5
1016 1016 6.87542719519999E-2
1016 1017 6.103014929443605E-4
1017 209 6.234489013464665E-5
1017 278 5.29100529100529E-2
1017 1016 6.103014929443605E-4
1017 1017 5.3654507511249E-2
1018 65 6.50152987241334E-5
1018 1018 4.04900257521199E-2
1018 1019 6.45970177738006E-4
1019 65 6.58762034470888E-5
1019 280 5.49450549450549E-2
1019 1018 6.45970177738006E-4
1019 1019 5.57355025361204E-2
1020 280 1.8221482751286253E-5
1020 281 5.29100529100529E-2
1020 1020 5.29943362976924E-2
1020 1021 8.683712126226825E-10
1021 280 1.815071364756395E-5
1021 1020 8.683712126226825E-10
1021 1021 6.80913549741004E-2
1022 54 6.200146549953419E-5
1022 1022 6.87493206402343E-2
1022 1023 6.085797203345274E-4
1023 54 6.26940082802611E-5
1023 281 5.29100529100529E-2
1023 1022 6.085797203345274E-4
1023 1023 5.365611483214E-2
1024 283 5.29100529100529E-2
1024 1024 5.29761242411685E-2
1024 1025 1.9868259527824455E-4
1025 1024 1.9868259527824455E-4
1025 1025 6.85344108279476E-2
1026 1026 6.80913550518357E-2
1026 1027 4.6031440890420353E-10
1027 283 5.29100529100529E-2
1027 1026 4.6031440890420353E-10
1027 1027 5.29541293797674E-2
1028 242 3.636029172297E-5
1028 285 1.58730158730159E-1
1028 1028 1.58866557168067E-1
1028 1029 9.521963809997523E-10
1029 240 2.85714285714286E-1
1029 242 3.579990238693555E-5
1029 1028 9.521963809997523E-10
1029 1029 2.85772421933509E-1
1030 141 1.2430023628702102E-4
1030 1030 2.87128599136451E-1
1030 1031 1.22463856751524E-3
1031 141 1.243360688128735E-4
1031 285 1.02040816326531E-1
1031 1030 1.22463856751524E-3
1031 1031 1.03538199935169E-1
1032 246 3.63342215902993E-5
1032 286 1.58730158730159E-1
1032 1032 1.58863892940334E-1
1032 1033 5.081730116124028E-10
1033 246 3.579991885193775E-5
1033 287 2.85714285714286E-1
1033 1032 5.081730116124028E-10
1033 1033 2.85772419235105E-1
1034 250 3.63058889185957E-5
1034 1034 2.85804661756254E-1
1034 1035 1.116031489136653E-9
1035 250 3.628476797448875E-5
1035 286 1.02040816326531E-1
1035 1034 1.116031489136653E-9
1035 1035 1.0220514424407E-1
1036 245 3.63387566771043E-5
1036 288 1.58730158730159E-1
1036 1036 1.58863855520554E-1
1036 1037 5.331917005769482E-10
1037 245 3.58018149532088E-5
1037 289 2.85714285714286E-1
1037 1036 5.331917005769482E-10
1037 1037 2.85772420551442E-1
1038 250 3.63059055627496E-5
1038 1038 2.85804661746879E-1
1038 1039 1.1034546593433636E-9
1039 250 3.628448781743375E-5
1039 288 1.02040816326531E-1
1039 1038 1.1034546593433636E-9
1039 1039 1.0220508921669E-1
1040 290 1.58730158730159E-1
1040 1040 1.59159642454099E-1
1040 1041 1.043172459661163E-4
1041 256 2.85714285714286E-1
1041 1040 1.043172459661163E-4
1041 1041 2.85777054584325E-1
1042 1042 2.85804661590301E-1
1042 1043 6.775437121198837E-10
1043 290 1.02040816326531E-1
1043 1042 6.775437121198837E-10
1043 1043 1.02153769804482E-1
1044 291 1.58730158730159E-1
1044 1044 1.58869025684734E-1
1044 1045 2.760763595889711E-9
1045 262 2.85714285714286E-1
1045 1044 2.760763595889711E-9
1045 1045 2.85772315479373E-1
1046 1046 2.86657390713523E-1
1046 1047 7.662872082330209E-4
1047 291 1.02040816326531E-1
1047 1046 7.662872082330209E-4
1047 1047 1.03094747400311E-1
1048 264 1.2445404731931098E-4
1048 292 1.58730158730159E-1
1048 1048 1.60193615758632E-1
1048 1049 1.22253177736713E-3
1049 264 1.241826726673205E-4
1049 293 2.85714285714286E-1
1049 1048 1.22253177736713E-3
1049 1049 2.87126292310138E-1
1050 262 1.245371793331195E-4
1050 1050 2.87151567038162E-1
1050 1051 1.242163378537185E-3
1051 262 1.24099724226766E-4
1051 292 1.02040816326531E-1
1051 1050 1.242163378537185E-3
1051 1051 1.03550163014412E-1
1052 294 1.58730158730159E-1
1052 1052 1.5886902568561E-1
1052 1053 2.761202275377838E-9
1053 295 2.85714285714286E-1
1053 1052 2.761202275377838E-9
1053 1053 2.85772312608577E-1
1054 1054 2.86657390713523E-1
1054 1055 7.662872082317575E-4
1055 294 1.02040816326531E-1
1055 1054 7.662872082317575E-4
1055 1055 1.03094747400308E-1
1056 202 3.6327839316544196E-5
1056 296 1.58730158730159E-1
1056 1056 1.58863931142433E-1
1056 1057 4.740965172201687E-10
1057 202 3.5797418319230095E-5
1057 267 2.85714285714286E-1
1057 1056 4.740965172201687E-10
1057 1057 2.85772422983139E-1
1058 274 3.6307838363377E-5
1058 1058 2.85804661798517E-1
1058 1059 1.154829610650852E-9
1059 274 3.6286960899760556E-5
1059 296 1.02040816326531E-1
1059 1058 1.154829610650852E-9
1059 1059 1.02205200407205E-1
1060 202 3.632830079793095E-5
1060 297 1.58730158730159E-1
1060 1060 1.5886399150185E-1
1060 1061 4.808160129767382E-10
1061 202 3.5797466410742896E-5
1061 272 2.85714285714286E-1
1061 1060 4.808160129767382E-10
1061 1061 2.85772426156285E-1
1062 275 3.62988823915432E-5
1062 1062 2.85804661675098E-1
1062 1063 1.059706856149494E-9
1063 275 3.6278740204054647E-5
1063 297 1.02040816326531E-1
1063 1062 1.059706856149494E-9
1063 1063 1.02205289089741E-1
1064 298 1.58730158730159E-1
1064 1064 1.59159502051846E-1
1064 1065 1.0424732914089998E-4
1065 299 2.85714285714286E-1
1065 1064 1.0424732914089998E-4
1065 1065 2.85777068141608E-1
1066 1066 2.85804661590317E-1
1066 1067 6.775516167173916E-10
1067 298 1.02040816326531E-1
1067 1066 6.775516167173916E-10
1067 1067 1.02153768584249E-1
1068 283 1.2213207805579E-4
1068 1068 1.20517953020706E-1
1068 1069 1.21947166897421E-3
1069 283 1.264916412630855E-4
1069 300 1.02040816326531E-1
1069 1068 1.21947166897421E-3
1069 1069 1.03537799495349E-1
1070 301 1.02040816326531E-1
1070 302 1.2550459082653E-4
1070 1070 1.03541185884118E-1
1070 1071 1.2250381998705601E-3
1071 302 1.23125003932978E-4
1071 1070 1.2250381998705601E-3
1071 1071 2.87126736590316E-1
1072 299 1.253069059561195E-4
1072 300 2.85714285714286E-1
1072 1072 2.87145096110162E-1
1072 1073 1.234017869560195E-3
1073 299 1.233142463937535E-4
1073 301 1.19047619047619E-1
1073 1072 1.234017869560195E-3
1073 1073 1.20535263094856E-1
1074 304 1.2987012987013E-1
1074 305 1.24715644849131E-4
1074 1074 1.31350154960606E-1
1074 1075 1.22415942761959E-3
1075 305 1.239159252481035E-4
1075 306 1.42857142857143E-1
1075 1074 1.22415942761959E-3
1075 1075 1.44308396472126E-1
1076 300 3.6295818796974305E-5
1076 1076 1.42985567236616E-1
1076 1077 1.6995512854650449E-9
1077 300 3.6442736816094846E-5
1077 304 1.02040816326531E-1
1077 1076 1.6995512854650449E-9
1077 1077 1.02209417982439E-1
1078 304 1.02040816326531E-1
1078 307 1.25029739779876E-4
1078 1078 1.03546613393163E-1
1078 1079 1.231501275151245E-3
1079 307 1.23602428332301E-4
1079 1078 1.231501275151245E-3
1079 1079 1.44315020075886E-1
1080 307 3.68039713630097E-5
1080 309 1.2987012987013E-1
1080 1080 1.29956429727282E-1
1080 1081 1.8807842601393086E-8
1081 305 1.42857142857143E-1
1081 307 3.6670594861427396E-5
1081 1080 1.8807842601393086E-8
1081 1081 1.42928410555041E-1
1082 310 3.6349947974002194E-5
1082 1082 1.42985567334907E-1
1082 1083 8.673785135336911E-10
1083 309 1.02040816326531E-1
1083 310 3.58248429854851E-5
1083 1082 8.673785135336911E-10
1083 1083 1.02132040093717E-1
1084 309 1.02040816326531E-1
1084 311 3.58253901108097E-5
1084 1084 1.02132040091002E-1
1084 1085 8.810006264051043E-10
1085 311 3.6351300197526496E-5
1085 1084 8.810006264051043E-10
1085 1085 1.42985567338771E-1
1086 313 1.2987012987013E-1
1086 314 4.512266248073095E-4
1086 1086 1.30788348542652E-1
1086 1087 3.6494411641715464E-4
1087 307 1.42857142857143E-1
1087 314 2.9701484607751606E-4
1087 1086 3.6494411641715464E-4
1087 1087 1.42976247930583E-1
1088 1088 1.42985566854046E-1
1088 1089 6.50565353825792E-10
1089 313 1.02040816326531E-1
1089 1088 6.50565353825792E-10
1089 1089 1.02158284590553E-1
1090 313 1.02040816326531E-1
1090 1090 1.02485201546206E-1
1090 1091 4.88045591995309E-4
1091 1090 4.88045591995309E-4
1091 1091 1.43819050881028E-1
1092 316 1.58730158730159E-1
1092 1092 1.58869025571459E-1
1092 1093 2.7040610701393682E-9
1093 314 2.85714285714286E-1
1093 1092 2.7040610701393682E-9
1093 1093 2.85772699285664E-1
1094 1094 2.86657390713499E-1
1094 1095 7.662872084535516E-4
1095 316 1.02040816326531E-1
1095 1094 7.662872084535516E-4
1095 1095 1.03094747400818E-1
1096 317 1.2987012987013E-1
1096 318 1.24308857213675E-4
1096 1096 1.31343259707814E-1
1096 1097 1.2233449989479252E-3
1097 318 1.2432747907557248E-4
1097 319 1.42857142857143E-1
1097 1096 1.2233449989479252E-3
1097 1097 1.44313400302429E-1
1098 68 3.6305363007405994E-5
1098 1098 1.42985567403643E-1
1098 1099 1.813858144353675E-9
1099 68 3.630582832467205E-5
1099 317 1.02040816326531E-1
1099 1098 1.813858144353675E-9
1099 1099 1.02209053165672E-1
1100 82 1.24320339454539E-4
1100 317 1.02040816326531E-1
1100 1100 1.03537518617417E-1
1100 1101 1.223992895043635E-3
1101 82 1.24316056167844E-4
1101 1100 1.223992895043635E-3
1101 1101 1.4430889015491E-1
1102 147 6.53133641585025E-5
1102 1102 4.04896107396236E-2
1102 1103 6.449798164405165E-4
1103 147 6.558204384540936E-5
1103 160 5.49450549450549E-2
1103 1102 6.449798164405165E-4
1103 1103 5.57338550337389E-2
1104 205 3.63041309381119E-5
1104 1104 1.19203314166258E-1
1104 1105 1.835225411508065E-9
1105 205 3.63871106199162E-5
1105 231 1.02040816326531E-1
1105 1104 1.835225411508065E-9
1105 1105 1.02209259340641E-1
1106 156 1.24616569001145E-4
1106 321 1.02040816326531E-1
1106 1106 1.03537873240828E-1
1106 1107 1.223691271217665E-3
1107 156 1.2401812194091553E-4
1107 1106 1.223691271217665E-3
1107 1107 2.87127108000067E-1
1108 147 1.24420303492071E-4
1108 231 2.85714285714286E-1
1108 1108 2.87141270657345E-1
1108 1109 1.23192007129824E-3
1109 147 1.24213055691495E-4
1109 321 1.19047619047619E-1
1109 1108 1.23192007129824E-3
1109 1109 1.20534486984603E-1
1110 323 5.10204081632653E-2
1110 324 6.272272264720115E-5
1110 1110 5.17709693354735E-2
1110 1111 6.106406984320175E-4
1111 324 6.19724822442763E-5
1111 1110 6.106406984320175E-4
1111 1111 6.87513201163012E-2
1112 325 6.19697174065357E-5
1112 1112 6.87478184213437E-2
1112 1113 6.071368134194124E-4
1113 323 5.10204081632653E-2
1113 325 6.272531208667374E-5
1113 1112 6.071368134194124E-4
1113 1113 5.17674704215579E-2
1114 323 1.908590650586195E-5
1114 1114 3.97923757908789E-2
1114 1115 4.6471350043421184E-10
1115 323 1.8794398614280198E-5
1115 327 5.29100529100529E-2
1115 1114 4.6471350043421184E-10
1115 1115 5.29568976394881E-2
1116 327 1.2429991091423702E-4
1116 1116 1.20525892977769E-1
1116 1117 1.22327928981345E-3
1117 245 1.02040816326531E-1
1117 327 1.2433639167491202E-4
1117 1116 1.22327928981345E-3
1117 1117 1.03541546673638E-1
1118 166 1.24328430096467E-4
1118 328 1.02040816326531E-1
1118 1118 1.03541749883223E-1
1118 1119 1.22350011998228E-3
1119 166 1.24307919171709E-4
1119 1118 1.22350011998228E-3
1119 1119 2.87127476896234E-1
1120 238 1.2432616948459998E-4
1120 245 2.85714285714286E-1
1120 1120 2.87132736598451E-1
1120 1121 1.2235902887726999E-3
1121 238 1.243101084029435E-4
1121 328 1.19047619047619E-1
1121 1120 1.2235902887726999E-3
1121 1121 1.20526227742719E-1
1122 330 1.908805182258455E-5
1122 1122 3.97923757908532E-2
1122 1123 4.870571511764244E-10
1123 330 1.87952039491906E-5
1123 331 5.29100529100529E-2
1123 1122 4.870571511764244E-10
1123 1123 5.29568984636431E-2
1124 332 6.543368580713934E-5
1124 1124 4.04856650193518E-2
1124 1125 6.407973715610815E-4
1125 332 6.54633243111269E-5
1125 333 5.29100529100529E-2
1125 1124 6.407973715610815E-4
1125 1125 5.36968784129813E-2
1126 293 1.790054551538155E-5
1126 334 5.10204081632653E-2
1126 1126 5.10650248402868E-2
1126 1127 4.719011462757399E-10
1127 293 1.8180013100700848E-5
1127 1126 4.719011462757399E-10
1127 1127 6.80913550748907E-2
1128 333 1.8178957700298298E-5
1128 1128 6.80913550522247E-2
1128 1129 4.606250642619137E-10
1129 333 1.790015519851215E-5
1129 334 5.10204081632653E-2
1129 1128 4.606250642619137E-10
1129 1129 5.10650248400548E-2
1130 238 1.243094709342235E-4
1130 336 1.58730158730159E-1
1130 1130 1.60189456282697E-1
1130 1131 1.22358495700169E-3
1131 238 1.24326817143395E-4
1131 330 2.85714285714286E-1
1131 1130 1.22358495700169E-3
1131 1131 2.87132732414637E-1
1132 166 1.243096123478585E-4
1132 1132 2.87127477075658E-1
1132 1133 1.2234970207052852E-3
1133 166 1.243267466100705E-4
1133 336 1.02040816326531E-1
1133 1132 1.2234970207052852E-3
1133 1133 1.03541743007382E-1
1134 337 1.58730158730159E-1
1134 338 3.63272814238469E-5
1134 1134 1.58863924687108E-1
1134 1135 4.705725405677105E-10
1135 332 2.85714285714286E-1
1135 338 3.57972241228245E-5
1135 1134 4.705725405677105E-10
1135 1135 2.85772422958176E-1
1136 339 3.630917300347985E-5
1136 1136 2.85804661821238E-1
1136 1137 1.1705858442513984E-9
1137 337 1.02040816326531E-1
1137 339 3.6288202161409644E-5
1137 1136 1.1705858442513984E-9
1137 1137 1.02209718090426E-1
1138 257 6.345057153171906E-5
1138 338 5.10204081632653E-2
1138 1138 5.17544139349357E-2
1138 1139 5.924721259050135E-4
1139 257 6.123457443325425E-5
1139 1138 5.924721259050135E-4
1139 1139 6.87317605140487E-2
1140 252 6.123443862406981E-5
1140 1140 6.87398073139041E-2
1140 1141 6.005271291609155E-4
1141 252 6.34505854826894E-5
1141 338 5.10204081632653E-2
1141 1140 6.005271291609155E-4
1141 1141 5.17624813797689E-2
1142 265 6.4495382935991E-5
1142 1142 4.04645436996509E-2
1142 1143 6.21443791252679E-4
1143 265 6.638926870623095E-5
1143 341 5.29100529100529E-2
1143 1142 6.21443791252679E-4
1143 1143 5.3679589399087E-2
1144 252 6.466805684327104E-5
1144 1144 4.04734655990068E-2
1144 1145 6.300400501629515E-4
1145 252 6.621863601534504E-5
1145 342 5.29100529100529E-2
1145 1144 6.300400501629515E-4
1145 1145 5.36878175373401E-2
1146 338 3.6327799045814696E-5
1146 343 1.58730158730159E-1
1146 1146 1.58863991595754E-1
1146 1147 4.780143173530378E-10
1147 324 2.85714285714286E-1
1147 338 3.5797248278306005E-5
1147 1146 4.780143173530378E-10
1147 1147 2.85772425001685E-1
1148 341 3.62991010217301E-5
1148 1148 2.85804661678654E-1
1148 1149 1.062413948928236E-9
1149 341 3.627895309180835E-5
1149 343 1.02040816326531E-1
1149 1148 1.062413948928236E-9
1149 1149 1.02209820945224E-1
1150 256 3.679163717676E-5
1150 344 1.58730158730159E-1
1150 1150 1.58812779530029E-1
1150 1151 1.2110168770187304E-8
1151 256 3.6676507396233996E-5
1151 345 2.85714285714286E-1
1151 1150 1.2110168770187304E-8
1151 1151 2.85772423831331E-1
1152 342 3.63468026010061E-5
1152 1152 2.85804661935114E-1
1152 1153 8.372530887851551E-10
1153 342 3.582182731547685E-5
1153 344 1.02040816326531E-1
1153 1152 8.372530887851551E-10
1153 1153 1.02133130749974E-1
1154 256 6.527563086024045E-5
1154 1154 4.04893243181576E-2
1154 1155 6.44765926234998E-4
1155 256 6.561928032162935E-5
1155 346 5.29100529100529E-2
1155 1154 6.44765926234998E-4
1155 1155 5.37012041817947E-2
1156 347 5.10204081632653E-2
1156 348 6.26371615685956E-5
1156 1156 5.17706098742399E-2
1156 1157 6.104740784595275E-4
1157 348 6.20592339294732E-5
1157 1156 6.104740784595275E-4
1157 1157 6.87513213697751E-2
1158 265 6.20563122303676E-5
1158 1158 6.87314142167721E-2
1158 1159 5.9054568454573E-4
1159 265 6.26399515827789E-5
1159 347 5.10204081632653E-2
1159 1158 5.9054568454573E-4
1159 1159 5.17506661055912E-2
1160 350 1.9088781607572648E-5
1160 1160 3.97923758017237E-2
1160 1161 4.948648560820708E-10
1161 348 5.29100529100529E-2
1161 350 1.87955032599646E-5
1161 1160 4.948648560820708E-10
1161 1161 5.29569019099027E-2
1162 265 6.309331850294324E-5
1162 351 5.10204081632653E-2
1162 1162 5.17525304054837E-2
1162 1163 5.913903156345634E-4
1163 265 6.159670384417816E-5
1163 1162 5.913903156345634E-4
1163 1163 6.87313726857829E-2
1164 331 6.160044397900255E-5
1164 1164 6.87515120222431E-2
1164 1165 6.115499985452574E-4
1165 331 6.308968068553781E-5
1165 351 5.10204081632653E-2
1165 1164 6.115499985452574E-4
1165 1165 5.17727045770689E-2
1166 295 6.54505096953614E-5
1166 1166 4.04988078026276E-2
1166 1167 6.5121607235419E-4
1167 295 6.544670110151634E-5
1167 339 5.29100529100529E-2
1167 1166 6.5121607235419E-4
1167 1167 5.37045666563579E-2
1168 339 1.82347155268178E-5
1168 353 5.10204081632653E-2
1168 1168 5.11070957374339E-2
1168 1169 9.217194442815659E-10
1169 339 1.815296968820425E-5
1169 1168 9.217194442815659E-10
1169 1169 6.80913550228723E-2
1170 265 6.194491370177085E-5
1170 1170 6.87314042913755E-2
1170 1171 5.907511678382385E-4
1171 265 6.27498313955864E-5
1171 353 5.10204081632653E-2
1171 1170 5.907511678382385E-4
1171 1171 5.17511190361595E-2
1172 41 1.9088901344561303E-5
1172 1172 3.979237584189E-2
1172 1173 4.960902239869446E-10
1173 41 1.8795502478565252E-5
1173 355 5.29100529100529E-2
1173 1172 4.960902239869446E-10
1173 1173 5.29568970056475E-2
1174 257 1.2296604679423E-4
1174 1174 1.20486252897303E-1
1174 1175 1.18614678904689E-3
1175 257 1.2566254758841148E-4
1175 356 1.02040816326531E-1
1175 1174 1.18614678904689E-3
1175 1175 1.03507341826787E-1
1176 357 1.02040816326531E-1
1176 358 1.2490344409797502E-4
1176 1176 1.0354371146542E-1
1176 1177 1.224173408776625E-3
1177 358 1.23729597418517E-4
1177 1176 1.224173408776625E-3
1177 1177 2.87127033576779E-1
1178 262 1.2507712624005202E-4
1178 356 2.85714285714286E-1
1178 1178 2.87156716735792E-1
1178 1179 1.246085534189685E-3
1179 262 1.235501304417975E-4
1179 357 1.19047619047619E-1
1179 1178 1.246085534189685E-3
1179 1179 1.20547491591158E-1
1180 342 3.633938611023065E-5
1180 360 1.2987012987013E-1
1180 1180 1.30018671874015E-1
1180 1181 6.274607009396403E-10
1181 342 3.579845197097835E-5
1181 358 1.42857142857143E-1
1181 1180 6.274607009396403E-10
1181 1181 1.42928401249996E-1
1182 347 3.63054999033259E-5
1182 1182 1.42985567294962E-1
1182 1183 1.4408254937604899E-9
1183 347 3.629287316648995E-5
1183 360 1.02040816326531E-1
1183 1182 1.4408254937604899E-9
1183 1183 1.0221131695452E-1
1184 346 3.62942114734718E-5
1184 360 1.02040816326531E-1
1184 1184 1.02211316928381E-1
1184 1185 1.4638362030878551E-9
1185 346 3.6306854208855953E-5
1185 1184 1.4638362030878551E-9
1185 1185 1.42985567299034E-1
1186 295 1.24395337588188E-4
1186 362 1.58730158730159E-1
1186 1186 1.60213562171585E-1
1186 1187 1.242497912620565E-3
1187 295 1.2424124552024701E-4
1187 350 2.85714285714286E-1
1187 1186 1.242497912620565E-3
1187 1187 2.87146328884011E-1
1188 331 1.244775162802855E-4
1188 1188 2.87132251306894E-1
1188 1189 1.22293867832626E-3
1189 331 1.24159257594538E-4
1189 362 1.02040816326531E-1
1189 1188 1.22293867832626E-3
1189 1189 1.03535763331855E-1
1190 287 1.243111478694705E-4
1190 363 1.58730158730159E-1
1190 1190 1.60189649425383E-1
1190 1191 1.2237740277883E-3
1191 287 1.2432512392795048E-4
1191 364 2.85714285714286E-1
1191 1190 1.2237740277883E-3
1191 1191 2.871329186291E-1
1192 355 1.243064143374515E-4
1192 1192 2.87127325971059E-1
1192 1193 1.22335192874886E-3
1193 355 1.243299262874345E-4
1193 363 1.02040816326531E-1
1193 1192 1.22335192874886E-3
1193 1193 1.03541604870769E-1
1194 365 1.9088788090550302E-5
1194 1194 3.97923758034713E-2
1194 1195 4.949506358120127E-10
1195 365 1.8795459348021397E-5
1195 366 5.29100529100529E-2
1195 1194 4.949506358120127E-10
1195 1195 5.29568964914346E-2
1196 367 1.90880332498475E-5
1196 1196 3.97923757911821E-2
1196 1197 4.868643573781193E-10
1197 209 5.29100529100529E-2
1197 367 1.87951787763895E-5
1197 1196 4.868643573781193E-10
1197 1197 5.29568963259028E-2
1198 198 6.4348019529474E-5
1198 1198 4.04813854410862E-2
1198 1199 6.385841980754755E-4
1199 198 6.6534614016958E-5
1199 368 5.29100529100529E-2
1199 1198 6.385841980754755E-4
1199 1199 5.36970789800537E-2
1200 269 6.5436944061591E-5
1200 1200 4.04857048355765E-2
1200 1201 6.40830880405938E-4
1201 269 6.546010797055211E-5
1201 369 5.29100529100529E-2
1201 1200 6.40830880405938E-4
1201 1201 5.3696904722838E-2
1202 299 6.511258873688345E-5
1202 1202 4.04880646642105E-2
1202 1203 6.43819186017044E-4
1203 299 6.578018290506231E-5
1203 311 5.29100529100529E-2
1203 1202 6.43819186017044E-4
1203 1203 5.37006191579257E-2
1204 311 1.8230965715622948E-5
1204 370 5.10204081632653E-2
1204 1204 5.11070897697756E-2
1204 1205 8.834717203206845E-10
1205 311 1.8151210998751148E-5
1205 1204 8.834717203206845E-10
1205 1205 6.80913549924457E-2
1206 283 6.195635961748664E-5
1206 1206 6.8747707441725E-2
1206 1207 6.070515009074745E-4
1207 283 6.273848636692115E-5
1207 370 5.10204081632653E-2
1207 1206 6.070515009074745E-4
1207 1207 5.17674146696927E-2
1208 310 5.10204081632653E-2
1208 372 6.278873895336441E-5
1208 1208 5.17714543823368E-2
1208 1209 6.109767612096631E-4
1209 372 6.19055475112146E-5
1209 1208 6.109767612096631E-4
1209 1209 6.8751526595671E-2
1210 283 6.190281627677826E-5
1210 1210 6.87477027278693E-2
1210 1211 6.071502264980114E-4
1211 283 6.2791297522847E-5
1211 310 5.10204081632653E-2
1211 1210 6.071502264980114E-4
1211 1211 5.17676323184497E-2
1212 374 6.447375454254035E-5
1212 1212 4.0439211626252E-2
1212 1213 5.961126688162331E-4
1213 374 6.641055340516795E-5
1213 375 5.29100529100529E-2
1213 1212 5.961126688162331E-4
1213 1213 5.36542768093186E-2
1214 376 6.546353978897455E-5
1214 1214 4.04997185599072E-2
1214 1215 6.521109539250846E-4
1215 376 6.54337005730232E-5
1215 377 5.29100529100529E-2
1215 1214 6.521109539250846E-4
1215 1215 5.3705438229597E-2
1216 374 5.10204081632653E-2
1216 1216 5.10656827947069E-2
1216 1217 4.480285012681274E-10
1217 1216 4.480285012681274E-10
1217 1217 6.80913550272915E-2
1218 1218 6.85299880959317E-2
1218 1219 1.9661555037780586E-4
1219 374 5.10204081632653E-2
1219 1218 1.9661555037780586E-4
1219 1219 5.10880071354633E-2
1220 232 6.542035168307285E-5
1220 1220 4.04856707130636E-2
1220 1221 6.408288920206845E-4
1221 232 6.547648279746885E-5
1221 379 5.29100529100529E-2
1221 1220 6.408288920206845E-4
1221 1221 5.36969396877204E-2
1222 287 1.244397980225325E-4
1222 380 1.58730158730159E-1
1222 1222 1.6019441732832E-1
1222 1223 1.2233060127541649E-3
1223 287 1.24196889323935E-4
1223 365 2.85714285714286E-1
1223 1222 1.2233060127541649E-3
1223 1223 2.87127109783337E-1
1224 355 1.244326294466535E-4
1224 1224 2.87132450852924E-1
1224 1225 1.22318944830502E-3
1225 355 1.2420404163170198E-4
1225 380 1.02040816326531E-1
1225 1224 1.22318944830502E-3
1225 1225 1.03536089589804E-1
1226 289 1.243068575868175E-4
1226 381 1.58730158730159E-1
1226 1226 1.60189422150424E-1
1226 1227 1.223554133005355E-3
1227 289 1.24329373607384E-4
1227 367 2.85714285714286E-1
1227 1226 1.223554133005355E-3
1227 1227 2.87132706701167E-1
1228 366 1.24304494598706E-4
1228 1228 2.87127394437363E-1
1228 1229 1.223424194252325E-3
1229 366 1.24331835049881E-4
1229 381 1.02040816326531E-1
1229 1228 1.223424194252325E-3
1229 1229 1.03541681499262E-1
1230 218 1.2423418366628398E-4
1230 382 1.2987012987013E-1
1230 1230 1.31353573353354E-1
1230 1231 1.233330129979105E-3
1231 218 1.243921936099155E-4
1231 383 1.42857142857143E-1
1231 1230 1.233330129979105E-3
1231 1231 1.44323787120826E-1
1232 269 1.231375809189855E-4
1232 1232 1.44307926295126E-1
1232 1233 1.225296257871975E-3
1233 269 1.2549204642469E-4
1233 382 1.02040816326531E-1
1233 1232 1.225296257871975E-3
1233 1233 1.0354615264536E-1
1234 198 1.25498329407265E-4
1234 382 1.02040816326531E-1
1234 1234 1.03537962011286E-1
1234 1235 1.217095155458425E-3
1235 198 1.231311391801535E-4
1235 1234 1.217095155458425E-3
1235 1235 1.44299729216826E-1
1236 218 3.6790990502044E-5
1236 385 1.58730158730159E-1
1236 1236 1.58812785375261E-1
1236 1237 1.1786394828170674E-8
1237 218 3.667632689558485E-5
1237 386 2.85714285714286E-1
1237 1236 1.1786394828170674E-8
1237 1237 2.85772425192737E-1
1238 368 3.63433631239145E-5
1238 1238 2.85804661870246E-1
1238 1239 8.050658857126531E-10
1239 368 3.58205278545004E-5
1239 385 1.02040816326531E-1
1239 1238 8.050658857126531E-10
1239 1239 1.02133139983394E-1
1240 386 3.67974840987017E-5
1240 387 1.2987012987013E-1
1240 1240 1.29956431311096E-1
1240 1241 1.5009376232684758E-8
1241 386 3.6670500694164704E-5
1241 388 1.42857142857143E-1
1241 1240 1.5009376232684758E-8
1241 1241 1.42928400010119E-1
1242 278 3.6354932919040696E-5
1242 1242 1.4298556739013E-1
1242 1243 9.184976374536267E-10
1243 278 3.582694356090025E-5
1243 387 1.02040816326531E-1
1243 1242 9.184976374536267E-10
1243 1243 1.02133354629978E-1
1244 369 3.5826869849244045E-5
1244 387 1.02040816326531E-1
1244 1244 1.02133354630035E-1
1244 1245 9.165631474778885E-10
1245 369 3.635474895023145E-5
1245 1244 9.165631474778885E-10
1245 1245 1.42985567386997E-1
1246 388 1.242701737530295E-4
1246 390 1.2987012987013E-1
1246 1246 1.31343526542077E-1
1246 1247 1.223658346462065E-3
1247 388 1.2436536834295751E-4
1247 391 1.42857142857143E-1
1247 1246 1.223658346462065E-3
1247 1247 1.44313807622846E-1
1248 221 3.6300476949887206E-5
1248 1248 1.42985567321062E-1
1248 1249 1.72151867359712E-9
1249 221 3.63154180545268E-5
1249 390 1.02040816326531E-1
1249 1248 1.72151867359712E-9
1249 1249 1.02213797146444E-1
1250 386 1.243900862006625E-4
1250 390 1.02040816326531E-1
1250 1250 1.03541265078795E-1
1250 1251 1.222877748532305E-3
1251 386 1.24245905242716E-4
1251 1250 1.222877748532305E-3
1251 1251 1.44307640839209E-1
1252 302 3.67871022809978E-5
1252 393 1.58730158730159E-1
1252 1252 1.58812791247752E-1
1252 1253 9.96784045162445E-9
1253 302 3.667534097159505E-5
1253 394 2.85714285714286E-1
1253 1252 9.96784045162445E-9
1253 1253 2.85772422494932E-1
1254 370 3.63508248485818E-5
1254 1254 2.8580466200179E-1
1254 1255 8.766473517317405E-10
1255 370 3.582362622103435E-5
1255 393 1.02040816326531E-1
1255 1254 8.766473517317405E-10
1255 1255 1.02133153437137E-1
1256 394 1.24302122238079E-4
1256 395 1.2987012987013E-1
1256 1256 1.31343346778853E-1
1256 1257 1.22342635639338E-3
1257 394 1.2433379803483598E-4
1257 396 1.42857142857143E-1
1257 1256 1.22342635639338E-3
1257 1257 1.44313504764937E-1
1258 372 1.242697303599085E-4
1258 1258 1.44308009040271E-1
1258 1259 1.22320028217644E-3
1259 372 1.24366397314771E-4
1259 395 1.02040816326531E-1
1259 1258 1.22320028217644E-3
1259 1259 1.03541534917521E-1
1260 370 3.631359939191855E-5
1260 395 1.02040816326531E-1
1260 1260 1.02213784447064E-1
1260 1261 1.7823262913475651E-9
1261 370 3.630359651253825E-5
1261 1260 1.7823262913475651E-9
1261 1261 1.42985567390015E-1
1262 398 1.58730158730159E-1
1262 1262 1.58868913650791E-1
1262 1263 2.6480375498092897E-9
1263 376 2.85714285714286E-1
1263 1262 2.6480375498092897E-9
1263 1263 2.85772303077477E-1
1264 1264 2.86657447708052E-1
1264 1265 7.65771776989505E-4
1265 398 1.02040816326531E-1
1265 1264 7.65771776989505E-4
1265 1265 1.03098430118129E-1
1266 325 5.10204081632653E-2
1266 1266 5.10855033133924E-2
1266 1267 1.9868595895678338E-4
1267 1266 1.9868595895678338E-4
1267 1267 6.85344179780816E-2
1268 1268 6.80913550519028E-2
1268 1269 4.603479775262811E-10
1269 325 5.10204081632653E-2
1269 1268 4.603479775262811E-10
1269 1269 5.10635081875992E-2
1270 325 6.43131889348964E-5
1270 1270 4.04817768063727E-2
1270 1271 6.390425470008466E-4
1271 325 6.656900109026784E-5
1271 400 5.29100529100529E-2
1271 1270 6.390425470008466E-4
1271 1271 5.36950569580655E-2
1272 401 1.58730158730159E-1
1272 1272 1.59158652963854E-1
1272 1273 1.03822555221448E-4
1273 402 2.85714285714286E-1
1273 1272 1.03822555221448E-4
1273 1273 2.85777041182135E-1
1274 1274 2.85804661590737E-1
1274 1275 6.777602067403371E-10
1275 401 1.02040816326531E-1
1275 1274 6.777602067403371E-10
1275 1275 1.02152167334663E-1
1276 402 3.6790241543660404E-5
1276 403 1.58730158730159E-1
1276 1276 1.58812788310307E-1
1276 1277 1.1420854517245148E-8
1277 402 3.6676148045676046E-5
1277 404 2.85714285714286E-1
1277 1276 1.1420854517245148E-8
1277 1277 2.85772425406313E-1
1278 400 3.63429815357044E-5
1278 1278 2.85804661862671E-1
1278 1279 8.015711101992893E-10
1279 400 3.5820418072227044E-5
1279 403 1.02040816326531E-1
1279 1278 8.015711101992893E-10
1279 1279 1.02129935219523E-1
1280 405 1.2987012987013E-1
1280 406 1.24287376642993E-4
1280 1280 1.31343497085932E-1
1280 1281 1.223598801171115E-3
1281 406 1.24348328021162E-4
1281 407 1.42857142857143E-1
1281 1280 1.223598801171115E-3
1281 1281 1.44313710990812E-1
1282 356 3.630049988078385E-5
1282 1282 1.42985567322035E-1
1282 1283 1.721104025201635E-9
1283 356 3.6313833505566897E-5
1283 405 1.02040816326531E-1
1283 1282 1.721104025201635E-9
1283 1283 1.02208921431733E-1
1284 404 1.24382362889231E-4
1284 405 1.02040816326531E-1
1284 1284 1.03536320717999E-1
1284 1285 1.2228223058628898E-3
1285 404 1.2425367330614E-4
1285 1284 1.2228223058628898E-3
1285 1285 1.44307600462162E-1
1286 402 1.24457762329322E-4
1286 409 1.2987012987013E-1
1286 1286 1.31356780303396E-1
1286 1287 1.23116152213047E-3
1287 246 1.42857142857143E-1
1287 402 1.2417043584112399E-4
1287 1286 1.23116152213047E-3
1287 1287 1.44316092529339E-1
1288 334 1.23262077096832E-4
1288 1288 1.44307779966837E-1
1288 1289 1.22491118370832E-3
1289 334 1.25368263731442E-4
1289 409 1.02040816326531E-1
1289 1288 1.22491118370832E-3
1289 1289 1.03540610226382E-1
1290 325 1.2537440442385902E-4
1290 409 1.02040816326531E-1
1290 1290 1.03533328823433E-1
1290 1291 1.217618807093325E-3
1291 325 1.23255777719352E-4
1291 1290 1.217618807093325E-3
1291 1291 1.44300490589404E-1
1292 334 6.54369569908864E-5
1292 1292 4.04856223624273E-2
1292 1293 6.40748283159912E-4
1293 334 6.546009519497269E-5
1293 411 5.29100529100529E-2
1293 1292 6.40748283159912E-4
1293 1293 5.36942742736817E-2
1294 324 6.236499206752394E-5
1294 412 5.10204081632653E-2
1294 1294 5.17670359860249E-2
1294 1295 6.099684362144075E-4
1295 324 6.233520601447011E-5
1295 1294 6.099684362144075E-4
1295 1295 6.87513513927055E-2
1296 331 6.233521564471349E-5
1296 1296 6.87515755834923E-2
1296 1297 6.101928851039589E-4
1297 331 6.236498300547059E-5
1297 412 5.10204081632653E-2
1297 1296 6.101928851039589E-4
1297 1297 5.17672606710372E-2
1298 414 1.2987012987013E-1
1298 415 1.243063035155005E-4
1298 1298 1.3134343841122E-1
1298 1299 1.223516168222995E-3
1299 415 1.24329763980199E-4
1299 416 1.42857142857143E-1
1299 1298 1.223516168222995E-3
1299 1299 1.44313583080662E-1
1300 347 3.630469502903515E-5
1300 1300 1.4298556739062E-1
1300 1301 1.8034649257772348E-9
1301 347 3.631157031794085E-5
1301 414 1.02040816326531E-1
1301 1300 1.8034649257772348E-9
1301 1301 1.02208905085373E-1
1302 345 1.24351400629412E-4
1302 414 1.02040816326531E-1
1302 1302 1.03536481256317E-1
1302 1303 1.223051722798235E-3
1303 345 1.2428481468001052E-4
1303 1302 1.223051722798235E-3
1303 1303 1.44307889760537E-1
1304 404 3.67974646673257E-5
1304 418 1.2987012987013E-1
1304 1304 1.29956431550646E-1
1304 1305 1.4998395139506555E-8
1305 404 3.6670492309448605E-5
1305 406 1.42857142857143E-1
1305 1304 1.4998395139506555E-8
1305 1305 1.42928399988994E-1
1306 412 3.635470645529655E-5
1306 1306 1.42985567385803E-1
1306 1307 9.161161430650222E-10
1307 412 3.5826855476220494E-5
1307 418 1.02040816326531E-1
1307 1306 9.161161430650222E-10
1307 1307 1.02130139077984E-1
1308 411 3.58268723617251E-5
1308 418 1.02040816326531E-1
1308 1308 1.02130139078032E-1
1308 1309 9.165587384832647E-10
1309 411 3.6354748598396553E-5
1309 1308 9.165587384832647E-10
1309 1309 1.42985567386984E-1
1310 420 1.58730158730159E-1
1310 421 3.636350890127415E-5
1310 1310 1.58866556207437E-1
1310 1311 9.936706192318232E-10
1311 415 2.85714285714286E-1
1311 421 3.580127809571455E-5
1311 1310 9.936706192318232E-10
1311 1311 2.85772421199485E-1
1312 345 1.243030955988875E-4
1312 1312 2.87126985602876E-1
1312 1313 1.223017576270215E-3
1313 345 1.2433322577224152E-4
1313 420 1.02040816326531E-1
1313 1312 1.223017576270215E-3
1313 1313 1.03536406432972E-1
1314 421 3.633956441550785E-5
1314 422 1.58730158730159E-1
1314 1314 1.58863884593913E-1
1314 1315 5.405226564924946E-10
1315 421 3.58020742744085E-5
1315 423 2.85714285714286E-1
1315 1314 5.405226564924946E-10
1315 1315 2.85772422655393E-1
1316 342 3.6300922237144455E-5
1316 1316 2.85804661688065E-1
1316 1317 1.0508186084213966E-9
1317 342 3.6279873718833105E-5
1317 422 1.02040816326531E-1
1317 1316 1.0508186084213966E-9
1317 1317 1.022048542751E-1
1318 424 6.54433606636603E-5
1318 1318 4.04856502041405E-2
1318 1319 6.407637938222899E-4
1319 424 6.54537767630413E-5
1319 425 5.29100529100529E-2
1319 1318 6.407637938222899E-4
1319 1319 5.3694275567166E-2
1320 259 3.63034462769152E-5
1320 1320 1.19203314152458E-1
1320 1321 1.8275255837687002E-9
1321 259 3.63984670688737E-5
1321 426 1.02040816326531E-1
1321 1320 1.8275255837687002E-9
1321 1321 1.02209131860817E-1
1322 423 1.24657613637066E-4
1322 427 1.02040816326531E-1
1322 1322 1.03537842812324E-1
1322 1323 1.223729381836555E-3
1323 423 1.2397684134374801E-4
1323 1322 1.223729381836555E-3
1323 1323 2.871270664312E-1
1324 256 1.24437421138491E-4
1324 426 2.85714285714286E-1
1324 1324 2.87140951648752E-1
1324 1325 1.23156674966343E-3
1325 256 1.24195503391501E-4
1325 427 1.19047619047619E-1
1325 1324 1.23156674966343E-3
1325 1325 1.20534118343813E-1
1326 426 3.6357721680629296E-5
1326 1326 1.19203314233754E-1
1326 1327 9.568590233614026E-10
1327 424 1.02040816326531E-1
1327 426 3.58001798905645E-5
1327 1326 9.568590233614026E-10
1327 1327 1.02126927949286E-1
1328 358 1.24340323989071E-4
1328 429 1.02040816326531E-1
1328 1328 1.03536543028565E-1
1328 1329 1.22313818264951E-3
1329 358 1.24295956499973E-4
1329 1328 1.22313818264951E-3
1329 1329 2.87127092259062E-1
1330 259 3.579948403056175E-5
1330 424 2.85714285714286E-1
1330 1330 2.85772423129308E-1
1330 1331 9.398478476740136E-10
1331 259 3.63598638564955E-5
1331 429 1.19047619047619E-1
1331 1330 9.398478476740136E-10
1331 1331 1.19203324169358E-1
1332 431 1.2987012987013E-1
1332 432 1.242975760032925E-4
1332 1332 1.31343334995639E-1
1332 1333 1.22342622650782E-3
1333 432 1.24338375720767E-4
1333 433 1.42857142857143E-1
1333 1332 1.22342622650782E-3
1333 1333 1.44313512619296E-1
1334 353 3.63034787994475E-5
1334 1334 1.4298556738032E-1
1334 1335 1.77905881410084E-9
1335 353 3.631202160328715E-5
1335 431 1.02040816326531E-1
1335 1334 1.77905881410084E-9
1335 1335 1.02208909309361E-1
1336 331 1.24359339297451E-4
1336 431 1.02040816326531E-1
1336 1336 1.03536658905094E-1
1336 1337 1.2232114488716001E-3
1337 331 1.2427683002637748E-4
1337 1336 1.2232114488716001E-3
1337 1337 1.44308033873451E-1
1338 351 1.9083733754502E-5
1338 1338 3.9792375783086E-2
1338 1339 4.4319636979692374E-10
1339 351 1.87935971994932E-5
1339 435 5.29100529100529E-2
1339 1338 4.4319636979692374E-10
1339 1339 5.29552630172569E-2
1340 436 1.90880932480698E-5
1340 1340 3.97923757916429E-2
1340 1341 4.87503101714294E-10
1341 436 1.87952023875121E-5
1341 437 5.29100529100529E-2
1341 1340 4.87503101714294E-10
1341 1341 5.29552610427436E-2
1342 364 1.908805088159865E-5
1342 1342 3.97923757896957E-2
1342 1343 4.870527208016367E-10
1343 364 1.879518681646325E-5
1343 438 5.29100529100529E-2
1343 1342 4.870527208016367E-10
1343 1343 5.29552610536337E-2
1344 435 1.2432048627057852E-4
1344 439 1.58730158730159E-1
1344 1344 1.60193910831937E-1
1344 1345 1.22292572878622E-3
1345 421 2.85714285714286E-1
1345 435 1.2431592714591002E-4
1345 1344 1.22292572878622E-3
1345 1345 2.87126899070507E-1
1346 295 1.2440657792577898E-4
1346 1346 2.87152101132961E-1
1346 1347 1.24284655598918E-3
1347 295 1.24230030705972E-4
1347 439 1.02040816326531E-1
1347 1346 1.24284655598918E-3
1347 1347 1.03550897100049E-1
1348 353 3.635985776466375E-5
1348 440 1.58730158730159E-1
1348 1348 1.58866558671072E-1
1348 1349 9.395244642367476E-10
1349 353 3.5799446638280153E-5
1349 432 2.85714285714286E-1
1349 1348 9.395244642367476E-10
1349 1349 2.85772421964818E-1
1350 331 1.242957976195465E-4
1350 1350 2.87127129650619E-1
1350 1351 1.2231759262127501E-3
1351 331 1.243404819545845E-4
1351 440 1.02040816326531E-1
1351 1350 1.2231759262127501E-3
1351 1351 1.03536581169769E-1
1352 438 1.24317954427427E-4
1352 441 1.58730158730159E-1
1352 1352 1.60189300439264E-1
1352 1353 1.223414043307385E-3
1353 436 2.85714285714286E-1
1353 438 1.243184199536765E-4
1353 1352 1.223414043307385E-3
1353 1353 2.8713254500204E-1
1354 289 1.243141963561985E-4
1354 1354 2.87127477082916E-1
1354 1355 1.22348814822748E-3
1355 289 1.243221887335135E-4
1355 441 1.02040816326531E-1
1355 1354 1.22348814822748E-3
1355 1355 1.03536852916711E-1
1356 442 1.2987012987013E-1
1356 443 1.2429647759966747E-4
1356 1356 1.3134309078067E-1
1356 1357 1.2231959096490651E-3
1357 443 1.24339709284626E-4
1357 444 1.42857142857143E-1
1357 1356 1.2231959096490651E-3
1357 1357 1.44313278461466E-1
1358 437 1.243063956902795E-4
1358 1358 1.44308300979631E-1
1358 1359 1.22342171509074E-3
1359 437 1.243299444765985E-4
1359 442 1.02040816326531E-1
1359 1358 1.22342171509074E-3
1359 1359 1.03536803730729E-1
1360 442 1.02040816326531E-1
1360 445 1.2432994660242699E-4
1360 1360 1.03536647966486E-1
1360 1361 1.2232661289761251E-3
1361 445 1.24306393514324E-4
1361 1360 1.2232661289761251E-3
1361 1361 1.44308145575808E-1
1362 271 1.90858612460058E-5
1362 1362 3.97923757919184E-2
1362 1363 4.6425136087508645E-10
1363 271 1.87943817308604E-5
1363 445 5.29100529100529E-2
1363 1362 4.6425136087508645E-10
1363 1363 5.29552621711434E-2
1364 383 1.908441131564325E-5
1364 1364 3.97923757468573E-2
1364 1365 4.4988009619886534E-10
1365 383 1.8793854328713853E-5
1365 443 5.29100529100529E-2
1365 1364 4.4988009619886534E-10
1365 1365 5.29552631396992E-2
1366 444 1.90880028766286E-5
1366 1366 3.97923757879309E-2
1366 1367 4.865347651474961E-10
1367 444 1.879519358500685E-5
1367 447 5.29100529100529E-2
1367 1366 4.865347651474961E-10
1367 1367 5.29552638434768E-2
1368 448 1.2987012987013E-1
1368 449 1.2429809052179E-4
1368 1368 1.31343334547929E-1
1368 1369 1.2234248029647302E-3
1369 449 1.24337864548893E-4
1369 450 1.42857142857143E-1
1369 1368 1.2234248029647302E-3
1369 1369 1.44313510123448E-1
1370 276 3.630403244895025E-5
1370 1370 1.42985567391259E-1
1370 1371 1.7905522290292998E-9
1371 276 3.63125613910525E-5
1371 448 1.02040816326531E-1
1371 1370 1.7905522290292998E-9
1371 1371 1.02208909295117E-1
1372 209 1.24359294003953E-4
1372 448 1.02040816326531E-1
1372 1372 1.03536945436613E-1
1372 1373 1.223497739548555E-3
1373 209 1.2427687552159602E-4
1373 1372 1.223497739548555E-3
1373 1373 1.44308319913601E-1
1374 276 3.63605267038807E-5
1374 452 1.58730158730159E-1
1374 1374 1.58866558880208E-1
1374 1375 9.457252761396739E-10
1375 276 3.57996566595322E-5
1375 449 2.85714285714286E-1
1375 1374 9.457252761396739E-10
1375 1375 2.85772421966552E-1
1376 209 1.24295222704995E-4
1376 1376 2.87127415617721E-1
1376 1377 1.223463345973845E-3
1377 209 1.2434105354353048E-4
1377 452 1.02040816326531E-1
1377 1376 1.223463345973845E-3
1377 1377 1.03536870207931E-1
1378 453 1.2987012987013E-1
1378 454 1.242924716274015E-4
1378 1378 1.31343342346386E-1
1378 1379 1.22343813482382E-3
1379 454 1.243433443793515E-4
1379 455 1.42857142857143E-1
1379 1378 1.22343813482382E-3
1379 1379 1.44313537641408E-1
1380 281 3.63040818579499E-5
1380 1380 1.42985567397925E-1
1380 1381 1.79311725933912E-9
1381 281 3.63153071889986E-5
1381 453 1.02040816326531E-1
1381 1380 1.79311725933912E-9
1381 1381 1.02208916202124E-1
1382 447 1.2437232255912598E-4
1382 453 1.02040816326531E-1
1382 1382 1.03536590514876E-1
1382 1383 1.2231141634274699E-3
1383 447 1.24263771350947E-4
1383 1382 1.2231141634274699E-3
1383 1383 1.44307911491503E-1
1384 54 6.31256600233102E-5
1384 457 5.10204081632653E-2
1384 1384 5.17681597597662E-2
1384 1385 6.093850933848385E-4
1385 54 6.1563843335521E-5
1385 1384 6.093850933848385E-4
1385 1385 6.87492826962862E-2
1386 447 6.156614123927276E-5
1386 1386 6.87514484662856E-2
1386 1387 6.11552250476259E-4
1387 447 6.312351679451465E-5
1387 457 5.10204081632653E-2
1387 1386 6.11552250476259E-4
1387 1387 5.17703218026452E-2
1388 459 5.10204081632653E-2
1388 460 6.264215030124245E-5
1388 1388 5.17680828218562E-2
1388 1389 6.10392450931651E-4
1389 460 6.205417554933611E-5
1389 1388 6.10392450931651E-4
1389 1389 6.87512300626691E-2
1390 54 6.20516747878092E-5
1390 1390 6.87493246501912E-2
1390 1391 6.08486602257409E-4
1391 54 6.264448889999576E-5
1391 459 5.10204081632653E-2
1391 1390 6.08486602257409E-4
1391 1391 5.17661829417312E-2
1392 462 1.908635729836825E-5
1392 1392 3.97923757587715E-2
1392 1393 4.693796691418235E-10
1393 460 5.29100529100529E-2
1393 462 1.8794617379244248E-5
1393 1392 4.693796691418235E-10
1393 1393 5.29552676285611E-2
1394 457 1.9083533212652647E-5
1394 1394 3.97923757936591E-2
1394 1395 4.412346129943659E-10
1395 457 1.87935335041943E-5
1395 463 5.29100529100529E-2
1395 1394 4.412346129943659E-10
1395 1395 5.29552644071027E-2
1396 281 3.6361820187685346E-5
1396 464 1.58730158730159E-1
1396 1396 1.58866561267135E-1
1396 1397 9.47308719051574E-10
1397 281 3.5799680853116955E-5
1397 454 2.85714285714286E-1
1397 1396 9.47308719051574E-10
1397 1397 2.85772422230792E-1
1398 447 1.24288320063823E-4
1398 1398 2.8712700756249E-1
1398 1399 1.223068167849885E-3
1399 447 1.2434791657734247E-4
1399 464 1.02040816326531E-1
1399 1398 1.223068167849885E-3
1399 1399 1.03536489885529E-1
1400 65 1.24128523742057E-4
1400 465 1.58730158730159E-1
1400 1400 1.60198947945602E-1
1400 1401 1.2333035922736549E-3
1401 65 1.245034882601475E-4
1401 462 2.85714285714286E-1
1401 1400 1.2333035922736549E-3
1401 1401 2.87142819823489E-1
1402 447 1.239101631386335E-4
1402 1402 2.87126968236002E-1
1402 1403 1.22375978016804E-3
1403 447 1.24723910318792E-4
1403 465 1.02040816326531E-1
1403 1402 1.22375978016804E-3
1403 1403 1.03538021076957E-1
1404 463 1.2434348847489802E-4
1404 466 1.58730158730159E-1
1404 1404 1.60194697902578E-1
1404 1405 1.22359548321971E-3
1405 463 1.24291467579443E-4
1405 467 2.85714285714286E-1
1405 1404 1.22359548321971E-3
1405 1405 2.87127570472813E-1
1406 65 1.2413035254404E-4
1406 1406 2.87135367564764E-1
1406 1407 1.231743639377025E-3
1407 65 1.2450497287852752E-4
1407 466 1.02040816326531E-1
1407 1406 1.231743639377025E-3
1407 1407 1.03545526367898E-1
1408 377 3.6360467996166245E-5
1408 1408 1.19203314288941E-1
1408 1409 9.874220186595145E-10
1409 372 1.02040816326531E-1
1409 377 3.58011838962487E-5
1409 1408 9.874220186595145E-10
1409 1409 1.02126926721615E-1
1410 467 3.628718751698525E-5
1410 468 1.02040816326531E-1
1410 1410 1.02204884109303E-1
1410 1411 1.1515716442124924E-9
1411 467 3.6308290057679405E-5
1411 1410 1.1515716442124924E-9
1411 1411 2.85804661797483E-1
1412 372 2.85714285714286E-1
1412 375 3.57979548286185E-5
1412 1412 2.85772422625425E-1
1412 1413 4.788678797279992E-10
1413 375 3.6329024514602246E-5
1413 468 1.19047619047619E-1
1413 1412 4.788678797279992E-10
1413 1413 1.19199893316946E-1
1414 375 3.6337381143602954E-5
1414 470 1.2987012987013E-1
1414 1414 1.30018674356219E-1
1414 1415 6.132167281741334E-10
1415 302 1.42857142857143E-1
1415 375 3.579771292360935E-5
1415 1414 6.132167281741334E-10
1415 1415 1.42928403509993E-1
1416 459 3.6305444760119154E-5
1416 1416 1.42985567296802E-1
1416 1417 1.440456341366235E-9
1417 459 3.62928341286493E-5
1417 470 1.02040816326531E-1
1417 1416 1.440456341366235E-9
1417 1417 1.02206490005629E-1
1418 377 3.62961584455045E-5
1418 470 1.02040816326531E-1
1418 1418 1.0220649001299E-1
1418 1419 1.49832913352461E-9
1419 377 3.6308823776679E-5
1419 1418 1.49832913352461E-9
1419 1419 1.42985567344319E-1
1420 376 3.6801783589215895E-5
1420 472 1.58730158730159E-1
1420 1420 1.58812752183216E-1
1420 1421 1.7733761222882405E-8
1421 376 3.66773441823944E-5
1421 473 2.85714285714286E-1
1421 1420 1.7733761222882405E-8
1421 1421 2.85772421326254E-1
1422 375 3.6344840217462056E-5
1422 1422 2.85804661897293E-1
1422 1423 8.188610317259574E-10
1423 375 3.582059327790735E-5
1423 472 1.02040816326531E-1
1423 1422 8.188610317259574E-10
1423 1423 1.02129868102061E-1
1424 474 1.2987012987013E-1
1424 475 1.243023333873005E-4
1424 1424 1.31343382464337E-1
1424 1425 1.2234698535100001E-3
1425 475 1.2433375176127548E-4
1425 476 1.42857142857143E-1
1425 1424 1.2234698535100001E-3
1425 1425 1.44313543921834E-1
1426 459 3.630464037516E-5
1426 1426 1.42985567392099E-1
1426 1427 1.80173704535907E-9
1427 459 3.631049708530455E-5
1427 474 1.02040816326531E-1
1427 1426 1.80173704535907E-9
1427 1427 1.02208902474801E-1
1428 473 1.243464365041285E-4
1428 474 1.02040816326531E-1
1428 1428 1.03536953780503E-1
1428 1429 1.223534780208865E-3
1429 473 1.24289807930602E-4
1429 1428 1.223534780208865E-3
1429 1429 1.44308381872671E-1
1430 467 3.63607301625868E-5
1430 478 1.58730158730159E-1
1430 1430 1.58866553497205E-1
1430 1431 9.767957561024212E-10
1431 467 3.580077011868455E-5
1431 475 2.85714285714286E-1
1431 1430 9.767957561024212E-10
1431 1431 2.8577242139301E-1
1432 473 1.24310905382401E-4
1432 1432 2.87127478203015E-1
1432 1433 1.22349564349631E-3
1433 473 1.2432546089532798E-4
1433 478 1.02040816326531E-1
1433 1432 1.22349564349631E-3
1433 1433 1.03536867724338E-1
1434 80 3.636057407378795E-5
1434 479 1.58730158730159E-1
1434 1434 1.58866552875702E-1
1434 1435 9.784063431638785E-10
1435 80 3.580083414768245E-5
1435 318 2.85714285714286E-1
1435 1434 9.784063431638785E-10
1435 1435 2.85772421462891E-1
1436 82 1.243127231398925E-4
1436 1436 2.87127984387123E-1
1436 1437 1.2239989100511699E-3
1437 82 1.243236535884295E-4
1437 479 1.02040816326531E-1
1437 1436 1.2239989100511699E-3
1437 1437 1.03537367551367E-1
1438 2 1.21951219512195E-1
1438 1438 1.23295224373342E-1
1438 1439 8.425722286788965E-4
1439 1 2.03252032520325E-1
1439 1438 8.425722286788965E-4
1439 1439 2.04428985316703E-1
1440 1440 2.03857722829619E-1
1440 1441 2.48117784820107E-4
1441 2 7.62195121951219E-2
1441 1440 2.48117784820107E-4
1441 1441 7.7008598140752E-2
1442 4 1.21951219512195E-1
1442 1442 1.22701522930995E-1
1442 1443 2.52421375107211E-4
1443 3 2.03252032520325E-1
1443 1442 2.52421375107211E-4
1443 1443 2.03846209576239E-1
1444 1444 2.04472871638381E-1
1444 1445 8.74036442669567E-4
1445 4 7.62195121951219E-2
1445 1444 8.74036442669567E-4
1445 1445 7.76461861456122E-2
1446 6 4.0650406504065E-2
1446 1446 4.1360405004922E-2
1446 1447 4.35093368425272E-4
1447 1446 4.35093368425272E-4
1447 1447 5.14598404635539E-2
1448 1448 5.1148323839792E-2
1448 1449 1.250149221624275E-4
1449 6 4.0650406504065E-2
1449 1448 1.250149221624275E-4
1449 1449 4.10514984007648E-2
1450 8 4.0650406504065E-2
1450 1450 4.10425724657488E-2
1450 1451 1.227654847050065E-4
1451 1450 1.227654847050065E-4
1451 1451 5.11528339721403E-2
1452 1452 5.14608443271925E-2
1452 1453 4.314128170385355E-4
1453 8 4.0650406504065E-2
1453 1452 4.314128170385355E-4
1453 1453 4.1351886861874E-2
1454 10 1.21951219512195E-1
1454 1454 1.23299903833044E-1
1454 1455 8.48316189072587E-4
1455 9 2.03252032520325E-1
1455 1454 8.48316189072587E-4
1455 1455 2.04436529726934E-1
1456 1456 2.03855691454559E-1
1456 1457 2.49165916595612E-4
1457 10 7.62195121951219E-2
1457 1456 2.49165916595612E-4
1457 1457 7.70127246124296E-2
1458 12 1.21951219512195E-1
1458 1458 1.22700190747997E-1
1458 1459 2.499127498153575E-4
1459 11 2.03252032520325E-1
1459 1458 2.499127498153575E-4
1459 1459 2.03842077008017E-1
1460 1460 2.04472949186457E-1
1460 1461 8.737795917591424E-4
1461 12 7.62195121951219E-2
1461 1460 8.737795917591424E-4
1461 1461 7.76455600069074E-2
1462 11 3.9177212704872956E-5
1462 1462 5.56030622549202E-2
1462 1463 2.500506328483054E-10
1463 11 3.916545060652595E-5
1463 13 4.69043151969981E-2
1463 1462 2.500506328483054E-10
1463 1463 4.70338132032725E-2
1464 3 7.031673554307615E-5
1464 16 1.21951219512195E-1
1464 1464 1.222350714737E-1
1464 1465 2.2180533584006052E-10
1465 3 7.02970833722356E-5
1465 14 2.03252032520325E-1
1465 1464 2.2180533584006052E-10
1465 1465 2.03389413880045E-1
1466 15 7.0324999042891E-5
1466 1466 2.03435738532869E-1
1466 1467 5.89931921379754E-9
1467 15 7.032009072452605E-5
1467 16 7.62195121951219E-2
1467 1466 5.89931921379754E-9
1467 1467 7.65597965903959E-2
1468 18 7.031530817747076E-5
1468 19 1.21951219512195E-1
1468 1468 1.22236903154735E-1
1468 1469 1.6834454466109202E-10
1469 17 2.03252032520325E-1
1469 18 7.029653952654645E-5
1469 1468 1.6834454466109202E-10
1469 1469 2.03389443598375E-1
1470 3 7.031762626090435E-5
1470 1470 2.03435732180828E-1
1470 1471 1.1282301280224691E-9
1471 3 7.031691736543485E-5
1471 19 7.62195121951219E-2
1471 1470 1.1282301280224691E-9
1471 1471 7.6562117911126E-2
1472 17 1.2587303771657051E-4
1472 1472 5.61833529769933E-2
1472 1473 4.795584670471755E-4
1473 17 1.26298480661199E-4
1473 20 4.69043151969981E-2
1473 1472 4.795584670471755E-4
1473 1473 4.76826154409182E-2
1474 21 1.21951219512195E-1
1474 1474 1.23285755103265E-1
1474 1475 8.30361965430133E-4
1475 15 2.03252032520325E-1
1475 1474 8.30361965430133E-4
1475 1475 2.04412543304569E-1
1476 1476 2.03861755911766E-1
1476 1477 2.4603385185433403E-4
1477 21 7.62195121951219E-2
1477 1476 2.4603385185433403E-4
1477 1477 7.70004252336161E-2
1478 15 3.918140332362095E-5
1478 1478 5.56030640485438E-2
1478 1479 1.7336711174217857E-9
1479 15 3.91651737400043E-5
1479 22 4.69043151969981E-2
1479 1478 1.7336711174217857E-9
1479 1479 4.70338385501923E-2
1480 24 1.21951219512195E-1
1480 1480 1.23285520700459E-1
1480 1481 8.299020120074965E-4
1481 23 2.03252032520325E-1
1481 1480 8.299020120074965E-4
1481 1481 2.04411787259032E-1
1482 1482 2.03861832698343E-1
1482 1483 2.45993087453537E-4
1483 24 7.62195121951219E-2
1483 1482 2.45993087453537E-4
1483 1483 7.70002676879349E-2
1484 26 1.21951219512195E-1
1484 1484 1.22700828822822E-1
1484 1485 2.511926996448125E-4
1485 25 2.03252032520325E-1
1485 1484 2.511926996448125E-4
1485 1485 2.03844232457642E-1
1486 1486 2.04472915710935E-1
1486 1487 8.73891151451997E-4
1487 26 7.62195121951219E-2
1487 1486 8.73891151451997E-4
1487 1487 7.7645831656556E-2
1488 20 3.51484455519302E-5
1488 28 4.0650406504065E-2
1488 1488 4.07666795924671E-2
1488 1489 1.9007859448317717E-10
1489 20 3.5158780539573355E-5
1489 1488 1.9007859448317717E-10
1489 1489 5.09407434252544E-2
1490 8 3.51585067918634E-5
1490 1490 5.09407431874771E-2
1490 1491 1.6064374895116208E-10
1491 8 3.514839282084015E-5
1491 28 4.0650406504065E-2
1491 1490 1.6064374895116208E-10
1491 1491 4.07666795543354E-2
1492 30 4.0650406504065E-2
1492 1492 4.13607352359751E-2
1492 1493 4.352328786256935E-4
1493 1492 4.352328786256935E-4
1493 1493 5.14598007427525E-2
1494 1494 5.11481483925408E-2
1494 1495 1.25101204044981E-4
1495 30 4.0650406504065E-2
1495 1494 1.25101204044981E-4
1495 1495 4.10518452068058E-2
1496 14 1.1321969607643701E-4
1496 32 4.0650406504065E-2
1496 1496 4.13442510492881E-2
1496 1497 4.3064066419619147E-4
1497 14 1.13230212794537E-4
1497 1496 4.3064066419619147E-4
1497 1497 5.1466951697921E-2
1498 13 1.13230204977415E-4
1498 1498 5.14669626149985E-2
1498 1499 4.3065153244844297E-4
1499 13 1.132197038420725E-4
1499 32 4.0650406504065E-2
1499 1498 4.3065153244844297E-4
1499 1499 4.13442619193265E-2
1500 34 4.0650406504065E-2
1500 1500 4.10421712758786E-2
1500 1501 1.226645598089185E-4
1501 1500 1.226645598089185E-4
1501 1501 5.11530392095041E-2
1502 1502 5.1460888731321E-2
1502 1503 4.312440203318705E-4
1503 34 4.0650406504065E-2
1503 1502 4.312440203318705E-4
1503 1503 4.13515043187557E-2
1504 18 4.0650406504065E-2
1504 1504 4.13596759299422E-2
1504 1505 4.34784418036298E-4
1505 1504 4.34784418036298E-4
1505 1505 5.14599277463446E-2
1506 1506 5.11487104881233E-2
1506 1507 1.248239379065695E-4
1507 18 4.0650406504065E-2
1507 1506 1.248239379065695E-4
1507 1507 4.1050733010605E-2
1508 37 4.0650406504065E-2
1508 1508 4.1359035704873E-2
1508 1509 4.34512231991328E-4
1509 1508 4.34512231991328E-4
1509 1509 5.14600043330068E-2
1510 1510 5.11490512283519E-2
1510 1511 1.24656344994281E-4
1511 37 4.0650406504065E-2
1511 1510 1.24656344994281E-4
1511 1511 4.10500607067175E-2
1512 39 4.0650406504065E-2
1512 1512 4.10430846404088E-2
1512 1513 1.22895074488336E-4
1513 1512 1.22895074488336E-4
1513 1513 5.11525737964017E-2
1514 1514 5.14607875708355E-2
1514 1515 4.31628238070202E-4
1515 39 4.0650406504065E-2
1515 1514 4.31628238070202E-4
1515 1515 4.13523759437716E-2
1516 30 7.029645496796184E-5
1516 41 7.62195121951219E-2
1516 1516 7.64520524250308E-2
1516 1517 2.1379854721497917E-10
1517 30 7.031581399227145E-5
1517 1516 2.1379854721497917E-10
1517 1517 1.01876480657259E-1
1518 42 7.031683150516155E-5
1518 43 1.01626016260163E-1
1518 1518 1.01874126992214E-1
1518 1519 2.4104594858764397E-10
1519 41 1.01626016260163E-1
1519 42 7.029706067526185E-5
1519 1518 2.4104594858764397E-10
1519 1519 1.01802467093877E-1
1520 9 7.03216326383886E-5
1520 1520 1.0187648018643E-1
1520 1521 2.94698037755907E-9
1521 9 7.031924239271575E-5
1521 43 7.62195121951219E-2
1521 1520 2.94698037755907E-9
1521 1521 7.65604536848551E-2
1522 9 3.9179379354812997E-5
1522 1522 5.56030633812206E-2
1522 1523 7.609259190252358E-10
1523 9 3.91655766927287E-5
1523 44 4.69043151969981E-2
1523 1522 7.609259190252358E-10
1523 1523 4.70338114054332E-2
1524 45 2.25828319837307E-4
1524 47 1.21951219512195E-1
1524 1524 1.23288868131171E-1
1524 1525 8.606378181035784E-4
1525 42 2.03252032520325E-1
1525 45 2.257480985461115E-4
1525 1524 8.606378181035784E-4
1525 1525 2.04476868737619E-1
1526 46 2.25819873356065E-4
1526 1526 2.04485625339099E-1
1526 1527 8.600382852385206E-4
1527 46 2.2575649028374202E-4
1527 47 7.62195121951219E-2
1527 1526 8.600382852385206E-4
1527 1527 7.76045614160282E-2
1528 42 3.91770165156953E-5
1528 1528 5.56030650326068E-2
1528 1529 2.2446777023424966E-10
1529 42 3.9165424969696296E-5
1529 48 4.69043151969981E-2
1529 1528 2.2446777023424966E-10
1529 1529 4.70338753705427E-2
1530 37 7.031539949447081E-5
1530 50 1.21951219512195E-1
1530 1530 1.22236849060451E-1
1530 1531 1.7232946885546217E-10
1531 37 7.029656920683335E-5
1531 49 2.03252032520325E-1
1531 1530 1.7232946885546217E-10
1531 1531 2.03389446559683E-1
1532 25 7.031775546333325E-5
1532 1532 2.03435732227495E-1
1532 1533 1.1658481735416124E-9
1533 25 7.031700878461234E-5
1533 50 7.62195121951219E-2
1533 1532 1.1658481735416124E-9
1533 1533 7.6562049166889E-2
1534 39 3.91765850204544E-5
1534 1534 5.56030647025623E-2
1534 1535 1.7680408986680417E-10
1535 39 3.916533857171275E-5
1535 51 4.69043151969981E-2
1535 1534 1.7680408986680417E-10
1535 1535 4.70338436996028E-2
1536 51 7.03332965895096E-5
1536 53 1.21951219512195E-1
1536 1536 1.22157002943058E-1
1536 1537 9.314729628635253E-9
1537 51 7.031242236781309E-5
1537 52 2.03252032520325E-1
1537 1536 9.314729628635253E-9
1537 1537 2.03389443410767E-1
1538 25 7.031798313438335E-5
1538 1538 2.03435731742402E-1
1538 1539 4.331824672234144E-10
1539 25 7.029810097916795E-5
1539 53 7.62195121951219E-2
1539 1538 4.331824672234144E-10
1539 1539 7.64606527211585E-2
1540 55 1.21951219512195E-1
1540 1540 1.22699706412486E-1
1540 1541 2.4883825623320347E-4
1541 54 2.03252032520325E-1
1541 1540 2.4883825623320347E-4
1541 1541 2.03840208719952E-1
1542 1542 2.04472969753059E-1
1542 1543 8.737100283766485E-4
1543 55 7.62195121951219E-2
1543 1542 8.737100283766485E-4
1543 1543 7.76453910010569E-2
1544 30 3.5235799719913756E-5
1544 57 4.0650406504065E-2
1544 1544 4.08227645409607E-2
1544 1545 3.1925326775969753E-10
1545 30 3.515765620330815E-5
1545 1544 3.1925326775969753E-10
1545 1545 5.09407434607758E-2
1546 44 1.130984819182575E-4
1546 1546 5.14623372121515E-2
1546 1547 4.309133426949365E-4
1547 44 1.133467015943535E-4
1547 57 4.0650406504065E-2
1547 1546 4.309133426949365E-4
1547 1547 4.13494102667774E-2
1548 25 7.031761188275735E-5
1548 61 1.52439024390244E-1
1548 1548 1.5270306167729E-1
1548 1549 3.641378573063819E-10
1549 25 7.029700598874019E-5
1549 58 1.01626016260163E-1
1549 1548 3.641378573063819E-10
1549 1549 1.01812046072629E-1
1550 60 7.031754237013936E-5
1550 1550 1.01892454563471E-1
1550 1551 1.17233516895859E-9
1551 60 7.031701902676345E-5
1551 61 7.62195121951219E-2
1551 1550 1.17233516895859E-9
1551 1551 7.6562627870521E-2
1552 39 7.031632024327925E-5
1552 61 7.62195121951219E-2
1552 1552 7.65626270046155E-2
1552 1553 9.150010490513836E-10
1553 39 7.03167903639415E-5
1553 1552 9.150010490513836E-10
1553 1553 1.01892453931449E-1
1554 45 4.0650406504065E-2
1554 63 3.514845567390335E-5
1554 1554 4.0766665175613E-2
1554 1555 1.9796942457479095E-10
1555 63 3.5158851620614E-5
1555 1554 1.9796942457479095E-10
1555 1555 5.0940743445766E-2
1556 39 3.515846600507965E-5
1556 1556 5.09407431867235E-2
1556 1557 1.5665527497296556E-10
1557 39 3.51483826854693E-5
1557 45 4.0650406504065E-2
1557 1556 1.5665527497296556E-10
1557 1557 4.0766665137924E-2
1558 65 4.0650406504065E-2
1558 1558 4.10435157784557E-2
1558 1559 1.230045225460605E-4
1559 1558 1.230045225460605E-4
1559 1559 5.11523557700286E-2
1560 1560 5.14607397647424E-2
1560 1561 4.318093742858965E-4
1561 65 4.0650406504065E-2
1561 1560 4.318093742858965E-4
1561 1561 4.13527879584568E-2
1562 60 7.62195121951219E-2
1562 67 2.256412953232125E-4
1562 1562 7.76055327652028E-2
1562 1563 8.612471732781124E-4
1563 67 2.259358182281985E-4
1563 1562 8.612471732781124E-4
1563 1563 1.02927723496407E-1
1564 68 2.258553643183325E-4
1564 70 1.01626016260163E-1
1564 1564 1.02927024759428E-1
1564 1565 8.60700494329598E-4
1565 60 1.01626016260163E-1
1565 68 2.25721229458861E-4
1565 1564 8.60700494329598E-4
1565 1565 1.02917588385468E-1
1566 69 2.258684490105785E-4
1566 1566 1.02926589147505E-1
1566 1567 8.601959330667175E-4
1567 69 2.257082300228575E-4
1567 70 7.62195121951219E-2
1567 1566 8.601959330667175E-4
1567 1567 7.76046210611813E-2
1568 71 2.257801620897125E-4
1568 74 1.52439024390244E-1
1568 1568 1.53744703558605E-1
1568 1569 8.601288078771955E-4
1569 71 2.257960463527235E-4
1569 72 1.01626016260163E-1
1569 1568 8.601288078771955E-4
1569 1569 1.02942377273671E-1
1570 60 7.03174422302278E-5
1570 1570 1.01892454585052E-1
1570 1571 1.31696611037613E-9
1571 60 7.0317426190198E-5
1571 74 7.62195121951219E-2
1571 1570 1.31696611037613E-9
1571 1571 7.65639711337634E-2
1572 52 2.2573674784921851E-4
1572 74 7.62195121951219E-2
1572 1572 7.76054468048202E-2
1572 1573 8.609673526599494E-4
1573 52 2.2583974468696647E-4
1573 1572 8.609673526599494E-4
1573 1573 1.02943302067472E-1
1574 52 7.033866314419905E-5
1574 77 1.52439024390244E-1
1574 1574 1.52631413452897E-1
1574 1575 1.5024987284871424E-8
1575 52 7.030730180593569E-5
1575 71 1.01626016260163E-1
1575 1574 1.5024987284871424E-8
1575 1575 1.01812120595414E-1
1576 76 7.03177648321017E-5
1576 1576 1.0189245408091E-1
1576 1577 4.044971446359121E-10
1577 76 7.02981235257599E-5
1577 77 7.62195121951219E-2
1577 1576 4.044971446359121E-10
1577 1577 7.64611465224134E-2
1578 37 7.029765564032589E-5
1578 77 7.62195121951219E-2
1578 1578 7.64611465706246E-2
1578 1579 2.241318775774532E-10
1579 37 7.03160558704409E-5
1579 1578 2.241318775774532E-10
1579 1579 1.01892453907628E-1
1580 72 3.917701148077315E-5
1580 1580 5.56030650382054E-2
1580 1581 2.238153387833244E-10
1581 72 3.9165426129428505E-5
1581 78 4.69043151969981E-2
1581 1580 2.238153387833244E-10
1581 1581 4.70338912941693E-2
1582 37 3.91760673457776E-5
1582 1582 5.56030649691956E-2
1582 1583 1.244099119120637E-10
1583 37 3.9165203623311147E-5
1583 69 4.69043151969981E-2
1583 1582 1.244099119120637E-10
1583 1583 4.70338734095269E-2
1584 76 4.0650406504065E-2
1584 80 1.13197136175718E-4
1584 1584 4.1343212228041E-2
1584 1585 4.296434551748045E-4
1585 80 1.1325292029488399E-4
1585 1584 4.296434551748045E-4
1585 1585 5.14659785012395E-2
1586 67 1.132530236522825E-4
1586 1586 5.14664236737183E-2
1586 1587 4.300872327925645E-4
1587 67 1.13197033332639E-4
1587 76 4.0650406504065E-2
1587 1586 4.300872327925645E-4
1587 1587 4.13436538376855E-2
1588 37 3.521531314716965E-5
1588 82 4.0650406504065E-2
1588 1588 4.08227383261515E-2
1588 1589 3.474456389169365E-10
1589 37 3.515779553483945E-5
1589 1588 3.474456389169365E-10
1589 1589 5.09407434731514E-2
1590 67 1.131313655802835E-4
1590 1590 5.1461790772643E-2
1590 1591 4.30292968781363E-4
1591 67 1.13315042576574E-4
1591 82 4.0650406504065E-2
1591 1590 4.30292968781363E-4
1591 1591 4.13487173460147E-2
1592 28 2.2588415315143498E-4
1592 85 1.21951219512195E-1
1592 1592 1.23288111733446E-1
1592 1593 8.598544603655395E-4
1593 28 2.25692627533347E-4
1593 83 2.03252032520325E-1
1593 1592 8.598544603655395E-4
1593 1593 2.04475982809637E-1
1594 84 2.2586685631140348E-4
1594 1594 2.04486036390646E-1
1594 1595 8.603921103689335E-4
1595 84 2.2570981230312748E-4
1595 85 7.62195121951219E-2
1595 1594 8.603921103689335E-4
1595 1595 7.76100698238021E-2
1596 86 3.917699812084535E-5
1596 1596 5.56030650406795E-2
1596 1597 2.219881922963071E-10
1597 84 4.35540069686411E-2
1597 86 3.91654204343729E-5
1597 1596 2.219881922963071E-10
1597 1597 4.3685273522614E-2
1598 1 3.91799566470334E-5
1598 1598 5.56030634523252E-2
1598 1599 9.86435624929127E-10
1599 1 3.9165515029690454E-5
1599 87 4.35540069686411E-2
1599 1598 9.86435624929127E-10
1599 1599 4.36852107294414E-2
1600 8 3.91766305841675E-5
1600 1600 5.56030647011913E-2
1600 1601 1.8133916234983408E-10
1601 8 3.916534770426765E-5
1601 88 4.35540069686411E-2
1601 1600 1.8133916234983408E-10
1601 1601 4.36852478045154E-2
1602 88 7.03333716622167E-5
1602 90 1.21951219512195E-1
1602 1602 1.22157008505548E-1
1602 1603 9.393827466683747E-9
1603 88 7.031235630845935E-5
1603 89 2.03252032520325E-1
1603 1602 9.393827466683747E-9
1603 1603 2.03389447454645E-1
1604 3 7.031785002740755E-5
1604 1604 2.03435731711339E-1
1604 1605 4.15885295967208E-10
1605 3 7.02980746837631E-5
1605 90 7.62195121951219E-2
1605 1604 4.15885295967208E-10
1605 1605 7.646390574121E-2
1606 92 1.21951219512195E-1
1606 1606 1.22702963153877E-1
1606 1607 2.5604745302585E-4
1607 91 2.03252032520325E-1
1607 1606 2.5604745302585E-4
1607 1607 2.03852543874274E-1
1608 1608 2.04472798051429E-1
1608 1609 8.742815635680711E-4
1609 92 7.62195121951219E-2
1609 1608 8.742815635680711E-4
1609 1609 7.76521749408668E-2
1610 93 3.91765005963853E-5
1610 1610 5.56030647152411E-2
1610 1611 1.686498480908666E-10
1611 93 3.916532484496415E-5
1611 94 4.35540069686411E-2
1611 1610 1.686498480908666E-10
1611 1611 4.36852786201635E-2
1612 96 7.0332897120856E-5
1612 97 1.21951219512195E-1
1612 1612 1.2215700375311E-1
1612 1613 8.89064720244236E-9
1613 95 2.03252032520325E-1
1613 96 7.031279008690226E-5
1613 1612 8.89064720244236E-9
1613 1613 2.0338944621043E-1
1614 11 7.031812506873121E-5
1614 1614 2.03435731724696E-1
1614 1615 4.523524730504989E-10
1615 11 7.02981295132916E-5
1615 97 7.62195121951219E-2
1615 1614 4.523524730504989E-10
1615 1615 7.64639008619764E-2
1616 34 3.91766660858272E-5
1616 1616 5.56030647063562E-2
1616 1617 1.849101039925479E-10
1617 34 3.916535791609095E-5
1617 96 4.35540069686411E-2
1617 1616 1.849101039925479E-10
1617 1617 4.36852728924751E-2
1618 14 1.1324501453739301E-4
1618 86 4.0650406504065E-2
1618 1618 4.13515725832072E-2
1618 1619 4.30684555563326E-4
1619 14 1.1320410782822399E-4
1619 1618 4.30684555563326E-4
1619 1619 5.14623401555858E-2
1620 96 1.132039767978785E-4
1620 1620 5.14613555693744E-2
1620 1621 4.2969690445642146E-4
1621 86 4.0650406504065E-2
1621 96 1.132451203748785E-4
1621 1620 4.2969690445642146E-4
1621 1621 4.13505821151685E-2
1622 3 7.031748783061805E-5
1622 102 1.52439024390244E-1
1622 1622 1.52703075941605E-1
1622 1623 3.507195830613575E-10
1623 3 7.029698005090774E-5
1623 99 1.01626016260163E-1
1623 1622 3.507195830613575E-10
1623 1623 1.01812044607886E-1
1624 101 7.03175001678884E-5
1624 1624 1.01892454549613E-1
1624 1625 1.15899677190857E-9
1625 101 7.03169873224621E-5
1625 102 7.62195121951219E-2
1625 1624 1.15899677190857E-9
1625 1625 7.6567872631952E-2
1626 8 7.031639837266009E-5
1626 102 7.62195121951219E-2
1626 1626 7.65678717535499E-2
1626 1627 9.405268203316824E-10
1627 8 7.03168667775596E-5
1627 1626 9.405268203316824E-10
1627 1627 1.01892453942986E-1
1628 93 4.0650406504065E-2
1628 1628 4.10466715439482E-2
1628 1629 1.231341958920315E-4
1629 1628 1.231341958920315E-4
1629 1629 5.1152093483457E-2
1630 1630 5.14606824986985E-2
1630 1631 4.3202471451665747E-4
1631 93 4.0650406504065E-2
1631 1630 4.3202471451665747E-4
1631 1631 4.13559189459688E-2
1632 104 2.256845770575605E-4
1632 107 1.52439024390244E-1
1632 1632 1.5374483535396E-1
1632 1633 8.604225489657415E-4
1633 104 2.258887988923875E-4
1633 105 1.01626016260163E-1
1633 1632 8.604225489657415E-4
1633 1633 1.02942893495409E-1
1634 101 7.031739588878421E-5
1634 1634 1.01892454570167E-1
1634 1635 1.31034574594152E-9
1635 101 7.03494295524921E-5
1635 107 7.62195121951219E-2
1635 1634 1.31034574594152E-9
1635 1635 7.65693066269213E-2
1636 89 2.258410687248605E-4
1636 107 7.62195121951219E-2
1636 1636 7.76201362046097E-2
1636 1637 8.60937079284367E-4
1637 89 2.257342701859395E-4
1637 1636 8.60937079284367E-4
1637 1637 1.02933846484591E-1
1638 89 7.033859777676174E-5
1638 110 1.52439024390244E-1
1638 1638 1.52631417833052E-1
1638 1639 1.495373775016417E-8
1639 89 7.03073668684466E-5
1639 104 1.01626016260163E-1
1639 1638 1.495373775016417E-8
1639 1639 1.0181212801808E-1
1640 109 7.031772773906505E-5
1640 1640 1.01892454075127E-1
1640 1641 3.997410315793869E-10
1641 109 7.029811617978935E-5
1641 110 7.62195121951219E-2
1641 1640 3.997410315793869E-10
1641 1641 7.64644086060436E-2
1642 18 7.029762620999286E-5
1642 110 7.62195121951219E-2
1642 1642 7.6464408655903E-2
1642 1643 2.165588766930188E-10
1643 18 7.031595265208135E-5
1643 1642 2.165588766930188E-10
1643 1643 1.01892453898811E-1
1644 109 4.0650406504065E-2
1644 112 1.13255633288525E-4
1644 1644 4.13506742092217E-2
1644 1645 4.2976520247610254E-4
1645 112 1.131930533077225E-4
1645 1644 4.2976520247610254E-4
1645 1645 5.14613997707775E-2
1646 22 1.1319318280878399E-4
1646 1646 5.14618747554918E-2
1646 1647 4.30241563289058E-4
1647 22 1.13255529451023E-4
1647 109 4.0650406504065E-2
1647 1646 4.30241563289058E-4
1647 1647 4.13511516929685E-2
1648 18 3.917601010978015E-5
1648 1648 5.56030649651092E-2
1648 1649 1.2021474508150708E-10
1649 18 3.91651899253528E-5
1649 113 4.35540069686411E-2
1649 1648 1.2021474508150708E-10
1649 1649 4.36852853148983E-2
1650 18 3.5196535691740796E-5
1650 115 4.0650406504065E-2
1650 1650 4.0825332746665E-2
1650 1651 3.3363734741936004E-10
1651 18 3.515774467793585E-5
1651 1650 3.3363734741936004E-10
1651 1651 5.09407434645864E-2
1652 22 1.13162121558532E-4
1652 1652 5.146186056083E-2
1652 1653 4.3029561160220597E-4
1653 22 1.132854334392815E-4
1653 115 4.0650406504065E-2
1653 1652 4.3029561160220597E-4
1653 1653 4.13512730446379E-2
1654 22 2.257771739488405E-4
1654 101 7.62195121951219E-2
1654 1654 7.76113777694942E-2
1654 1655 8.615685223338455E-4
1655 22 2.25799054008832E-4
1655 1654 8.615685223338455E-4
1655 1655 1.02927883459775E-1
1656 117 2.2578075918573302E-4
1656 118 1.01626016260163E-1
1656 1656 1.02918020682797E-1
1656 1657 8.609873730436291E-4
1657 101 1.01626016260163E-1
1657 117 2.25795445308718E-4
1657 1656 8.609873730436291E-4
1657 1657 1.02927289098185E-1
1658 113 2.258060995946305E-4
1658 1658 1.02926375647256E-1
1658 1659 8.600570047353885E-4
1659 113 2.257701743724095E-4
1659 118 7.62195121951219E-2
1659 1658 8.600570047353885E-4
1659 1659 7.7609858298284E-2
1660 91 3.917688017761475E-5
1660 1660 5.56030626653416E-2
1660 1661 2.0821006222882093E-10
1661 91 3.91653943057523E-5
1661 119 4.35540069686411E-2
1661 1660 2.0821006222882093E-10
1661 1661 4.36852318958731E-2
1662 25 7.031684642491861E-5
1662 121 1.21951219512195E-1
1662 1662 1.22235035440982E-1
1662 1663 2.2932763240466684E-10
1663 25 7.029711200469695E-5
1663 120 2.03252032520325E-1
1663 1662 2.2932763240466684E-10
1663 1663 2.03389408039019E-1
1664 23 7.032512530521975E-5
1664 1664 2.03435738668473E-1
1664 1665 5.98789741792587E-9
1665 23 7.0320083510995E-5
1665 121 7.62195121951219E-2
1665 1664 5.98789741792587E-9
1665 1665 7.65649188448576E-2
1666 122 3.91770143711648E-5
1666 1666 5.56030650420551E-2
1666 1667 2.2419469133179683E-10
1667 46 4.35540069686411E-2
1667 122 3.91654251422547E-5
1667 1666 2.2419469133179683E-10
1667 1667 4.36852852372351E-2
1668 23 3.9181476233884105E-5
1668 1668 5.56030640762953E-2
1668 1669 1.7778805338823848E-9
1669 23 3.91651497971625E-5
1669 67 4.35540069686411E-2
1669 1668 1.7778805338823848E-9
1669 1669 4.36852463766272E-2
1670 124 1.21951219512195E-1
1670 1670 1.23298059655766E-1
1670 1671 8.463929008538475E-4
1671 123 2.03252032520325E-1
1671 1670 8.463929008538475E-4
1671 1671 2.04434311933668E-1
1672 1672 2.03856541140887E-1
1672 1673 2.487297745423985E-4
1673 124 7.62195121951219E-2
1673 1672 2.487297745423985E-4
1673 1673 7.70163153911356E-2
1674 120 1.131950573367355E-4
1674 122 4.0650406504065E-2
1674 1674 4.13469262979409E-2
1674 1675 4.3074865712948603E-4
1675 120 1.132550122848325E-4
1675 1674 4.3074865712948603E-4
1675 1675 5.14670897591813E-2
1676 94 1.13254913812194E-4
1676 1676 5.1465847454761E-2
1676 1677 4.295105406301315E-4
1677 94 1.1319515563462001E-4
1677 122 4.0650406504065E-2
1677 1676 4.295105406301315E-4
1677 1677 4.13456931974366E-2
1678 127 4.0650406504065E-2
1678 1678 4.13618688686831E-2
1678 1679 4.345836234501035E-4
1679 1678 4.345836234501035E-4
1679 1679 5.14599843181239E-2
1680 1680 5.11489616835276E-2
1680 1681 1.2470019695226498E-4
1681 127 4.0650406504065E-2
1681 1680 1.2470019695226498E-4
1681 1681 4.10529036164698E-2
1682 129 7.029691173196249E-5
1682 130 7.62195121951219E-2
1682 1682 7.64551462713228E-2
1682 1683 4.205144410235504E-10
1683 129 7.0317765896857E-5
1683 1682 4.205144410235504E-10
1683 1683 1.0187648086459E-1
1684 58 7.0333801547E-5
1684 131 1.01626016260163E-1
1684 1684 1.01808163652903E-1
1684 1685 9.85128656066261E-9
1685 58 7.031198532964791E-5
1685 130 1.01626016260163E-1
1685 1684 9.85128656066261E-9
1685 1685 1.01802476197319E-1
1686 57 7.031766628153705E-5
1686 1686 1.01876480808924E-1
1686 1687 3.9317234693828477E-10
1687 57 7.02980352954121E-5
1687 131 7.62195121951219E-2
1687 1686 3.9317234693828477E-10
1687 1687 7.64639034207515E-2
1688 57 7.031732237038131E-5
1688 129 7.62195121951219E-2
1688 1688 7.65692613211874E-2
1688 1689 1.26936857839309E-9
1689 57 7.031732294942046E-5
1689 1688 1.26936857839309E-9
1689 1689 1.01876481295274E-1
1690 133 2.257899170255395E-4
1690 134 1.01626016260163E-1
1690 1690 1.02926660126186E-1
1690 1691 8.603596664761415E-4
1691 129 1.01626016260163E-1
1691 133 2.257862514648405E-4
1691 1690 8.603596664761415E-4
1691 1691 1.02917411499501E-1
1692 48 2.2578812515486552E-4
1692 1692 1.02926543206184E-1
1692 1693 8.60245234930815E-4
1693 48 2.25788031515198E-4
1693 134 7.62195121951219E-2
1693 1692 8.60245234930815E-4
1693 1693 7.76100821677488E-2
1694 136 1.21951219512195E-1
1694 1694 1.22691469694897E-1
1694 1695 2.325464751904285E-4
1695 135 2.03252032520325E-1
1695 1694 2.325464751904285E-4
1695 1695 2.03812632387047E-1
1696 1696 2.04473415697173E-1
1696 1697 8.72212468207469E-4
1697 136 7.62195121951219E-2
1697 1696 8.72212468207469E-4
1697 1697 7.76471313870551E-2
1698 135 3.9178286471527405E-5
1698 1698 5.56030610587676E-2
1698 1699 4.4371596621379285E-10
1699 135 3.916557903265705E-5
1699 137 4.35540069686411E-2
1699 1698 4.4371596621379285E-10
1699 1699 4.36852379330563E-2
1700 49 1.261024851823195E-4
1700 1700 5.61884916383021E-2
1700 1701 4.79079567960852E-4
1701 49 1.2607619315881352E-4
1701 63 4.35540069686411E-2
1701 1700 4.79079567960852E-4
1701 1701 4.43291286312775E-2
1702 139 1.21951219512195E-1
1702 1702 1.23297656293327E-1
1702 1703 8.45799075282591E-4
1703 138 2.03252032520325E-1
1703 1702 8.45799075282591E-4
1703 1703 2.04433440703972E-1
1704 1704 2.03856701879912E-1
1704 1705 2.48646277535665E-4
1705 139 7.62195121951219E-2
1705 1704 2.48646277535665E-4
1705 1705 7.70159863483036E-2
1706 91 7.031690407575435E-5
1706 142 1.21951219512195E-1
1706 1706 1.22236513927758E-1
1706 1707 2.701933840887719E-10
1707 91 7.029695852971695E-5
1707 140 2.03252032520325E-1
1707 1706 2.701933840887719E-10
1707 1707 2.03389426552708E-1
1708 141 7.03174398619442E-5
1708 1708 2.03435733203294E-1
1708 1709 9.91397128742302E-10
1709 141 7.03165891300428E-5
1709 142 7.62195121951219E-2
1709 1708 9.91397128742302E-10
1709 1709 7.65668388753155E-2
1710 143 1.26224500472606E-4
1710 1710 5.61885583758076E-2
1710 1711 4.790009697596805E-4
1711 143 1.2595496436343E-4
1711 144 4.35540069686411E-2
1711 1710 4.790009697596805E-4
1711 1711 4.43288034917261E-2
1712 140 1.2616151246181302E-4
1712 1712 5.61890256886677E-2
1712 1713 4.795417505642725E-4
1713 140 1.260175476458975E-4
1713 145 4.35540069686411E-2
1713 1712 4.795417505642725E-4
1713 1713 4.43294694944291E-2
1714 147 4.0650406504065E-2
1714 1714 4.10456254660327E-2
1714 1715 1.2287274171997E-4
1715 1714 1.2287274171997E-4
1715 1715 5.11526268216096E-2
1716 1716 5.14607982538797E-2
1716 1717 4.315888366501675E-4
1717 147 4.0650406504065E-2
1717 1716 4.315888366501675E-4
1717 1717 4.13549219796774E-2
1718 149 4.0650406504065E-2
1718 1718 4.1362272998524E-2
1718 1719 4.347546604312895E-4
1719 1718 4.347546604312895E-4
1719 1719 5.14599362483646E-2
1720 1720 5.11487486213417E-2
1720 1721 1.248058095811935E-4
1721 149 4.0650406504065E-2
1721 1720 1.248058095811935E-4
1721 1721 4.10533275523932E-2
1722 93 3.5148366054670147E-5
1722 143 4.0650406504065E-2
1722 1722 4.07681925236104E-2
1722 1723 1.4949150958978464E-10
1723 93 3.515839043694165E-5
1723 1722 1.4949150958978464E-10
1723 1723 5.09407431924979E-2
1724 141 3.5158779414869496E-5
1724 1724 5.09407434199316E-2
1724 1725 1.9017234756489094E-10
1725 141 3.51484428195165E-5
1725 143 4.0650406504065E-2
1725 1724 1.9017234756489094E-10
1725 1725 4.07681925554734E-2
1726 80 4.0650406504065E-2
1726 145 3.514845926630515E-5
1726 1726 4.07682048188703E-2
1726 1727 2.0002394582402222E-10
1727 145 3.5158865021866194E-5
1727 1726 2.0002394582402222E-10
1727 1727 5.09407434466882E-2
1728 93 3.51583904160655E-5
1728 1728 5.09407431924587E-2
1728 1729 1.4947180224365974E-10
1729 80 4.0650406504065E-2
1729 93 3.51483675510844E-5
1729 1728 1.4947180224365974E-10
1729 1729 4.07682047853746E-2
1730 147 3.51583212282012E-5
1730 153 4.0650406504065E-2
1730 1730 4.08252401030935E-2
1730 1731 4.839846254736674E-10
1731 147 3.5158335201625155E-5
1731 1730 4.839846254736674E-10
1731 1731 5.09407433707863E-2
1732 137 1.1327648280699099E-4
1732 1732 5.14665681443549E-2
1732 1733 4.30203339153746E-4
1733 137 1.131737258304185E-4
1733 153 4.0650406504065E-2
1733 1732 4.30203339153746E-4
1733 1733 4.13463393904523E-2
1734 155 1.1318237862727049E-4
1734 156 4.0650406504065E-2
1734 1734 4.1345611745438E-2
1734 1735 4.29454845727975E-4
1735 155 1.132677741635025E-4
1735 1734 4.29454845727975E-4
1735 1735 5.14658070080613E-2
1736 137 1.13267909256235E-4
1736 1736 5.14665711437525E-2
1736 1737 4.30216534852731E-4
1737 137 1.131822440009145E-4
1737 156 4.0650406504065E-2
1737 1736 4.30216534852731E-4
1737 1737 4.13463699120156E-2
1738 137 2.2564930034415598E-4
1738 158 7.62195121951219E-2
1738 1738 7.76111129798012E-2
1738 1739 8.615637241787359E-4
1739 137 2.25927761021651E-4
1739 1738 8.615637241787359E-4
1739 1739 1.02928031421889E-1
1740 159 2.258409921314965E-4
1740 161 1.01626016260163E-1
1740 1740 1.02927184266065E-1
1740 1741 8.60880696473952E-4
1741 158 1.01626016260163E-1
1741 159 2.25735508364796E-4
1741 1740 8.60880696473952E-4
1741 1741 1.02917789166015E-1
1742 160 2.2587471389063398E-4
1742 1742 1.02927011817241E-1
1742 1743 8.606096853746256E-4
1743 160 2.25702005513183E-4
1743 161 7.62195121951219E-2
1743 1742 8.606096853746256E-4
1743 1743 7.76102705017865E-2
1744 83 3.917703473145525E-5
1744 1744 5.56030650329732E-2
1744 1745 2.2673772242340188E-10
1745 83 3.916542777549565E-5
1745 162 4.69043151969981E-2
1745 1744 2.2673772242340188E-10
1745 1745 4.70333195091475E-2
1746 32 7.031676838532735E-5
1746 164 1.21951219512195E-1
1746 1746 1.22235455450107E-1
1746 1747 2.329594268850591E-10
1747 32 7.029705392577431E-5
1747 163 2.03252032520325E-1
1747 1746 2.329594268850591E-10
1747 1747 2.03389436553353E-1
1748 1 7.032259617148831E-5
1748 1748 2.03435735629179E-1
1748 1749 3.7015810574863554E-9
1749 1 7.031963679222765E-5
1749 164 8.71080139372822E-2
1749 1748 3.7015810574863554E-9
1749 1749 8.74470787627283E-2
1750 166 4.0650406504065E-2
1750 1750 4.13469983237166E-2
1750 1751 4.29630103921424E-4
1751 1750 4.29630103921424E-4
1751 1751 5.14613086107239E-2
1752 163 1.1321296761428599E-4
1752 1752 5.14617840876947E-2
1752 1753 4.3010718725875255E-4
1753 163 1.13236467180446E-4
1753 166 4.0650406504065E-2
1753 1752 4.3010718725875255E-4
1753 1753 4.13474769362091E-2
1754 6 3.5211258407038E-5
1754 168 4.0650406504065E-2
1754 1754 4.08218530208928E-2
1754 1755 3.223609257788015E-10
1755 6 3.51576844126169E-5
1755 1754 3.223609257788015E-10
1755 1755 5.09407434703151E-2
1756 87 1.131383654613885E-4
1756 1756 5.14624425959351E-2
1756 1757 4.309318186872135E-4
1757 87 1.13308304231436E-4
1757 168 4.0650406504065E-2
1757 1756 4.309318186872135E-4
1757 1757 4.1348463703999E-2
1758 168 7.040012898444434E-5
1758 170 8.71080139372822E-2
1758 1758 8.74508954728142E-2
1758 1759 1.2978573390871099E-9
1759 168 7.031733701814565E-5
1759 1758 1.2978573390871099E-9
1759 1759 1.01876481307278E-1
1760 171 2.2571563336099552E-4
1760 172 1.01626016260163E-1
1760 1760 1.02917775922164E-1
1760 1761 8.608552514284025E-4
1761 170 1.01626016260163E-1
1761 171 2.25857922975406E-4
1761 1760 8.608552514284025E-4
1761 1761 1.02927287454379E-1
1762 162 2.25720975305102E-4
1762 1762 1.02917388752504E-1
1762 1763 8.604797025949035E-4
1763 162 2.25854147483857E-4
1763 172 8.71080139372822E-2
1763 1762 8.604797025949035E-4
1763 1763 8.85012274499491E-2
1764 170 7.029690016982059E-5
1764 174 8.71080139372822E-2
1764 1764 8.73395737809664E-2
1764 1765 4.147377488710282E-10
1765 170 7.03177252918005E-5
1765 1764 4.147377488710282E-10
1765 1765 1.01876480858844E-1
1766 99 7.033380467033245E-5
1766 175 1.01626016260163E-1
1766 1766 1.01808162286867E-1
1766 1767 9.85486568900045E-9
1767 99 7.031196974362115E-5
1767 174 1.01626016260163E-1
1767 1766 9.85486568900045E-9
1767 1767 1.01802457397152E-1
1768 168 7.031769194410645E-5
1768 1768 1.01876480816611E-1
1768 1769 3.9628623282494596E-10
1769 168 7.029804050447E-5
1769 175 8.71080139372822E-2
1769 1768 3.9628623282494596E-10
1769 1769 8.73481342195443E-2
1770 32 7.031709607949896E-5
1770 177 1.21951219512195E-1
1770 1770 1.22236445550605E-1
1770 1771 2.85448788070676E-10
1771 32 7.02970173208233E-5
1771 171 2.03252032520325E-1
1771 1770 2.85448788070676E-10
1771 1771 2.03389455176002E-1
1772 176 7.031752219618705E-5
1772 1772 2.03435733224575E-1
1772 1773 1.0041600261125155E-9
1773 176 7.031663144180234E-5
1773 177 8.71080139372822E-2
1773 1772 1.0041600261125155E-9
1773 1773 8.74483321465148E-2
1774 1774 5.61830809720811E-2
1774 1775 4.78974924965972E-4
1775 176 4.69043151969981E-2
1775 1774 4.78974924965972E-4
1775 1775 4.76807366815518E-2
1776 179 7.029689356776331E-5
1776 180 8.71080139372822E-2
1776 1776 8.73395749036867E-2
1776 1777 4.0984371828357586E-10
1777 179 7.031768137875595E-5
1777 1776 4.0984371828357586E-10
1777 1777 1.01876480842133E-1
1778 95 7.033322174449004E-5
1778 181 1.01626016260163E-1
1778 1778 1.01808172557796E-1
1778 1779 9.233395588034339E-9
1779 95 7.031250066436026E-5
1779 180 1.01626016260163E-1
1779 1778 9.233395588034339E-9
1779 1779 1.01802458134005E-1
1780 176 7.031770510386126E-5
1780 1780 1.01876480805388E-1
1780 1781 3.97863409883161E-10
1781 176 7.02980457045419E-5
1781 181 8.71080139372822E-2
1781 1780 3.97863409883161E-10
1781 1781 8.73481515490021E-2
1782 95 1.133499287528935E-4
1782 179 4.0650406504065E-2
1782 1782 4.13476942132385E-2
1782 1783 4.30073116113524E-4
1783 95 1.130951252034845E-4
1783 1782 4.30073116113524E-4
1783 1783 5.14614927432332E-2
1784 176 3.515864103686635E-5
1784 1784 5.09407436410792E-2
1784 1785 6.195850714169499E-10
1785 176 3.523519155384075E-5
1785 179 4.0650406504065E-2
1785 1784 6.195850714169499E-10
1785 1785 4.08218871934218E-2
1786 11 7.031742180554771E-5
1786 184 1.21951219512195E-1
1786 1786 1.2223635543377E-1
1786 1787 3.1446330293433304E-10
1787 11 7.02970856121149E-5
1787 183 2.03252032520325E-1
1787 1786 3.1446330293433304E-10
1787 1787 2.03389419460846E-1
1788 176 7.031752777845895E-5
1788 1788 2.03435733216695E-1
1788 1789 9.89435126171033E-10
1789 176 7.031660130118835E-5
1789 184 8.71080139372822E-2
1789 1788 9.89435126171033E-10
1789 1789 8.74482244891598E-2
1790 183 1.26179956478752E-4
1790 1790 5.61892166023423E-2
1790 1791 4.79710107460432E-4
1791 183 1.2599922211375053E-4
1791 185 4.69043151969981E-2
1791 1790 4.79710107460432E-4
1791 1791 4.76760003406841E-2
1792 34 3.5148396230263155E-5
1792 187 4.0650406504065E-2
1792 1792 4.07661637468637E-2
1792 1793 1.6388736584398694E-10
1793 34 3.515853867801035E-5
1793 1792 1.6388736584398694E-10
1793 1793 5.09407431925926E-2
1794 176 3.5158819911479454E-5
1794 1794 5.09407434256906E-2
1794 1795 1.9497768624205937E-10
1795 176 3.514844995493E-5
1795 187 4.0650406504065E-2
1795 1794 1.9497768624205937E-10
1795 1795 4.07661637830366E-2
1796 112 4.0650406504065E-2
1796 185 3.51484600562156E-5
1796 1796 4.0766176645046E-2
1796 1797 2.006731616602451E-10
1797 185 3.515887301573335E-5
1797 1796 2.006731616602451E-10
1797 1797 5.09407434504943E-2
1798 34 3.515853865388845E-5
1798 1798 5.09407431925463E-2
1798 1799 1.638641126646412E-10
1799 34 3.514839785765535E-5
1799 112 4.0650406504065E-2
1799 1798 1.638641126646412E-10
1799 1799 4.07661766059834E-2
1800 112 1.1328402403579249E-4
1800 190 4.0650406504065E-2
1800 1800 4.13472909144227E-2
1800 1801 4.2981669562047547E-4
1801 112 1.13163564096036E-4
1801 1800 4.2981669562047547E-4
1801 1801 5.14613866488995E-2
1802 115 3.51586461924627E-5
1802 1802 5.09407436456119E-2
1802 1803 6.11473005396493E-10
1803 115 3.51948795726461E-5
1803 190 4.0650406504065E-2
1803 1802 6.11473005396493E-10
1803 1803 4.08218330740681E-2
1804 190 7.02969029861626E-5
1804 192 8.71080139372822E-2
1804 1804 8.73395881982928E-2
1804 1805 4.153991960060105E-10
1805 190 7.03177256229682E-5
1805 1804 4.153991960060105E-10
1805 1805 1.01876480854792E-1
1806 117 7.03332630798392E-5
1806 193 1.01626016260163E-1
1806 1806 1.01808171634319E-1
1806 1807 9.277404789956475E-9
1807 117 7.031246945959225E-5
1807 192 1.01626016260163E-1
1807 1806 9.277404789956475E-9
1807 1807 1.01802466966436E-1
1808 115 7.031770727754846E-5
1808 1808 1.01876480814097E-1
1808 1809 3.9813165092467233E-10
1809 115 7.02980459551397E-5
1809 193 8.71080139372822E-2
1809 1808 3.9813165092467233E-10
1809 1809 8.73481500168439E-2
1810 194 7.031714620826995E-5
1810 195 1.21951219512195E-1
1810 1810 1.2223634217505E-1
1810 1811 2.8729316835435556E-10
1811 117 2.03252032520325E-1
1811 194 7.02970369078927E-5
1811 1810 2.8729316835435556E-10
1811 1811 2.0338944381479E-1
1812 11 7.03179282428506E-5
1812 1812 2.034357321839E-1
1812 1813 1.121217499760725E-9
1813 11 7.031693891743765E-5
1813 195 8.71080139372822E-2
1813 1812 1.121217499760725E-9
1813 1813 8.74481966668516E-2
1814 187 1.262500399396035E-4
1814 1814 5.61885964075696E-2
1814 1815 4.790085246285265E-4
1815 187 1.25929587768923E-4
1815 194 4.69043151969981E-2
1815 1814 4.790085246285265E-4
1815 1815 4.76751612607557E-2
1816 196 7.03170929296461E-5
1816 197 1.21951219512195E-1
1816 1816 1.22236464610488E-1
1816 1817 2.856721427335367E-10
1817 133 2.03252032520325E-1
1817 196 7.02970149563576E-5
1817 1816 2.856721427335367E-10
1817 1817 2.03389457057749E-1
1818 141 7.031744339000724E-5
1818 1818 2.0343573319869E-1
1818 1819 9.82465603803559E-10
1819 141 7.031657013097204E-5
1819 197 8.71080139372822E-2
1819 1818 9.82465603803559E-10
1819 1819 8.74483561849979E-2
1820 199 1.21951219512195E-1
1820 1820 1.22697896989383E-1
1820 1821 2.452722373672045E-4
1821 198 2.03252032520325E-1
1821 1820 2.452722373672045E-4
1821 1821 2.03834219318349E-1
1822 1822 2.04473063842733E-1
1822 1823 8.73395271052504E-4
1823 199 8.71080139372822E-2
1823 1822 8.73395271052504E-4
1823 1823 8.85313529613722E-2
1824 200 1.26126987969983E-4
1824 1824 5.61887922698193E-2
1824 1825 4.793499661036125E-4
1825 200 1.2605184927624798E-4
1825 201 4.69043151969981E-2
1825 1824 4.793499661036125E-4
1825 1825 4.76757478616025E-2
1826 123 7.032066488768865E-5
1826 203 1.21951219512195E-1
1826 1826 1.22234985344239E-1
1826 1827 7.845201629104487E-10
1827 123 7.02977327197604E-5
1827 202 2.03252032520325E-1
1827 1826 7.845201629104487E-10
1827 1827 2.03389404409998E-1
1828 135 7.031987022532246E-5
1828 1828 2.03435732212235E-1
1828 1829 1.462421176183411E-9
1829 135 7.031785105835416E-5
1829 203 8.71080139372822E-2
1829 1828 1.462421176183411E-9
1829 1829 8.74464860372377E-2
1830 147 7.03161656658916E-5
1830 204 1.21951219512195E-1
1830 1830 1.22235751055065E-1
1830 1831 1.9688367202454113E-10
1831 147 7.029687522984161E-5
1831 200 2.03252032520325E-1
1831 1830 1.9688367202454113E-10
1831 1831 2.0338943546868E-1
1832 123 7.03218792838831E-5
1832 1832 2.03435735101305E-1
1832 1833 3.3039212005683747E-9
1833 123 7.03194718137697E-5
1833 204 8.71080139372822E-2
1833 1832 3.3039212005683747E-9
1833 1833 8.74474528576169E-2
1834 206 7.033129902463719E-5
1834 207 1.21951219512195E-1
1834 1834 1.2215683678194E-1
1834 1835 7.224316637501844E-9
1835 205 2.03252032520325E-1
1835 206 7.03142817997997E-5
1835 1834 7.224316637501844E-9
1835 1835 2.03389439557466E-1
1836 123 7.032234443647901E-5
1836 1836 2.03435733827812E-1
1836 1837 1.4951028009374237E-9
1837 123 7.02984194290755E-5
1837 207 8.71080139372822E-2
1837 1836 1.4951028009374237E-9
1837 1837 8.7347927756839E-2
1838 127 3.91760561881338E-5
1838 1838 5.56030649723785E-2
1838 1839 1.2330821944481805E-10
1839 127 3.916519891672405E-5
1839 206 4.69043151969981E-2
1839 1838 1.2330821944481805E-10
1839 1839 4.70333130089592E-2
1840 138 7.032095652776475E-5
1840 210 1.21951219512195E-1
1840 1840 1.22235402438768E-1
1840 1841 8.809893575317766E-10
1841 138 7.029768388043349E-5
1841 208 2.03252032520325E-1
1841 1840 8.809893575317766E-10
1841 1841 2.03389417633337E-1
1842 209 7.031762021205204E-5
1842 1842 2.03435733114247E-1
1842 1843 8.204135034742026E-10
1843 209 7.031630769177699E-5
1843 210 8.71080139372822E-2
1843 1842 8.204135034742026E-10
1843 1843 8.74470198187506E-2
1844 208 1.2618602712208748E-4
1844 1844 5.61892656689547E-2
1844 1845 4.7975178398951496E-4
1845 208 1.259931903999905E-4
1845 211 4.69043151969981E-2
1845 1844 4.7975178398951496E-4
1845 1845 4.76760297122716E-2
1846 212 1.262356268023365E-4
1846 1846 5.61879926327793E-2
1846 1847 4.78423998830456E-4
1847 212 1.259439099945225E-4
1847 213 4.69043151969981E-2
1847 1846 4.78423998830456E-4
1847 1847 4.76746077028128E-2
1848 213 7.031687009317245E-5
1848 214 1.21951219512195E-1
1848 1848 1.22235535913337E-1
1848 1849 2.4281626939670934E-10
1849 159 2.03252032520325E-1
1849 213 7.029706968187025E-5
1849 1848 2.4281626939670934E-10
1849 1849 2.03389441180395E-1
1850 138 7.032202515878355E-5
1850 1850 2.03435735089255E-1
1850 1851 3.23963018800673E-9
1851 138 7.03194152926739E-5
1851 214 8.71080139372822E-2
1851 1850 3.23963018800673E-9
1851 1851 8.74471804976132E-2
1852 144 7.031717435494476E-5
1852 215 1.21951219512195E-1
1852 1852 1.22236467023871E-1
1852 1853 2.933686309740133E-10
1853 68 2.03252032520325E-1
1853 144 7.029702822917215E-5
1853 1852 2.933686309740133E-10
1853 1853 2.03389444630928E-1
1854 91 7.031734995709555E-5
1854 1854 2.03435732174893E-1
1854 1855 9.532108327408806E-10
1855 91 7.03164882764698E-5
1855 215 8.71080139372822E-2
1855 1854 9.532108327408806E-10
1855 1855 8.74483549908851E-2
1856 120 1.132347690232245E-4
1856 196 4.0650406504065E-2
1856 1856 4.13481800000498E-2
1856 1857 4.30811965312034E-4
1857 120 1.132147507960665E-4
1857 1856 4.30811965312034E-4
1857 1857 5.14624904583283E-2
1858 119 1.132147232955475E-4
1858 1858 5.14620958136252E-2
1858 1859 4.30416017343401E-4
1859 119 1.13234791435992E-4
1859 196 4.0650406504065E-2
1859 1858 4.30416017343401E-4
1859 1859 4.13477827956838E-2
1860 218 4.0650406504065E-2
1860 1860 4.10408808804364E-2
1860 1861 1.22561037433409E-4
1861 1860 1.22561037433409E-4
1861 1861 5.11532439748354E-2
1862 1862 5.1460933576562E-2
1862 1863 4.31072239377016E-4
1863 218 4.0650406504065E-2
1863 1862 4.31072239377016E-4
1863 1863 4.1350231791342E-2
1864 201 3.5148458421513053E-5
1864 220 4.0650406504065E-2
1864 1864 4.07661848276209E-2
1864 1865 1.9879994694014542E-10
1865 201 3.5158856298590755E-5
1865 1864 1.9879994694014542E-10
1865 1865 5.0940743445303E-2
1866 127 3.5157990082543446E-5
1866 1866 5.09407433535596E-2
1866 1867 1.0929622900707291E-10
1867 127 3.514825586518145E-5
1867 220 4.0650406504065E-2
1867 1866 1.0929622900707291E-10
1867 1867 4.07661848450395E-2
1868 123 7.032153088709395E-5
1868 223 1.52439024390244E-1
1868 1868 1.52702602020403E-1
1868 1869 1.1335256653147653E-9
1869 123 7.02974568827777E-5
1869 221 1.01626016260163E-1
1869 1868 1.1335256653147653E-9
1869 1869 1.01812056960151E-1
1870 158 7.031758108639505E-5
1870 1870 1.01892454527047E-1
1870 1871 1.0896675183068094E-9
1871 158 7.03168266165145E-5
1871 223 8.71080139372822E-2
1871 1870 1.0896675183068094E-9
1871 1871 8.7448761012579E-2
1872 127 7.031510912275495E-5
1872 223 8.71080139372822E-2
1872 1872 8.74487609237671E-2
1872 1873 5.92616674552919E-10
1873 127 7.0315910231367E-5
1873 1872 5.92616674552919E-10
1873 1873 1.01892454158398E-1
1874 149 3.514824829704065E-5
1874 212 4.0650406504065E-2
1874 1874 4.07661900306527E-2
1874 1875 1.0696243921295765E-10
1875 149 3.515796619683215E-5
1875 1874 1.0696243921295765E-10
1875 1875 5.09407433581954E-2
1876 209 3.5158840303575804E-5
1876 1876 5.09407434284403E-2
1876 1877 1.9738894760207646E-10
1877 209 3.514845703396125E-5
1877 212 4.0650406504065E-2
1877 1876 1.9738894760207646E-10
1877 1877 4.07661900083421E-2
1878 155 4.0650406504065E-2
1878 211 3.514846156124035E-5
1878 1878 4.07661857402383E-2
1878 1879 2.0087740205533194E-10
1879 211 3.51588687307008E-5
1879 1878 2.0087740205533194E-10
1879 1879 5.09407434366759E-2
1880 149 3.51579662026319E-5
1880 1880 5.09407433582055E-2
1880 1881 1.0696747135036648E-10
1881 149 3.514824778286775E-5
1881 155 4.0650406504065E-2
1881 1880 1.0696747135036648E-10
1881 1881 4.07661857622463E-2
1882 227 7.029691531245995E-5
1882 228 8.71080139372822E-2
1882 1882 8.73396330001733E-2
1882 1883 4.2012284523124356E-10
1883 227 7.0317763332909E-5
1883 1882 4.2012284523124356E-10
1883 1883 1.01876480863956E-1
1884 159 7.0333274272915E-5
1884 229 1.01626016260163E-1
1884 1884 1.01808167972804E-1
1884 1885 9.289720847532411E-9
1885 159 7.03124816702324E-5
1885 228 1.01626016260163E-1
1885 1884 9.289720847532411E-9
1885 1885 1.01802496715772E-1
1886 153 7.03177808155094E-5
1886 1886 1.01876480821561E-1
1886 1887 4.072240461315687E-10
1887 153 7.029806075268345E-5
1887 229 8.71080139372822E-2
1887 1886 4.072240461315687E-10
1887 1887 8.7348144464811E-2
1888 155 1.13227745519946E-4
1888 227 4.0650406504065E-2
1888 1888 4.13468742012857E-2
1888 1889 4.29525765294454E-4
1889 155 1.132220201641885E-4
1889 1888 4.29525765294454E-4
1889 1889 5.14612245393223E-2
1890 153 3.515868266854255E-5
1890 1890 5.09407436537208E-2
1890 1891 6.18015681041892E-10
1891 153 3.5160388382657695E-5
1891 227 4.0650406504065E-2
1891 1890 6.18015681041892E-10
1891 1891 4.08217869566599E-2
1892 231 2.258003236140485E-4
1892 234 1.52439024390244E-1
1892 1892 1.53754480428925E-1
1892 1893 8.606764848937725E-4
1893 231 2.257759126306535E-4
1893 232 1.01626016260163E-1
1893 1892 8.606764848937725E-4
1893 1893 1.02933617546333E-1
1894 158 7.031744297067571E-5
1894 1894 1.01892454580024E-1
1894 1895 1.312309400282965E-9
1895 158 7.031741224834135E-5
1895 234 8.71080139372822E-2
1895 1894 1.312309400282965E-9
1895 1895 8.74507077458272E-2
1896 205 2.256896405215375E-4
1896 234 8.71080139372822E-2
1896 1896 8.84922444441141E-2
1896 1897 8.61086391904801E-4
1897 205 2.258871591360605E-4
1897 1896 8.61086391904801E-4
1897 1897 1.02943477853006E-1
1898 6 7.029646442769676E-5
1898 236 8.71080139372822E-2
1898 1898 8.73396326798062E-2
1898 1899 2.1767717985651145E-10
1899 6 7.03158802085141E-5
1899 1898 2.1767717985651145E-10
1899 1899 1.01876480672732E-1
1900 83 7.031680070748546E-5
1900 237 1.01626016260163E-1
1900 1900 1.01873969176097E-1
1900 1901 2.342537529317168E-10
1901 83 7.02970708249453E-5
1901 236 1.01626016260163E-1
1901 1900 2.342537529317168E-10
1901 1901 1.01802444339741E-1
1902 1 7.032260471868479E-5
1902 1902 1.01876480702795E-1
1902 1903 3.65622393707647E-9
1903 1 7.031961093748515E-5
1903 237 8.71080139372822E-2
1903 1902 3.65622393707647E-9
1903 1903 8.7447134808626E-2
1904 236 1.260661254552215E-4
1904 1904 5.61833176685699E-2
1904 1905 4.791013334515055E-4
1905 236 1.261117131558125E-4
1905 238 4.69043151969981E-2
1905 1904 4.791013334515055E-4
1905 1905 4.76808235537747E-2
1906 240 7.029691230099895E-5
1906 241 8.71080139372822E-2
1906 1906 8.7339662155558E-2
1906 1907 4.227759203769466E-10
1907 240 7.031778317132225E-5
1907 1906 4.227759203769466E-10
1907 1907 1.01876480864371E-1
1908 242 7.033334492395255E-5
1908 243 1.01626016260163E-1
1908 1908 1.01808173960476E-1
1908 1909 9.364046710357693E-9
1909 241 1.01626016260163E-1
1909 242 7.031239154248965E-5
1909 1908 9.364046710357693E-9
1909 1909 1.01802464007693E-1
1910 141 7.031762361413261E-5
1910 1910 1.01876480793222E-1
1910 1911 3.880263145668213E-10
1911 141 7.029802843945015E-5
1911 243 8.71080139372822E-2
1911 1910 3.880263145668213E-10
1911 1911 8.734823511781E-2
1912 245 2.25778394675449E-4
1912 247 1.21951219512195E-1
1912 1912 1.23279202414041E-1
1912 1913 8.603004147579185E-4
1913 244 2.03252032520325E-1
1913 245 2.2579782534240251E-4
1913 1912 8.603004147579185E-4
1913 1913 2.0448583210498E-1
1914 246 2.25860101367605E-4
1914 1914 2.04487050131566E-1
1914 1915 8.614103614349905E-4
1915 246 2.25716522999548E-4
1915 247 8.71080139372822E-2
1915 1914 8.614103614349905E-4
1915 1915 8.84927425675689E-2
1916 244 3.91770147372577E-5
1916 1916 5.56030650414399E-2
1916 1917 2.242586239001321E-10
1917 244 3.91654239577943E-5
1917 248 4.69043151969981E-2
1917 1916 2.242586239001321E-10
1917 1917 4.70333618955432E-2
1918 248 1.258742923623465E-4
1918 1918 5.61830268056644E-2
1918 1919 4.792283138567435E-4
1919 141 4.69043151969981E-2
1919 248 1.262972634021465E-4
1919 1918 4.792283138567435E-4
1919 1919 4.76813613186969E-2
1920 94 7.033309430460206E-5
1920 249 1.21951219512195E-1
1920 1920 1.22157030761492E-1
1920 1921 9.096646850021385E-9
1921 94 7.03125960396278E-5
1921 242 2.03252032520325E-1
1921 1920 9.096646850021385E-9
1921 1921 2.03389441728715E-1
1922 91 7.031752556136515E-5
1922 1922 2.03435731782035E-1
1922 1923 3.764164070506294E-10
1923 91 7.029800925060584E-5
1923 249 8.71080139372822E-2
1923 1922 3.764164070506294E-10
1923 1923 8.73482493428848E-2
1924 196 7.031681553709584E-5
1924 251 1.21951219512195E-1
1924 1924 1.22235628124775E-1
1924 1925 2.40683646274899E-10
1925 196 7.02970463806664E-5
1925 250 2.03252032520325E-1
1925 1924 2.40683646274899E-10
1925 1925 2.03389441271604E-1
1926 9 7.032162790046785E-5
1926 1926 2.03435734744071E-1
1926 1927 2.97116360405463E-9
1927 9 7.031925930995795E-5
1927 251 8.71080139372822E-2
1927 1926 2.97116360405463E-9
1927 1927 8.74474163905222E-2
1928 253 1.21951219512195E-1
1928 1928 1.2269037361759E-1
1928 1929 2.30566839708541E-4
1929 252 2.03252032520325E-1
1929 1928 2.30566839708541E-4
1929 1929 2.03809357606345E-1
1930 1930 2.04473480684102E-1
1930 1931 8.719928093550325E-4
1931 253 8.71080139372822E-2
1931 1930 8.719928093550325E-4
1931 1931 8.85280897635103E-2
1932 105 3.917697567928395E-5
1932 1932 5.56030650265228E-2
1932 1933 2.1947931903527225E-10
1933 105 3.916541708427045E-5
1933 254 4.69043151969981E-2
1933 1932 2.1947931903527225E-10
1933 1933 4.70333626889333E-2
1934 256 7.031622355039091E-5
1934 258 1.21951219512195E-1
1934 1934 1.22235767351309E-1
1934 1935 2.0100087923033085E-10
1935 255 2.03252032520325E-1
1935 256 7.029688686243415E-5
1935 1934 2.0100087923033085E-10
1935 1935 2.03389432846146E-1
1936 257 7.032171923406714E-5
1936 1936 2.03435734954903E-1
1936 1937 3.17001997852418E-9
1937 257 7.031939446051994E-5
1937 258 8.71080139372822E-2
1937 1936 3.17001997852418E-9
1937 1937 8.74475930403186E-2
1938 260 7.03314155839771E-5
1938 261 1.21951219512195E-1
1938 1938 1.2215684148903E-1
1938 1939 7.346113115131348E-9
1939 259 2.03252032520325E-1
1939 260 7.03141727194703E-5
1939 1938 7.346113115131348E-9
1939 1939 2.03389436580584E-1
1940 257 7.032216811987E-5
1940 1940 2.03435733729944E-1
1940 1941 1.4294792252398266E-9
1941 257 7.029843115110719E-5
1941 261 8.71080139372822E-2
1941 1940 1.4294792252398266E-9
1941 1941 8.7348015163648E-2
1942 262 3.9176040522720995E-5
1942 1942 5.56030649740516E-2
1942 1943 1.2196828128514092E-10
1943 260 4.69043151969981E-2
1943 262 3.9165193646513506E-5
1943 1942 1.2196828128514092E-10
1943 1943 4.70333522840789E-2
1944 263 1.21951219512195E-1
1944 1944 1.23298741166629E-1
1944 1945 8.473261277275495E-4
1945 257 2.03252032520325E-1
1945 1944 8.473261277275495E-4
1945 1945 2.04435628142579E-1
1946 1946 2.03856295779127E-1
1946 1947 2.4885689336652647E-4
1947 263 8.71080139372822E-2
1947 1946 2.4885689336652647E-4
1947 1947 8.78983740697751E-2
1948 255 1.261274645725575E-4
1948 1948 5.6188865273904E-2
1948 1949 4.7942215056784104E-4
1949 255 1.260513757290715E-4
1949 264 4.69043151969981E-2
1949 1948 4.7942215056784104E-4
1949 1949 4.7675887578206E-2
1950 266 1.21951219512195E-1
1950 1950 1.23298388639661E-1
1950 1951 8.467934697807575E-4
1951 265 2.03252032520325E-1
1951 1950 8.467934697807575E-4
1951 1951 2.04434835568411E-1
1952 1952 2.03856434602462E-1
1952 1953 2.487846886492325E-4
1953 266 8.71080139372822E-2
1953 1952 2.487846886492325E-4
1953 1953 8.78980911632368E-2
1954 267 3.917702448070835E-5
1954 1954 5.56030650451262E-2
1954 1955 2.2546679466425084E-10
1955 267 3.9165425617748004E-5
1955 268 4.69043151969981E-2
1955 1954 2.2546679466425084E-10
1955 1955 4.70333614014372E-2
1956 220 2.258558489483905E-4
1956 270 1.21951219512195E-1
1956 1956 1.23288404098859E-1
1956 1957 8.601362826347789E-4
1957 220 2.2572074834959952E-4
1957 269 2.03252032520325E-1
1957 1956 8.601362826347789E-4
1957 1957 2.04476329911368E-1
1958 268 2.258114729035435E-4
1958 1958 2.04486006112434E-1
1958 1959 8.604276894394469E-4
1959 268 2.257648360014355E-4
1959 270 8.71080139372822E-2
1959 1958 8.604276894394469E-4
1959 1959 8.84918605529571E-2
1960 272 7.03171147399193E-5
1960 273 1.21951219512195E-1
1960 1960 1.22236238536967E-1
1960 1961 2.8160877607143655E-10
1961 271 2.03252032520325E-1
1961 272 7.029704041484825E-5
1961 1960 2.8160877607143655E-10
1961 1961 2.03389437164813E-1
1962 198 7.03184238142104E-5
1962 1962 2.03435732167222E-1
1962 1963 1.287119099082079E-9
1963 198 7.031731101091949E-5
1963 273 8.71080139372822E-2
1963 1962 1.287119099082079E-9
1963 1963 8.74481847547411E-2
1964 149 3.91760297992463E-5
1964 1964 5.5603064980513E-2
1964 1965 1.206836836281423E-10
1965 149 3.9165189450951355E-5
1965 274 4.69043151969981E-2
1965 1964 1.206836836281423E-10
1965 1965 4.70333545812497E-2
1966 138 3.917961342370365E-5
1966 1966 5.56030634408705E-2
1966 1967 8.473145059216032E-10
1967 138 3.916555703151215E-5
1967 275 4.69043151969981E-2
1967 1966 8.473145059216032E-10
1967 1967 4.70333016749699E-2
1968 274 7.033129718248026E-5
1968 277 1.21951219512195E-1
1968 1968 1.2215683186188E-1
1968 1969 7.222959460283085E-9
1969 274 7.031428434784135E-5
1969 276 2.03252032520325E-1
1969 1968 7.222959460283085E-9
1969 1969 2.03389438855452E-1
1970 138 7.03224616549843E-5
1970 1970 2.03435733889758E-1
1970 1971 1.5399351863679914E-9
1971 138 7.02984099333618E-5
1971 277 8.71080139372822E-2
1971 1970 1.5399351863679914E-9
1971 1971 8.73480033065808E-2
1972 272 7.03171740796018E-5
1972 279 1.21951219512195E-1
1972 1972 1.2223641501347E-1
1972 1973 2.9185926049298933E-10
1973 272 7.029703794068649E-5
1973 278 2.03252032520325E-1
1973 1972 2.9185926049298933E-10
1973 1973 2.03389455956259E-1
1974 209 7.031756337871556E-5
1974 1974 2.03435733235862E-1
1974 1975 1.0116326262017695E-9
1975 209 7.031665483511366E-5
1975 279 8.71080139372822E-2
1975 1974 1.0116326262017695E-9
1975 1975 8.74484134220771E-2
1976 65 3.917654651903645E-5
1976 1976 5.56030647157E-2
1976 1977 1.7305996483139549E-10
1977 65 3.91653306448531E-5
1977 280 4.69043151969981E-2
1977 1976 1.7305996483139549E-10
1977 1977 4.70333354918401E-2
1978 280 7.033317675914745E-5
1978 282 1.21951219512195E-1
1978 1978 1.22156991624459E-1
1978 1979 9.188813993016131E-9
1979 280 7.03125309444505E-5
1979 281 2.03252032520325E-1
1979 1978 9.188813993016131E-9
1979 1979 2.03389439101991E-1
1980 54 7.03182462948489E-5
1980 1980 2.0343573168024E-1
1980 1981 4.693816875194035E-10
1981 54 7.029815071241385E-5
1981 282 8.71080139372822E-2
1981 1980 4.693816875194035E-10
1981 1981 8.7348199612756E-2
1982 284 1.21951219512195E-1
1982 1982 1.22698128031055E-1
1982 1983 2.4577102704682E-4
1983 283 2.03252032520325E-1
1983 1982 2.4577102704682E-4
1983 1983 2.03835082920384E-1
1984 1984 2.04473053304116E-1
1984 1985 8.73430911478003E-4
1985 284 8.71080139372822E-2
1985 1984 8.73430911478003E-4
1985 1985 8.8531562390234E-2
1986 240 4.0650406504065E-2
1986 242 1.13197359146641E-4
1986 1986 4.13426875721746E-2
1986 1987 4.2991636576591053E-4
1987 242 1.1325269577306749E-4
1987 1986 4.2991636576591053E-4
1987 1987 5.14662519565786E-2
1988 141 3.51586138872327E-5
1988 1988 5.09407436298296E-2
1988 1989 5.86710087277376E-10
1989 141 3.5158605718636454E-5
1989 240 4.0650406504065E-2
1989 1988 5.86710087277376E-10
1989 1989 4.08218452408065E-2
1990 246 1.132728471494815E-4
1990 287 4.0650406504065E-2
1990 1990 4.13477736310254E-2
1990 1991 4.30240376519537E-4
1991 246 1.13175179277003E-4
1991 1990 4.30240376519537E-4
1991 1991 5.14618341386004E-2
1992 250 1.1317516602162101E-4
1992 1992 5.14616498778158E-2
1992 1993 4.300554782504495E-4
1993 250 1.132728592157475E-4
1993 287 4.0650406504065E-2
1993 1992 4.300554782504495E-4
1993 1993 4.13475881061368E-2
1994 245 1.13236510697902E-4
1994 289 4.0650406504065E-2
1994 1994 4.13470916748111E-2
1994 1995 4.296410780574435E-4
1995 245 1.1321291541314401E-4
1995 1994 4.296410780574435E-4
1995 1995 5.14613195255999E-2
1996 250 1.132129570755895E-4
1996 1996 5.14616667527452E-2
1996 1997 4.29989458101798E-4
1997 250 1.1323647729252149E-4
1997 289 4.0650406504065E-2
1997 1996 4.29989458101798E-4
1997 1997 4.13474411308107E-2
1998 256 4.0650406504065E-2
1998 1998 4.10418386555654E-2
1998 1999 1.22784192662766E-4
1999 1998 1.22784192662766E-4
1999 1999 5.11528015208284E-2
2000 2000 5.14608366756973E-2
2000 2001 4.314425010321965E-4
2001 256 4.0650406504065E-2
2001 2000 4.314425010321965E-4
2001 2001 4.1351151468543E-2
2002 262 4.0650406504065E-2
2002 2002 4.13585953095764E-2
2002 2003 4.346709283964205E-4
2003 2002 4.346709283964205E-4
2003 2003 5.14599597841672E-2
2004 2004 5.11488527392166E-2
2004 2005 1.24754028620244E-4
2005 262 4.0650406504065E-2
2005 2004 1.24754028620244E-4
2005 2005 4.10496385880489E-2
2006 264 3.51484593278248E-5
2006 293 4.0650406504065E-2
2006 2006 4.07662438142528E-2
2006 2007 1.9880194511033357E-10
2007 264 3.5158855950596606E-5
2007 2006 1.9880194511033357E-10
2007 2007 5.09407434448748E-2
2008 262 3.51579759555044E-5
2008 2008 5.09407433541864E-2
2008 2009 1.080956997340982E-10
2009 262 3.514825251922755E-5
2009 293 4.0650406504065E-2
2009 2008 1.080956997340982E-10
2009 2009 4.07662438324025E-2
2010 295 4.0650406504065E-2
2010 2010 4.1358903838556E-2
2010 2011 4.348021834322895E-4
2011 2010 4.348021834322895E-4
2011 2011 5.14599228508988E-2
2012 2012 5.1148689176995E-2
2012 2013 1.2483513370627701E-4
2013 295 4.0650406504065E-2
2013 2012 1.2483513370627701E-4
2013 2013 4.10499623101878E-2
2014 202 1.13166850847552E-4
2014 267 4.0650406504065E-2
2014 2014 4.13435020324926E-2
2014 2015 4.307957952675115E-4
2015 202 1.132834019956485E-4
2015 2014 4.307957952675115E-4
2015 2015 5.14671710011838E-2
2016 274 1.132833133920685E-4
2016 2016 5.14660347288391E-2
2016 2017 4.296633082256005E-4
2017 267 4.0650406504065E-2
2017 274 1.131669396993685E-4
2017 2016 4.296633082256005E-4
2017 2017 4.13423741824233E-2
2018 202 1.13076057585577E-4
2018 272 4.0650406504065E-2
2018 2018 4.13431789363685E-2
2018 2019 4.306553557230455E-4
2019 202 1.1337477968983249E-4
2019 2018 4.306553557230455E-4
2019 2019 5.14671392816063E-2
2020 275 1.13374772913037E-4
2020 2020 5.14669840152126E-2
2020 2021 4.30500596547597E-4
2021 272 4.0650406504065E-2
2021 275 1.1307606460102699E-4
2021 2020 4.30500596547597E-4
2021 2021 4.13430248083862E-2
2022 299 4.0650406504065E-2
2022 2022 4.10403040794914E-2
2022 2023 1.2239383933253652E-4
2023 2022 1.2239383933253652E-4
2023 2023 5.11535799790429E-2
2024 2024 5.1461006318779E-2
2024 2025 4.307927308142155E-4
2025 299 4.0650406504065E-2
2025 2024 4.307927308142155E-4
2025 2025 4.13496846704345E-2
2026 283 7.031814279156651E-5
2026 303 1.52439024390244E-1
2026 2026 1.52702929102226E-1
2026 2027 4.24562594782207E-10
2027 283 7.02971157807617E-5
2027 300 1.01626016260163E-1
2027 2026 4.24562594782207E-10
2027 2027 1.01812022208605E-1
2028 302 7.031756301513156E-5
2028 2028 1.0189245456121E-1
2028 2029 1.152841613589845E-9
2029 302 7.0316971588053E-5
2029 303 8.71080139372822E-2
2029 2028 1.152841613589845E-9
2029 2029 8.74493450151121E-2
2030 299 7.03165459897156E-5
2030 303 8.71080139372822E-2
2030 2030 8.74493442462375E-2
2030 2031 9.89778949927439E-10
2031 299 7.031709913919029E-5
2031 2030 9.89778949927439E-10
2031 2031 1.01892453983911E-1
2032 305 7.029692632099771E-5
2032 306 8.71080139372822E-2
2032 2032 8.73396332871318E-2
2032 2033 4.3661515823226585E-10
2033 305 7.031788838750464E-5
2033 2032 4.3661515823226585E-10
2033 2033 1.01876480611148E-1
2034 300 7.03344133258462E-5
2034 308 1.01626016260163E-1
2034 2034 1.01808181701752E-1
2034 2035 1.050128466854538E-8
2035 300 7.031139199982104E-5
2035 306 1.01626016260163E-1
2035 2034 1.050128466854538E-8
2035 2035 1.0180244487307E-1
2036 307 7.031705285101024E-5
2036 2036 1.01876476988811E-1
2036 2037 3.252548021254993E-10
2037 307 7.029790061168154E-5
2037 308 8.71080139372822E-2
2037 2036 3.252548021254993E-10
2037 2037 8.73482426234081E-2
2038 305 8.71080139372822E-2
2038 307 7.03166782513308E-5
2038 2038 8.74506027660263E-2
2038 2039 1.0264231184787149E-9
2039 307 7.031678380773414E-5
2039 2038 1.0264231184787149E-9
2039 2039 1.01876477391056E-1
2040 310 2.260344278773845E-4
2040 312 1.01626016260163E-1
2040 2040 1.02927328727384E-1
2040 2041 8.60826892786807E-4
2041 305 1.01626016260163E-1
2041 310 2.2554331779966E-4
2041 2040 8.60826892786807E-4
2041 2041 1.02917371584353E-1
2042 311 2.25919285234596E-4
2042 2042 1.02927459667297E-1
2042 2043 8.61003527151329E-4
2043 311 2.25657721964793E-4
2043 312 8.71080139372822E-2
2043 2042 8.61003527151329E-4
2043 2043 8.84922183950669E-2
2044 307 8.71080139372822E-2
2044 314 7.147629418905675E-5
2044 2044 8.74526598124617E-2
2044 2045 7.54528555003412E-9
2045 314 7.032092658714745E-5
2045 2044 7.54528555003412E-9
2045 2045 1.01876478031806E-1
2046 315 1.01626016260163E-1
2046 2046 1.02967811354251E-1
2046 2047 8.83934885888881E-4
2047 307 1.01626016260163E-1
2047 2046 8.83934885888881E-4
2047 2047 1.02922968998063E-1
2048 2048 1.02282847370485E-1
2048 2049 2.565389629438585E-4
2049 315 8.71080139372822E-2
2049 2048 2.565389629438585E-4
2049 2049 8.79282836710649E-2
2050 314 4.0650406504065E-2
2050 2050 4.13154193041662E-2
2050 2051 4.176837948951825E-4
2051 2050 4.176837948951825E-4
2051 2051 5.14632334214447E-2
2052 2052 5.11512747706264E-2
2052 2053 9.950606779610699E-5
2053 314 4.0650406504065E-2
2053 2052 9.950606779610699E-5
2053 2053 4.09889807717034E-2
2054 318 7.029690930572285E-5
2054 319 8.71080139372822E-2
2054 2054 8.73396506034313E-2
2054 2055 4.216740115086912E-10
2055 318 7.03177744422006E-5
2055 2054 4.216740115086912E-10
2055 2055 1.0187648086642E-1
2056 68 7.033325826330354E-5
2056 320 1.01626016260163E-1
2056 2056 1.01808172660001E-1
2056 2057 9.272176267500997E-9
2057 68 7.03124659636772E-5
2057 319 1.01626016260163E-1
2057 2056 9.272176267500997E-9
2057 2057 1.01802456341892E-1
2058 82 7.03176874505681E-5
2058 2058 1.01876480813564E-1
2058 2059 3.957134021870358E-10
2059 82 7.029804193690501E-5
2059 320 8.71080139372822E-2
2059 2058 3.957134021870358E-10
2059 2059 8.73482334261461E-2
2060 147 3.9176593282027895E-5
2060 2060 5.56030647172939E-2
2060 2061 1.7758976532614624E-10
2061 147 3.9165342538670356E-5
2061 160 4.69043151969981E-2
2061 2060 1.7758976532614624E-10
2061 2061 4.70333538806168E-2
2062 205 7.033819132886225E-5
2062 322 1.52439024390244E-1
2062 2062 1.52631380842735E-1
2062 2063 1.4519721299644321E-8
2063 205 7.03077442476218E-5
2063 231 1.01626016260163E-1
2063 2062 1.4519721299644321E-8
2063 2063 1.01812097059004E-1
2064 156 7.031777440811356E-5
2064 2064 1.01892454085781E-1
2064 2065 4.05755184889897E-10
2065 156 7.029811941380715E-5
2065 322 8.71080139372822E-2
2065 2064 4.05755184889897E-10
2065 2065 8.7348659927247E-2
2066 147 7.02979455483838E-5
2066 322 8.71080139372822E-2
2066 2066 8.73486598473718E-2
2066 2067 3.20313408007439E-10
2067 147 7.031700742846054E-5
2067 2066 3.20313408007439E-10
2067 2067 1.01892453574347E-1
2068 324 7.03171024608601E-5
2068 326 1.21951219512195E-1
2068 2068 1.2223626240549E-1
2068 2069 2.8113265852905687E-10
2069 323 2.03252032520325E-1
2069 324 7.029703502575081E-5
2069 2068 2.8113265852905687E-10
2069 2069 2.03389437540272E-1
2070 325 7.03183471388313E-5
2070 2070 2.03435732162353E-1
2070 2071 1.2620579515182334E-9
2071 325 7.0317257794694E-5
2071 326 7.62195121951219E-2
2071 2070 1.2620579515182334E-9
2071 2071 7.6570049783373E-2
2072 323 1.261184100171065E-4
2072 2072 5.61887373966176E-2
2072 2073 4.7930559210693246E-4
2073 323 1.260603716625875E-4
2073 327 4.35540069686411E-2
2073 2072 4.7930559210693246E-4
2073 2073 4.4331300967615E-2
2074 327 7.031737723587581E-5
2074 329 1.52439024390244E-1
2074 2074 1.52703007493413E-1
2074 2075 3.361972765330725E-10
2075 245 1.01626016260163E-1
2075 327 7.029698012169055E-5
2075 2074 3.361972765330725E-10
2075 2075 1.0181211302614E-1
2076 166 7.031749694611566E-5
2076 2076 1.01892454552574E-1
2076 2077 1.1429066878912801E-9
2077 166 7.03169475779995E-5
2077 329 7.62195121951219E-2
2077 2076 1.1429066878912801E-9
2077 2077 7.65713326824631E-2
2078 238 7.031694271547294E-5
2078 329 7.62195121951219E-2
2078 2078 7.65713326801075E-2
2078 2079 1.14091322420427E-9
2079 238 7.031749131806395E-5
2079 2078 1.14091322420427E-9
2079 2079 1.01892454550031E-1
2080 330 1.261380769582115E-4
2080 2080 5.61882360085367E-2
2080 2081 4.787824439237675E-4
2081 330 1.26040832347375E-4
2081 331 4.35540069686411E-2
2081 2080 4.787824439237675E-4
2081 2081 4.43307398497484E-2
2082 332 3.917702422477965E-5
2082 2082 5.56030650446904E-2
2082 2083 2.2543506613659795E-10
2083 332 3.9165425567878946E-5
2083 333 4.35540069686411E-2
2083 2082 2.2543506613659795E-10
2083 2083 4.36864632795942E-2
2084 293 2.25880056460109E-4
2084 335 1.21951219512195E-1
2084 2084 1.23288031620853E-1
2084 2085 8.597573486986095E-4
2085 293 2.25696697854652E-4
2085 334 2.03252032520325E-1
2085 2084 8.597573486986095E-4
2085 2085 2.04475903983481E-1
2086 333 2.25838307969412E-4
2086 2086 2.0448599857655E-1
2086 2087 8.603883214860775E-4
2087 333 2.257381754239935E-4
2087 335 7.62195121951219E-2
2087 2086 8.603883214860775E-4
2087 2087 7.76137065131784E-2
2088 238 3.51484548010623E-5
2088 330 3.8109756097561E-2
2088 2088 3.82286377178803E-2
2088 2089 1.9669207120123863E-10
2089 238 3.515883448637195E-5
2089 2088 1.9669207120123863E-10
2089 2089 5.09407434370534E-2
2090 166 3.515883747249365E-5
2090 2090 5.09407434378857E-2
2090 2091 1.9703359812124437E-10
2091 166 3.5148455308949204E-5
2091 330 3.8109756097561E-2
2091 2090 1.9703359812124437E-10
2091 2091 3.82286377179182E-2
2092 332 3.8109756097561E-2
2092 338 1.131675619450375E-4
2092 2092 3.88081220056334E-2
2092 2093 4.308524868220575E-4
2093 338 1.132826862481975E-4
2093 2092 4.308524868220575E-4
2093 2093 5.14672270371107E-2
2094 339 1.132825662951125E-4
2094 2094 5.14658882523227E-2
2094 2095 4.295182480476235E-4
2095 332 3.8109756097561E-2
2095 339 1.1316768207785501E-4
2095 2094 4.295182480476235E-4
2095 2095 3.88067931968228E-2
2096 257 7.03205253107441E-5
2096 340 1.21951219512195E-1
2096 2096 1.22235001695177E-1
2096 2097 7.526154346988802E-10
2097 257 7.02977202289241E-5
2097 338 2.03252032520325E-1
2097 2096 7.526154346988802E-10
2097 2097 2.03389402190311E-1
2098 252 7.03200787465336E-5
2098 2098 2.03435732295134E-1
2098 2099 1.5654757222190934E-9
2099 252 7.03179978283186E-5
2099 340 7.62195121951219E-2
2099 2098 1.5654757222190934E-9
2099 2099 7.6568398852979E-2
2100 265 3.91795093284535E-5
2100 2100 5.56030634433108E-2
2100 2101 8.080519440290645E-10
2101 265 3.916556672002775E-5
2101 341 4.35540069686411E-2
2101 2100 8.080519440290645E-10
2101 2101 4.36864025932949E-2
2102 252 3.9178408752249845E-5
2102 2102 5.56030609805671E-2
2102 2103 4.72603287946277E-10
2103 252 3.9165584438415396E-5
2103 342 4.35540069686411E-2
2103 2102 4.72603287946277E-10
2103 2103 4.36864130482289E-2
2104 324 3.8109756097561E-2
2104 338 1.131092611971645E-4
2104 2104 3.88079127280802E-2
2104 2105 4.307622962970365E-4
2105 338 1.13341363232736E-4
2105 2104 4.307622962970365E-4
2105 2105 5.14672066593035E-2
2106 341 1.13341352564634E-4
2106 2106 5.14669716545195E-2
2106 2107 4.30528084754372E-4
2107 324 3.8109756097561E-2
2107 341 1.131092721303045E-4
2107 2106 4.30528084754372E-4
2107 2107 3.88076794415176E-2
2108 256 3.515834315615265E-5
2108 345 3.8109756097561E-2
2108 2108 3.82863755362769E-2
2108 2109 4.914880751114875E-10
2109 256 3.5158361555527804E-5
2109 2108 4.914880751114875E-10
2109 2109 5.09407433669725E-2
2110 342 1.13292352556825E-4
2110 2110 5.14667943819528E-2
2110 2111 4.304099012624275E-4
2111 342 1.13157958205729E-4
2111 345 3.8109756097561E-2
2111 2110 4.304099012624275E-4
2111 2111 3.88076612526889E-2
2112 256 3.917662426354275E-5
2112 2112 5.56030647056429E-2
2112 2113 1.8067719061542065E-10
2113 256 3.91653485214527E-5
2113 346 4.35540069686411E-2
2113 2112 1.8067719061542065E-10
2113 2113 4.36864530775357E-2
2114 348 7.031687784897686E-5
2114 349 1.21951219512195E-1
2114 2114 1.2223558295803E-1
2114 2115 2.4456816673526053E-10
2115 347 2.03252032520325E-1
2115 348 7.029706615054715E-5
2115 2114 2.4456816673526053E-10
2115 2115 2.03389441707958E-1
2116 265 7.03218474663249E-5
2116 2116 2.03435734948782E-1
2116 2117 3.12307532146283E-9
2117 265 7.031935129988465E-5
2117 349 7.62195121951219E-2
2117 2116 3.12307532146283E-9
2117 2117 7.65691608182532E-2
2118 350 1.2622111420798398E-4
2118 2118 5.61880380770646E-2
2118 2119 4.784865183791805E-4
2119 348 4.35540069686411E-2
2119 350 1.259583297313065E-4
2119 2118 4.784865183791805E-4
2119 2119 4.43302761739608E-2
2120 265 7.03208180662228E-5
2120 352 1.21951219512195E-1
2120 2120 1.2223544849211E-1
2120 2121 8.479826866093335E-10
2121 265 7.029767147616076E-5
2121 351 2.03252032520325E-1
2121 2120 8.479826866093335E-10
2121 2121 2.0338941954633E-1
2122 331 7.03176467886322E-5
2122 2122 2.03435733131771E-1
2122 2123 8.37506807424679E-10
2123 331 7.031634707374245E-5
2123 352 7.62195121951219E-2
2123 2122 8.37506807424679E-10
2123 2123 7.65689934356936E-2
2124 295 3.9176020957815296E-5
2124 2124 5.5603064981115E-2
2124 2125 1.1995326311060598E-10
2125 295 3.91651878540534E-5
2125 339 4.35540069686411E-2
2125 2124 1.1995326311060598E-10
2125 2125 4.36864643918861E-2
2126 339 7.03312889854499E-5
2126 354 1.21951219512195E-1
2126 2126 1.22156843196673E-1
2126 2127 7.213055798269953E-9
2127 339 7.03142850202006E-5
2127 353 2.03252032520325E-1
2127 2126 7.213055798269953E-9
2127 2127 2.03389436415618E-1
2128 265 7.032227311442155E-5
2128 2128 2.03435733781067E-1
2128 2129 1.468271645728928E-9
2129 265 7.02984253725197E-5
2129 354 7.62195121951219E-2
2129 2128 1.468271645728928E-9
2129 2129 7.64659570214794E-2
2130 41 1.261030733145045E-4
2130 2130 5.61880550190647E-2
2130 2131 4.786438170453395E-4
2131 41 1.260756089173315E-4
2131 355 4.35540069686411E-2
2131 2130 4.786438170453395E-4
2131 2131 4.43306727905126E-2
2132 257 7.032138938299165E-5
2132 359 1.52439024390244E-1
2132 2132 1.52702637750932E-1
2132 2133 1.0924897009961874E-9
2133 257 7.029745259392811E-5
2133 356 1.01626016260163E-1
2133 2132 1.0924897009961874E-9
2133 2133 1.01812057137821E-1
2134 358 7.031756604089964E-5
2134 2134 1.01892454523579E-1
2134 2135 1.0920257015678285E-9
2135 358 7.031683051858635E-5
2135 359 7.62195121951219E-2
2135 2134 1.0920257015678285E-9
2135 2135 7.65707949166843E-2
2136 262 7.03150895950013E-5
2136 359 7.62195121951219E-2
2136 2136 7.65707948976599E-2
2136 2137 5.896870865637135E-10
2137 262 7.03158813536723E-5
2137 2136 5.896870865637135E-10
2137 2137 1.01892454158786E-1
2138 342 2.256888267106805E-4
2138 358 7.62195121951219E-2
2138 2138 7.76152962077668E-2
2138 2139 8.620861721106115E-4
2139 342 2.25887977614975E-4
2139 2138 8.620861721106115E-4
2139 2139 1.02928508398962E-1
2140 347 2.2582087418687052E-4
2140 361 1.01626016260163E-1
2140 2140 1.02927222178885E-1
2140 2141 8.609288638730965E-4
2141 347 2.25755495701841E-4
2141 358 1.01626016260163E-1
2141 2140 8.609288638730965E-4
2141 2141 1.0291788409305E-1
2142 346 2.258549808580175E-4
2142 2142 1.02927105769251E-1
2142 2143 8.607266272481855E-4
2143 346 2.257216106179605E-4
2143 361 7.62195121951219E-2
2143 2142 8.607266272481855E-4
2143 2143 7.76140096733507E-2
2144 295 3.514824579915765E-5
2144 350 3.8109756097561E-2
2144 2144 3.82286453118554E-2
2144 2145 1.0632586566361248E-10
2145 295 3.5157958249927056E-5
2145 2144 1.0632586566361248E-10
2145 2145 5.09407433583563E-2
2146 331 3.515885505639455E-5
2146 2146 5.09407434329592E-2
2146 2147 1.9919118469282438E-10
2147 331 3.5148459452845394E-5
2147 350 3.8109756097561E-2
2147 2146 1.9919118469282438E-10
2147 2147 3.82286452869496E-2
2148 287 3.51484531224898E-5
2148 364 3.8109756097561E-2
2148 2148 3.82286376718012E-2
2148 2149 1.9557397473237182E-10
2149 287 3.51588251421658E-5
2149 2148 1.9557397473237182E-10
2149 2149 5.09407434335213E-2
2150 355 3.515884500188565E-5
2150 2150 5.0940743438823E-2
2150 2151 1.979779000194889E-10
2151 355 3.51484567002871E-5
2151 364 3.8109756097561E-2
2151 2150 1.979779000194889E-10
2151 2151 3.82286376719417E-2
2152 365 1.260906575004455E-4
2152 2152 5.61880841613213E-2
2152 2153 4.7868747314959654E-4
2153 365 1.2608794372416402E-4
2153 366 4.35540069686411E-2
2153 2152 4.7868747314959654E-4
2153 2153 4.43307416970601E-2
2154 367 1.26086440762661E-4
2154 2154 5.61831289564828E-2
2154 2155 4.7886737559782303E-4
2155 209 4.35540069686411E-2
2155 367 1.26092059049904E-4
2155 2154 4.7886737559782303E-4
2155 2155 4.4336057777723E-2
2156 198 3.9177498832556E-5
2156 2156 5.56030617856449E-2
2156 2157 2.9225086010055027E-10
2157 198 3.916549248978275E-5
2157 368 4.35540069686411E-2
2157 2156 2.9225086010055027E-10
2157 2157 4.36863928541905E-2
2158 269 3.9177019901728304E-5
2158 2158 5.56030650311833E-2
2158 2159 2.248979810175738E-10
2159 269 3.916542483073365E-5
2159 369 4.35540069686411E-2
2159 2158 2.248979810175738E-10
2159 2159 4.36864634852807E-2
2160 299 3.91767606745243E-5
2160 2160 5.56030647074018E-2
2160 2161 1.9490296164539153E-10
2161 299 3.9165374207769354E-5
2161 311 4.35540069686411E-2
2161 2160 1.9490296164539153E-10
2161 2161 4.36864426115702E-2
2162 311 7.033294403389315E-5
2162 371 1.21951219512195E-1
2162 2162 1.22156979638306E-1
2162 2163 8.943282077796462E-9
2163 311 7.031274506391871E-5
2163 370 2.03252032520325E-1
2163 2162 8.943282077796462E-9
2163 2163 2.03389436955407E-1
2164 283 7.03185850245252E-5
2164 2164 2.0343573165833E-1
2164 2165 5.201281933668427E-10
2165 283 7.029821060215245E-5
2165 371 7.62195121951219E-2
2165 2164 5.201281933668427E-10
2165 2165 7.64661309132564E-2
2166 372 7.031706260557125E-5
2166 373 1.21951219512195E-1
2166 2166 1.22236268103628E-1
2166 2167 2.7769430570885894E-10
2167 310 2.03252032520325E-1
2167 372 7.029702467481136E-5
2167 2166 2.7769430570885894E-10
2167 2167 2.03389434310695E-1
2168 283 7.031836853583725E-5
2168 2168 2.03435732176954E-1
2168 2169 1.27227265550138E-9
2169 283 7.031727817261165E-5
2169 373 7.62195121951219E-2
2169 2168 1.27227265550138E-9
2169 2169 7.65700573114928E-2
2170 374 3.9184140939616704E-5
2170 2170 5.56030670427809E-2
2170 2171 3.738639772380616E-9
2171 374 3.91638850212513E-5
2171 375 4.35540069686411E-2
2171 2170 3.738639772380616E-9
2171 2171 4.36864008062029E-2
2172 376 3.917593594576485E-5
2172 2172 5.56030649828164E-2
2172 2173 1.1352834871897313E-10
2173 376 3.91651643829964E-5
2173 377 4.35540069686411E-2
2173 2172 1.1352834871897313E-10
2173 2173 4.36864652326245E-2
2174 378 1.21951219512195E-1
2174 2174 1.23273897778457E-1
2174 2175 8.15267654729998E-4
2175 374 2.03252032520325E-1
2175 2174 8.15267654729998E-4
2175 2175 2.0439039820733E-1
2176 2176 2.03865289147492E-1
2176 2177 2.3963929668110952E-4
2177 378 7.62195121951219E-2
2177 2176 2.3963929668110952E-4
2177 2177 7.69914181001585E-2
2178 232 3.917702353055215E-5
2178 2178 5.56030650428352E-2
2178 2179 2.2535041708750237E-10
2179 232 3.91654253384389E-5
2179 379 4.35540069686411E-2
2179 2178 2.2535041708750237E-10
2179 2179 4.36864624239597E-2
2180 287 3.514845406536575E-5
2180 365 3.8109756097561E-2
2180 2180 3.82286452583046E-2
2180 2181 1.9555823174655727E-10
2181 287 3.51588251264165E-5
2181 2180 1.9555823174655727E-10
2181 2181 5.094074343349E-2
2182 355 3.5158844985979846E-5
2182 2182 5.09407434387913E-2
2182 2183 1.9796196342479455E-10
2183 355 3.51484576444676E-5
2183 365 3.8109756097561E-2
2183 2182 1.9796196342479455E-10
2183 2183 3.82286452584452E-2
2184 289 3.514845528530315E-5
2184 367 3.8109756097561E-2
2184 2184 3.82286374859656E-2
2184 2185 1.9703698924976955E-10
2185 289 3.515883725438535E-5
2185 2184 1.9703698924976955E-10
2185 2185 5.09407434337299E-2
2186 366 3.5158841867451E-5
2186 2186 5.09407434390576E-2
2186 2187 1.975477706246752E-10
2187 366 3.51484560414497E-5
2187 367 3.8109756097561E-2
2187 2186 1.975477706246752E-10
2187 2187 3.8228637486972E-2
2188 218 7.02967994384077E-5
2188 383 7.62195121951219E-2
2188 2188 7.64571911882652E-2
2188 2189 3.5583548728637843E-10
2189 218 7.031721981457911E-5
2189 2188 3.5583548728637843E-10
2189 2189 1.01876480380444E-1
2190 269 7.031705516233119E-5
2190 384 1.01626016260163E-1
2190 2190 1.01874680468723E-1
2190 2191 2.765840591869192E-10
2191 269 7.02970223619263E-5
2191 383 1.01626016260163E-1
2191 2190 2.765840591869192E-10
2191 2191 1.01802408249015E-1
2192 198 7.031842170804015E-5
2192 2192 1.01876477011163E-1
2192 2193 1.2897527145259302E-9
2193 198 7.03173156922522E-5
2193 384 7.62195121951219E-2
2193 2192 1.2897527145259302E-9
2193 2193 7.6570033806E-2
2194 218 3.51583980318828E-5
2194 386 3.8109756097561E-2
2194 2194 3.82863431927281E-2
2194 2195 5.108475216375921E-10
2195 218 3.515842777177305E-5
2195 2194 5.108475216375921E-10
2195 2195 5.09407433796928E-2
2196 368 1.13332133840619E-4
2196 2196 5.14671484594878E-2
2196 2197 4.3071530838630903E-4
2197 368 1.131184317159885E-4
2197 386 3.8109756097561E-2
2197 2196 4.3071530838630903E-4
2197 2197 3.88078846672031E-2
2198 386 7.031744891031579E-5
2198 388 7.62195121951219E-2
2198 2198 7.65728162660964E-2
2198 2199 1.32674009686753E-9
2199 386 7.031746041556865E-5
2199 2198 1.32674009686753E-9
2199 2199 1.0187648134269E-1
2200 278 2.258095654060295E-4
2200 389 1.01626016260163E-1
2200 2200 1.0292666384191E-1
2200 2201 8.603505464088374E-4
2201 278 2.257667310813465E-4
2201 388 1.01626016260163E-1
2201 2200 8.603505464088374E-4
2201 2201 1.02917358939376E-1
2202 369 2.2580346468135948E-4
2202 2202 1.02926750493832E-1
2202 2203 8.604336312378719E-4
2203 369 2.257727920847235E-4
2203 389 7.62195121951219E-2
2203 2202 8.604336312378719E-4
2203 2203 7.76138221970624E-2
2204 388 7.02969089659918E-5
2204 391 7.62195121951219E-2
2204 2204 7.64572598862454E-2
2204 2205 4.220464094219829E-10
2205 388 7.031777723341256E-5
2205 2204 4.220464094219829E-10
2205 2205 1.01876480868422E-1
2206 221 7.033360497043275E-5
2206 392 1.01626016260163E-1
2206 2206 1.01808160447168E-1
2206 2207 9.642539931402269E-9
2207 221 7.03121502588217E-5
2207 391 1.01626016260163E-1
2207 2206 9.642539931402269E-9
2207 2207 1.01802452172594E-1
2208 386 7.03178165072698E-5
2208 2208 1.01876480833097E-1
2208 2209 4.117233576860183E-10
2209 386 7.029806651515341E-5
2209 392 7.62195121951219E-2
2209 2208 4.117233576860183E-10
2209 2209 7.64661609723217E-2
2210 302 3.5158685640951E-5
2210 394 3.8109756097561E-2
2210 2210 3.82864050499644E-2
2210 2211 6.198077927763385E-10
2211 302 3.5158695201241346E-5
2211 2210 6.198077927763385E-10
2211 2211 5.09407436617863E-2
2212 370 1.13256644536532E-4
2212 2212 5.1466369914802E-2
2212 2213 4.3002925224429854E-4
2213 370 1.131934359273765E-4
2213 394 3.8109756097561E-2
2213 2212 4.3002925224429854E-4
2213 2213 3.88073549208503E-2
2214 394 7.029691083481605E-5
2214 396 7.62195121951219E-2
2214 2214 7.64572632290246E-2
2214 2215 4.2313512954221785E-10
2215 394 7.031778572219985E-5
2215 2214 4.2313512954221785E-10
2215 2215 1.01876480866391E-1
2216 372 7.03177759229641E-5
2216 397 1.01626016260163E-1
2216 2216 1.01876433138223E-1
2216 2217 4.197947044525366E-10
2217 372 7.029691640148535E-5
2217 396 1.01626016260163E-1
2217 2216 4.197947044525366E-10
2217 2217 1.01802454236911E-1
2218 370 2.258793844865075E-4
2218 2218 1.02927637946236E-1
2218 2219 8.612285174419991E-4
2219 370 2.25697364801828E-4
2219 397 7.62195121951219E-2
2219 2218 8.612285174419991E-4
2219 2219 7.76144596317968E-2
2220 376 3.8109756097561E-2
2220 2220 3.88245911164868E-2
2220 2221 4.3523243998797446E-4
2221 2220 4.3523243998797446E-4
2221 2221 5.14598009422316E-2
2222 2222 5.11481390756284E-2
2222 2223 1.25105860917033E-4
2223 376 3.8109756097561E-2
2223 2222 1.25105860917033E-4
2223 2223 3.85157230537415E-2
2224 399 1.21951219512195E-1
2224 2224 1.22698309519362E-1
2224 2225 2.460014917790135E-4
2225 325 2.03252032520325E-1
2225 2224 2.460014917790135E-4
2225 2225 2.03835398273565E-1
2226 2226 2.04473041583604E-1
2226 2227 8.734697168343705E-4
2227 399 7.62195121951219E-2
2227 2226 8.734697168343705E-4
2227 2227 7.76473630630049E-2
2228 325 3.917745486307435E-5
2228 2228 5.56030618415263E-2
2228 2229 2.8537192567647276E-10
2229 325 3.916548595630405E-5
2229 400 4.35540069686411E-2
2229 2228 2.8537192567647276E-10
2229 2229 4.36843067936799E-2
2230 402 4.0650406504065E-2
2230 2230 4.10422010668013E-2
2230 2231 1.22356403697411E-4
2231 2230 1.22356403697411E-4
2231 2231 5.11536567051115E-2
2232 2232 5.14610228063993E-2
2232 2233 4.307296297821275E-4
2233 402 4.0650406504065E-2
2233 2232 4.307296297821275E-4
2233 2233 4.1351587882718E-2
2234 402 3.515845489577645E-5
2234 404 4.0650406504065E-2
2234 2234 4.08238133590331E-2
2234 2235 5.31157841509258E-10
2235 402 3.51584870106405E-5
2235 2234 5.31157841509258E-10
2235 2235 5.09407433980101E-2
2236 400 1.1333882068522401E-4
2236 2236 5.14671862174497E-2
2236 2237 4.307449529545635E-4
2237 400 1.1311178754196699E-4
2237 404 4.0650406504065E-2
2237 2236 4.307449529545635E-4
2237 2237 4.13453761472906E-2
2238 406 7.029690911461076E-5
2238 407 7.62195121951219E-2
2238 2238 7.64535146328198E-2
2238 2239 4.220144666443273E-10
2239 406 7.03177771447742E-5
2239 2238 4.220144666443273E-10
2239 2239 1.01876480868921E-1
2240 356 7.033359905770869E-5
2240 408 1.01626016260163E-1
2240 2240 1.01808160188263E-1
2240 2241 9.636281921573314E-9
2241 356 7.031215646436145E-5
2241 407 1.01626016260163E-1
2241 2240 9.636281921573314E-9
2241 2241 1.01802453129455E-1
2242 404 7.03178207710498E-5
2242 2242 1.01876480835496E-1
2242 2243 4.122622876450317E-10
2243 404 7.02980673530355E-5
2243 408 7.62195121951219E-2
2243 2242 4.122622876450317E-10
2243 2243 7.64622143624699E-2
2244 246 7.62195121951219E-2
2244 402 7.02968265337347E-5
2244 2244 7.6453466859685E-2
2244 2245 3.7025122870090244E-10
2245 402 7.031734928164031E-5
2245 2244 3.7025122870090244E-10
2245 2245 1.01876480403933E-1
2246 334 7.03170739139641E-5
2246 410 1.01626016260163E-1
2246 2246 1.01874688798324E-1
2246 2247 2.785032335492753E-10
2247 246 1.01626016260163E-1
2247 334 7.029702793392119E-5
2247 2246 2.785032335492753E-10
2247 2247 1.01802421873717E-1
2248 325 7.031834619729655E-5
2248 2248 1.01876477069329E-1
2248 2249 1.261472294361923E-9
2249 325 7.0317257275102E-5
2249 410 7.62195121951219E-2
2249 2248 1.261472294361923E-9
2249 2249 7.65637708897864E-2
2250 334 3.91770289510252E-5
2250 2250 5.56030650333537E-2
2250 2251 2.2602197199244206E-10
2251 334 3.9165426429265646E-5
2251 411 4.35540069686411E-2
2251 2250 2.2602197199244206E-10
2251 2251 4.36843780040484E-2
2252 324 7.031715344093869E-5
2252 413 1.21951219512195E-1
2252 2252 1.22236414208913E-1
2252 2253 2.8990635818607905E-10
2253 324 7.02970333223301E-5
2253 412 2.03252032520325E-1
2253 2252 2.8990635818607905E-10
2253 2253 2.03389454980553E-1
2254 331 7.031759166725596E-5
2254 2254 2.03435733247516E-1
2254 2255 1.0207645097422564E-9
2255 331 7.03166791778041E-5
2255 413 7.62195121951219E-2
2255 2254 1.0207645097422564E-9
2255 2255 7.65639747118088E-2
2256 415 7.029690821332375E-5
2256 416 7.62195121951219E-2
2256 2256 7.64535175678632E-2
2256 2257 4.2104780863512554E-10
2257 415 7.031777078629294E-5
2257 2256 4.2104780863512554E-10
2257 2257 1.01876480867977E-1
2258 347 7.03332628383254E-5
2258 417 1.01626016260163E-1
2258 2258 1.01808167833788E-1
2258 2259 9.27772246220761E-9
2259 347 7.03124628119901E-5
2259 416 1.01626016260163E-1
2259 2258 9.27772246220761E-9
2259 2259 1.01802455049245E-1
2260 345 7.03177909885019E-5
2260 2260 1.01876480822914E-1
2260 2261 4.0849635756320755E-10
2261 345 7.029806286494735E-5
2261 417 7.62195121951219E-2
2261 2260 4.0849635756320755E-10
2261 2261 7.64622271316216E-2
2262 404 7.031745290123035E-5
2262 406 7.62195121951219E-2
2262 2262 7.65664787494166E-2
2262 2263 1.328531753711535E-9
2263 404 7.03174642001893E-5
2263 2262 1.328531753711535E-9
2263 2263 1.01876481345756E-1
2264 412 2.25808927471034E-4
2264 419 1.01626016260163E-1
2264 2264 1.0292671300036E-1
2264 2265 8.604002591095755E-4
2265 406 1.01626016260163E-1
2265 412 2.2576736485714952E-4
2265 2264 8.604002591095755E-4
2265 2265 1.0291740960944E-1
2266 411 2.2580341932783798E-4
2266 2266 1.0292675047894E-1
2266 2267 8.604336703533124E-4
2267 411 2.25772837142873E-4
2267 419 7.62195121951219E-2
2267 2266 8.604336703533124E-4
2267 2267 7.76074838654884E-2
2268 415 4.0650406504065E-2
2268 421 1.132184548178715E-4
2268 2268 4.13443979593175E-2
2268 2269 4.2954543536175395E-4
2269 421 1.13231462258828E-4
2269 2268 4.2954543536175395E-4
2269 2269 5.14658545064372E-2
2270 345 3.51586877969722E-5
2270 2270 5.09407436550567E-2
2270 2271 6.19113932008163E-10
2271 345 3.515868582713325E-5
2271 415 4.0650406504065E-2
2271 2270 6.19113932008163E-10
2271 2271 4.08238990545907E-2
2272 421 1.131763585106675E-4
2272 423 4.0650406504065E-2
2272 2272 4.13442476189696E-2
2272 2273 4.2948033381017296E-4
2273 421 1.132738334640215E-4
2273 2272 4.2948033381017296E-4
2273 2273 5.14658398352438E-2
2274 342 1.13273973921808E-4
2274 2274 5.14668007711113E-2
2274 2275 4.304381567839225E-4
2275 342 1.13176218376888E-4
2275 423 4.0650406504065E-2
2275 2274 4.304381567839225E-4
2275 2275 4.13452011698049E-2
2276 424 3.9177025905345504E-5
2276 2276 5.56030650448003E-2
2276 2277 2.2564269766939613E-10
2277 424 3.91654259422629E-5
2277 425 4.35540069686411E-2
2277 2276 2.2564269766939613E-10
2277 2277 4.36843784086328E-2
2278 259 7.03382549320128E-5
2278 428 1.52439024390244E-1
2278 2278 1.5263137853735E-1
2278 2279 1.4588714569592231E-8
2279 259 7.030768343377835E-5
2279 426 1.01626016260163E-1
2279 2278 1.4588714569592231E-8
2279 2279 1.01812094617629E-1
2280 423 7.031778030724045E-5
2280 2280 1.01892454088704E-1
2280 2281 4.062429945406538E-10
2281 423 7.029811976151185E-5
2281 428 7.62195121951219E-2
2281 2280 4.062429945406538E-10
2281 2281 7.64626641306043E-2
2282 256 7.029795843737495E-5
2282 428 7.62195121951219E-2
2282 2282 7.64626640303463E-2
2282 2283 3.258966275867574E-10
2283 256 7.031706323771376E-5
2283 2282 3.258966275867574E-10
2283 2283 1.01892453559425E-1
2284 426 2.2580503007205898E-4
2284 430 1.52439024390244E-1
2284 2284 1.53754523773011E-1
2284 2285 8.60720299792885E-4
2285 424 1.01626016260163E-1
2285 426 2.257712367917375E-4
2285 2284 8.60720299792885E-4
2285 2285 1.02933647182826E-1
2286 358 7.031743203393244E-5
2286 2286 1.01892454573438E-1
2286 2287 1.306505559138035E-9
2287 358 7.031739867899601E-5
2287 430 7.62195121951219E-2
2287 2286 1.306505559138035E-9
2287 2287 7.65664218036561E-2
2288 259 2.25681034206997E-4
2288 430 7.62195121951219E-2
2288 2288 7.76080829344482E-2
2288 2289 8.612217822015656E-4
2289 259 2.2589582135279398E-4
2289 2288 8.612217822015656E-4
2289 2289 1.02943624008806E-1
2290 432 7.02969105243852E-5
2290 433 7.62195121951219E-2
2290 2290 7.64535165867434E-2
2290 2291 4.2288539933334305E-10
2291 432 7.031778379132814E-5
2291 2290 4.2288539933334305E-10
2291 2291 1.0187648086522E-1
2292 353 7.03333708863969E-5
2292 434 1.01626016260163E-1
2292 2292 1.01808166489559E-1
2292 2293 9.392726760510865E-9
2293 353 7.031236400976219E-5
2293 433 1.01626016260163E-1
2293 2292 9.392726760510865E-9
2293 2293 1.01802454405011E-1
2294 331 7.031777596000335E-5
2294 2294 1.01876480820644E-1
2294 2295 4.066221608500946E-10
2295 331 7.02980593820831E-5
2295 434 7.62195121951219E-2
2295 2294 4.066221608500946E-10
2295 2295 7.646222473767E-2
2296 351 1.26139663987089E-4
2296 2296 5.61892284646739E-2
2296 2297 4.7976980186975246E-4
2297 351 1.26039255032961E-4
2297 435 4.35540069686411E-2
2297 2296 4.7976980186975246E-4
2297 2297 4.43281929740141E-2
2298 436 1.2609050850923448E-4
2298 2298 5.61882438579756E-2
2298 2299 4.78846793342182E-4
2299 436 1.26088091907298E-4
2299 437 4.35540069686411E-2
2299 2298 4.78846793342182E-4
2299 2299 4.43273726841358E-2
2300 364 1.260907792277215E-4
2300 2300 5.61882535066897E-2
2300 2301 4.78856081838601E-4
2301 364 1.2608782295229202E-4
2301 438 4.35540069686411E-2
2301 2300 4.78856081838601E-4
2301 2301 4.43273813982353E-2
2302 421 4.0650406504065E-2
2302 435 3.51484589738792E-5
2302 2302 4.07674132423965E-2
2302 2303 1.9924610519815401E-10
2303 435 3.515885543580435E-5
2303 2302 1.9924610519815401E-10
2303 2303 5.09407434416249E-2
2304 295 3.515795825561735E-5
2304 2304 5.09407433583662E-2
2304 2305 1.0633079453142278E-10
2305 295 3.5148245292940605E-5
2305 421 4.0650406504065E-2
2305 2304 1.0633079453142278E-10
2305 2305 4.07674132633293E-2
2306 353 1.131964446527045E-4
2306 432 4.0650406504065E-2
2306 2306 4.13448529264393E-2
2306 2307 4.30047129520572E-4
2307 353 1.1325361618624399E-4
2307 2306 4.30047129520572E-4
2307 2307 5.14663842745176E-2
2308 331 3.515868240013325E-5
2308 2308 5.09407436530456E-2
2308 2309 6.146995871388195E-10
2309 331 3.51586737798216E-5
2309 432 4.0650406504065E-2
2309 2308 6.146995871388195E-10
2309 2309 4.08238814580986E-2
2310 436 4.0650406504065E-2
2310 438 3.5148456125026146E-5
2310 2310 4.07674104937043E-2
2310 2311 1.975506852703689E-10
2311 438 3.515884178973405E-5
2311 2310 1.975506852703689E-10
2311 2311 5.09407434389616E-2
2312 289 3.51588372530873E-5
2312 2312 5.09407434337273E-2
2312 2313 1.9703568981762568E-10
2313 289 3.5148455362593955E-5
2313 436 4.0650406504065E-2
2313 2312 1.9703568981762568E-10
2313 2313 4.07674104928035E-2
2314 443 7.029691284725316E-5
2314 444 7.62195121951219E-2
2314 2314 7.64535182582866E-2
2314 2315 4.244854272268203E-10
2315 443 7.031780442726709E-5
2315 2314 4.244854272268203E-10
2315 2315 1.01876480881054E-1
2316 437 7.03170895151742E-5
2316 446 1.01626016260163E-1
2316 2316 1.01874835028897E-1
2316 2317 2.8453145626560745E-10
2317 437 7.029701720008005E-5
2317 444 1.01626016260163E-1
2317 2316 2.8453145626560745E-10
2317 2317 1.01802455429739E-1
2318 445 7.031757954500655E-5
2318 2318 1.01876481254582E-1
2318 2319 1.0206648006018495E-9
2319 445 7.031667677398665E-5
2319 446 7.62195121951219E-2
2319 2318 1.0206648006018495E-9
2319 2319 7.65640000141461E-2
2320 271 1.2611859971727702E-4
2320 2320 5.61887477813363E-2
2320 2321 4.79315723312293E-4
2321 271 1.26060183189063E-4
2321 445 4.35540069686411E-2
2321 2320 4.79315723312293E-4
2321 2321 4.43277831165803E-2
2322 383 1.26142782085377E-4
2322 2322 5.61890702267112E-2
2322 2323 4.796082173738635E-4
2323 383 1.2603615716762852E-4
2323 443 4.35540069686411E-2
2323 2322 4.796082173738635E-4
2323 2323 4.43280258889475E-2
2324 444 1.26159874452004E-4
2324 2324 5.61882393320982E-2
2324 2325 4.787598434951845E-4
2325 444 1.26019175717046E-4
2325 447 4.35540069686411E-2
2325 2324 4.787598434951845E-4
2325 2325 4.43271461987392E-2
2326 449 7.02969105337731E-5
2326 450 7.62195121951219E-2
2326 2326 7.64535166195871E-2
2326 2327 4.2288923697364873E-10
2327 449 7.031778382158939E-5
2327 2326 4.2288923697364873E-10
2327 2327 1.01876480865129E-1
2328 276 7.033333941194159E-5
2328 451 1.01626016260163E-1
2328 2328 1.01808168446428E-1
2328 2329 9.358998561644825E-9
2329 276 7.031239205471026E-5
2329 450 1.01626016260163E-1
2329 2328 9.358998561644825E-9
2329 2329 1.01802454426353E-1
2330 209 7.031774626993956E-5
2330 2330 1.01876480811482E-1
2330 2331 4.0293141031299615E-10
2331 209 7.02980535405661E-5
2331 451 7.62195121951219E-2
2331 2330 4.0293141031299615E-10
2331 2331 7.64622278319662E-2
2332 276 1.131963986330825E-4
2332 449 4.0650406504065E-2
2332 2332 4.13447920924681E-2
2332 2333 4.299861697921425E-4
2333 276 1.132536625279285E-4
2333 2332 4.299861697921425E-4
2333 2333 5.14663231556873E-2
2334 209 3.51586690878828E-5
2334 2334 5.09407436465322E-2
2334 2335 6.09131240984109E-10
2335 209 3.5158660489473354E-5
2335 449 4.0650406504065E-2
2335 2334 6.09131240984109E-10
2335 2335 4.08238814137281E-2
2336 454 7.029691123195155E-5
2336 455 7.62195121951219E-2
2336 2336 7.64535155226431E-2
2336 2337 4.2352682639304324E-10
2337 454 7.031778873862121E-5
2337 2336 4.2352682639304324E-10
2337 2337 1.01876480866251E-1
2338 281 7.03333145354463E-5
2338 456 1.01626016260163E-1
2338 2338 1.01808166978089E-1
2338 2339 9.332773272426843E-9
2339 281 7.031241490943629E-5
2339 455 1.01626016260163E-1
2339 2338 9.332773272426843E-9
2339 2339 1.01802453707636E-1
2340 447 7.031778855529535E-5
2340 2340 1.01876480815475E-1
2340 2341 4.0819371241645125E-10
2341 447 7.029806215648341E-5
2341 456 7.62195121951219E-2
2341 2340 4.0819371241645125E-10
2341 2341 7.64622256693663E-2
2342 54 7.03175210869747E-5
2342 458 1.21951219512195E-1
2342 2342 1.22236310336419E-1
2342 2343 3.2332230117348374E-10
2343 54 7.02971109087201E-5
2343 457 2.03252032520325E-1
2343 2342 3.2332230117348374E-10
2343 2343 2.03389417880194E-1
2344 447 7.03176101685839E-5
2344 2344 2.03435733240188E-1
2344 2345 1.0072126022558134E-9
2345 447 7.031665474407464E-5
2345 458 7.62195121951219E-2
2345 2344 1.0072126022558134E-9
2345 2345 7.65638487201066E-2
2346 460 7.031714042955931E-5
2346 461 1.21951219512195E-1
2346 2346 1.22236318405831E-1
2346 2347 2.8611686068105457E-10
2347 459 2.03252032520325E-1
2347 460 7.029703777327125E-5
2347 2346 2.8611686068105457E-10
2347 2347 2.03389441463974E-1
2348 54 7.031804478897265E-5
2348 2348 2.03435732153967E-1
2348 2349 1.1584404394726065E-9
2349 54 7.031702789356284E-5
2349 461 7.62195121951219E-2
2349 2348 1.1584404394726065E-9
2349 2349 7.65638460339438E-2
2350 462 1.2625389613127552E-4
2350 2350 5.6188582856693E-2
2350 2351 4.7899043448500103E-4
2351 460 4.35540069686411E-2
2351 462 1.259257561513615E-4
2351 2350 4.7899043448500103E-4
2351 2351 4.43271865242061E-2
2352 457 1.26174318332435E-4
2352 2352 5.61892623755223E-2
2352 2353 4.79762451209302E-4
2353 457 1.260048239829875E-4
2353 463 4.35540069686411E-2
2353 2352 4.79762451209302E-4
2353 2353 4.43281157483368E-2
2354 281 1.1318879594736E-4
2354 454 4.0650406504065E-2
2354 2354 4.13447591269398E-2
2354 2355 4.29968616184848E-4
2355 281 1.1326131478093149E-4
2355 2354 4.29968616184848E-4
2355 2355 5.14663146591615E-2
2356 447 3.51586885111238E-5
2356 2356 5.09407436511942E-2
2356 2357 6.165250153108405E-10
2357 447 3.51586775618647E-5
2357 454 4.0650406504065E-2
2357 2356 6.165250153108405E-10
2357 2357 4.08238753398114E-2
2358 65 3.514837443764445E-5
2358 462 4.0650406504065E-2
2358 2358 4.07673931409927E-2
2358 2359 1.5335518197702046E-10
2359 65 3.5158431531300756E-5
2359 2358 1.5335518197702046E-10
2359 2359 5.09407431944263E-2
2360 447 3.515886136785245E-5
2360 2360 5.09407434303336E-2
2360 2361 2.0001173931780198E-10
2361 447 3.514845746864815E-5
2361 462 4.0650406504065E-2
2361 2360 2.0001173931780198E-10
2361 2361 4.07673931718549E-2
2362 463 3.514845980345335E-5
2362 467 4.0650406504065E-2
2362 2362 4.07674059432038E-2
2362 2363 2.004757587539249E-10
2363 463 3.515886902185125E-5
2363 2362 2.004757587539249E-10
2363 2363 5.09407434479031E-2
2364 65 3.51584315089071E-5
2364 2364 5.0940743194384E-2
2364 2365 1.5333391577649056E-10
2365 65 3.514837601621975E-5
2365 467 4.0650406504065E-2
2365 2364 1.5333391577649056E-10
2365 2365 4.07674059087749E-2
2366 377 2.25812912117449E-4
2366 469 1.52439024390244E-1
2366 2366 1.5375403888345E-1
2366 2367 8.602012583849221E-4
2367 372 1.01626016260163E-1
2367 377 2.2576340612621602E-4
2367 2366 8.602012583849221E-4
2367 2367 1.02933140059229E-1
2368 467 2.258583781000365E-4
2368 2368 1.02942869546056E-1
2368 2369 8.60513993769483E-4
2369 467 2.2571823549623002E-4
2369 469 7.62195121951219E-2
2369 2368 8.60513993769483E-4
2369 2369 7.76074533169782E-2
2370 375 2.2571788945742E-4
2370 469 7.62195121951219E-2
2370 2370 7.76094990379099E-2
2370 2371 8.625687296208769E-4
2371 375 2.25858725482762E-4
2371 2370 8.625687296208769E-4
2371 2371 1.02944931146247E-1
2372 302 7.62195121951219E-2
2372 375 2.25613591922865E-4
2372 2372 7.76091284137209E-2
2372 2373 8.62408584693638E-4
2373 375 2.25963699747836E-4
2373 2372 8.62408584693638E-4
2373 2373 1.02928921961173E-1
2374 459 2.258643289479095E-4
2374 471 1.01626016260163E-1
2374 2374 1.02927125112684E-1
2374 2375 8.60802775322016E-4
2375 302 1.01626016260163E-1
2375 459 2.25712322814882E-4
2375 2374 8.60802775322016E-4
2375 2375 1.02917663250598E-1
2376 377 2.258873474349045E-4
2376 2376 1.02926659873706E-1
2376 2377 8.602440561789346E-4
2377 377 2.2568945396282198E-4
2377 471 7.62195121951219E-2
2377 2376 8.602440561789346E-4
2377 2377 7.76071261395984E-2
2378 376 3.51653563990385E-5
2378 473 4.0650406504065E-2
2378 2378 4.08239139322975E-2
2378 2379 3.117778892026555E-10
2379 376 3.51576590870305E-5
2379 2378 3.117778892026555E-10
2379 2379 5.09407434676684E-2
2380 375 1.1321286199978751E-4
2380 2380 5.14624274821363E-2
2380 2381 4.30752910939598E-4
2381 375 1.132365885536975E-4
2381 473 4.0650406504065E-2
2381 2380 4.30752910939598E-4
2381 2381 4.13502444762887E-2
2382 475 7.02969088377968E-5
2382 476 7.62195121951219E-2
2382 2382 7.64535176269091E-2
2382 2383 4.215114660618283E-10
2383 475 7.031777459366831E-5
2383 2382 4.215114660618283E-10
2383 2383 1.01876480869081E-1
2384 459 7.033329220445229E-5
2384 477 1.01626016260163E-1
2384 2384 1.01808169618785E-1
2384 2385 9.308668251741124E-9
2385 459 7.031243525388214E-5
2385 476 1.01626016260163E-1
2385 2384 9.308668251741124E-9
2385 2385 1.01802455087458E-1
2386 473 7.03177399365829E-5
2386 2386 1.01876480823626E-1
2386 2387 4.0214689016456035E-10
2387 473 7.029805246153346E-5
2387 477 7.62195121951219E-2
2387 2386 4.0214689016456035E-10
2387 2387 7.64622297719353E-2
2388 467 1.1321287198904701E-4
2388 475 4.0650406504065E-2
2388 2388 4.13445266091299E-2
2388 2389 4.29685957650193E-4
2389 467 1.13237081625272E-4
2389 2388 4.29685957650193E-4
2389 2389 5.14660022188158E-2
2390 473 3.5158665258521195E-5
2390 2390 5.09407436523237E-2
2390 2391 6.091156207301236E-10
2391 473 3.515866162403715E-5
2391 475 4.0650406504065E-2
2391 2390 6.091156207301236E-10
2391 2391 4.08238945971754E-2
2392 80 1.1321089700093049E-4
2392 318 4.0650406504065E-2
2392 2392 4.13445014526717E-2
2392 2393 4.2966473818897E-4
2393 80 1.1323906953898449E-4
2393 2392 4.2966473818897E-4
2393 2393 5.1465983299489E-2
2394 82 3.515864181713815E-5
2394 2394 5.09407436440084E-2
2394 2395 5.99255882437824E-10
2395 82 3.515863761372395E-5
2395 318 4.0650406504065E-2
2395 2394 5.99255882437824E-10
2395 2395 4.08238929957496E-2
