%%MatrixMarket matrix coordinate real symmetric
%
49 49 108
1 1 1
2 1 1
2 2 1
3 2 1
3 3 1
4 2 1
4 4 1
5 5 1
6 6 1
7 7 1
8 8 1
9 9 1
10 10 1
11 11 1
12 12 1
13 13 1
14 9 1
14 10 1
14 11 1
14 14 1
15 6 1
15 12 1
15 14 1
15 15 1
16 13 1
16 15 1
16 16 1
17 7 1
17 8 1
17 17 1
18 18 1
19 18 1
19 19 1
20 7 1
20 20 1
21 19 1
21 21 1
22 16 1
22 22 1
23 22 1
23 23 1
24 23 1
24 24 1
25 23 1
25 25 1
26 23 1
26 26 1
27 27 1
28 5 1
28 20 1
28 27 1
28 28 1
29 27 1
29 29 1
30 3 1
30 18 1
30 30 1
31 20 1
31 31 1
32 5 1
32 28 1
32 32 1
33 6 1
33 32 1
33 33 1
34 7 1
34 32 1
34 34 1
35 28 1
35 35 1
36 15 1
36 35 1
36 36 1
37 3 1
37 8 1
37 18 1
37 32 1
37 37 1
38 22 1
38 23 1
38 37 1
38 38 1
39 39 1
40 39 1
40 40 1
41 14 1
41 41 1
42 33 1
42 41 1
42 42 1
43 41 1
43 43 1
44 42 1
44 44 1
45 21 1
45 22 1
45 45 1
46 45 1
46 46 1
47 46 1
47 47 1
48 46 1
48 48 1
49 23 1
49 39 1
49 45 1
49 46 1
49 49 1
