%%MatrixMarket matrix coordinate real general
%
106 106 1412
1 10 4.791367839559925E-2
1 14 1.9597426091415272E-2
1 20 3.488673752648919E-2
1 33 1.9694600728940115E-1
1 35 4.829946823394096E-2
1 37 1.831563888873418E-2
1 38 2.947954702132181E-2
1 41 1.4404176222088536E-2
1 57 1.5656972588270124E-1
1 74 5.701930345141672E-2
2 11 1.6093794212727396E-2
2 15 2.535455836456569E-2
2 19 4.225607738047414E-2
2 25 2.6033331502764726E-2
2 39 1.0746818034977293E-1
2 40 4.941834199190779E-2
2 71 6.634334618302051E-2
2 82 3.171100665005964E-2
2 87 3.693324932820965E-2
2 98 2.5655203830571977E-2
3 6 2.6644689844643295E-2
3 11 1.540995593387946E-2
3 12 6.213428453731332E-2
3 15 1.341958089849108E-1
3 16 5.011847539933576E-2
3 22 6.983526541598088E-2
3 30 5.1337943882640326E-2
3 48 5.241121579909657E-2
3 74 1.831563888873418E-2
3 85 2.5687914964938996E-2
3 106 1.8737709219536804E-2
4 11 4.060353850249207E-2
4 14 1.889855100808027E-1
4 19 2.1950051302632764E-1
4 20 7.161568287782194E-2
4 30 1.831563888873418E-2
4 41 5.0097494712541435E-2
4 44 7.472493690070407E-3
4 53 2.812356748995894E-1
4 69 7.168554331162424E-2
4 77 5.634313115013442E-2
5 6 4.3072281840166524E-2
5 8 1.6598744180156375E-1
5 11 3.435722418959728E-2
5 18 5.214341332880095E-1
5 20 2.2094432839422997E-2
5 21 1.4004335651731015E-1
5 25 1.5759655759329076E-2
5 38 2.9538402180400634E-2
5 51 5.954245503179657E-1
5 77 1.831563888873418E-2
6 3 2.6644689844643295E-2
6 5 4.3072281840166524E-2
6 7 5.872714205102675E-2
6 8 9.852248756354504E-2
6 11 6.276771231071226E-2
6 14 2.432832377932536E-2
6 15 3.3975560517606904E-2
6 16 1.51408029681116E-1
6 17 5.763497462214452E-2
6 18 6.274185951133428E-2
6 20 1.831563888873418E-2
6 21 5.859632952899125E-2
6 24 2.8119901381271295E-2
6 25 1.5542506492740707E-2
6 32 1.831563888873418E-2
6 39 1.2362835424479674E-2
6 48 6.0846561270320954E-2
6 51 7.753758587126974E-2
6 52 1.877028621787311E-2
6 54 1.2084428792993948E-1
6 55 2.3006629899380907E-1
6 59 1.8150830763438725E-2
6 74 9.326768312422011E-2
6 76 2.658991835052471E-2
6 77 1.3441436623588116E-1
6 79 2.2889930332557075E-2
6 103 7.895974486238168E-2
7 6 5.872714205102675E-2
7 17 3.894480375338386E-1
7 24 2.6226282347539473E-2
7 32 4.190745101809843E-1
7 43 2.1564500606800357E-2
7 48 2.4299416872229604E-1
7 54 5.288181809662206E-1
7 55 1.831563888873418E-2
7 58 2.1377472309970665E-2
7 88 1.831563888873418E-2
7 103 1.3887568865333266E-1
8 5 1.6598744180156375E-1
8 6 9.852248756354504E-2
8 11 1.5857171621699973E-2
8 16 4.8521387912826106E-2
8 18 3.120835962525104E-1
8 20 1.7055601495548106E-2
8 21 2.501543106987579E-2
8 24 1.831563888873418E-2
8 30 1.978217901206295E-2
8 38 8.643012150041121E-2
8 41 2.545020148067623E-2
8 51 3.785418775414009E-1
8 52 1.789149085477366E-2
8 55 3.0679215163887646E-2
8 57 1.951624786493423E-2
8 59 9.709665192660491E-2
8 74 1.921936652784967E-2
8 99 5.83315045959406E-2
8 103 2.769279775015276E-2
9 10 4.751860735452314E-2
9 33 6.1245635805475554E-2
9 41 1.1427775444112931E-1
9 46 3.3314061329018915E-2
9 57 1.8977792101753856E-2
9 68 3.80696106330386E-2
9 72 6.527964021626288E-2
9 76 1.9495110529465863E-2
9 91 1.3498913097245263E-2
9 93 1.831563888873418E-2
10 1 4.791367839559925E-2
10 9 4.751860735452314E-2
10 33 5.721999223996635E-2
10 35 1.669074994509892E-2
10 41 6.366258732981185E-2
10 57 6.38436305194955E-2
10 69 3.866817623622207E-2
10 72 4.469423527219704E-2
10 76 1.831563888873418E-2
10 105 2.161251446637577E-2
11 2 1.6093794212727396E-2
11 3 1.540995593387946E-2
11 4 4.060353850249207E-2
11 5 3.435722418959728E-2
11 6 6.276771231071226E-2
11 8 1.5857171621699973E-2
11 14 1.4461469149672654E-1
11 15 7.268852002976119E-2
11 16 3.793478450072969E-1
11 18 4.100082082417439E-2
11 19 2.3611754042298077E-2
11 20 3.4639315445579674E-2
11 51 2.9902078733524386E-2
11 53 6.175613822795812E-2
11 77 1.854543629129896E-2
12 3 6.213428453731332E-2
12 22 3.9181464904197855E-2
12 50 3.503913899158473E-2
12 72 1.831563888873418E-2
12 74 4.72006825869837E-2
12 78 1.990565107394813E-2
12 85 2.232824477196737E-2
12 86 1.2319965159693391E-2
12 94 5.6208054774061E-2
12 106 2.0579656090024025E-2
13 18 1.7597904374311076E-2
13 21 2.285965539187645E-2
13 41 1.603968339986424E-1
13 46 3.0700539256830254E-2
13 51 1.831563888873418E-2
13 60 2.5990103462962155E-2
13 61 2.5990103462962155E-2
13 69 6.630953452950418E-2
13 76 5.194954874837804E-2
13 77 4.80251470885276E-2
14 1 1.9597426091415272E-2
14 4 1.889855100808027E-1
14 6 2.432832377932536E-2
14 11 1.4461469149672654E-1
14 18 2.4718253447486616E-2
14 19 1.0732241169731566E-1
14 20 1.567637601949848E-1
14 53 3.172540485480377E-1
14 55 1.831563888873418E-2
14 69 1.547832049641179E-2
14 77 5.808541931792954E-2
15 2 2.535455836456569E-2
15 3 1.341958089849108E-1
15 6 3.3975560517606904E-2
15 11 7.268852002976119E-2
15 16 1.0808645657771877E-1
15 22 1.580505467053491E-2
15 30 8.493170134428132E-2
15 39 2.8577889595278724E-2
15 48 2.166201264232321E-2
15 65 1.831563888873418E-2
16 3 5.011847539933576E-2
16 6 1.51408029681116E-1
16 8 4.8521387912826106E-2
16 11 3.793478450072969E-1
16 15 1.0808645657771877E-1
16 18 5.7799132414282306E-2
16 42 1.831563888873418E-2
16 51 5.023131667874897E-2
16 54 2.2800990293965435E-2
16 55 1.831563888873418E-2
17 6 5.763497462214452E-2
17 7 3.894480375338386E-1
17 24 2.121496047910946E-2
17 32 9.001574089248911E-2
17 43 1.981955219677963E-2
17 48 1.2574796306826583E-1
17 54 4.4495990151597703E-1
17 56 3.3803536756507886E-2
17 103 8.96701251117369E-2
17 106 2.3278183757994047E-2
18 5 5.214341332880095E-1
18 6 6.274185951133428E-2
18 8 3.120835962525104E-1
18 11 4.100082082417439E-2
18 13 1.7597904374311076E-2
18 14 2.4718253447486616E-2
18 16 5.7799132414282306E-2
18 20 3.896027405535777E-2
18 21 5.186726095517551E-2
18 38 5.803282762526164E-2
18 41 2.03013873126449E-2
18 51 8.614201346258744E-1
18 77 1.4651028111812016E-2
19 2 4.225607738047414E-2
19 4 2.1950051302632764E-1
19 11 2.3611754042298077E-2
19 14 1.0732241169731566E-1
19 44 3.588015499496423E-2
19 53 5.048553247399952E-1
19 65 4.771291364156285E-2
19 77 1.4220042912151344E-2
19 94 1.9153064104900024E-2
19 99 2.999726895881037E-2
20 1 3.488673752648919E-2
20 4 7.161568287782194E-2
20 5 2.2094432839422997E-2
20 6 1.831563888873418E-2
20 8 1.7055601495548106E-2
20 11 3.4639315445579674E-2
20 14 1.567637601949848E-1
20 18 3.896027405535777E-2
20 38 1.9784186135424535E-2
20 41 5.197903090180298E-2
20 53 3.786484909825186E-2
20 69 2.387063150478276E-2
20 77 1.2026169651831146E-1
21 5 1.4004335651731015E-1
21 6 5.859632952899125E-2
21 8 2.501543106987579E-2
21 13 2.285965539187645E-2
21 18 5.186726095517551E-2
21 24 1.834467292052762E-2
21 25 8.76622402500143E-2
21 39 1.831563888873418E-2
21 51 9.095433889808072E-2
21 52 3.822371027481146E-2
21 77 4.083741097546186E-2
22 3 6.983526541598088E-2
22 12 3.9181464904197855E-2
22 15 1.580505467053491E-2
22 29 2.0837885041059715E-2
22 30 2.310568084467663E-2
22 38 1.4020739806152541E-2
22 42 4.819024258487801E-2
22 73 1.831563888873418E-2
22 85 2.963383380337418E-1
22 88 4.414334897137148E-2
22 92 2.2591659895332128E-2
22 93 1.831563888873418E-2
22 94 2.40770607830584E-2
22 101 1.8887823328607743E-2
22 106 3.047576155274611E-2
23 29 3.582685791999448E-2
23 45 1.831563888873418E-2
23 58 1.831563888873418E-2
23 67 3.176782815033234E-1
23 88 1.7092373289575073E-2
23 89 3.566850123836522E-2
23 90 4.6036700999749526E-2
23 91 2.003038755692993E-1
23 93 1.2364368394493748E-1
23 95 3.929045739885135E-1
23 96 1.3862014628698408E-1
23 97 2.4155079420870845E-2
23 101 3.728367538482573E-1
23 104 3.653308141707255E-2
24 6 2.8119901381271295E-2
24 7 2.6226282347539473E-2
24 8 1.831563888873418E-2
24 17 2.121496047910946E-2
24 21 1.834467292052762E-2
24 25 1.2209489540852005E-1
24 34 2.9441701566458808E-2
24 39 2.088900767429082E-2
24 42 2.2886887518043117E-2
24 47 2.628096593335082E-1
24 51 1.6576175808423015E-2
24 52 5.471913582964334E-1
24 79 1.6461007651159213E-2
25 2 2.6033331502764726E-2
25 5 1.5759655759329076E-2
25 6 1.5542506492740707E-2
25 21 8.76622402500143E-2
25 24 1.2209489540852005E-1
25 34 1.9910897942310501E-1
25 39 1.2826291706642762E-1
25 47 2.9935594871751865E-2
25 52 1.896748841109996E-1
25 71 3.338556440482157E-2
25 79 6.09941253341542E-2
25 82 2.8881814587561316E-1
25 84 1.0493449202661895E-1
25 87 1.831563888873418E-2
25 100 1.831563888873418E-2
26 29 1.831563888873418E-2
26 42 4.30659559508772E-2
26 49 2.1095350182790802E-2
26 56 7.099919747296976E-2
26 62 8.8280868808365E-2
26 63 2.4197263387172555E-2
26 64 2.4699719513614247E-2
26 84 1.806330345122692E-2
26 92 1.8792271770746015E-2
26 98 8.89638895443911E-2
27 28 3.3997951149910566E-1
27 31 4.010382830087822E-1
27 34 1.653072686956247E-2
27 40 5.030019338465431E-2
27 44 2.060632680601133E-2
27 49 4.389446661266297E-2
27 65 1.1826982998330763E-2
27 75 5.381674052274618E-2
27 80 5.5115976063649645E-2
27 81 4.8367443980358034E-2
27 83 6.58856116666686E-2
27 84 1.909606541513002E-2
27 98 2.134701244304233E-2
27 100 5.615467095038195E-2
27 102 1.3944070786899765E-1
28 27 3.3997951149910566E-1
28 31 1.0770388433798157E-1
28 40 2.7379813479043606E-2
28 44 2.0124305672187415E-2
28 70 3.20344980959696E-2
28 81 1.3049271706794482E-2
28 83 1.831563888873418E-2
28 92 3.458511264190752E-2
28 98 4.5660509324390766E-2
28 100 3.166259739073349E-2
28 102 3.3780376543854136E-2
29 22 2.0837885041059715E-2
29 23 3.582685791999448E-2
29 26 1.831563888873418E-2
29 37 1.831563888873418E-2
29 40 2.1639316963766073E-2
29 42 9.771824684774037E-2
29 45 6.264616490163856E-2
29 46 2.9044594929699755E-2
29 49 7.497723689330626E-2
29 56 8.942187372571844E-2
29 60 2.0300204038265986E-2
29 61 2.0300204038265986E-2
29 62 3.441326705452038E-1
29 63 7.112153038341944E-2
29 64 3.9142060739243145E-2
29 67 5.090703069872229E-2
29 85 3.8011803772668225E-2
29 91 3.8731528465827975E-2
29 92 2.639053487069012E-1
29 93 1.6129635696663727E-1
29 95 1.3129763130291372E-1
29 96 2.2663110237394445E-2
29 98 9.256328555584274E-2
29 101 1.678478825001662E-1
29 104 1.831563888873418E-2
30 3 5.1337943882640326E-2
30 4 1.831563888873418E-2
30 8 1.978217901206295E-2
30 15 8.493170134428132E-2
30 22 2.310568084467663E-2
30 46 2.1978727599327313E-2
30 48 2.801841356272719E-2
30 53 2.241108709399483E-2
30 55 1.4005787931255958E-2
30 59 2.9706409640925954E-2
30 65 2.240078325363326E-2
30 101 2.647791628067868E-2
31 27 4.010382830087822E-1
31 28 1.0770388433798157E-1
31 34 6.475482945986213E-2
31 36 2.0254268023355594E-2
31 44 1.831563888873418E-2
31 49 1.3192229714769441E-2
31 75 3.294357539661198E-2
31 80 8.149822414058722E-2
31 81 1.0403947564307067E-1
31 83 1.5046040386336598E-1
31 84 3.799288329789681E-2
31 100 3.9525008363660685E-2
31 102 1.0334166020720177E-1
32 6 1.831563888873418E-2
32 7 4.190745101809843E-1
32 17 9.001574089248911E-2
32 39 4.2304429743966615E-2
32 43 8.55527980008584E-2
32 48 1.585476100243764E-1
32 54 2.6334639174880226E-1
32 58 3.263853255646194E-2
32 65 1.902479177072324E-2
32 68 1.831563888873418E-2
32 103 2.9861039836708847E-2
33 1 1.9694600728940115E-1
33 9 6.1245635805475554E-2
33 10 5.721999223996635E-2
33 35 2.8783891093575355E-2
33 38 2.2999789467468924E-2
33 41 5.654712467740306E-2
33 42 2.2420885713573056E-2
33 57 1.105241876306844E-1
33 60 1.831563888873418E-2
33 61 1.831563888873418E-2
33 72 3.729613103441441E-2
33 76 2.0138017383432377E-2
34 24 2.9441701566458808E-2
34 25 1.9910897942310501E-1
34 27 1.653072686956247E-2
34 31 6.475482945986213E-2
34 43 1.831563888873418E-2
34 75 1.831563888873418E-2
34 79 6.171658214693811E-2
34 80 2.9367156673723742E-2
34 81 1.831563888873418E-2
34 82 1.6473240150376114E-1
34 83 2.01410274130516E-2
34 84 1.049156990687234E-1
34 102 2.4271198451178144E-2
35 1 4.829946823394096E-2
35 10 1.669074994509892E-2
35 33 2.8783891093575355E-2
35 36 2.2398092452797683E-2
35 44 7.687049549096918E-2
35 47 2.4757220975852354E-2
35 57 4.4171501672320326E-2
35 64 1.908500164636941E-2
35 66 1.667600705135905E-2
35 74 2.6622507352809972E-2
35 76 2.3921311214548994E-2
35 78 2.9533435243579417E-2
35 80 2.4330505617102927E-2
35 84 1.831563888873418E-2
35 100 3.112577820151279E-2
35 102 9.954381841318617E-2
35 105 2.0234376381396708E-2
36 31 2.0254268023355594E-2
36 35 2.2398092452797683E-2
36 50 7.67585047814375E-2
36 62 1.8063634101366268E-2
36 68 3.3407414790391575E-2
36 69 2.277809097096428E-2
36 72 1.831563888873418E-2
36 90 3.519476281565913E-2
36 102 2.114172548928052E-2
36 105 7.613153131736132E-2
37 1 1.831563888873418E-2
37 29 1.831563888873418E-2
37 38 1.9140041864684101E-1
37 42 1.0362900022356736E-1
37 57 4.532381569169364E-2
37 60 1.1729480124914415E-1
37 61 1.1729480124914415E-1
37 63 2.207102921573338E-1
37 64 1.1399946763851039E-1
37 70 1.749963265720599E-2
37 87 1.2905499072327685E-2
37 92 3.167693937246215E-2
38 1 2.947954702132181E-2
38 5 2.9538402180400634E-2
38 8 8.643012150041121E-2
38 18 5.803282762526164E-2
38 20 1.9784186135424535E-2
38 22 1.4020739806152541E-2
38 33 2.2999789467468924E-2
38 37 1.9140041864684101E-1
38 41 2.7898135463696315E-2
38 42 3.905164472331712E-2
38 46 1.831563888873418E-2
38 51 5.3112745788039234E-2
38 53 1.831563888873418E-2
38 57 2.2611306875796952E-1
38 59 1.898997233295628E-2
38 60 4.912605490572271E-2
38 61 4.912605490572271E-2
38 63 3.041601442127097E-2
38 64 4.161976512572009E-2
38 69 1.721299645767336E-2
38 87 4.351510284666313E-2
38 93 9.144425882998786E-3
38 94 3.212602028102324E-2
38 96 3.1582811951765724E-2
38 99 3.0614396104269106E-2
39 2 1.0746818034977293E-1
39 6 1.2362835424479674E-2
39 15 2.8577889595278724E-2
39 21 1.831563888873418E-2
39 24 2.088900767429082E-2
39 25 1.2826291706642762E-1
39 32 4.2304429743966615E-2
39 40 1.8816582884270214E-2
39 52 1.2750027494826788E-1
39 65 4.406116083028107E-2
39 66 2.9249971384054996E-2
39 71 1.8519143905396385E-2
39 82 3.041122728346756E-2
40 2 4.941834199190779E-2
40 27 5.030019338465431E-2
40 28 2.7379813479043606E-2
40 29 2.1639316963766073E-2
40 39 1.8816582884270214E-2
40 66 2.9578652282601987E-2
40 84 1.831563888873418E-2
40 87 1.6521774641777034E-2
40 92 6.641590803039851E-2
40 98 7.002300398982124E-2
40 100 2.6737330356293856E-2
41 1 1.4404176222088536E-2
41 4 5.0097494712541435E-2
41 8 2.545020148067623E-2
41 9 1.1427775444112931E-1
41 10 6.366258732981185E-2
41 13 1.603968339986424E-1
41 18 2.03013873126449E-2
41 20 5.197903090180298E-2
41 33 5.654712467740306E-2
41 38 2.7898135463696315E-2
41 46 7.032190438004068E-2
41 51 1.9662882522061303E-2
41 57 3.745503336788804E-2
41 69 9.334955664782665E-2
41 76 5.172463044923267E-2
41 77 2.9381616865480725E-2
41 105 1.831563888873418E-2
42 16 1.831563888873418E-2
42 22 4.819024258487801E-2
42 24 2.2886887518043117E-2
42 26 4.30659559508772E-2
42 29 9.771824684774037E-2
42 33 2.2420885713573056E-2
42 37 1.0362900022356736E-1
42 38 3.905164472331712E-2
42 46 2.3203223272365448E-2
42 51 1.776230628020455E-2
42 52 2.8617430963025242E-2
42 56 3.571841420712883E-2
42 60 1.0687508735322176E-2
42 61 1.0687508735322176E-2
42 62 2.5530198201906096E-2
42 63 2.9180896655715445E-2
42 64 2.5647902918750666E-2
42 85 1.831563888873418E-2
42 87 6.0989637801886314E-2
42 92 3.0705798658843453E-1
42 93 2.002520458786919E-2
42 98 1.5220417270436876E-1
43 7 2.1564500606800357E-2
43 17 1.981955219677963E-2
43 32 8.55527980008584E-2
43 34 1.831563888873418E-2
43 48 2.9057615528432418E-2
43 50 2.724177628162123E-2
43 54 5.6355342688304604E-2
43 65 1.7809689072722065E-2
43 77 2.1898568347245177E-2
43 82 2.843892186636927E-2
44 4 7.472493690070407E-3
44 19 3.588015499496423E-2
44 27 2.060632680601133E-2
44 28 2.0124305672187415E-2
44 31 1.831563888873418E-2
44 35 7.687049549096918E-2
44 59 3.744583600222872E-2
44 65 5.8106221037462526E-2
44 70 1.859601062917402E-2
44 75 2.6054236770346233E-2
44 79 1.9873674019455157E-2
44 81 4.579878581136427E-2
44 83 1.7268726124907877E-2
44 87 5.116141365952509E-2
44 99 8.377795378461692E-2
44 100 1.6971492638449642E-1
44 102 8.51464846334957E-2
44 105 3.15508068193206E-2
45 23 1.831563888873418E-2
45 29 6.264616490163856E-2
45 49 3.6244345287728935E-2
45 56 1.5700211220471848E-2
45 60 2.6122639068946192E-2
45 61 2.6122639068946192E-2
45 62 1.4869074082164355E-1
45 63 2.6452502764555862E-2
45 64 5.436817148166277E-2
45 67 1.1674357410557538E-1
45 85 2.434444522139685E-2
45 91 1.0305438435162217E-1
45 93 1.5836873643328624E-2
45 95 1.843280234071378E-2
45 101 1.831563888873418E-2
46 9 3.3314061329018915E-2
46 13 3.0700539256830254E-2
46 29 2.9044594929699755E-2
46 30 2.1978727599327313E-2
46 38 1.831563888873418E-2
46 41 7.032190438004068E-2
46 42 2.3203223272365448E-2
46 56 2.0888889936246963E-2
46 60 5.278196586022038E-2
46 61 5.278196586022038E-2
46 64 1.6472987755446332E-2
46 91 2.224394375113684E-2
47 24 2.628096593335082E-1
47 25 2.9935594871751865E-2
47 35 2.4757220975852354E-2
47 52 2.3103282535418335E-1
47 64 1.831563888873418E-2
47 80 1.714655886634506E-2
47 87 7.213932140216314E-2
47 89 2.2226577694955608E-2
47 100 3.730446263616852E-2
47 102 4.560732886386703E-2
47 103 5.483636648917411E-2
48 3 5.241121579909657E-2
48 6 6.0846561270320954E-2
48 7 2.4299416872229604E-1
48 15 2.166201264232321E-2
48 17 1.2574796306826583E-1
48 30 2.801841356272719E-2
48 32 1.585476100243764E-1
48 43 2.9057615528432418E-2
48 54 1.805704005050704E-1
48 55 4.00490509104781E-2
48 56 1.0790221628241607E-2
48 58 1.270460079748666E-1
48 68 2.1483219605953396E-2
48 106 1.872416184789432E-2
49 26 2.1095350182790802E-2
49 27 4.389446661266297E-2
49 29 7.497723689330626E-2
49 31 1.3192229714769441E-2
49 45 3.6244345287728935E-2
49 56 3.2287488929398964E-2
49 58 5.450263212960133E-2
49 62 2.589698474261856E-1
49 85 2.4054790576365385E-2
49 98 2.4439002675690744E-2
49 104 4.90349809908931E-2
50 12 3.503913899158473E-2
50 36 7.67585047814375E-2
50 43 2.724177628162123E-2
50 74 7.014443366065522E-2
50 75 2.1662109237834747E-2
50 76 1.831563888873418E-2
50 78 1.7008348348962826E-1
50 86 2.3735652982127167E-2
50 90 2.4499349398576994E-2
50 97 1.760620724944525E-2
51 5 5.954245503179657E-1
51 6 7.753758587126974E-2
51 8 3.785418775414009E-1
51 11 2.9902078733524386E-2
51 13 1.831563888873418E-2
51 16 5.023131667874897E-2
51 18 8.614201346258744E-1
51 21 9.095433889808072E-2
51 24 1.6576175808423015E-2
51 38 5.3112745788039234E-2
51 41 1.9662882522061303E-2
51 42 1.776230628020455E-2
52 6 1.877028621787311E-2
52 8 1.789149085477366E-2
52 21 3.822371027481146E-2
52 24 5.471913582964334E-1
52 25 1.896748841109996E-1
52 39 1.2750027494826788E-1
52 42 2.8617430963025242E-2
52 47 2.3103282535418335E-1
52 66 1.8759498403190113E-2
52 82 1.627718085090209E-2
52 84 1.831563888873418E-2
52 87 3.347981954279421E-2
52 103 1.680150867097412E-2
53 4 2.812356748995894E-1
53 11 6.175613822795812E-2
53 14 3.172540485480377E-1
53 19 5.048553247399952E-1
53 20 3.786484909825186E-2
53 30 2.241108709399483E-2
53 38 1.831563888873418E-2
53 69 1.784508292379837E-2
53 94 4.170600067790292E-2
53 99 2.251520345580258E-2
54 6 1.2084428792993948E-1
54 7 5.288181809662206E-1
54 16 2.2800990293965435E-2
54 17 4.4495990151597703E-1
54 32 2.6334639174880226E-1
54 43 5.6355342688304604E-2
54 48 1.805704005050704E-1
54 55 2.5321107734892764E-2
54 56 1.9972575050783575E-2
54 103 1.7109155140405208E-1
54 106 3.5269923333653794E-2
55 6 2.3006629899380907E-1
55 7 1.831563888873418E-2
55 8 3.0679215163887646E-2
55 14 1.831563888873418E-2
55 16 1.831563888873418E-2
55 30 1.4005787931255958E-2
55 48 4.00490509104781E-2
55 54 2.5321107734892764E-2
55 59 2.4153366844252774E-2
55 74 1.255269982445899E-1
55 76 6.535937538577513E-2
55 77 1.3147975787015276E-1
56 17 3.3803536756507886E-2
56 26 7.099919747296976E-2
56 29 8.942187372571844E-2
56 42 3.571841420712883E-2
56 45 1.5700211220471848E-2
56 46 2.0888889936246963E-2
56 48 1.0790221628241607E-2
56 49 3.2287488929398964E-2
56 54 1.9972575050783575E-2
56 58 5.0199499517282316E-2
56 62 1.3538122189307478E-1
56 64 1.8565976912800836E-2
56 68 2.3456606843391414E-2
56 85 2.5015788942657987E-2
56 92 2.080855721439965E-2
56 98 2.8628046260468054E-2
56 106 6.195768173800369E-2
57 1 1.5656972588270124E-1
57 8 1.951624786493423E-2
57 9 1.8977792101753856E-2
57 10 6.38436305194955E-2
57 33 1.105241876306844E-1
57 35 4.4171501672320326E-2
57 37 4.532381569169364E-2
57 38 2.2611306875796952E-1
57 41 3.745503336788804E-2
57 60 1.831563888873418E-2
57 61 1.831563888873418E-2
57 64 1.5466132826400393E-2
57 72 2.1176795759590014E-2
58 7 2.1377472309970665E-2
58 23 1.831563888873418E-2
58 32 3.263853255646194E-2
58 48 1.270460079748666E-1
58 49 5.450263212960133E-2
58 56 5.0199499517282316E-2
58 67 2.1623186630672614E-2
58 68 3.172514914063829E-2
58 85 2.5618912791509837E-2
58 101 2.390975571775256E-2
58 104 2.895321964254701E-2
58 106 3.4851519904562187E-2
59 6 1.8150830763438725E-2
59 8 9.709665192660491E-2
59 30 2.9706409640925954E-2
59 38 1.898997233295628E-2
59 44 3.744583600222872E-2
59 55 2.4153366844252774E-2
59 65 7.874180195693398E-2
59 73 3.3375986657785614E-2
59 74 2.479135920530732E-2
59 78 3.829365190150823E-2
59 89 1.4068936222630943E-1
59 96 2.3603086896056544E-2
59 99 1.449324073004436E-1
60 13 2.5990103462962155E-2
60 29 2.0300204038265986E-2
60 33 1.831563888873418E-2
60 37 1.1729480124914415E-1
60 38 4.912605490572271E-2
60 42 1.0687508735322176E-2
60 45 2.6122639068946192E-2
60 46 5.278196586022038E-2
60 57 1.831563888873418E-2
60 61 1
60 62 2.9586011170572784E-2
60 63 2.2544660523525734E-1
60 64 2.261782771465693E-1
60 69 8.444452276270675E-2
60 72 3.261275462661582E-2
60 91 1.4834133770572633E-2
60 94 1.831563888873418E-2
61 13 2.5990103462962155E-2
61 29 2.0300204038265986E-2
61 33 1.831563888873418E-2
61 37 1.1729480124914415E-1
61 38 4.912605490572271E-2
61 42 1.0687508735322176E-2
61 45 2.6122639068946192E-2
61 46 5.278196586022038E-2
61 57 1.831563888873418E-2
61 60 1
61 62 2.9586011170572784E-2
61 63 2.2544660523525734E-1
61 64 2.261782771465693E-1
61 69 8.444452276270675E-2
61 72 3.261275462661582E-2
61 94 1.831563888873418E-2
62 26 8.8280868808365E-2
62 29 3.441326705452038E-1
62 36 1.8063634101366268E-2
62 42 2.5530198201906096E-2
62 45 1.4869074082164355E-1
62 49 2.589698474261856E-1
62 56 1.3538122189307478E-1
62 60 2.9586011170572784E-2
62 61 2.9586011170572784E-2
62 63 1.1094284796377263E-1
62 64 1.057514659530695E-1
62 85 5.529932596071712E-2
62 92 4.660337181729687E-2
62 95 1.831563888873418E-2
62 98 4.613065185675112E-2
62 101 1.831563888873418E-2
62 104 2.0286905715328048E-2
63 26 2.4197263387172555E-2
63 29 7.112153038341944E-2
63 37 2.207102921573338E-1
63 38 3.041601442127097E-2
63 42 2.9180896655715445E-2
63 45 2.6452502764555862E-2
63 60 2.2544660523525734E-1
63 61 2.2544660523525734E-1
63 62 1.1094284796377263E-1
63 64 6.542249651581845E-1
63 69 2.865967168496728E-2
63 70 5.864174913626598E-2
63 92 2.3591030703458367E-2
63 98 9.065494017864648E-3
63 102 1.812311727833659E-2
63 105 3.304327903777564E-2
64 26 2.4699719513614247E-2
64 29 3.9142060739243145E-2
64 35 1.908500164636941E-2
64 37 1.1399946763851039E-1
64 38 4.161976512572009E-2
64 42 2.5647902918750666E-2
64 45 5.436817148166277E-2
64 46 1.6472987755446332E-2
64 47 1.831563888873418E-2
64 56 1.8565976912800836E-2
64 57 1.5466132826400393E-2
64 60 2.261782771465693E-1
64 61 2.261782771465693E-1
64 62 1.057514659530695E-1
64 63 6.542249651581845E-1
64 69 2.3266239386463522E-2
64 70 3.543991877606508E-2
64 80 2.5796481938278517E-2
64 81 1.831563888873418E-2
64 97 1.8045223525638535E-2
64 102 5.0447462013767166E-2
64 105 3.902516462377306E-2
65 15 1.831563888873418E-2
65 19 4.771291364156285E-2
65 27 1.1826982998330763E-2
65 30 2.240078325363326E-2
65 32 1.902479177072324E-2
65 39 4.406116083028107E-2
65 43 1.7809689072722065E-2
65 44 5.8106221037462526E-2
65 59 7.874180195693398E-2
65 75 2.0287881425525567E-2
65 78 1.831563888873418E-2
65 99 7.606555250333491E-2
65 100 2.007839569622255E-2
66 35 1.667600705135905E-2
66 39 2.9249971384054996E-2
66 40 2.9578652282601987E-2
66 52 1.8759498403190113E-2
66 68 2.1649247223170166E-2
66 78 2.6398692774011502E-2
66 84 5.204731266468553E-2
66 89 2.0334415432926693E-2
66 100 1.831563888873418E-2
66 104 1.485528744741327E-1
67 23 3.176782815033234E-1
67 29 5.090703069872229E-2
67 45 1.1674357410557538E-1
67 58 2.1623186630672614E-2
67 68 2.7766545971142656E-2
67 72 1.881972988544678E-2
67 88 2.813924231401507E-2
67 90 3.074140933856173E-2
67 91 3.7258572418699343E-1
67 93 1.535988389910497E-1
67 95 1.315192967327457E-1
67 96 5.540926424467419E-2
67 101 2.1139530312833132E-1
68 9 3.80696106330386E-2
68 32 1.831563888873418E-2
68 36 3.3407414790391575E-2
68 48 2.1483219605953396E-2
68 56 2.3456606843391414E-2
68 58 3.172514914063829E-2
68 66 2.1649247223170166E-2
68 67 2.7766545971142656E-2
68 72 2.0478497582473446E-2
68 101 2.2659592389251953E-2
68 104 1.1035182229371188E-1
69 4 7.168554331162424E-2
69 10 3.866817623622207E-2
69 13 6.630953452950418E-2
69 14 1.547832049641179E-2
69 20 2.387063150478276E-2
69 36 2.277809097096428E-2
69 38 1.721299645767336E-2
69 41 9.334955664782665E-2
69 53 1.784508292379837E-2
69 60 8.444452276270675E-2
69 61 8.444452276270675E-2
69 63 2.865967168496728E-2
69 64 2.3266239386463522E-2
69 70 2.1581288808931905E-2
69 76 1.7467258717403226E-2
69 81 3.956347060749589E-2
69 105 1.650486571078784E-1
70 28 3.20344980959696E-2
70 37 1.749963265720599E-2
70 44 1.859601062917402E-2
70 63 5.864174913626598E-2
70 64 3.543991877606508E-2
70 69 2.1581288808931905E-2
70 83 1.831563888873418E-2
70 87 4.942909288671155E-2
70 102 3.3938233612571325E-2
70 105 2.0458266873226982E-1
71 2 6.634334618302051E-2
71 25 3.338556440482157E-2
71 39 1.8519143905396385E-2
71 79 6.411160921666047E-2
71 82 1.633687363116605E-1
71 83 4.2105054884763876E-2
71 87 1.831563888873418E-2
71 89 4.955330283478804E-2
71 99 2.8823850939880564E-2
71 100 1.4410186445611385E-2
72 9 6.527964021626288E-2
72 10 4.469423527219704E-2
72 12 1.831563888873418E-2
72 33 3.729613103441441E-2
72 36 1.831563888873418E-2
72 57 2.1176795759590014E-2
72 60 3.261275462661582E-2
72 61 3.261275462661582E-2
72 67 1.881972988544678E-2
72 68 2.0478497582473446E-2
72 78 1.0219841555715659E-1
72 91 6.561661219779567E-2
72 96 1.804982117651547E-2
72 101 3.9957248782057746E-2
73 22 1.831563888873418E-2
73 59 3.3375986657785614E-2
73 74 2.4922554258468014E-2
73 78 1.4138520463023887E-2
73 85 2.6332387410316183E-2
73 86 3.9716537496716237E-1
73 88 8.855827898484077E-2
73 89 8.039544804162203E-2
73 94 5.7996370535095716E-2
73 97 1.970140103841917E-2
74 1 5.701930345141672E-2
74 3 1.831563888873418E-2
74 6 9.326768312422011E-2
74 8 1.921936652784967E-2
74 12 4.72006825869837E-2
74 35 2.6622507352809972E-2
74 50 7.014443366065522E-2
74 55 1.255269982445899E-1
74 59 2.479135920530732E-2
74 73 2.4922554258468014E-2
74 76 8.583744238150158E-2
74 77 3.648070224350018E-2
74 78 1.3547118931400676E-1
74 86 1.607473681633263E-2
75 27 5.381674052274618E-2
75 31 3.294357539661198E-2
75 34 1.831563888873418E-2
75 44 2.6054236770346233E-2
75 50 2.1662109237834747E-2
75 65 2.0287881425525567E-2
75 81 6.455788558990952E-2
75 90 7.1603147994377E-2
75 97 1.250711269222184E-1
75 100 1.626382632528239E-2
75 102 6.507779026296806E-2
76 6 2.658991835052471E-2
76 9 1.9495110529465863E-2
76 10 1.831563888873418E-2
76 13 5.194954874837804E-2
76 33 2.0138017383432377E-2
76 35 2.3921311214548994E-2
76 41 5.172463044923267E-2
76 50 1.831563888873418E-2
76 55 6.535937538577513E-2
76 69 1.7467258717403226E-2
76 74 8.583744238150158E-2
76 77 5.983167585728246E-2
76 78 3.7292270985522645E-2
77 4 5.634313115013442E-2
77 5 1.831563888873418E-2
77 6 1.3441436623588116E-1
77 11 1.854543629129896E-2
77 13 4.80251470885276E-2
77 14 5.808541931792954E-2
77 18 1.4651028111812016E-2
77 19 1.4220042912151344E-2
77 20 1.2026169651831146E-1
77 21 4.083741097546186E-2
77 41 2.9381616865480725E-2
77 43 2.1898568347245177E-2
77 55 1.3147975787015276E-1
77 74 3.648070224350018E-2
77 76 5.983167585728246E-2
78 12 1.990565107394813E-2
78 35 2.9533435243579417E-2
78 50 1.7008348348962826E-1
78 59 3.829365190150823E-2
78 65 1.831563888873418E-2
78 66 2.6398692774011502E-2
78 72 1.0219841555715659E-1
78 73 1.4138520463023887E-2
78 74 1.3547118931400676E-1
78 76 3.7292270985522645E-2
78 96 1.3668205266196099E-2
78 104 1.9468174871201182E-2
79 6 2.2889930332557075E-2
79 24 1.6461007651159213E-2
79 25 6.09941253341542E-2
79 34 6.171658214693811E-2
79 44 1.9873674019455157E-2
79 71 6.411160921666047E-2
79 81 1.0687550054900918E-1
79 82 1.2256582391319963E-1
79 83 1.0446994535477795E-1
79 86 1.831563888873418E-2
80 27 5.5115976063649645E-2
80 31 8.149822414058722E-2
80 34 2.9367156673723742E-2
80 35 2.4330505617102927E-2
80 47 1.714655886634506E-2
80 64 2.5796481938278517E-2
80 83 4.292406980500128E-2
80 84 2.321326630009502E-1
80 86 2.5449528858842305E-2
80 100 9.039030925423382E-2
80 102 3.8477973815743755E-1
81 27 4.8367443980358034E-2
81 28 1.3049271706794482E-2
81 31 1.0403947564307067E-1
81 34 1.831563888873418E-2
81 44 4.579878581136427E-2
81 64 1.831563888873418E-2
81 69 3.956347060749589E-2
81 75 6.455788558990952E-2
81 79 1.0687550054900918E-1
81 83 2.6504917456173316E-1
81 97 2.32551403030832E-2
81 102 4.9754346010601365E-2
81 105 3.0972866612488163E-2
82 2 3.171100665005964E-2
82 25 2.8881814587561316E-1
82 34 1.6473240150376114E-1
82 39 3.041122728346756E-2
82 43 2.843892186636927E-2
82 52 1.627718085090209E-2
82 71 1.633687363116605E-1
82 79 1.2256582391319963E-1
82 83 2.7793238923547996E-2
82 84 1.71573017569204E-1
82 86 3.2903961876941064E-2
82 100 1.831563888873418E-2
83 27 6.58856116666686E-2
83 28 1.831563888873418E-2
83 31 1.5046040386336598E-1
83 34 2.01410274130516E-2
83 44 1.7268726124907877E-2
83 70 1.831563888873418E-2
83 71 4.2105054884763876E-2
83 79 1.0446994535477795E-1
83 80 4.292406980500128E-2
83 81 2.6504917456173316E-1
83 82 2.7793238923547996E-2
83 100 2.650635386188778E-2
83 102 5.6304182187529944E-2
84 25 1.0493449202661895E-1
84 26 1.806330345122692E-2
84 27 1.909606541513002E-2
84 31 3.799288329789681E-2
84 34 1.049156990687234E-1
84 35 1.831563888873418E-2
84 40 1.831563888873418E-2
84 52 1.831563888873418E-2
84 66 5.204731266468553E-2
84 80 2.321326630009502E-1
84 82 1.71573017569204E-1
84 86 3.638097355938076E-2
84 87 1.7475717813738967E-2
84 100 4.863210071635278E-2
84 102 6.2612453995338E-2
85 3 2.5687914964938996E-2
85 12 2.232824477196737E-2
85 22 2.963383380337418E-1
85 29 3.8011803772668225E-2
85 42 1.831563888873418E-2
85 45 2.434444522139685E-2
85 49 2.4054790576365385E-2
85 56 2.5015788942657987E-2
85 58 2.5618912791509837E-2
85 62 5.529932596071712E-2
85 73 2.6332387410316183E-2
85 86 1.953053697635576E-2
85 88 5.829779160501854E-2
85 89 1.2680784833657942E-2
85 101 1.9068093339369756E-2
85 104 1.3078585150499925E-2
85 106 2.9875596062103035E-2
86 12 1.2319965159693391E-2
86 50 2.3735652982127167E-2
86 73 3.9716537496716237E-1
86 74 1.607473681633263E-2
86 79 1.831563888873418E-2
86 80 2.5449528858842305E-2
86 82 3.2903961876941064E-2
86 84 3.638097355938076E-2
86 85 1.953053697635576E-2
86 88 5.7956648157140474E-2
86 89 2.8289821859993607E-2
86 94 1.1683716526955462E-1
86 97 1.9241610995298693E-2
86 102 1.831563888873418E-2
87 2 3.693324932820965E-2
87 25 1.831563888873418E-2
87 37 1.2905499072327685E-2
87 38 4.351510284666313E-2
87 40 1.6521774641777034E-2
87 42 6.0989637801886314E-2
87 44 5.116141365952509E-2
87 47 7.213932140216314E-2
87 52 3.347981954279421E-2
87 70 4.942909288671155E-2
87 71 1.831563888873418E-2
87 84 1.7475717813738967E-2
87 92 2.7099382949517622E-2
87 98 1.8260612224797374E-2
87 99 1.7141773746908152E-2
87 100 9.977883847123084E-2
87 102 3.4640906582816315E-2
87 103 2.748352503914428E-2
88 7 1.831563888873418E-2
88 22 4.414334897137148E-2
88 23 1.7092373289575073E-2
88 67 2.813924231401507E-2
88 73 8.855827898484077E-2
88 85 5.829779160501854E-2
88 86 5.7956648157140474E-2
88 89 6.83078879485031E-2
88 90 4.602463808260956E-2
88 106 2.7147893583335168E-2
89 23 3.566850123836522E-2
89 47 2.2226577694955608E-2
89 59 1.4068936222630943E-1
89 66 2.0334415432926693E-2
89 71 4.955330283478804E-2
89 73 8.039544804162203E-2
89 85 1.2680784833657942E-2
89 86 2.8289821859993607E-2
89 88 6.83078879485031E-2
89 96 5.055176057301556E-2
89 99 1.1354913474611741E-1
90 23 4.6036700999749526E-2
90 36 3.519476281565913E-2
90 50 2.4499349398576994E-2
90 67 3.074140933856173E-2
90 75 7.1603147994377E-2
90 88 4.602463808260956E-2
90 95 2.118893831409456E-2
90 96 1.831563888873418E-2
90 97 8.998939838678766E-2
90 101 1.672981317776284E-2
90 102 2.055321119150573E-2
90 105 2.1898348932206893E-2
91 9 1.3498913097245263E-2
91 23 2.003038755692993E-1
91 29 3.8731528465827975E-2
91 45 1.0305438435162217E-1
91 46 2.224394375113684E-2
91 60 1.4834133770572633E-2
91 67 3.7258572418699343E-1
91 72 6.561661219779567E-2
91 93 8.185286523990219E-2
91 95 7.051129432140116E-2
91 96 1.831563888873418E-2
91 101 2.905448043638034E-1
92 22 2.2591659895332128E-2
92 26 1.8792271770746015E-2
92 28 3.458511264190752E-2
92 29 2.639053487069012E-1
92 37 3.167693937246215E-2
92 40 6.641590803039851E-2
92 42 3.0705798658843453E-1
92 56 2.080855721439965E-2
92 62 4.660337181729687E-2
92 63 2.3591030703458367E-2
92 87 2.7099382949517622E-2
92 93 6.969488177344374E-2
92 95 1.761689561042877E-2
92 96 1.1685221861863554E-2
92 98 4.3905192241906005E-1
92 101 2.915454064667448E-2
93 9 1.831563888873418E-2
93 22 1.831563888873418E-2
93 23 1.2364368394493748E-1
93 29 1.6129635696663727E-1
93 38 9.144425882998786E-3
93 42 2.002520458786919E-2
93 45 1.5836873643328624E-2
93 67 1.535988389910497E-1
93 91 8.185286523990219E-2
93 92 6.969488177344374E-2
93 95 3.705279498675837E-1
93 96 2.7199560649005244E-1
93 101 2.8583921768630716E-1
94 12 5.6208054774061E-2
94 19 1.9153064104900024E-2
94 22 2.40770607830584E-2
94 38 3.212602028102324E-2
94 53 4.170600067790292E-2
94 60 1.831563888873418E-2
94 61 1.831563888873418E-2
94 73 5.7996370535095716E-2
94 86 1.1683716526955462E-1
94 96 1.7630360981626403E-2
94 97 2.7122327857306828E-2
95 23 3.929045739885135E-1
95 29 1.3129763130291372E-1
95 45 1.843280234071378E-2
95 62 1.831563888873418E-2
95 67 1.315192967327457E-1
95 90 2.118893831409456E-2
95 91 7.051129432140116E-2
95 92 1.761689561042877E-2
95 93 3.705279498675837E-1
95 96 2.145322090910985E-1
95 97 1.831563888873418E-2
95 101 4.370646479155073E-1
95 104 2.279905552702719E-2
96 23 1.3862014628698408E-1
96 29 2.2663110237394445E-2
96 38 3.1582811951765724E-2
96 59 2.3603086896056544E-2
96 67 5.540926424467419E-2
96 72 1.804982117651547E-2
96 78 1.3668205266196099E-2
96 89 5.055176057301556E-2
96 90 1.831563888873418E-2
96 91 1.831563888873418E-2
96 92 1.1685221861863554E-2
96 93 2.7199560649005244E-1
96 94 1.7630360981626403E-2
96 95 2.145322090910985E-1
96 97 2.7154195858566568E-2
96 99 6.248380141091034E-2
96 101 1.0576502660040886E-1
96 102 1.8748165474347264E-2
97 23 2.4155079420870845E-2
97 50 1.760620724944525E-2
97 64 1.8045223525638535E-2
97 73 1.970140103841917E-2
97 75 1.250711269222184E-1
97 81 2.32551403030832E-2
97 86 1.9241610995298693E-2
97 90 8.998939838678766E-2
97 94 2.7122327857306828E-2
97 95 1.831563888873418E-2
97 96 2.7154195858566568E-2
97 102 4.222709431793259E-2
98 2 2.5655203830571977E-2
98 26 8.89638895443911E-2
98 27 2.134701244304233E-2
98 28 4.5660509324390766E-2
98 29 9.256328555584274E-2
98 40 7.002300398982124E-2
98 42 1.5220417270436876E-1
98 49 2.4439002675690744E-2
98 56 2.8628046260468054E-2
98 62 4.613065185675112E-2
98 63 9.065494017864648E-3
98 87 1.8260612224797374E-2
98 92 4.3905192241906005E-1
99 8 5.83315045959406E-2
99 19 2.999726895881037E-2
99 38 3.0614396104269106E-2
99 44 8.377795378461692E-2
99 53 2.251520345580258E-2
99 59 1.449324073004436E-1
99 65 7.606555250333491E-2
99 71 2.8823850939880564E-2
99 87 1.7141773746908152E-2
99 89 1.1354913474611741E-1
99 96 6.248380141091034E-2
99 100 3.0660869561923338E-2
100 25 1.831563888873418E-2
100 27 5.615467095038195E-2
100 28 3.166259739073349E-2
100 31 3.9525008363660685E-2
100 35 3.112577820151279E-2
100 40 2.6737330356293856E-2
100 44 1.6971492638449642E-1
100 47 3.730446263616852E-2
100 65 2.007839569622255E-2
100 66 1.831563888873418E-2
100 71 1.4410186445611385E-2
100 75 1.626382632528239E-2
100 80 9.039030925423382E-2
100 82 1.831563888873418E-2
100 83 2.650635386188778E-2
100 84 4.863210071635278E-2
100 87 9.977883847123084E-2
100 99 3.0660869561923338E-2
100 102 1.800923121479523E-1
101 22 1.8887823328607743E-2
101 23 3.728367538482573E-1
101 29 1.678478825001662E-1
101 30 2.647791628067868E-2
101 45 1.831563888873418E-2
101 58 2.390975571775256E-2
101 62 1.831563888873418E-2
101 67 2.1139530312833132E-1
101 68 2.2659592389251953E-2
101 72 3.9957248782057746E-2
101 85 1.9068093339369756E-2
101 90 1.672981317776284E-2
101 91 2.905448043638034E-1
101 92 2.915454064667448E-2
101 93 2.8583921768630716E-1
101 95 4.370646479155073E-1
101 96 1.0576502660040886E-1
101 104 2.3497228918871127E-2
102 27 1.3944070786899765E-1
102 28 3.3780376543854136E-2
102 31 1.0334166020720177E-1
102 34 2.4271198451178144E-2
102 35 9.954381841318617E-2
102 36 2.114172548928052E-2
102 44 8.51464846334957E-2
102 47 4.560732886386703E-2
102 63 1.812311727833659E-2
102 64 5.0447462013767166E-2
102 70 3.3938233612571325E-2
102 75 6.507779026296806E-2
102 80 3.8477973815743755E-1
102 81 4.9754346010601365E-2
102 83 5.6304182187529944E-2
102 84 6.2612453995338E-2
102 86 1.831563888873418E-2
102 87 3.4640906582816315E-2
102 90 2.055321119150573E-2
102 96 1.8748165474347264E-2
102 97 4.222709431793259E-2
102 100 1.800923121479523E-1
102 105 3.691964715639553E-2
103 6 7.895974486238168E-2
103 7 1.3887568865333266E-1
103 8 2.769279775015276E-2
103 17 8.96701251117369E-2
103 32 2.9861039836708847E-2
103 47 5.483636648917411E-2
103 52 1.680150867097412E-2
103 54 1.7109155140405208E-1
103 87 2.748352503914428E-2
103 105 1.831563888873418E-2
104 23 3.653308141707255E-2
104 29 1.831563888873418E-2
104 49 4.90349809908931E-2
104 58 2.895321964254701E-2
104 62 2.0286905715328048E-2
104 66 1.485528744741327E-1
104 68 1.1035182229371188E-1
104 78 1.9468174871201182E-2
104 85 1.3078585150499925E-2
104 95 2.279905552702719E-2
104 101 2.3497228918871127E-2
105 10 2.161251446637577E-2
105 35 2.0234376381396708E-2
105 36 7.613153131736132E-2
105 41 1.831563888873418E-2
105 44 3.15508068193206E-2
105 63 3.304327903777564E-2
105 64 3.902516462377306E-2
105 69 1.650486571078784E-1
105 70 2.0458266873226982E-1
105 81 3.0972866612488163E-2
105 90 2.1898348932206893E-2
105 102 3.691964715639553E-2
105 103 1.831563888873418E-2
106 3 1.8737709219536804E-2
106 12 2.0579656090024025E-2
106 17 2.3278183757994047E-2
106 22 3.047576155274611E-2
106 48 1.872416184789432E-2
106 54 3.5269923333653794E-2
106 56 6.195768173800369E-2
106 58 3.4851519904562187E-2
106 85 2.9875596062103035E-2
106 88 2.7147893583335168E-2
