%%MatrixMarket matrix coordinate real general
%
366 366 5124
1 2 1
1 3 1
1 4 1
1 5 1
1 6 1
1 7 1
1 8 1
1 9 1
1 10 1
1 11 1
1 12 1
1 13 1
1 14 1
1 15 1
2 1 1
2 16 1
2 17 1
2 18 1
2 19 1
2 20 1
2 21 1
2 22 1
2 23 1
2 24 1
2 25 1
2 26 1
2 27 1
2 28 1
3 1 1
3 29 1
3 30 1
3 31 1
3 32 1
3 33 1
3 34 1
3 35 1
3 36 1
3 37 1
3 38 1
3 39 1
3 40 1
3 41 1
4 1 1
4 42 1
4 43 1
4 44 1
4 45 1
4 46 1
4 47 1
4 48 1
4 49 1
4 50 1
4 51 1
4 52 1
4 53 1
4 54 1
5 1 1
5 55 1
5 56 1
5 57 1
5 58 1
5 59 1
5 60 1
5 61 1
5 62 1
5 63 1
5 64 1
5 65 1
5 66 1
5 67 1
6 1 1
6 68 1
6 69 1
6 70 1
6 71 1
6 72 1
6 73 1
6 74 1
6 75 1
6 76 1
6 77 1
6 78 1
6 79 1
6 80 1
7 1 1
7 81 1
7 82 1
7 83 1
7 84 1
7 85 1
7 86 1
7 87 1
7 88 1
7 89 1
7 90 1
7 91 1
7 92 1
7 93 1
8 1 1
8 94 1
8 95 1
8 96 1
8 97 1
8 98 1
8 99 1
8 100 1
8 101 1
8 102 1
8 103 1
8 104 1
8 105 1
8 106 1
9 1 1
9 107 1
9 108 1
9 109 1
9 110 1
9 111 1
9 112 1
9 113 1
9 114 1
9 115 1
9 116 1
9 117 1
9 118 1
9 119 1
10 1 1
10 120 1
10 121 1
10 122 1
10 123 1
10 124 1
10 125 1
10 126 1
10 127 1
10 128 1
10 129 1
10 130 1
10 131 1
10 132 1
11 1 1
11 133 1
11 134 1
11 135 1
11 136 1
11 137 1
11 138 1
11 139 1
11 140 1
11 141 1
11 142 1
11 143 1
11 144 1
11 145 1
12 1 1
12 146 1
12 147 1
12 148 1
12 149 1
12 150 1
12 151 1
12 152 1
12 153 1
12 154 1
12 155 1
12 156 1
12 157 1
12 158 1
13 1 1
13 159 1
13 160 1
13 161 1
13 162 1
13 163 1
13 164 1
13 165 1
13 166 1
13 167 1
13 168 1
13 169 1
13 170 1
13 171 1
14 1 1
14 172 1
14 173 1
14 174 1
14 175 1
14 176 1
14 177 1
14 178 1
14 179 1
14 180 1
14 181 1
14 182 1
14 183 1
14 184 1
15 1 1
15 185 1
15 186 1
15 187 1
15 188 1
15 189 1
15 190 1
15 191 1
15 192 1
15 193 1
15 194 1
15 195 1
15 196 1
15 197 1
16 2 1
16 198 1
16 199 1
16 200 1
16 201 1
16 202 1
16 203 1
16 204 1
16 205 1
16 206 1
16 207 1
16 208 1
16 209 1
16 210 1
17 2 1
17 211 1
17 212 1
17 213 1
17 214 1
17 215 1
17 216 1
17 217 1
17 218 1
17 219 1
17 220 1
17 221 1
17 222 1
17 223 1
18 2 1
18 224 1
18 225 1
18 226 1
18 227 1
18 228 1
18 229 1
18 230 1
18 231 1
18 232 1
18 233 1
18 234 1
18 235 1
18 236 1
19 2 1
19 237 1
19 238 1
19 239 1
19 240 1
19 241 1
19 242 1
19 243 1
19 244 1
19 245 1
19 246 1
19 247 1
19 248 1
19 249 1
20 2 1
20 250 1
20 251 1
20 252 1
20 253 1
20 254 1
20 255 1
20 256 1
20 257 1
20 258 1
20 259 1
20 260 1
20 261 1
20 262 1
21 2 1
21 263 1
21 264 1
21 265 1
21 266 1
21 267 1
21 268 1
21 269 1
21 270 1
21 271 1
21 272 1
21 273 1
21 274 1
21 275 1
22 2 1
22 276 1
22 277 1
22 278 1
22 279 1
22 280 1
22 281 1
22 282 1
22 283 1
22 284 1
22 285 1
22 286 1
22 287 1
22 288 1
23 2 1
23 289 1
23 290 1
23 291 1
23 292 1
23 293 1
23 294 1
23 295 1
23 296 1
23 297 1
23 298 1
23 299 1
23 300 1
23 301 1
24 2 1
24 302 1
24 303 1
24 304 1
24 305 1
24 306 1
24 307 1
24 308 1
24 309 1
24 310 1
24 311 1
24 312 1
24 313 1
24 314 1
25 2 1
25 315 1
25 316 1
25 317 1
25 318 1
25 319 1
25 320 1
25 321 1
25 322 1
25 323 1
25 324 1
25 325 1
25 326 1
25 327 1
26 2 1
26 328 1
26 329 1
26 330 1
26 331 1
26 332 1
26 333 1
26 334 1
26 335 1
26 336 1
26 337 1
26 338 1
26 339 1
26 340 1
27 2 1
27 341 1
27 342 1
27 343 1
27 344 1
27 345 1
27 346 1
27 347 1
27 348 1
27 349 1
27 350 1
27 351 1
27 352 1
27 353 1
28 2 1
28 354 1
28 355 1
28 356 1
28 357 1
28 358 1
28 359 1
28 360 1
28 361 1
28 362 1
28 363 1
28 364 1
28 365 1
28 366 1
29 3 1
29 198 1
29 211 1
29 224 1
29 237 1
29 250 1
29 263 1
29 276 1
29 289 1
29 302 1
29 315 1
29 328 1
29 341 1
29 354 1
30 3 1
30 199 1
30 212 1
30 225 1
30 238 1
30 251 1
30 264 1
30 277 1
30 290 1
30 303 1
30 316 1
30 329 1
30 342 1
30 355 1
31 3 1
31 200 1
31 213 1
31 226 1
31 239 1
31 252 1
31 265 1
31 278 1
31 291 1
31 304 1
31 317 1
31 330 1
31 343 1
31 356 1
32 3 1
32 201 1
32 214 1
32 227 1
32 240 1
32 253 1
32 266 1
32 279 1
32 292 1
32 305 1
32 318 1
32 331 1
32 344 1
32 357 1
33 3 1
33 202 1
33 215 1
33 228 1
33 241 1
33 254 1
33 267 1
33 280 1
33 293 1
33 306 1
33 319 1
33 332 1
33 345 1
33 358 1
34 3 1
34 203 1
34 216 1
34 229 1
34 242 1
34 255 1
34 268 1
34 281 1
34 294 1
34 307 1
34 320 1
34 333 1
34 346 1
34 359 1
35 3 1
35 204 1
35 217 1
35 230 1
35 243 1
35 256 1
35 269 1
35 282 1
35 295 1
35 308 1
35 321 1
35 334 1
35 347 1
35 360 1
36 3 1
36 205 1
36 218 1
36 231 1
36 244 1
36 257 1
36 270 1
36 283 1
36 296 1
36 309 1
36 322 1
36 335 1
36 348 1
36 361 1
37 3 1
37 206 1
37 219 1
37 232 1
37 245 1
37 258 1
37 271 1
37 284 1
37 297 1
37 310 1
37 323 1
37 336 1
37 349 1
37 362 1
38 3 1
38 207 1
38 220 1
38 233 1
38 246 1
38 259 1
38 272 1
38 285 1
38 298 1
38 311 1
38 324 1
38 337 1
38 350 1
38 363 1
39 3 1
39 208 1
39 221 1
39 234 1
39 247 1
39 260 1
39 273 1
39 286 1
39 299 1
39 312 1
39 325 1
39 338 1
39 351 1
39 364 1
40 3 1
40 209 1
40 222 1
40 235 1
40 248 1
40 261 1
40 274 1
40 287 1
40 300 1
40 313 1
40 326 1
40 339 1
40 352 1
40 365 1
41 3 1
41 210 1
41 223 1
41 236 1
41 249 1
41 262 1
41 275 1
41 288 1
41 301 1
41 314 1
41 327 1
41 340 1
41 353 1
41 366 1
42 4 1
42 198 1
42 212 1
42 226 1
42 240 1
42 254 1
42 268 1
42 282 1
42 296 1
42 310 1
42 324 1
42 338 1
42 352 1
42 366 1
43 4 1
43 199 1
43 213 1
43 227 1
43 241 1
43 255 1
43 269 1
43 283 1
43 297 1
43 311 1
43 325 1
43 339 1
43 353 1
43 354 1
44 4 1
44 200 1
44 214 1
44 228 1
44 242 1
44 256 1
44 270 1
44 284 1
44 298 1
44 312 1
44 326 1
44 340 1
44 341 1
44 355 1
45 4 1
45 201 1
45 215 1
45 229 1
45 243 1
45 257 1
45 271 1
45 285 1
45 299 1
45 313 1
45 327 1
45 328 1
45 342 1
45 356 1
46 4 1
46 202 1
46 216 1
46 230 1
46 244 1
46 258 1
46 272 1
46 286 1
46 300 1
46 314 1
46 315 1
46 329 1
46 343 1
46 357 1
47 4 1
47 203 1
47 217 1
47 231 1
47 245 1
47 259 1
47 273 1
47 287 1
47 301 1
47 302 1
47 316 1
47 330 1
47 344 1
47 358 1
48 4 1
48 204 1
48 218 1
48 232 1
48 246 1
48 260 1
48 274 1
48 288 1
48 289 1
48 303 1
48 317 1
48 331 1
48 345 1
48 359 1
49 4 1
49 205 1
49 219 1
49 233 1
49 247 1
49 261 1
49 275 1
49 276 1
49 290 1
49 304 1
49 318 1
49 332 1
49 346 1
49 360 1
50 4 1
50 206 1
50 220 1
50 234 1
50 248 1
50 262 1
50 263 1
50 277 1
50 291 1
50 305 1
50 319 1
50 333 1
50 347 1
50 361 1
51 4 1
51 207 1
51 221 1
51 235 1
51 249 1
51 250 1
51 264 1
51 278 1
51 292 1
51 306 1
51 320 1
51 334 1
51 348 1
51 362 1
52 4 1
52 208 1
52 222 1
52 236 1
52 237 1
52 251 1
52 265 1
52 279 1
52 293 1
52 307 1
52 321 1
52 335 1
52 349 1
52 363 1
53 4 1
53 209 1
53 223 1
53 224 1
53 238 1
53 252 1
53 266 1
53 280 1
53 294 1
53 308 1
53 322 1
53 336 1
53 350 1
53 364 1
54 4 1
54 210 1
54 211 1
54 225 1
54 239 1
54 253 1
54 267 1
54 281 1
54 295 1
54 309 1
54 323 1
54 337 1
54 351 1
54 365 1
55 5 1
55 198 1
55 213 1
55 228 1
55 243 1
55 258 1
55 273 1
55 288 1
55 290 1
55 305 1
55 320 1
55 335 1
55 350 1
55 365 1
56 5 1
56 199 1
56 214 1
56 229 1
56 244 1
56 259 1
56 274 1
56 276 1
56 291 1
56 306 1
56 321 1
56 336 1
56 351 1
56 366 1
57 5 1
57 200 1
57 215 1
57 230 1
57 245 1
57 260 1
57 275 1
57 277 1
57 292 1
57 307 1
57 322 1
57 337 1
57 352 1
57 354 1
58 5 1
58 201 1
58 216 1
58 231 1
58 246 1
58 261 1
58 263 1
58 278 1
58 293 1
58 308 1
58 323 1
58 338 1
58 353 1
58 355 1
59 5 1
59 202 1
59 217 1
59 232 1
59 247 1
59 262 1
59 264 1
59 279 1
59 294 1
59 309 1
59 324 1
59 339 1
59 341 1
59 356 1
60 5 1
60 203 1
60 218 1
60 233 1
60 248 1
60 250 1
60 265 1
60 280 1
60 295 1
60 310 1
60 325 1
60 340 1
60 342 1
60 357 1
61 5 1
61 204 1
61 219 1
61 234 1
61 249 1
61 251 1
61 266 1
61 281 1
61 296 1
61 311 1
61 326 1
61 328 1
61 343 1
61 358 1
62 5 1
62 205 1
62 220 1
62 235 1
62 237 1
62 252 1
62 267 1
62 282 1
62 297 1
62 312 1
62 327 1
62 329 1
62 344 1
62 359 1
63 5 1
63 206 1
63 221 1
63 236 1
63 238 1
63 253 1
63 268 1
63 283 1
63 298 1
63 313 1
63 315 1
63 330 1
63 345 1
63 360 1
64 5 1
64 207 1
64 222 1
64 224 1
64 239 1
64 254 1
64 269 1
64 284 1
64 299 1
64 314 1
64 316 1
64 331 1
64 346 1
64 361 1
65 5 1
65 208 1
65 223 1
65 225 1
65 240 1
65 255 1
65 270 1
65 285 1
65 300 1
65 302 1
65 317 1
65 332 1
65 347 1
65 362 1
66 5 1
66 209 1
66 211 1
66 226 1
66 241 1
66 256 1
66 271 1
66 286 1
66 301 1
66 303 1
66 318 1
66 333 1
66 348 1
66 363 1
67 5 1
67 210 1
67 212 1
67 227 1
67 242 1
67 257 1
67 272 1
67 287 1
67 289 1
67 304 1
67 319 1
67 334 1
67 349 1
67 364 1
68 6 1
68 198 1
68 214 1
68 230 1
68 246 1
68 262 1
68 265 1
68 281 1
68 297 1
68 313 1
68 316 1
68 332 1
68 348 1
68 364 1
69 6 1
69 199 1
69 215 1
69 231 1
69 247 1
69 250 1
69 266 1
69 282 1
69 298 1
69 314 1
69 317 1
69 333 1
69 349 1
69 365 1
70 6 1
70 200 1
70 216 1
70 232 1
70 248 1
70 251 1
70 267 1
70 283 1
70 299 1
70 302 1
70 318 1
70 334 1
70 350 1
70 366 1
71 6 1
71 201 1
71 217 1
71 233 1
71 249 1
71 252 1
71 268 1
71 284 1
71 300 1
71 303 1
71 319 1
71 335 1
71 351 1
71 354 1
72 6 1
72 202 1
72 218 1
72 234 1
72 237 1
72 253 1
72 269 1
72 285 1
72 301 1
72 304 1
72 320 1
72 336 1
72 352 1
72 355 1
73 6 1
73 203 1
73 219 1
73 235 1
73 238 1
73 254 1
73 270 1
73 286 1
73 289 1
73 305 1
73 321 1
73 337 1
73 353 1
73 356 1
74 6 1
74 204 1
74 220 1
74 236 1
74 239 1
74 255 1
74 271 1
74 287 1
74 290 1
74 306 1
74 322 1
74 338 1
74 341 1
74 357 1
75 6 1
75 205 1
75 221 1
75 224 1
75 240 1
75 256 1
75 272 1
75 288 1
75 291 1
75 307 1
75 323 1
75 339 1
75 342 1
75 358 1
76 6 1
76 206 1
76 222 1
76 225 1
76 241 1
76 257 1
76 273 1
76 276 1
76 292 1
76 308 1
76 324 1
76 340 1
76 343 1
76 359 1
77 6 1
77 207 1
77 223 1
77 226 1
77 242 1
77 258 1
77 274 1
77 277 1
77 293 1
77 309 1
77 325 1
77 328 1
77 344 1
77 360 1
78 6 1
78 208 1
78 211 1
78 227 1
78 243 1
78 259 1
78 275 1
78 278 1
78 294 1
78 310 1
78 326 1
78 329 1
78 345 1
78 361 1
79 6 1
79 209 1
79 212 1
79 228 1
79 244 1
79 260 1
79 263 1
79 279 1
79 295 1
79 311 1
79 327 1
79 330 1
79 346 1
79 362 1
80 6 1
80 210 1
80 213 1
80 229 1
80 245 1
80 261 1
80 264 1
80 280 1
80 296 1
80 312 1
80 315 1
80 331 1
80 347 1
80 363 1
81 7 1
81 198 1
81 215 1
81 232 1
81 249 1
81 253 1
81 270 1
81 287 1
81 291 1
81 308 1
81 325 1
81 329 1
81 346 1
81 363 1
82 7 1
82 199 1
82 216 1
82 233 1
82 237 1
82 254 1
82 271 1
82 288 1
82 292 1
82 309 1
82 326 1
82 330 1
82 347 1
82 364 1
83 7 1
83 200 1
83 217 1
83 234 1
83 238 1
83 255 1
83 272 1
83 276 1
83 293 1
83 310 1
83 327 1
83 331 1
83 348 1
83 365 1
84 7 1
84 201 1
84 218 1
84 235 1
84 239 1
84 256 1
84 273 1
84 277 1
84 294 1
84 311 1
84 315 1
84 332 1
84 349 1
84 366 1
85 7 1
85 202 1
85 219 1
85 236 1
85 240 1
85 257 1
85 274 1
85 278 1
85 295 1
85 312 1
85 316 1
85 333 1
85 350 1
85 354 1
86 7 1
86 203 1
86 220 1
86 224 1
86 241 1
86 258 1
86 275 1
86 279 1
86 296 1
86 313 1
86 317 1
86 334 1
86 351 1
86 355 1
87 7 1
87 204 1
87 221 1
87 225 1
87 242 1
87 259 1
87 263 1
87 280 1
87 297 1
87 314 1
87 318 1
87 335 1
87 352 1
87 356 1
88 7 1
88 205 1
88 222 1
88 226 1
88 243 1
88 260 1
88 264 1
88 281 1
88 298 1
88 302 1
88 319 1
88 336 1
88 353 1
88 357 1
89 7 1
89 206 1
89 223 1
89 227 1
89 244 1
89 261 1
89 265 1
89 282 1
89 299 1
89 303 1
89 320 1
89 337 1
89 341 1
89 358 1
90 7 1
90 207 1
90 211 1
90 228 1
90 245 1
90 262 1
90 266 1
90 283 1
90 300 1
90 304 1
90 321 1
90 338 1
90 342 1
90 359 1
91 7 1
91 208 1
91 212 1
91 229 1
91 246 1
91 250 1
91 267 1
91 284 1
91 301 1
91 305 1
91 322 1
91 339 1
91 343 1
91 360 1
92 7 1
92 209 1
92 213 1
92 230 1
92 247 1
92 251 1
92 268 1
92 285 1
92 289 1
92 306 1
92 323 1
92 340 1
92 344 1
92 361 1
93 7 1
93 210 1
93 214 1
93 231 1
93 248 1
93 252 1
93 269 1
93 286 1
93 290 1
93 307 1
93 324 1
93 328 1
93 345 1
93 362 1
94 8 1
94 198 1
94 216 1
94 234 1
94 239 1
94 257 1
94 275 1
94 280 1
94 298 1
94 303 1
94 321 1
94 339 1
94 344 1
94 362 1
95 8 1
95 199 1
95 217 1
95 235 1
95 240 1
95 258 1
95 263 1
95 281 1
95 299 1
95 304 1
95 322 1
95 340 1
95 345 1
95 363 1
96 8 1
96 200 1
96 218 1
96 236 1
96 241 1
96 259 1
96 264 1
96 282 1
96 300 1
96 305 1
96 323 1
96 328 1
96 346 1
96 364 1
97 8 1
97 201 1
97 219 1
97 224 1
97 242 1
97 260 1
97 265 1
97 283 1
97 301 1
97 306 1
97 324 1
97 329 1
97 347 1
97 365 1
98 8 1
98 202 1
98 220 1
98 225 1
98 243 1
98 261 1
98 266 1
98 284 1
98 289 1
98 307 1
98 325 1
98 330 1
98 348 1
98 366 1
99 8 1
99 203 1
99 221 1
99 226 1
99 244 1
99 262 1
99 267 1
99 285 1
99 290 1
99 308 1
99 326 1
99 331 1
99 349 1
99 354 1
100 8 1
100 204 1
100 222 1
100 227 1
100 245 1
100 250 1
100 268 1
100 286 1
100 291 1
100 309 1
100 327 1
100 332 1
100 350 1
100 355 1
101 8 1
101 205 1
101 223 1
101 228 1
101 246 1
101 251 1
101 269 1
101 287 1
101 292 1
101 310 1
101 315 1
101 333 1
101 351 1
101 356 1
102 8 1
102 206 1
102 211 1
102 229 1
102 247 1
102 252 1
102 270 1
102 288 1
102 293 1
102 311 1
102 316 1
102 334 1
102 352 1
102 357 1
103 8 1
103 207 1
103 212 1
103 230 1
103 248 1
103 253 1
103 271 1
103 276 1
103 294 1
103 312 1
103 317 1
103 335 1
103 353 1
103 358 1
104 8 1
104 208 1
104 213 1
104 231 1
104 249 1
104 254 1
104 272 1
104 277 1
104 295 1
104 313 1
104 318 1
104 336 1
104 341 1
104 359 1
105 8 1
105 209 1
105 214 1
105 232 1
105 237 1
105 255 1
105 273 1
105 278 1
105 296 1
105 314 1
105 319 1
105 337 1
105 342 1
105 360 1
106 8 1
106 210 1
106 215 1
106 233 1
106 238 1
106 256 1
106 274 1
106 279 1
106 297 1
106 302 1
106 320 1
106 338 1
106 343 1
106 361 1
107 9 1
107 198 1
107 217 1
107 236 1
107 242 1
107 261 1
107 267 1
107 286 1
107 292 1
107 311 1
107 317 1
107 336 1
107 342 1
107 361 1
108 9 1
108 199 1
108 218 1
108 224 1
108 243 1
108 262 1
108 268 1
108 287 1
108 293 1
108 312 1
108 318 1
108 337 1
108 343 1
108 362 1
109 9 1
109 200 1
109 219 1
109 225 1
109 244 1
109 250 1
109 269 1
109 288 1
109 294 1
109 313 1
109 319 1
109 338 1
109 344 1
109 363 1
110 9 1
110 201 1
110 220 1
110 226 1
110 245 1
110 251 1
110 270 1
110 276 1
110 295 1
110 314 1
110 320 1
110 339 1
110 345 1
110 364 1
111 9 1
111 202 1
111 221 1
111 227 1
111 246 1
111 252 1
111 271 1
111 277 1
111 296 1
111 302 1
111 321 1
111 340 1
111 346 1
111 365 1
112 9 1
112 203 1
112 222 1
112 228 1
112 247 1
112 253 1
112 272 1
112 278 1
112 297 1
112 303 1
112 322 1
112 328 1
112 347 1
112 366 1
113 9 1
113 204 1
113 223 1
113 229 1
113 248 1
113 254 1
113 273 1
113 279 1
113 298 1
113 304 1
113 323 1
113 329 1
113 348 1
113 354 1
114 9 1
114 205 1
114 211 1
114 230 1
114 249 1
114 255 1
114 274 1
114 280 1
114 299 1
114 305 1
114 324 1
114 330 1
114 349 1
114 355 1
115 9 1
115 206 1
115 212 1
115 231 1
115 237 1
115 256 1
115 275 1
115 281 1
115 300 1
115 306 1
115 325 1
115 331 1
115 350 1
115 356 1
116 9 1
116 207 1
116 213 1
116 232 1
116 238 1
116 257 1
116 263 1
116 282 1
116 301 1
116 307 1
116 326 1
116 332 1
116 351 1
116 357 1
117 9 1
117 208 1
117 214 1
117 233 1
117 239 1
117 258 1
117 264 1
117 283 1
117 289 1
117 308 1
117 327 1
117 333 1
117 352 1
117 358 1
118 9 1
118 209 1
118 215 1
118 234 1
118 240 1
118 259 1
118 265 1
118 284 1
118 290 1
118 309 1
118 315 1
118 334 1
118 353 1
118 359 1
119 9 1
119 210 1
119 216 1
119 235 1
119 241 1
119 260 1
119 266 1
119 285 1
119 291 1
119 310 1
119 316 1
119 335 1
119 341 1
119 360 1
120 10 1
120 198 1
120 218 1
120 225 1
120 245 1
120 252 1
120 272 1
120 279 1
120 299 1
120 306 1
120 326 1
120 333 1
120 353 1
120 360 1
121 10 1
121 199 1
121 219 1
121 226 1
121 246 1
121 253 1
121 273 1
121 280 1
121 300 1
121 307 1
121 327 1
121 334 1
121 341 1
121 361 1
122 10 1
122 200 1
122 220 1
122 227 1
122 247 1
122 254 1
122 274 1
122 281 1
122 301 1
122 308 1
122 315 1
122 335 1
122 342 1
122 362 1
123 10 1
123 201 1
123 221 1
123 228 1
123 248 1
123 255 1
123 275 1
123 282 1
123 289 1
123 309 1
123 316 1
123 336 1
123 343 1
123 363 1
124 10 1
124 202 1
124 222 1
124 229 1
124 249 1
124 256 1
124 263 1
124 283 1
124 290 1
124 310 1
124 317 1
124 337 1
124 344 1
124 364 1
125 10 1
125 203 1
125 223 1
125 230 1
125 237 1
125 257 1
125 264 1
125 284 1
125 291 1
125 311 1
125 318 1
125 338 1
125 345 1
125 365 1
126 10 1
126 204 1
126 211 1
126 231 1
126 238 1
126 258 1
126 265 1
126 285 1
126 292 1
126 312 1
126 319 1
126 339 1
126 346 1
126 366 1
127 10 1
127 205 1
127 212 1
127 232 1
127 239 1
127 259 1
127 266 1
127 286 1
127 293 1
127 313 1
127 320 1
127 340 1
127 347 1
127 354 1
128 10 1
128 206 1
128 213 1
128 233 1
128 240 1
128 260 1
128 267 1
128 287 1
128 294 1
128 314 1
128 321 1
128 328 1
128 348 1
128 355 1
129 10 1
129 207 1
129 214 1
129 234 1
129 241 1
129 261 1
129 268 1
129 288 1
129 295 1
129 302 1
129 322 1
129 329 1
129 349 1
129 356 1
130 10 1
130 208 1
130 215 1
130 235 1
130 242 1
130 262 1
130 269 1
130 276 1
130 296 1
130 303 1
130 323 1
130 330 1
130 350 1
130 357 1
131 10 1
131 209 1
131 216 1
131 236 1
131 243 1
131 250 1
131 270 1
131 277 1
131 297 1
131 304 1
131 324 1
131 331 1
131 351 1
131 358 1
132 10 1
132 210 1
132 217 1
132 224 1
132 244 1
132 251 1
132 271 1
132 278 1
132 298 1
132 305 1
132 325 1
132 332 1
132 352 1
132 359 1
133 11 1
133 198 1
133 219 1
133 227 1
133 248 1
133 256 1
133 264 1
133 285 1
133 293 1
133 314 1
133 322 1
133 330 1
133 351 1
133 359 1
134 11 1
134 199 1
134 220 1
134 228 1
134 249 1
134 257 1
134 265 1
134 286 1
134 294 1
134 302 1
134 323 1
134 331 1
134 352 1
134 360 1
135 11 1
135 200 1
135 221 1
135 229 1
135 237 1
135 258 1
135 266 1
135 287 1
135 295 1
135 303 1
135 324 1
135 332 1
135 353 1
135 361 1
136 11 1
136 201 1
136 222 1
136 230 1
136 238 1
136 259 1
136 267 1
136 288 1
136 296 1
136 304 1
136 325 1
136 333 1
136 341 1
136 362 1
137 11 1
137 202 1
137 223 1
137 231 1
137 239 1
137 260 1
137 268 1
137 276 1
137 297 1
137 305 1
137 326 1
137 334 1
137 342 1
137 363 1
138 11 1
138 203 1
138 211 1
138 232 1
138 240 1
138 261 1
138 269 1
138 277 1
138 298 1
138 306 1
138 327 1
138 335 1
138 343 1
138 364 1
139 11 1
139 204 1
139 212 1
139 233 1
139 241 1
139 262 1
139 270 1
139 278 1
139 299 1
139 307 1
139 315 1
139 336 1
139 344 1
139 365 1
140 11 1
140 205 1
140 213 1
140 234 1
140 242 1
140 250 1
140 271 1
140 279 1
140 300 1
140 308 1
140 316 1
140 337 1
140 345 1
140 366 1
141 11 1
141 206 1
141 214 1
141 235 1
141 243 1
141 251 1
141 272 1
141 280 1
141 301 1
141 309 1
141 317 1
141 338 1
141 346 1
141 354 1
142 11 1
142 207 1
142 215 1
142 236 1
142 244 1
142 252 1
142 273 1
142 281 1
142 289 1
142 310 1
142 318 1
142 339 1
142 347 1
142 355 1
143 11 1
143 208 1
143 216 1
143 224 1
143 245 1
143 253 1
143 274 1
143 282 1
143 290 1
143 311 1
143 319 1
143 340 1
143 348 1
143 356 1
144 11 1
144 209 1
144 217 1
144 225 1
144 246 1
144 254 1
144 275 1
144 283 1
144 291 1
144 312 1
144 320 1
144 328 1
144 349 1
144 357 1
145 11 1
145 210 1
145 218 1
145 226 1
145 247 1
145 255 1
145 263 1
145 284 1
145 292 1
145 313 1
145 321 1
145 329 1
145 350 1
145 358 1
146 12 1
146 198 1
146 220 1
146 229 1
146 238 1
146 260 1
146 269 1
146 278 1
146 300 1
146 309 1
146 318 1
146 340 1
146 349 1
146 358 1
147 12 1
147 199 1
147 221 1
147 230 1
147 239 1
147 261 1
147 270 1
147 279 1
147 301 1
147 310 1
147 319 1
147 328 1
147 350 1
147 359 1
148 12 1
148 200 1
148 222 1
148 231 1
148 240 1
148 262 1
148 271 1
148 280 1
148 289 1
148 311 1
148 320 1
148 329 1
148 351 1
148 360 1
149 12 1
149 201 1
149 223 1
149 232 1
149 241 1
149 250 1
149 272 1
149 281 1
149 290 1
149 312 1
149 321 1
149 330 1
149 352 1
149 361 1
150 12 1
150 202 1
150 211 1
150 233 1
150 242 1
150 251 1
150 273 1
150 282 1
150 291 1
150 313 1
150 322 1
150 331 1
150 353 1
150 362 1
151 12 1
151 203 1
151 212 1
151 234 1
151 243 1
151 252 1
151 274 1
151 283 1
151 292 1
151 314 1
151 323 1
151 332 1
151 341 1
151 363 1
152 12 1
152 204 1
152 213 1
152 235 1
152 244 1
152 253 1
152 275 1
152 284 1
152 293 1
152 302 1
152 324 1
152 333 1
152 342 1
152 364 1
153 12 1
153 205 1
153 214 1
153 236 1
153 245 1
153 254 1
153 263 1
153 285 1
153 294 1
153 303 1
153 325 1
153 334 1
153 343 1
153 365 1
154 12 1
154 206 1
154 215 1
154 224 1
154 246 1
154 255 1
154 264 1
154 286 1
154 295 1
154 304 1
154 326 1
154 335 1
154 344 1
154 366 1
155 12 1
155 207 1
155 216 1
155 225 1
155 247 1
155 256 1
155 265 1
155 287 1
155 296 1
155 305 1
155 327 1
155 336 1
155 345 1
155 354 1
156 12 1
156 208 1
156 217 1
156 226 1
156 248 1
156 257 1
156 266 1
156 288 1
156 297 1
156 306 1
156 315 1
156 337 1
156 346 1
156 355 1
157 12 1
157 209 1
157 218 1
157 227 1
157 249 1
157 258 1
157 267 1
157 276 1
157 298 1
157 307 1
157 316 1
157 338 1
157 347 1
157 356 1
158 12 1
158 210 1
158 219 1
158 228 1
158 237 1
158 259 1
158 268 1
158 277 1
158 299 1
158 308 1
158 317 1
158 339 1
158 348 1
158 357 1
159 13 1
159 198 1
159 221 1
159 231 1
159 241 1
159 251 1
159 274 1
159 284 1
159 294 1
159 304 1
159 327 1
159 337 1
159 347 1
159 357 1
160 13 1
160 199 1
160 222 1
160 232 1
160 242 1
160 252 1
160 275 1
160 285 1
160 295 1
160 305 1
160 315 1
160 338 1
160 348 1
160 358 1
161 13 1
161 200 1
161 223 1
161 233 1
161 243 1
161 253 1
161 263 1
161 286 1
161 296 1
161 306 1
161 316 1
161 339 1
161 349 1
161 359 1
162 13 1
162 201 1
162 211 1
162 234 1
162 244 1
162 254 1
162 264 1
162 287 1
162 297 1
162 307 1
162 317 1
162 340 1
162 350 1
162 360 1
163 13 1
163 202 1
163 212 1
163 235 1
163 245 1
163 255 1
163 265 1
163 288 1
163 298 1
163 308 1
163 318 1
163 328 1
163 351 1
163 361 1
164 13 1
164 203 1
164 213 1
164 236 1
164 246 1
164 256 1
164 266 1
164 276 1
164 299 1
164 309 1
164 319 1
164 329 1
164 352 1
164 362 1
165 13 1
165 204 1
165 214 1
165 224 1
165 247 1
165 257 1
165 267 1
165 277 1
165 300 1
165 310 1
165 320 1
165 330 1
165 353 1
165 363 1
166 13 1
166 205 1
166 215 1
166 225 1
166 248 1
166 258 1
166 268 1
166 278 1
166 301 1
166 311 1
166 321 1
166 331 1
166 341 1
166 364 1
167 13 1
167 206 1
167 216 1
167 226 1
167 249 1
167 259 1
167 269 1
167 279 1
167 289 1
167 312 1
167 322 1
167 332 1
167 342 1
167 365 1
168 13 1
168 207 1
168 217 1
168 227 1
168 237 1
168 260 1
168 270 1
168 280 1
168 290 1
168 313 1
168 323 1
168 333 1
168 343 1
168 366 1
169 13 1
169 208 1
169 218 1
169 228 1
169 238 1
169 261 1
169 271 1
169 281 1
169 291 1
169 314 1
169 324 1
169 334 1
169 344 1
169 354 1
170 13 1
170 209 1
170 219 1
170 229 1
170 239 1
170 262 1
170 272 1
170 282 1
170 292 1
170 302 1
170 325 1
170 335 1
170 345 1
170 355 1
171 13 1
171 210 1
171 220 1
171 230 1
171 240 1
171 250 1
171 273 1
171 283 1
171 293 1
171 303 1
171 326 1
171 336 1
171 346 1
171 356 1
172 14 1
172 198 1
172 222 1
172 233 1
172 244 1
172 255 1
172 266 1
172 277 1
172 301 1
172 312 1
172 323 1
172 334 1
172 345 1
172 356 1
173 14 1
173 199 1
173 223 1
173 234 1
173 245 1
173 256 1
173 267 1
173 278 1
173 289 1
173 313 1
173 324 1
173 335 1
173 346 1
173 357 1
174 14 1
174 200 1
174 211 1
174 235 1
174 246 1
174 257 1
174 268 1
174 279 1
174 290 1
174 314 1
174 325 1
174 336 1
174 347 1
174 358 1
175 14 1
175 201 1
175 212 1
175 236 1
175 247 1
175 258 1
175 269 1
175 280 1
175 291 1
175 302 1
175 326 1
175 337 1
175 348 1
175 359 1
176 14 1
176 202 1
176 213 1
176 224 1
176 248 1
176 259 1
176 270 1
176 281 1
176 292 1
176 303 1
176 327 1
176 338 1
176 349 1
176 360 1
177 14 1
177 203 1
177 214 1
177 225 1
177 249 1
177 260 1
177 271 1
177 282 1
177 293 1
177 304 1
177 315 1
177 339 1
177 350 1
177 361 1
178 14 1
178 204 1
178 215 1
178 226 1
178 237 1
178 261 1
178 272 1
178 283 1
178 294 1
178 305 1
178 316 1
178 340 1
178 351 1
178 362 1
179 14 1
179 205 1
179 216 1
179 227 1
179 238 1
179 262 1
179 273 1
179 284 1
179 295 1
179 306 1
179 317 1
179 328 1
179 352 1
179 363 1
180 14 1
180 206 1
180 217 1
180 228 1
180 239 1
180 250 1
180 274 1
180 285 1
180 296 1
180 307 1
180 318 1
180 329 1
180 353 1
180 364 1
181 14 1
181 207 1
181 218 1
181 229 1
181 240 1
181 251 1
181 275 1
181 286 1
181 297 1
181 308 1
181 319 1
181 330 1
181 341 1
181 365 1
182 14 1
182 208 1
182 219 1
182 230 1
182 241 1
182 252 1
182 263 1
182 287 1
182 298 1
182 309 1
182 320 1
182 331 1
182 342 1
182 366 1
183 14 1
183 209 1
183 220 1
183 231 1
183 242 1
183 253 1
183 264 1
183 288 1
183 299 1
183 310 1
183 321 1
183 332 1
183 343 1
183 354 1
184 14 1
184 210 1
184 221 1
184 232 1
184 243 1
184 254 1
184 265 1
184 276 1
184 300 1
184 311 1
184 322 1
184 333 1
184 344 1
184 355 1
185 15 1
185 198 1
185 223 1
185 235 1
185 247 1
185 259 1
185 271 1
185 283 1
185 295 1
185 307 1
185 319 1
185 331 1
185 343 1
185 355 1
186 15 1
186 199 1
186 211 1
186 236 1
186 248 1
186 260 1
186 272 1
186 284 1
186 296 1
186 308 1
186 320 1
186 332 1
186 344 1
186 356 1
187 15 1
187 200 1
187 212 1
187 224 1
187 249 1
187 261 1
187 273 1
187 285 1
187 297 1
187 309 1
187 321 1
187 333 1
187 345 1
187 357 1
188 15 1
188 201 1
188 213 1
188 225 1
188 237 1
188 262 1
188 274 1
188 286 1
188 298 1
188 310 1
188 322 1
188 334 1
188 346 1
188 358 1
189 15 1
189 202 1
189 214 1
189 226 1
189 238 1
189 250 1
189 275 1
189 287 1
189 299 1
189 311 1
189 323 1
189 335 1
189 347 1
189 359 1
190 15 1
190 203 1
190 215 1
190 227 1
190 239 1
190 251 1
190 263 1
190 288 1
190 300 1
190 312 1
190 324 1
190 336 1
190 348 1
190 360 1
191 15 1
191 204 1
191 216 1
191 228 1
191 240 1
191 252 1
191 264 1
191 276 1
191 301 1
191 313 1
191 325 1
191 337 1
191 349 1
191 361 1
192 15 1
192 205 1
192 217 1
192 229 1
192 241 1
192 253 1
192 265 1
192 277 1
192 289 1
192 314 1
192 326 1
192 338 1
192 350 1
192 362 1
193 15 1
193 206 1
193 218 1
193 230 1
193 242 1
193 254 1
193 266 1
193 278 1
193 290 1
193 302 1
193 327 1
193 339 1
193 351 1
193 363 1
194 15 1
194 207 1
194 219 1
194 231 1
194 243 1
194 255 1
194 267 1
194 279 1
194 291 1
194 303 1
194 315 1
194 340 1
194 352 1
194 364 1
195 15 1
195 208 1
195 220 1
195 232 1
195 244 1
195 256 1
195 268 1
195 280 1
195 292 1
195 304 1
195 316 1
195 328 1
195 353 1
195 365 1
196 15 1
196 209 1
196 221 1
196 233 1
196 245 1
196 257 1
196 269 1
196 281 1
196 293 1
196 305 1
196 317 1
196 329 1
196 341 1
196 366 1
197 15 1
197 210 1
197 222 1
197 234 1
197 246 1
197 258 1
197 270 1
197 282 1
197 294 1
197 306 1
197 318 1
197 330 1
197 342 1
197 354 1
198 16 1
198 29 1
198 42 1
198 55 1
198 68 1
198 81 1
198 94 1
198 107 1
198 120 1
198 133 1
198 146 1
198 159 1
198 172 1
198 185 1
199 16 1
199 30 1
199 43 1
199 56 1
199 69 1
199 82 1
199 95 1
199 108 1
199 121 1
199 134 1
199 147 1
199 160 1
199 173 1
199 186 1
200 16 1
200 31 1
200 44 1
200 57 1
200 70 1
200 83 1
200 96 1
200 109 1
200 122 1
200 135 1
200 148 1
200 161 1
200 174 1
200 187 1
201 16 1
201 32 1
201 45 1
201 58 1
201 71 1
201 84 1
201 97 1
201 110 1
201 123 1
201 136 1
201 149 1
201 162 1
201 175 1
201 188 1
202 16 1
202 33 1
202 46 1
202 59 1
202 72 1
202 85 1
202 98 1
202 111 1
202 124 1
202 137 1
202 150 1
202 163 1
202 176 1
202 189 1
203 16 1
203 34 1
203 47 1
203 60 1
203 73 1
203 86 1
203 99 1
203 112 1
203 125 1
203 138 1
203 151 1
203 164 1
203 177 1
203 190 1
204 16 1
204 35 1
204 48 1
204 61 1
204 74 1
204 87 1
204 100 1
204 113 1
204 126 1
204 139 1
204 152 1
204 165 1
204 178 1
204 191 1
205 16 1
205 36 1
205 49 1
205 62 1
205 75 1
205 88 1
205 101 1
205 114 1
205 127 1
205 140 1
205 153 1
205 166 1
205 179 1
205 192 1
206 16 1
206 37 1
206 50 1
206 63 1
206 76 1
206 89 1
206 102 1
206 115 1
206 128 1
206 141 1
206 154 1
206 167 1
206 180 1
206 193 1
207 16 1
207 38 1
207 51 1
207 64 1
207 77 1
207 90 1
207 103 1
207 116 1
207 129 1
207 142 1
207 155 1
207 168 1
207 181 1
207 194 1
208 16 1
208 39 1
208 52 1
208 65 1
208 78 1
208 91 1
208 104 1
208 117 1
208 130 1
208 143 1
208 156 1
208 169 1
208 182 1
208 195 1
209 16 1
209 40 1
209 53 1
209 66 1
209 79 1
209 92 1
209 105 1
209 118 1
209 131 1
209 144 1
209 157 1
209 170 1
209 183 1
209 196 1
210 16 1
210 41 1
210 54 1
210 67 1
210 80 1
210 93 1
210 106 1
210 119 1
210 132 1
210 145 1
210 158 1
210 171 1
210 184 1
210 197 1
211 17 1
211 29 1
211 54 1
211 66 1
211 78 1
211 90 1
211 102 1
211 114 1
211 126 1
211 138 1
211 150 1
211 162 1
211 174 1
211 186 1
212 17 1
212 30 1
212 42 1
212 67 1
212 79 1
212 91 1
212 103 1
212 115 1
212 127 1
212 139 1
212 151 1
212 163 1
212 175 1
212 187 1
213 17 1
213 31 1
213 43 1
213 55 1
213 80 1
213 92 1
213 104 1
213 116 1
213 128 1
213 140 1
213 152 1
213 164 1
213 176 1
213 188 1
214 17 1
214 32 1
214 44 1
214 56 1
214 68 1
214 93 1
214 105 1
214 117 1
214 129 1
214 141 1
214 153 1
214 165 1
214 177 1
214 189 1
215 17 1
215 33 1
215 45 1
215 57 1
215 69 1
215 81 1
215 106 1
215 118 1
215 130 1
215 142 1
215 154 1
215 166 1
215 178 1
215 190 1
216 17 1
216 34 1
216 46 1
216 58 1
216 70 1
216 82 1
216 94 1
216 119 1
216 131 1
216 143 1
216 155 1
216 167 1
216 179 1
216 191 1
217 17 1
217 35 1
217 47 1
217 59 1
217 71 1
217 83 1
217 95 1
217 107 1
217 132 1
217 144 1
217 156 1
217 168 1
217 180 1
217 192 1
218 17 1
218 36 1
218 48 1
218 60 1
218 72 1
218 84 1
218 96 1
218 108 1
218 120 1
218 145 1
218 157 1
218 169 1
218 181 1
218 193 1
219 17 1
219 37 1
219 49 1
219 61 1
219 73 1
219 85 1
219 97 1
219 109 1
219 121 1
219 133 1
219 158 1
219 170 1
219 182 1
219 194 1
220 17 1
220 38 1
220 50 1
220 62 1
220 74 1
220 86 1
220 98 1
220 110 1
220 122 1
220 134 1
220 146 1
220 171 1
220 183 1
220 195 1
221 17 1
221 39 1
221 51 1
221 63 1
221 75 1
221 87 1
221 99 1
221 111 1
221 123 1
221 135 1
221 147 1
221 159 1
221 184 1
221 196 1
222 17 1
222 40 1
222 52 1
222 64 1
222 76 1
222 88 1
222 100 1
222 112 1
222 124 1
222 136 1
222 148 1
222 160 1
222 172 1
222 197 1
223 17 1
223 41 1
223 53 1
223 65 1
223 77 1
223 89 1
223 101 1
223 113 1
223 125 1
223 137 1
223 149 1
223 161 1
223 173 1
223 185 1
224 18 1
224 29 1
224 53 1
224 64 1
224 75 1
224 86 1
224 97 1
224 108 1
224 132 1
224 143 1
224 154 1
224 165 1
224 176 1
224 187 1
225 18 1
225 30 1
225 54 1
225 65 1
225 76 1
225 87 1
225 98 1
225 109 1
225 120 1
225 144 1
225 155 1
225 166 1
225 177 1
225 188 1
226 18 1
226 31 1
226 42 1
226 66 1
226 77 1
226 88 1
226 99 1
226 110 1
226 121 1
226 145 1
226 156 1
226 167 1
226 178 1
226 189 1
227 18 1
227 32 1
227 43 1
227 67 1
227 78 1
227 89 1
227 100 1
227 111 1
227 122 1
227 133 1
227 157 1
227 168 1
227 179 1
227 190 1
228 18 1
228 33 1
228 44 1
228 55 1
228 79 1
228 90 1
228 101 1
228 112 1
228 123 1
228 134 1
228 158 1
228 169 1
228 180 1
228 191 1
229 18 1
229 34 1
229 45 1
229 56 1
229 80 1
229 91 1
229 102 1
229 113 1
229 124 1
229 135 1
229 146 1
229 170 1
229 181 1
229 192 1
230 18 1
230 35 1
230 46 1
230 57 1
230 68 1
230 92 1
230 103 1
230 114 1
230 125 1
230 136 1
230 147 1
230 171 1
230 182 1
230 193 1
231 18 1
231 36 1
231 47 1
231 58 1
231 69 1
231 93 1
231 104 1
231 115 1
231 126 1
231 137 1
231 148 1
231 159 1
231 183 1
231 194 1
232 18 1
232 37 1
232 48 1
232 59 1
232 70 1
232 81 1
232 105 1
232 116 1
232 127 1
232 138 1
232 149 1
232 160 1
232 184 1
232 195 1
233 18 1
233 38 1
233 49 1
233 60 1
233 71 1
233 82 1
233 106 1
233 117 1
233 128 1
233 139 1
233 150 1
233 161 1
233 172 1
233 196 1
234 18 1
234 39 1
234 50 1
234 61 1
234 72 1
234 83 1
234 94 1
234 118 1
234 129 1
234 140 1
234 151 1
234 162 1
234 173 1
234 197 1
235 18 1
235 40 1
235 51 1
235 62 1
235 73 1
235 84 1
235 95 1
235 119 1
235 130 1
235 141 1
235 152 1
235 163 1
235 174 1
235 185 1
236 18 1
236 41 1
236 52 1
236 63 1
236 74 1
236 85 1
236 96 1
236 107 1
236 131 1
236 142 1
236 153 1
236 164 1
236 175 1
236 186 1
237 19 1
237 29 1
237 52 1
237 62 1
237 72 1
237 82 1
237 105 1
237 115 1
237 125 1
237 135 1
237 158 1
237 168 1
237 178 1
237 188 1
238 19 1
238 30 1
238 53 1
238 63 1
238 73 1
238 83 1
238 106 1
238 116 1
238 126 1
238 136 1
238 146 1
238 169 1
238 179 1
238 189 1
239 19 1
239 31 1
239 54 1
239 64 1
239 74 1
239 84 1
239 94 1
239 117 1
239 127 1
239 137 1
239 147 1
239 170 1
239 180 1
239 190 1
240 19 1
240 32 1
240 42 1
240 65 1
240 75 1
240 85 1
240 95 1
240 118 1
240 128 1
240 138 1
240 148 1
240 171 1
240 181 1
240 191 1
241 19 1
241 33 1
241 43 1
241 66 1
241 76 1
241 86 1
241 96 1
241 119 1
241 129 1
241 139 1
241 149 1
241 159 1
241 182 1
241 192 1
242 19 1
242 34 1
242 44 1
242 67 1
242 77 1
242 87 1
242 97 1
242 107 1
242 130 1
242 140 1
242 150 1
242 160 1
242 183 1
242 193 1
243 19 1
243 35 1
243 45 1
243 55 1
243 78 1
243 88 1
243 98 1
243 108 1
243 131 1
243 141 1
243 151 1
243 161 1
243 184 1
243 194 1
244 19 1
244 36 1
244 46 1
244 56 1
244 79 1
244 89 1
244 99 1
244 109 1
244 132 1
244 142 1
244 152 1
244 162 1
244 172 1
244 195 1
245 19 1
245 37 1
245 47 1
245 57 1
245 80 1
245 90 1
245 100 1
245 110 1
245 120 1
245 143 1
245 153 1
245 163 1
245 173 1
245 196 1
246 19 1
246 38 1
246 48 1
246 58 1
246 68 1
246 91 1
246 101 1
246 111 1
246 121 1
246 144 1
246 154 1
246 164 1
246 174 1
246 197 1
247 19 1
247 39 1
247 49 1
247 59 1
247 69 1
247 92 1
247 102 1
247 112 1
247 122 1
247 145 1
247 155 1
247 165 1
247 175 1
247 185 1
248 19 1
248 40 1
248 50 1
248 60 1
248 70 1
248 93 1
248 103 1
248 113 1
248 123 1
248 133 1
248 156 1
248 166 1
248 176 1
248 186 1
249 19 1
249 41 1
249 51 1
249 61 1
249 71 1
249 81 1
249 104 1
249 114 1
249 124 1
249 134 1
249 157 1
249 167 1
249 177 1
249 187 1
250 20 1
250 29 1
250 51 1
250 60 1
250 69 1
250 91 1
250 100 1
250 109 1
250 131 1
250 140 1
250 149 1
250 171 1
250 180 1
250 189 1
251 20 1
251 30 1
251 52 1
251 61 1
251 70 1
251 92 1
251 101 1
251 110 1
251 132 1
251 141 1
251 150 1
251 159 1
251 181 1
251 190 1
252 20 1
252 31 1
252 53 1
252 62 1
252 71 1
252 93 1
252 102 1
252 111 1
252 120 1
252 142 1
252 151 1
252 160 1
252 182 1
252 191 1
253 20 1
253 32 1
253 54 1
253 63 1
253 72 1
253 81 1
253 103 1
253 112 1
253 121 1
253 143 1
253 152 1
253 161 1
253 183 1
253 192 1
254 20 1
254 33 1
254 42 1
254 64 1
254 73 1
254 82 1
254 104 1
254 113 1
254 122 1
254 144 1
254 153 1
254 162 1
254 184 1
254 193 1
255 20 1
255 34 1
255 43 1
255 65 1
255 74 1
255 83 1
255 105 1
255 114 1
255 123 1
255 145 1
255 154 1
255 163 1
255 172 1
255 194 1
256 20 1
256 35 1
256 44 1
256 66 1
256 75 1
256 84 1
256 106 1
256 115 1
256 124 1
256 133 1
256 155 1
256 164 1
256 173 1
256 195 1
257 20 1
257 36 1
257 45 1
257 67 1
257 76 1
257 85 1
257 94 1
257 116 1
257 125 1
257 134 1
257 156 1
257 165 1
257 174 1
257 196 1
258 20 1
258 37 1
258 46 1
258 55 1
258 77 1
258 86 1
258 95 1
258 117 1
258 126 1
258 135 1
258 157 1
258 166 1
258 175 1
258 197 1
259 20 1
259 38 1
259 47 1
259 56 1
259 78 1
259 87 1
259 96 1
259 118 1
259 127 1
259 136 1
259 158 1
259 167 1
259 176 1
259 185 1
260 20 1
260 39 1
260 48 1
260 57 1
260 79 1
260 88 1
260 97 1
260 119 1
260 128 1
260 137 1
260 146 1
260 168 1
260 177 1
260 186 1
261 20 1
261 40 1
261 49 1
261 58 1
261 80 1
261 89 1
261 98 1
261 107 1
261 129 1
261 138 1
261 147 1
261 169 1
261 178 1
261 187 1
262 20 1
262 41 1
262 50 1
262 59 1
262 68 1
262 90 1
262 99 1
262 108 1
262 130 1
262 139 1
262 148 1
262 170 1
262 179 1
262 188 1
263 21 1
263 29 1
263 50 1
263 58 1
263 79 1
263 87 1
263 95 1
263 116 1
263 124 1
263 145 1
263 153 1
263 161 1
263 182 1
263 190 1
264 21 1
264 30 1
264 51 1
264 59 1
264 80 1
264 88 1
264 96 1
264 117 1
264 125 1
264 133 1
264 154 1
264 162 1
264 183 1
264 191 1
265 21 1
265 31 1
265 52 1
265 60 1
265 68 1
265 89 1
265 97 1
265 118 1
265 126 1
265 134 1
265 155 1
265 163 1
265 184 1
265 192 1
266 21 1
266 32 1
266 53 1
266 61 1
266 69 1
266 90 1
266 98 1
266 119 1
266 127 1
266 135 1
266 156 1
266 164 1
266 172 1
266 193 1
267 21 1
267 33 1
267 54 1
267 62 1
267 70 1
267 91 1
267 99 1
267 107 1
267 128 1
267 136 1
267 157 1
267 165 1
267 173 1
267 194 1
268 21 1
268 34 1
268 42 1
268 63 1
268 71 1
268 92 1
268 100 1
268 108 1
268 129 1
268 137 1
268 158 1
268 166 1
268 174 1
268 195 1
269 21 1
269 35 1
269 43 1
269 64 1
269 72 1
269 93 1
269 101 1
269 109 1
269 130 1
269 138 1
269 146 1
269 167 1
269 175 1
269 196 1
270 21 1
270 36 1
270 44 1
270 65 1
270 73 1
270 81 1
270 102 1
270 110 1
270 131 1
270 139 1
270 147 1
270 168 1
270 176 1
270 197 1
271 21 1
271 37 1
271 45 1
271 66 1
271 74 1
271 82 1
271 103 1
271 111 1
271 132 1
271 140 1
271 148 1
271 169 1
271 177 1
271 185 1
272 21 1
272 38 1
272 46 1
272 67 1
272 75 1
272 83 1
272 104 1
272 112 1
272 120 1
272 141 1
272 149 1
272 170 1
272 178 1
272 186 1
273 21 1
273 39 1
273 47 1
273 55 1
273 76 1
273 84 1
273 105 1
273 113 1
273 121 1
273 142 1
273 150 1
273 171 1
273 179 1
273 187 1
274 21 1
274 40 1
274 48 1
274 56 1
274 77 1
274 85 1
274 106 1
274 114 1
274 122 1
274 143 1
274 151 1
274 159 1
274 180 1
274 188 1
275 21 1
275 41 1
275 49 1
275 57 1
275 78 1
275 86 1
275 94 1
275 115 1
275 123 1
275 144 1
275 152 1
275 160 1
275 181 1
275 189 1
276 22 1
276 29 1
276 49 1
276 56 1
276 76 1
276 83 1
276 103 1
276 110 1
276 130 1
276 137 1
276 157 1
276 164 1
276 184 1
276 191 1
277 22 1
277 30 1
277 50 1
277 57 1
277 77 1
277 84 1
277 104 1
277 111 1
277 131 1
277 138 1
277 158 1
277 165 1
277 172 1
277 192 1
278 22 1
278 31 1
278 51 1
278 58 1
278 78 1
278 85 1
278 105 1
278 112 1
278 132 1
278 139 1
278 146 1
278 166 1
278 173 1
278 193 1
279 22 1
279 32 1
279 52 1
279 59 1
279 79 1
279 86 1
279 106 1
279 113 1
279 120 1
279 140 1
279 147 1
279 167 1
279 174 1
279 194 1
280 22 1
280 33 1
280 53 1
280 60 1
280 80 1
280 87 1
280 94 1
280 114 1
280 121 1
280 141 1
280 148 1
280 168 1
280 175 1
280 195 1
281 22 1
281 34 1
281 54 1
281 61 1
281 68 1
281 88 1
281 95 1
281 115 1
281 122 1
281 142 1
281 149 1
281 169 1
281 176 1
281 196 1
282 22 1
282 35 1
282 42 1
282 62 1
282 69 1
282 89 1
282 96 1
282 116 1
282 123 1
282 143 1
282 150 1
282 170 1
282 177 1
282 197 1
283 22 1
283 36 1
283 43 1
283 63 1
283 70 1
283 90 1
283 97 1
283 117 1
283 124 1
283 144 1
283 151 1
283 171 1
283 178 1
283 185 1
284 22 1
284 37 1
284 44 1
284 64 1
284 71 1
284 91 1
284 98 1
284 118 1
284 125 1
284 145 1
284 152 1
284 159 1
284 179 1
284 186 1
285 22 1
285 38 1
285 45 1
285 65 1
285 72 1
285 92 1
285 99 1
285 119 1
285 126 1
285 133 1
285 153 1
285 160 1
285 180 1
285 187 1
286 22 1
286 39 1
286 46 1
286 66 1
286 73 1
286 93 1
286 100 1
286 107 1
286 127 1
286 134 1
286 154 1
286 161 1
286 181 1
286 188 1
287 22 1
287 40 1
287 47 1
287 67 1
287 74 1
287 81 1
287 101 1
287 108 1
287 128 1
287 135 1
287 155 1
287 162 1
287 182 1
287 189 1
288 22 1
288 41 1
288 48 1
288 55 1
288 75 1
288 82 1
288 102 1
288 109 1
288 129 1
288 136 1
288 156 1
288 163 1
288 183 1
288 190 1
289 23 1
289 29 1
289 48 1
289 67 1
289 73 1
289 92 1
289 98 1
289 117 1
289 123 1
289 142 1
289 148 1
289 167 1
289 173 1
289 192 1
290 23 1
290 30 1
290 49 1
290 55 1
290 74 1
290 93 1
290 99 1
290 118 1
290 124 1
290 143 1
290 149 1
290 168 1
290 174 1
290 193 1
291 23 1
291 31 1
291 50 1
291 56 1
291 75 1
291 81 1
291 100 1
291 119 1
291 125 1
291 144 1
291 150 1
291 169 1
291 175 1
291 194 1
292 23 1
292 32 1
292 51 1
292 57 1
292 76 1
292 82 1
292 101 1
292 107 1
292 126 1
292 145 1
292 151 1
292 170 1
292 176 1
292 195 1
293 23 1
293 33 1
293 52 1
293 58 1
293 77 1
293 83 1
293 102 1
293 108 1
293 127 1
293 133 1
293 152 1
293 171 1
293 177 1
293 196 1
294 23 1
294 34 1
294 53 1
294 59 1
294 78 1
294 84 1
294 103 1
294 109 1
294 128 1
294 134 1
294 153 1
294 159 1
294 178 1
294 197 1
295 23 1
295 35 1
295 54 1
295 60 1
295 79 1
295 85 1
295 104 1
295 110 1
295 129 1
295 135 1
295 154 1
295 160 1
295 179 1
295 185 1
296 23 1
296 36 1
296 42 1
296 61 1
296 80 1
296 86 1
296 105 1
296 111 1
296 130 1
296 136 1
296 155 1
296 161 1
296 180 1
296 186 1
297 23 1
297 37 1
297 43 1
297 62 1
297 68 1
297 87 1
297 106 1
297 112 1
297 131 1
297 137 1
297 156 1
297 162 1
297 181 1
297 187 1
298 23 1
298 38 1
298 44 1
298 63 1
298 69 1
298 88 1
298 94 1
298 113 1
298 132 1
298 138 1
298 157 1
298 163 1
298 182 1
298 188 1
299 23 1
299 39 1
299 45 1
299 64 1
299 70 1
299 89 1
299 95 1
299 114 1
299 120 1
299 139 1
299 158 1
299 164 1
299 183 1
299 189 1
300 23 1
300 40 1
300 46 1
300 65 1
300 71 1
300 90 1
300 96 1
300 115 1
300 121 1
300 140 1
300 146 1
300 165 1
300 184 1
300 190 1
301 23 1
301 41 1
301 47 1
301 66 1
301 72 1
301 91 1
301 97 1
301 116 1
301 122 1
301 141 1
301 147 1
301 166 1
301 172 1
301 191 1
302 24 1
302 29 1
302 47 1
302 65 1
302 70 1
302 88 1
302 106 1
302 111 1
302 129 1
302 134 1
302 152 1
302 170 1
302 175 1
302 193 1
303 24 1
303 30 1
303 48 1
303 66 1
303 71 1
303 89 1
303 94 1
303 112 1
303 130 1
303 135 1
303 153 1
303 171 1
303 176 1
303 194 1
304 24 1
304 31 1
304 49 1
304 67 1
304 72 1
304 90 1
304 95 1
304 113 1
304 131 1
304 136 1
304 154 1
304 159 1
304 177 1
304 195 1
305 24 1
305 32 1
305 50 1
305 55 1
305 73 1
305 91 1
305 96 1
305 114 1
305 132 1
305 137 1
305 155 1
305 160 1
305 178 1
305 196 1
306 24 1
306 33 1
306 51 1
306 56 1
306 74 1
306 92 1
306 97 1
306 115 1
306 120 1
306 138 1
306 156 1
306 161 1
306 179 1
306 197 1
307 24 1
307 34 1
307 52 1
307 57 1
307 75 1
307 93 1
307 98 1
307 116 1
307 121 1
307 139 1
307 157 1
307 162 1
307 180 1
307 185 1
308 24 1
308 35 1
308 53 1
308 58 1
308 76 1
308 81 1
308 99 1
308 117 1
308 122 1
308 140 1
308 158 1
308 163 1
308 181 1
308 186 1
309 24 1
309 36 1
309 54 1
309 59 1
309 77 1
309 82 1
309 100 1
309 118 1
309 123 1
309 141 1
309 146 1
309 164 1
309 182 1
309 187 1
310 24 1
310 37 1
310 42 1
310 60 1
310 78 1
310 83 1
310 101 1
310 119 1
310 124 1
310 142 1
310 147 1
310 165 1
310 183 1
310 188 1
311 24 1
311 38 1
311 43 1
311 61 1
311 79 1
311 84 1
311 102 1
311 107 1
311 125 1
311 143 1
311 148 1
311 166 1
311 184 1
311 189 1
312 24 1
312 39 1
312 44 1
312 62 1
312 80 1
312 85 1
312 103 1
312 108 1
312 126 1
312 144 1
312 149 1
312 167 1
312 172 1
312 190 1
313 24 1
313 40 1
313 45 1
313 63 1
313 68 1
313 86 1
313 104 1
313 109 1
313 127 1
313 145 1
313 150 1
313 168 1
313 173 1
313 191 1
314 24 1
314 41 1
314 46 1
314 64 1
314 69 1
314 87 1
314 105 1
314 110 1
314 128 1
314 133 1
314 151 1
314 169 1
314 174 1
314 192 1
315 25 1
315 29 1
315 46 1
315 63 1
315 80 1
315 84 1
315 101 1
315 118 1
315 122 1
315 139 1
315 156 1
315 160 1
315 177 1
315 194 1
316 25 1
316 30 1
316 47 1
316 64 1
316 68 1
316 85 1
316 102 1
316 119 1
316 123 1
316 140 1
316 157 1
316 161 1
316 178 1
316 195 1
317 25 1
317 31 1
317 48 1
317 65 1
317 69 1
317 86 1
317 103 1
317 107 1
317 124 1
317 141 1
317 158 1
317 162 1
317 179 1
317 196 1
318 25 1
318 32 1
318 49 1
318 66 1
318 70 1
318 87 1
318 104 1
318 108 1
318 125 1
318 142 1
318 146 1
318 163 1
318 180 1
318 197 1
319 25 1
319 33 1
319 50 1
319 67 1
319 71 1
319 88 1
319 105 1
319 109 1
319 126 1
319 143 1
319 147 1
319 164 1
319 181 1
319 185 1
320 25 1
320 34 1
320 51 1
320 55 1
320 72 1
320 89 1
320 106 1
320 110 1
320 127 1
320 144 1
320 148 1
320 165 1
320 182 1
320 186 1
321 25 1
321 35 1
321 52 1
321 56 1
321 73 1
321 90 1
321 94 1
321 111 1
321 128 1
321 145 1
321 149 1
321 166 1
321 183 1
321 187 1
322 25 1
322 36 1
322 53 1
322 57 1
322 74 1
322 91 1
322 95 1
322 112 1
322 129 1
322 133 1
322 150 1
322 167 1
322 184 1
322 188 1
323 25 1
323 37 1
323 54 1
323 58 1
323 75 1
323 92 1
323 96 1
323 113 1
323 130 1
323 134 1
323 151 1
323 168 1
323 172 1
323 189 1
324 25 1
324 38 1
324 42 1
324 59 1
324 76 1
324 93 1
324 97 1
324 114 1
324 131 1
324 135 1
324 152 1
324 169 1
324 173 1
324 190 1
325 25 1
325 39 1
325 43 1
325 60 1
325 77 1
325 81 1
325 98 1
325 115 1
325 132 1
325 136 1
325 153 1
325 170 1
325 174 1
325 191 1
326 25 1
326 40 1
326 44 1
326 61 1
326 78 1
326 82 1
326 99 1
326 116 1
326 120 1
326 137 1
326 154 1
326 171 1
326 175 1
326 192 1
327 25 1
327 41 1
327 45 1
327 62 1
327 79 1
327 83 1
327 100 1
327 117 1
327 121 1
327 138 1
327 155 1
327 159 1
327 176 1
327 193 1
328 26 1
328 29 1
328 45 1
328 61 1
328 77 1
328 93 1
328 96 1
328 112 1
328 128 1
328 144 1
328 147 1
328 163 1
328 179 1
328 195 1
329 26 1
329 30 1
329 46 1
329 62 1
329 78 1
329 81 1
329 97 1
329 113 1
329 129 1
329 145 1
329 148 1
329 164 1
329 180 1
329 196 1
330 26 1
330 31 1
330 47 1
330 63 1
330 79 1
330 82 1
330 98 1
330 114 1
330 130 1
330 133 1
330 149 1
330 165 1
330 181 1
330 197 1
331 26 1
331 32 1
331 48 1
331 64 1
331 80 1
331 83 1
331 99 1
331 115 1
331 131 1
331 134 1
331 150 1
331 166 1
331 182 1
331 185 1
332 26 1
332 33 1
332 49 1
332 65 1
332 68 1
332 84 1
332 100 1
332 116 1
332 132 1
332 135 1
332 151 1
332 167 1
332 183 1
332 186 1
333 26 1
333 34 1
333 50 1
333 66 1
333 69 1
333 85 1
333 101 1
333 117 1
333 120 1
333 136 1
333 152 1
333 168 1
333 184 1
333 187 1
334 26 1
334 35 1
334 51 1
334 67 1
334 70 1
334 86 1
334 102 1
334 118 1
334 121 1
334 137 1
334 153 1
334 169 1
334 172 1
334 188 1
335 26 1
335 36 1
335 52 1
335 55 1
335 71 1
335 87 1
335 103 1
335 119 1
335 122 1
335 138 1
335 154 1
335 170 1
335 173 1
335 189 1
336 26 1
336 37 1
336 53 1
336 56 1
336 72 1
336 88 1
336 104 1
336 107 1
336 123 1
336 139 1
336 155 1
336 171 1
336 174 1
336 190 1
337 26 1
337 38 1
337 54 1
337 57 1
337 73 1
337 89 1
337 105 1
337 108 1
337 124 1
337 140 1
337 156 1
337 159 1
337 175 1
337 191 1
338 26 1
338 39 1
338 42 1
338 58 1
338 74 1
338 90 1
338 106 1
338 109 1
338 125 1
338 141 1
338 157 1
338 160 1
338 176 1
338 192 1
339 26 1
339 40 1
339 43 1
339 59 1
339 75 1
339 91 1
339 94 1
339 110 1
339 126 1
339 142 1
339 158 1
339 161 1
339 177 1
339 193 1
340 26 1
340 41 1
340 44 1
340 60 1
340 76 1
340 92 1
340 95 1
340 111 1
340 127 1
340 143 1
340 146 1
340 162 1
340 178 1
340 194 1
341 27 1
341 29 1
341 44 1
341 59 1
341 74 1
341 89 1
341 104 1
341 119 1
341 121 1
341 136 1
341 151 1
341 166 1
341 181 1
341 196 1
342 27 1
342 30 1
342 45 1
342 60 1
342 75 1
342 90 1
342 105 1
342 107 1
342 122 1
342 137 1
342 152 1
342 167 1
342 182 1
342 197 1
343 27 1
343 31 1
343 46 1
343 61 1
343 76 1
343 91 1
343 106 1
343 108 1
343 123 1
343 138 1
343 153 1
343 168 1
343 183 1
343 185 1
344 27 1
344 32 1
344 47 1
344 62 1
344 77 1
344 92 1
344 94 1
344 109 1
344 124 1
344 139 1
344 154 1
344 169 1
344 184 1
344 186 1
345 27 1
345 33 1
345 48 1
345 63 1
345 78 1
345 93 1
345 95 1
345 110 1
345 125 1
345 140 1
345 155 1
345 170 1
345 172 1
345 187 1
346 27 1
346 34 1
346 49 1
346 64 1
346 79 1
346 81 1
346 96 1
346 111 1
346 126 1
346 141 1
346 156 1
346 171 1
346 173 1
346 188 1
347 27 1
347 35 1
347 50 1
347 65 1
347 80 1
347 82 1
347 97 1
347 112 1
347 127 1
347 142 1
347 157 1
347 159 1
347 174 1
347 189 1
348 27 1
348 36 1
348 51 1
348 66 1
348 68 1
348 83 1
348 98 1
348 113 1
348 128 1
348 143 1
348 158 1
348 160 1
348 175 1
348 190 1
349 27 1
349 37 1
349 52 1
349 67 1
349 69 1
349 84 1
349 99 1
349 114 1
349 129 1
349 144 1
349 146 1
349 161 1
349 176 1
349 191 1
350 27 1
350 38 1
350 53 1
350 55 1
350 70 1
350 85 1
350 100 1
350 115 1
350 130 1
350 145 1
350 147 1
350 162 1
350 177 1
350 192 1
351 27 1
351 39 1
351 54 1
351 56 1
351 71 1
351 86 1
351 101 1
351 116 1
351 131 1
351 133 1
351 148 1
351 163 1
351 178 1
351 193 1
352 27 1
352 40 1
352 42 1
352 57 1
352 72 1
352 87 1
352 102 1
352 117 1
352 132 1
352 134 1
352 149 1
352 164 1
352 179 1
352 194 1
353 27 1
353 41 1
353 43 1
353 58 1
353 73 1
353 88 1
353 103 1
353 118 1
353 120 1
353 135 1
353 150 1
353 165 1
353 180 1
353 195 1
354 28 1
354 29 1
354 43 1
354 57 1
354 71 1
354 85 1
354 99 1
354 113 1
354 127 1
354 141 1
354 155 1
354 169 1
354 183 1
354 197 1
355 28 1
355 30 1
355 44 1
355 58 1
355 72 1
355 86 1
355 100 1
355 114 1
355 128 1
355 142 1
355 156 1
355 170 1
355 184 1
355 185 1
356 28 1
356 31 1
356 45 1
356 59 1
356 73 1
356 87 1
356 101 1
356 115 1
356 129 1
356 143 1
356 157 1
356 171 1
356 172 1
356 186 1
357 28 1
357 32 1
357 46 1
357 60 1
357 74 1
357 88 1
357 102 1
357 116 1
357 130 1
357 144 1
357 158 1
357 159 1
357 173 1
357 187 1
358 28 1
358 33 1
358 47 1
358 61 1
358 75 1
358 89 1
358 103 1
358 117 1
358 131 1
358 145 1
358 146 1
358 160 1
358 174 1
358 188 1
359 28 1
359 34 1
359 48 1
359 62 1
359 76 1
359 90 1
359 104 1
359 118 1
359 132 1
359 133 1
359 147 1
359 161 1
359 175 1
359 189 1
360 28 1
360 35 1
360 49 1
360 63 1
360 77 1
360 91 1
360 105 1
360 119 1
360 120 1
360 134 1
360 148 1
360 162 1
360 176 1
360 190 1
361 28 1
361 36 1
361 50 1
361 64 1
361 78 1
361 92 1
361 106 1
361 107 1
361 121 1
361 135 1
361 149 1
361 163 1
361 177 1
361 191 1
362 28 1
362 37 1
362 51 1
362 65 1
362 79 1
362 93 1
362 94 1
362 108 1
362 122 1
362 136 1
362 150 1
362 164 1
362 178 1
362 192 1
363 28 1
363 38 1
363 52 1
363 66 1
363 80 1
363 81 1
363 95 1
363 109 1
363 123 1
363 137 1
363 151 1
363 165 1
363 179 1
363 193 1
364 28 1
364 39 1
364 53 1
364 67 1
364 68 1
364 82 1
364 96 1
364 110 1
364 124 1
364 138 1
364 152 1
364 166 1
364 180 1
364 194 1
365 28 1
365 40 1
365 54 1
365 55 1
365 69 1
365 83 1
365 97 1
365 111 1
365 125 1
365 139 1
365 153 1
365 167 1
365 181 1
365 195 1
366 28 1
366 41 1
366 42 1
366 56 1
366 70 1
366 84 1
366 98 1
366 112 1
366 126 1
366 140 1
366 154 1
366 168 1
366 182 1
366 196 1
