%%MatrixMarket matrix coordinate real symmetric
%
62 62 140
1 1 1
2 2 1
3 1 1
3 2 1
3 3 1
4 3 1
4 4 1
5 2 1
5 4 1
5 5 1
6 4 1
6 6 1
7 6 1
7 7 1
8 6 1
8 7 1
8 8 1
9 5 1
9 8 1
9 9 1
10 5 1
10 10 1
11 10 1
11 11 1
12 11 1
12 12 1
13 10 1
13 12 1
13 13 1
14 12 1
14 14 1
15 9 1
15 13 1
15 14 1
15 15 1
16 14 1
16 16 1
17 16 1
17 17 1
18 17 1
18 18 1
19 9 1
19 18 1
19 19 1
20 7 1
20 19 1
20 20 1
21 18 1
21 21 1
22 17 1
22 21 1
22 22 1
23 17 1
23 23 1
24 23 1
24 24 1
25 24 1
25 25 1
26 25 1
26 26 1
27 26 1
27 27 1
28 28 1
29 27 1
29 29 1
30 26 1
30 29 1
30 30 1
31 24 1
31 30 1
31 31 1
32 17 1
32 22 1
32 31 1
32 32 1
33 32 1
33 33 1
34 33 1
34 34 1
35 29 1
35 35 1
36 35 1
36 36 1
37 34 1
37 37 1
38 38 1
39 38 1
39 39 1
40 39 1
40 40 1
41 40 1
41 41 1
42 36 1
42 37 1
42 42 1
43 36 1
43 43 1
44 44 1
45 44 1
45 45 1
46 45 1
46 46 1
47 42 1
47 44 1
47 47 1
48 29 1
48 48 1
49 48 1
49 49 1
50 48 1
50 50 1
51 48 1
51 51 1
52 27 1
52 28 1
52 52 1
53 17 1
53 53 1
54 41 1
54 54 1
55 54 1
55 55 1
56 52 1
56 56 1
57 37 1
57 38 1
57 57 1
58 20 1
58 54 1
58 57 1
58 58 1
59 11 1
59 59 1
60 59 1
60 60 1
61 35 1
61 42 1
61 61 1
62 16 1
62 62 1
