%%MatrixMarket matrix coordinate real general
%
453 453 4065
1 186 2
1 207 2
1 218 4
1 227 2
1 228 2
1 229 2
1 230 2
2 3 1
2 186 1
2 408 1
3 2 1
3 7 2
3 186 1
3 238 2
3 243 2
3 408 1
4 6 2
4 145 2
4 147 2
4 241 2
4 243 2
4 404 2
5 148 2
5 186 2
6 4 2
6 7 2
6 61 1
6 108 4
6 157 4
6 158 4
6 159 4
6 167 2
6 169 4
6 170 4
6 220 1
6 222 1
6 227 2
6 228 2
6 241 2
6 243 4
6 245 2
6 350 4
6 360 2
6 374 4
6 408 4
6 426 2
6 428 2
7 3 2
7 6 2
7 68 2
7 99 2
7 145 2
7 147 2
7 227 2
7 228 2
7 238 2
7 243 2
8 15 1
8 23 1
8 352 2
8 353 2
9 12 1
9 16 1
9 176 2
9 182 2
10 299 2
10 300 2
10 386 2
10 387 2
10 408 5
10 449 1
10 451 1
11 299 2
11 300 2
11 383 2
11 384 2
11 408 4
12 9 1
12 176 2
12 182 2
12 249 1
13 89 2
13 112 1
13 153 1
13 186 1
13 193 2
13 205 2
13 231 1
14 145 2
14 147 2
14 202 1
14 205 1
14 371 1
14 376 1
14 408 2
15 8 1
15 352 2
15 353 2
15 356 1
16 9 1
16 17 1
16 176 2
16 182 2
17 16 1
17 18 1
17 176 2
17 182 2
18 17 1
18 18 1
18 19 1
18 176 3
18 182 3
18 352 1
18 354 1
19 18 1
19 20 1
19 352 2
19 354 2
20 19 1
20 21 1
20 352 2
20 354 2
21 20 1
21 22 1
21 352 2
21 354 2
22 21 1
22 23 1
22 352 2
22 354 2
23 8 1
23 22 1
23 352 2
23 353 1
23 354 1
24 102 2
24 186 2
24 227 2
24 228 2
24 287 2
25 103 2
25 186 2
25 227 2
25 228 2
25 289 2
26 105 2
26 186 2
26 227 2
26 228 2
26 292 2
27 39 4
27 186 2
27 227 2
27 228 2
27 229 2
27 230 2
27 392 2
28 31 2
28 44 4
28 186 2
28 227 2
28 228 2
28 229 2
28 230 2
29 30 2
29 76 2
29 186 2
29 227 2
29 228 2
30 29 2
30 90 2
30 153 2
30 227 2
30 228 2
31 28 2
31 89 2
31 186 2
31 205 2
31 212 2
32 76 2
32 155 2
32 186 4
32 298 2
32 392 2
33 37 2
33 145 4
33 147 4
33 153 2
33 390 2
33 408 2
34 166 2
34 186 2
34 371 2
34 372 2
35 399 2
35 437 2
36 37 2
36 45 2
36 145 2
36 147 2
36 229 2
36 230 2
37 33 2
37 36 2
37 145 4
37 147 4
38 44 2
38 88 2
38 153 2
38 427 2
39 27 4
39 39 1
39 153 2
39 227 2
39 228 2
39 229 2
39 230 2
39 427 2
40 117 2
40 118 2
40 173 2
40 174 2
40 186 4
41 77 2
41 79 2
41 186 2
41 227 2
41 228 2
42 43 2
42 49 2
42 155 2
42 186 2
42 227 2
42 228 2
43 42 2
43 155 2
43 186 3
43 396 1
44 28 4
44 38 2
44 227 2
44 228 2
44 229 2
44 230 2
45 36 2
45 155 2
45 186 2
45 229 2
45 230 2
45 297 2
45 298 2
46 104 2
46 186 2
46 227 2
46 228 2
46 288 2
47 107 2
47 186 2
47 227 2
47 228 2
47 291 2
48 106 2
48 186 2
48 227 2
48 228 2
48 290 2
49 42 2
49 153 2
49 155 2
49 227 4
49 228 4
49 422 2
50 186 2
50 227 2
50 228 2
50 261 2
50 406 2
51 72 1
51 186 2
51 359 2
51 447 1
52 69 1
52 71 1
52 186 2
52 312 2
52 446 1
53 54 1
53 145 1
53 147 1
53 150 2
53 154 2
53 426 2
54 53 1
54 145 1
54 147 1
55 150 1
55 154 1
55 426 1
56 123 1
56 153 1
56 217 1
56 274 1
56 433 1
57 61 1
57 153 1
57 186 1
57 250 2
58 59 2
58 60 2
58 145 2
58 147 2
58 153 2
58 198 2
58 408 2
59 58 2
59 70 1
59 145 1
59 147 1
59 153 2
59 408 1
60 58 2
60 124 2
60 145 2
60 147 2
60 198 2
60 365 2
60 408 2
61 6 1
61 57 1
61 153 1
61 186 1
61 220 1
61 222 1
62 63 2
62 124 2
62 125 1
62 128 3
62 132 2
62 145 2
62 147 2
62 205 2
62 248 1
62 408 2
63 62 2
63 145 4
63 147 4
63 205 4
63 364 2
63 408 4
64 65 2
64 186 2
64 227 4
64 228 4
64 413 2
65 64 2
65 227 2
65 228 2
66 67 1
66 164 2
66 186 1
66 408 1
67 66 1
67 186 1
67 408 1
68 7 2
68 91 2
68 108 2
68 109 4
68 145 4
68 147 4
68 227 2
68 228 2
68 229 2
68 230 2
69 52 1
69 71 1
69 186 2
69 312 2
69 446 1
70 59 1
70 125 1
70 145 2
70 147 2
70 186 1
70 205 1
70 208 1
70 408 2
71 52 1
71 69 1
71 186 3
71 312 3
71 373 1
72 51 1
72 186 1
72 359 1
73 146 2
73 147 2
73 281 1
73 348 2
73 349 1
73 426 1
74 340 2
74 342 2
74 383 2
74 408 6
74 444 2
74 445 2
74 449 2
75 100 2
75 155 1
75 186 3
75 298 1
75 392 1
76 29 2
76 32 2
76 186 4
77 41 2
77 155 2
77 227 2
77 228 2
77 298 2
77 422 2
78 79 1
78 155 1
78 173 1
78 174 1
78 270 1
78 343 1
79 41 2
79 78 1
79 173 1
79 174 1
79 186 2
80 81 1
80 156 1
80 186 1
80 229 1
80 230 1
80 233 1
80 272 1
80 273 1
81 80 1
81 83 1
81 186 1
81 229 1
81 230 1
81 233 1
81 272 1
81 273 1
82 84 1
82 85 1
82 186 1
82 229 1
82 230 1
82 233 1
82 272 1
82 273 1
83 81 1
83 84 1
83 186 1
83 229 1
83 230 1
83 233 1
83 272 1
83 273 1
84 82 1
84 83 1
84 186 1
84 229 1
84 230 1
84 233 1
84 272 1
84 273 1
85 82 1
85 101 1
85 153 1
85 186 1
85 229 1
85 230 1
85 233 1
86 89 2
86 121 2
86 165 2
86 227 2
86 228 2
86 268 2
87 90 1
87 100 1
87 153 1
87 227 1
87 228 1
88 38 2
88 153 2
88 186 7
88 201 1
88 202 1
88 211 1
88 221 2
88 231 4
88 427 2
89 13 2
89 31 2
89 86 2
89 90 2
89 109 2
89 114 2
89 116 2
89 153 3
89 165 2
89 171 2
89 186 4
89 193 2
89 198 2
89 205 2.5E1
89 207 2
89 208 1
89 212 2
89 214 2
89 217 2
89 223 2
89 224 2
89 227 4
89 228 4
89 229 3
89 230 3
89 231 4
89 268 2
89 269 2
89 277 1
89 282 2
89 389 2
89 392 2
89 395 1
89 409 2
89 436 2
90 30 2
90 87 1
90 89 2
90 153 3
90 205 2
90 214 2
91 68 2
91 186 2
91 417 2
92 146 1
92 147 1
92 186 1
92 408 1
93 145 2
93 147 2
93 301 2
93 303 2
93 412 2
93 440 2
93 443 2
94 95 1
94 150 2
94 152 2
94 186 1
94 285 2
94 408 1
95 94 1
95 186 1
95 408 1
96 153 1
96 155 1
96 172 1
96 220 1
96 229 1
96 230 1
96 414 1
97 98 2
97 144 2
97 186 2
97 408 2
98 97 2
98 186 2
98 229 2
98 230 2
98 432 2
99 7 2
99 193 2
99 220 2
99 227 2
99 228 2
99 427 2
100 75 2
100 87 1
100 186 2
100 227 1
100 228 1
101 85 1
101 119 1
101 153 1
101 278 1
101 426 1
102 24 2
102 155 2
102 227 2
102 228 2
102 298 2
102 402 2
103 25 2
103 155 2
103 227 2
103 228 2
103 298 2
103 309 2
104 46 2
104 155 2
104 227 2
104 228 2
104 298 2
104 337 2
105 26 2
105 155 2
105 227 2
105 228 2
105 280 2
105 298 2
106 48 2
106 155 2
106 227 2
106 228 2
106 298 2
106 401 2
107 47 2
107 155 2
107 227 2
107 228 2
107 298 2
107 394 2
108 6 4
108 68 2
108 145 2
108 147 2
108 227 2
108 228 2
108 360 2
108 408 4
108 428 2
109 68 4
109 89 2
109 205 2
109 227 2
109 228 2
109 229 2
109 230 2
109 269 2
110 145 2
110 147 2
110 266 1
110 408 1
110 417 1
110 432 2
111 129 2
111 153 1
111 186 3
111 190 1
111 231 1
112 13 1
112 130 2
112 153 1
112 186 3
112 231 1
113 186 4
113 262 2
113 452 2
114 89 2
114 153 1
114 205 3
114 436 2
115 120 2
115 186 2
115 296 2
115 365 2
116 89 2
116 117 2
116 171 2
116 186 2
116 205 2
116 227 2
116 228 2
117 40 2
117 116 2
117 186 4
117 227 2
117 228 2
118 40 2
118 173 2
118 174 2
118 186 2
119 101 1
119 278 1
119 316 2
119 426 1
119 427 2
120 115 2
120 233 2
120 385 2
121 86 2
121 157 2
121 227 4
121 228 4
122 145 2
122 147 2
122 198 2
122 199 2
122 229 2
122 230 2
122 408 2
123 56 1
123 225 1
123 274 2
123 433 2
124 60 2
124 62 2
124 128 2
124 131 2
124 132 2
124 135 2
124 365 2
124 426 2
125 62 1
125 70 1
125 128 1
125 145 1
125 147 1
125 186 1
125 205 1
125 208 1
125 248 1
125 408 1
126 133 2
126 146 2
126 147 2
126 408 2
127 128 4
127 143 2
127 186 2
127 220 2
127 231 2
127 275 2
127 332 2
127 335 2
127 344 2
127 376 2
128 62 3
128 124 2
128 125 1
128 127 4
128 132 2
128 134 2
128 143 2
128 145 2
128 147 2
128 186 2
128 205 2
128 210 2
128 216 2
128 220 3
128 229 2
128 230 2
128 231 2
128 248 1
128 275 2
128 344 2
128 376 2
128 408 2
128 441 2
129 111 2
129 186 2
129 229 2
129 230 2
129 445 2
130 112 2
130 186 2
130 229 2
130 230 2
130 449 2
131 124 2
131 135 2
131 426 2
132 62 2
132 124 2
132 128 2
132 186 2
132 188 2
133 126 2
133 146 2
133 147 2
133 408 2
134 128 2
134 210 2
134 216 2
135 124 2
135 131 2
135 136 1
135 146 3
135 147 1
135 167 1
135 183 2
135 186 1
135 205 1
135 208 1
135 250 1
135 299 2
135 304 1
135 383 2
135 406 2
135 407 2
135 426 1E1
136 135 1
136 145 2
136 147 2
136 186 1
136 205 1
136 208 1
136 248 2
136 376 2
136 408 2
136 426 1
137 141 1
137 184 1
137 186 2
137 205 1
137 448 1
138 138 1
138 232 4
139 141 2
139 142 2
139 229 4
139 230 4
140 153 2
140 160 2
140 168 2
140 186 2
140 229 2
140 230 2
141 137 1
141 139 2
141 186 1
141 229 2
141 230 2
141 448 1
142 139 2
142 229 2
142 230 2
143 127 2
143 128 2
143 145 2
143 147 2
143 205 2
143 229 2
143 230 2
143 332 2
143 335 2
143 349 2
143 408 2
144 97 2
144 157 2
144 186 2
144 408 4
144 417 2
145 4 2
145 7 2
145 14 2
145 33 4
145 36 2
145 37 4
145 53 1
145 54 1
145 58 2
145 59 1
145 60 2
145 62 2
145 63 4
145 68 4
145 70 2
145 93 2
145 108 2
145 110 2
145 122 2
145 125 1
145 128 2
145 136 2
145 143 2
145 145 1
145 146 9
145 147 1.14E2
145 149 4
145 152 3
145 153 4
145 154 5
145 155 1
145 158 4
145 159 4
145 162 1
145 164 2
145 167 2
145 175 2
145 176 6
145 183 2
145 184 4
145 185 2
145 186 5
145 198 4
145 202 1
145 205 1.6E1
145 206 2
145 208 5
145 211 2
145 231 5
145 235 3
145 236 2
145 237 2
145 238 4
145 244 3
145 245 5
145 248 2
145 258 1
145 259 1
145 285 2
145 300 2
145 303 2
145 306 4
145 311 2
145 318 1
145 320 4
145 321 2
145 322 2
145 323 5
145 324 1
145 325 2
145 326 4
145 327 2
145 328 2
145 329 4
145 332 3
145 333 2
145 334 3
145 335 2
145 336 2
145 342 1
145 349 2
145 364 2
145 368 1
145 370 1
145 371 1
145 373 2
145 376 3
145 390 2
145 399 2
145 404 2
145 405 1
145 408 3.2E1
145 409 2
145 416 2
145 417 2
145 422 2
145 424 2
145 425 2
145 427 4
145 430 2
145 431 2
145 432 2
145 441 2
145 444 2
145 451 1
146 73 2
146 92 1
146 126 2
146 133 2
146 135 3
146 145 9
146 147 1.9E1
146 155 4
146 158 2
146 159 2
146 164 1
146 167 1
146 176 2
146 183 1
146 184 2
146 186 6
146 188 1
146 196 2
146 197 2
146 198 4
146 200 2
146 205 3
146 208 3
146 231 1
146 246 1
146 295 2
146 298 2
146 299 2
146 300 2
146 302 2
146 348 2
146 365 2
146 405 1
146 408 2
146 413 2
146 414 2
146 419 1
146 426 1.1E1
147 4 2
147 7 2
147 14 2
147 33 4
147 36 2
147 37 4
147 53 1
147 54 1
147 58 2
147 59 1
147 60 2
147 62 2
147 63 4
147 68 4
147 70 2
147 73 2
147 92 1
147 93 2
147 108 2
147 110 2
147 122 2
147 125 1
147 126 2
147 128 2
147 133 2
147 135 1
147 136 2
147 143 2
147 145 1.14E2
147 146 1.9E1
147 147 1
147 149 4
147 152 3
147 153 4
147 154 5
147 155 5
147 158 2
147 159 2
147 162 1
147 164 1
147 167 3
147 173 2
147 175 4
147 176 4
147 183 3
147 184 2
147 185 2
147 186 8
147 196 2
147 197 2
147 198 8
147 200 2
147 202 1
147 205 1.9E1
147 206 2
147 208 8
147 211 2
147 216 1
147 231 5
147 235 3
147 236 2
147 237 2
147 238 4
147 244 3
147 245 5
147 246 1
147 248 2
147 258 1
147 259 1
147 273 1
147 285 2
147 295 2
147 298 2
147 300 2
147 303 4
147 306 4
147 311 2
147 318 1
147 320 4
147 321 2
147 322 2
147 323 5
147 324 1
147 325 2
147 326 4
147 327 2
147 328 2
147 329 4
147 332 3
147 333 2
147 334 3
147 335 2
147 336 2
147 342 1
147 348 2
147 349 2
147 364 2
147 368 1
147 370 1
147 371 1
147 373 2
147 376 3
147 390 2
147 399 2
147 404 2
147 408 3.6E1
147 409 2
147 413 2
147 414 2
147 416 2
147 417 2
147 419 1
147 422 2
147 424 2
147 425 2
147 426 1.4E1
147 427 4
147 430 2
147 431 2
147 432 2
147 438 2
147 441 2
147 444 2
147 451 1
148 5 2
148 148 1
148 186 2
149 145 4
149 147 4
149 152 2
149 154 3
149 186 1
149 323 1
149 352 1
149 355 1
149 412 1
149 429 1
150 53 2
150 55 1
150 94 2
150 152 2
150 154 3
150 285 2
150 426 3
151 154 1
151 285 1
151 426 1
152 94 2
152 145 3
152 147 3
152 149 2
152 150 2
152 285 2
152 318 1
153 13 1
153 30 2
153 33 2
153 38 2
153 39 2
153 49 2
153 56 1
153 57 1
153 58 2
153 59 2
153 61 1
153 85 1
153 87 1
153 88 2
153 89 3
153 90 3
153 96 1
153 101 1
153 111 1
153 112 1
153 114 1
153 140 2
153 145 4
153 147 4
153 155 3
153 168 2
153 173 1
153 174 1
153 186 7
153 190 1
153 205 2
153 208 1
153 217 1
153 220 1
153 227 5
153 228 5
153 229 3
153 230 3
153 231 3
153 233 2
153 244 1
153 265 1
153 270 2
153 271 2
153 276 2
153 277 1
153 282 4
153 286 1
153 306 2
153 311 2
153 370 1
153 385 2
153 389 2
153 390 2
153 391 2
153 392 2
153 395 7
153 407 1
153 408 4
153 414 1
153 415 1
153 421 2
153 422 2
153 427 6
154 53 2
154 55 1
154 145 5
154 147 5
154 149 3
154 150 3
154 151 1
154 205 1
154 208 1
154 231 2
154 245 3
154 285 1
154 352 1
154 355 1
154 408 3
154 426 4
155 32 2
155 42 2
155 43 2
155 45 2
155 49 2
155 75 1
155 77 2
155 78 1
155 96 1
155 102 2
155 103 2
155 104 2
155 105 2
155 106 2
155 107 2
155 145 1
155 146 4
155 147 5
155 153 3
155 176 3
155 184 3
155 186 9
155 215 2
155 220 2
155 227 2
155 228 2
155 264 1
155 267 1
155 270 1
155 271 2
155 276 1
155 277 1
155 280 2
155 295 4
155 297 4
155 298 3.1E1
155 309 2
155 317 1
155 337 2
155 343 5
155 368 1
155 370 1
155 382 2
155 388 1
155 392 3
155 394 2
155 401 2
155 402 2
155 408 4
155 409 1
155 413 2
155 414 4
155 422 4
155 426 4
155 434 1
155 435 1
155 437 2
156 80 1
156 272 1
156 273 1
157 6 4
157 121 2
157 144 2
157 159 4
157 169 2
157 170 2
157 186 2
157 227 2
157 228 2
157 408 2
157 417 2
158 6 4
158 145 4
158 146 2
158 147 2
158 159 4
158 350 2
158 374 2
159 6 4
159 145 4
159 146 2
159 147 2
159 157 4
159 158 4
159 161 2
159 164 2
159 169 2
159 170 2
159 186 2
159 231 2
160 140 2
160 164 2
160 186 2
160 229 2
160 230 2
161 159 2
161 186 4
161 231 2
161 259 2
161 295 2
162 145 1
162 147 1
162 164 1
162 186 1
162 393 1
162 404 1
163 238 2
163 243 2
163 245 2
163 426 2
164 66 2
164 145 2
164 146 1
164 147 1
164 159 2
164 160 2
164 162 1
164 229 2
164 230 2
164 405 1
165 86 2
165 89 2
165 268 2
166 34 2
166 186 2
166 361 1
166 362 1
166 371 2
166 427 1
167 6 2
167 135 1
167 145 2
167 146 1
167 147 3
167 168 2
167 169 2
167 170 2
167 431 2
168 140 2
168 153 2
168 167 2
168 170 2
168 229 2
168 230 2
169 6 4
169 157 2
169 159 2
169 167 2
169 170 2
170 6 4
170 157 2
170 159 2
170 167 2
170 168 2
170 169 2
171 89 2
171 116 2
171 205 2
171 382 2
171 427 2
172 96 1
172 173 1
172 174 1
172 229 1
172 230 1
172 434 1
173 40 2
173 78 1
173 79 1
173 118 2
173 147 2
173 153 1
173 172 1
173 174 2.3E1
173 175 2
173 186 2
173 280 2
173 285 2
173 286 3
173 287 2
173 288 2
173 289 2
173 290 2
173 291 2
173 292 2
173 309 2
173 337 2
173 365 1
173 370 1
173 374 2
173 388 1
173 394 2
173 396 1
173 401 2
173 402 2
173 414 2
173 426 2
173 434 1
173 435 1
174 40 2
174 78 1
174 79 1
174 118 2
174 153 1
174 172 1
174 173 2.3E1
174 186 2
174 280 2
174 285 2
174 286 3
174 287 2
174 288 2
174 289 2
174 290 2
174 291 2
174 292 2
174 309 2
174 337 2
174 365 1
174 370 1
174 374 2
174 388 1
174 394 2
174 396 1
174 401 2
174 402 2
174 414 2
174 434 1
174 435 1
175 145 2
175 147 4
175 173 2
175 426 2
175 430 2
176 9 2
176 12 2
176 16 2
176 17 2
176 18 3
176 145 6
176 146 2
176 147 4
176 155 3
176 182 6
176 183 2
176 184 9
176 186 2
176 188 2
176 198 2
176 249 1
176 295 2
176 298 2
176 302 2
176 408 5
176 420 2
176 426 2
176 435 1
176 437 1
177 180 1
177 229 1
177 230 1
177 330 2
178 179 2
178 181 1
178 229 1
178 230 1
179 178 2
179 182 2
179 186 2
180 177 1
180 229 1
180 230 1
181 178 1
181 229 1
181 230 1
182 9 2
182 12 2
182 16 2
182 17 2
182 18 3
182 176 6
182 179 2
182 186 2
182 249 1
183 135 2
183 145 2
183 146 1
183 147 3
183 176 2
183 186 2
183 188 2
183 205 1
183 208 1
183 229 2
183 230 2
183 231 2
183 246 1
183 310 1
183 383 2
183 426 3
184 137 1
184 145 4
184 146 2
184 147 2
184 155 3
184 176 9
184 186 2
184 188 2
184 198 2
184 205 2
184 295 2
184 298 2
184 302 2
184 310 1
184 347 1
184 408 6
184 435 1
184 437 1
185 145 2
185 147 2
185 185 2
185 186 4
185 187 1
185 233 1
185 234 1
185 306 6
185 408 2
185 453 4
186 1 2
186 2 1
186 3 1
186 5 2
186 13 1
186 24 2
186 25 2
186 26 2
186 27 2
186 28 2
186 29 2
186 31 2
186 32 4
186 34 2
186 40 4
186 41 2
186 42 2
186 43 3
186 45 2
186 46 2
186 47 2
186 48 2
186 50 2
186 51 2
186 52 2
186 57 1
186 61 1
186 64 2
186 66 1
186 67 1
186 69 2
186 70 1
186 71 3
186 72 1
186 75 3
186 76 4
186 79 2
186 80 1
186 81 1
186 82 1
186 83 1
186 84 1
186 85 1
186 88 7
186 89 4
186 91 2
186 92 1
186 94 1
186 95 1
186 97 2
186 98 2
186 100 2
186 111 3
186 112 3
186 113 4
186 115 2
186 116 2
186 117 4
186 118 2
186 125 1
186 127 2
186 128 2
186 129 2
186 130 2
186 132 2
186 135 1
186 136 1
186 137 2
186 140 2
186 141 1
186 144 2
186 145 5
186 146 6
186 147 8
186 148 2
186 149 1
186 153 7
186 155 9
186 157 2
186 159 2
186 160 2
186 161 4
186 162 1
186 166 2
186 173 2
186 174 2
186 176 2
186 179 2
186 182 2
186 183 2
186 184 2
186 185 4
186 186 5
186 187 3
186 188 4
186 190 1
186 191 2
186 194 1
186 195 2
186 197 1
186 198 2
186 201 2
186 202 4
186 203 1
186 204 2
186 205 1.5E1
186 207 4
186 208 5
186 210 3
186 211 2
186 213 2
186 215 3
186 216 1
186 217 2
186 219 1
186 220 1E1
186 221 6
186 226 1
186 227 1.5E1
186 228 1.5E1
186 229 8
186 230 8
186 231 3.5E1
186 233 6
186 238 3
186 239 2
186 243 2
186 246 3
186 247 1
186 251 1
186 252 1
186 253 1
186 254 1
186 255 2
186 256 1
186 259 2
186 260 1
186 261 2
186 262 2
186 269 2
186 272 2
186 273 1
186 279 4
186 283 1
186 284 1
186 285 2
186 286 2
186 287 2
186 288 2
186 289 2
186 290 2
186 291 2
186 292 2
186 293 3
186 294 1
186 295 6
186 296 2
186 297 2
186 298 7
186 299 1
186 300 5
186 302 2
186 305 1
186 306 4
186 307 1
186 308 1
186 310 1
186 311 2
186 312 4
186 313 1
186 314 2
186 315 1
186 317 3
186 318 1
186 319 1
186 323 1
186 324 1
186 330 2
186 331 2
186 334 3
186 335 2
186 336 1
186 338 1
186 339 1
186 341 1
186 342 1
186 345 2
186 346 3
186 347 2
186 359 2
186 363 1
186 365 7
186 369 1
186 371 3
186 373 2
186 375 2
186 376 3
186 381 1
186 382 1
186 383 1
186 384 1
186 386 1
186 387 3
186 389 2
186 392 5
186 393 1
186 396 1
186 400 1
186 404 1
186 408 2E1
186 409 1
186 410 1
186 411 1
186 412 5
186 413 2
186 416 2
186 417 4
186 418 1
186 419 1
186 420 2
186 426 8
186 427 6
186 429 2
186 431 3
186 435 4
186 436 4
186 438 1
186 439 5
186 440 2
186 442 2
186 443 3
186 446 1
186 447 1
186 448 1
186 449 1
186 450 2
186 451 1
186 452 2
187 185 1
187 186 3
187 226 1
187 233 5
187 234 1
187 363 1
187 371 1
187 376 1
187 381 1
187 382 1
187 411 1
187 423 1
187 425 1
188 132 2
188 146 1
188 176 2
188 183 2
188 184 2
188 186 4
188 198 2
188 227 1
188 228 1
188 229 2
188 230 2
188 231 3
188 246 1
188 302 2
188 408 2
189 361 1
189 362 1
189 427 1
190 111 1
190 153 1
190 186 1
190 231 1
191 186 2
191 227 2
191 228 2
191 286 2
191 297 2
192 293 2
192 376 2
193 13 2
193 89 2
193 99 2
193 205 2
193 212 2
193 220 3
193 224 2
193 376 2
193 382 2
193 391 2
193 392 2
193 427 9
194 186 1
194 219 1
194 260 1
195 186 2
195 196 2
195 217 3
195 365 2
195 450 3
196 146 2
196 147 2
196 195 2
196 198 2
196 200 2
196 365 2
196 426 2
197 146 2
197 147 2
197 186 1
197 198 3
197 205 2
197 208 2
197 231 1
197 426 2
198 58 2
198 60 2
198 89 2
198 122 2
198 145 4
198 146 4
198 147 8
198 176 2
198 184 2
198 186 2
198 188 2
198 196 2
198 197 3
198 200 2
198 205 4
198 208 2
198 231 2
198 261 2
198 302 2
198 311 2
198 365 1
198 408 6
198 409 2
198 426 4
199 122 2
199 211 4
199 227 2
199 228 2
199 229 4
199 230 4
199 408 2
200 146 2
200 147 2
200 196 2
200 198 2
200 217 2
200 311 2
200 408 2
200 426 2
201 88 1
201 186 2
201 202 1
201 210 1
201 220 1
201 231 1
202 14 1
202 88 1
202 145 1
202 147 1
202 186 4
202 201 1
202 205 1
202 220 1
202 231 3
202 267 1
202 295 1
202 408 1
202 427 1
202 439 4
202 442 1
203 186 1
203 231 1
203 427 1
203 442 1
204 186 2
204 205 2
204 213 2
204 222 2
204 233 2
204 426 2
205 13 2
205 14 1
205 31 2
205 62 2
205 63 4
205 70 1
205 89 2.5E1
205 90 2
205 109 2
205 114 3
205 116 2
205 125 1
205 128 2
205 135 1
205 136 1
205 137 1
205 143 2
205 145 1.6E1
205 146 3
205 147 1.9E1
205 153 2
205 154 1
205 171 2
205 183 1
205 184 2
205 186 1.5E1
205 193 2
205 197 2
205 198 4
205 202 1
205 204 2
205 206 2
205 207 4
205 208 1.2E1
205 212 2
205 213 2
205 214 2
205 217 2
205 223 2
205 224 2
205 227 5
205 228 5
205 229 2
205 230 2
205 231 9
205 245 1
205 246 1
205 263 2
205 269 2
205 282 2
205 304 1
205 311 1
205 316 1
205 347 1
205 349 2
205 364 2
205 392 2
205 397 2
205 408 1.4E1
205 409 2
205 426 4
205 427 1
205 436 2
205 441 2
206 145 2
206 147 2
206 205 2
206 207 2
206 229 2
206 230 2
206 408 2
207 1 2
207 89 2
207 186 4
207 205 4
207 206 2
207 217 2
207 227 2
207 228 2
207 229 2
207 230 2
207 408 2
208 70 1
208 89 1
208 125 1
208 135 1
208 136 1
208 145 5
208 146 3
208 147 8
208 153 1
208 154 1
208 183 1
208 186 5
208 197 2
208 198 2
208 205 1.2E1
208 227 1
208 228 1
208 231 3
208 245 1
208 246 1
208 304 1
208 311 1
208 316 1
208 408 5
208 426 4
208 427 1
209 231 2
209 452 2
210 128 2
210 134 2
210 186 3
210 201 1
210 216 2
210 220 1
210 272 2
210 300 2
211 88 1
211 145 2
211 147 2
211 186 2
211 199 4
211 227 2
211 228 2
211 229 2
211 230 2
211 231 1
211 416 2
212 31 2
212 89 2
212 193 2
212 205 2
212 391 2
212 427 2
213 186 2
213 204 2
213 205 2
214 89 2
214 90 2
214 205 2
215 155 2
215 186 3
215 227 2
215 228 2
215 298 2
215 365 2
215 382 2
215 409 2
216 128 2
216 134 2
216 147 1
216 186 1
216 210 2
216 273 1
216 408 1
216 426 1
217 56 1
217 89 2
217 153 1
217 186 2
217 195 3
217 200 2
217 205 2
217 207 2
217 311 2
217 408 2
217 450 3
218 1 4
218 218 1
218 227 2
218 228 2
218 229 2
218 230 2
218 232 4
219 186 1
219 194 1
219 260 1
220 6 1
220 61 1
220 96 1
220 99 2
220 127 2
220 128 3
220 153 1
220 155 2
220 186 1E1
220 193 3
220 201 1
220 202 1
220 210 1
220 222 1
220 231 2
220 267 1
220 269 2
220 298 1
220 376 2
220 408 2
220 414 1
220 427 5
220 439 1
221 88 2
221 186 6
221 231 2
221 293 2
221 376 2
221 408 2
221 416 2
222 6 1
222 61 1
222 204 2
222 220 1
222 233 2
222 426 2
223 89 2
223 205 2
223 282 2
224 89 2
224 193 2
224 205 2
224 392 4
224 427 2
225 123 1
225 274 1
225 433 1
226 186 1
226 187 1
226 233 1
226 363 1
226 376 1
227 1 2
227 6 2
227 7 2
227 24 2
227 25 2
227 26 2
227 27 2
227 28 2
227 29 2
227 30 2
227 39 2
227 41 2
227 42 2
227 44 2
227 46 2
227 47 2
227 48 2
227 49 4
227 50 2
227 64 4
227 65 2
227 68 2
227 77 2
227 86 2
227 87 1
227 89 4
227 99 2
227 100 1
227 102 2
227 103 2
227 104 2
227 105 2
227 106 2
227 107 2
227 108 2
227 109 2
227 116 2
227 117 2
227 121 4
227 153 5
227 155 2
227 157 2
227 186 1.5E1
227 188 1
227 191 2
227 199 2
227 205 5
227 207 2
227 208 1
227 211 2
227 215 2
227 218 2
227 228 7.3E1
227 231 2
227 239 2
227 243 2
227 246 1
227 282 2
227 285 3
227 293 4
227 295 2
227 297 2
227 357 2
227 374 3
227 381 2
227 382 2
227 389 1
227 406 2
227 408 2
227 409 2
227 413 2
227 421 2
227 422 2
227 435 2
227 436 2
228 1 2
228 6 2
228 7 2
228 24 2
228 25 2
228 26 2
228 27 2
228 28 2
228 29 2
228 30 2
228 39 2
228 41 2
228 42 2
228 44 2
228 46 2
228 47 2
228 48 2
228 49 4
228 50 2
228 64 4
228 65 2
228 68 2
228 77 2
228 86 2
228 87 1
228 89 4
228 99 2
228 100 1
228 102 2
228 103 2
228 104 2
228 105 2
228 106 2
228 107 2
228 108 2
228 109 2
228 116 2
228 117 2
228 121 4
228 153 5
228 155 2
228 157 2
228 186 1.5E1
228 188 1
228 191 2
228 199 2
228 205 5
228 207 2
228 208 1
228 211 2
228 215 2
228 218 2
228 227 7.3E1
228 231 2
228 239 2
228 243 2
228 246 1
228 282 2
228 285 3
228 293 4
228 295 2
228 297 2
228 357 2
228 374 3
228 381 2
228 382 2
228 389 1
228 406 2
228 408 2
228 409 2
228 413 2
228 421 2
228 422 2
228 435 2
228 436 2
229 1 2
229 27 2
229 28 2
229 36 2
229 39 2
229 44 2
229 45 2
229 68 2
229 80 1
229 81 1
229 82 1
229 83 1
229 84 1
229 85 1
229 89 3
229 96 1
229 98 2
229 109 2
229 122 2
229 128 2
229 129 2
229 130 2
229 139 4
229 140 2
229 141 2
229 142 2
229 143 2
229 153 3
229 160 2
229 164 2
229 168 2
229 172 1
229 177 1
229 178 1
229 180 1
229 181 1
229 183 2
229 186 8
229 188 2
229 199 4
229 205 2
229 206 2
229 207 2
229 211 2
229 218 2
229 230 4.8E1
229 231 4
229 233 3
229 285 2
229 293 1
229 295 1
229 374 2
229 389 1
229 408 4
229 432 2
229 435 2
229 436 2
229 445 2
229 449 2
230 1 2
230 27 2
230 28 2
230 36 2
230 39 2
230 44 2
230 45 2
230 68 2
230 80 1
230 81 1
230 82 1
230 83 1
230 84 1
230 85 1
230 89 3
230 96 1
230 98 2
230 109 2
230 122 2
230 128 2
230 129 2
230 130 2
230 139 4
230 140 2
230 141 2
230 142 2
230 143 2
230 153 3
230 160 2
230 164 2
230 168 2
230 172 1
230 177 1
230 178 1
230 180 1
230 181 1
230 183 2
230 186 8
230 188 2
230 199 4
230 205 2
230 206 2
230 207 2
230 211 2
230 218 2
230 229 4.8E1
230 231 4
230 233 3
230 285 2
230 293 1
230 295 1
230 374 2
230 389 1
230 408 4
230 432 2
230 435 2
230 436 2
230 445 2
230 449 2
231 13 1
231 88 4
231 89 4
231 111 1
231 112 1
231 127 2
231 128 2
231 145 5
231 146 1
231 147 5
231 153 3
231 154 2
231 159 2
231 161 2
231 183 2
231 186 3.5E1
231 188 3
231 190 1
231 197 1
231 198 2
231 201 1
231 202 3
231 203 1
231 205 9
231 208 3
231 209 2
231 211 1
231 220 2
231 221 2
231 227 2
231 228 2
231 229 4
231 230 4
231 245 2
231 263 2
231 275 2
231 294 1
231 295 1
231 300 2
231 304 1
231 311 1
231 316 1
231 318 1
231 319 1
231 324 1
231 335 1
231 338 1
231 339 1
231 341 1
231 342 1
231 344 2
231 365 1
231 387 2
231 397 2
231 408 5
231 427 5
231 439 2
231 442 2
231 449 1
231 451 1
231 452 2
232 138 4
232 218 4
232 232 2
233 80 1
233 81 1
233 82 1
233 83 1
233 84 1
233 85 1
233 120 2
233 153 2
233 185 1
233 186 6
233 187 5
233 204 2
233 222 2
233 226 1
233 229 3
233 230 3
233 234 1
233 282 2
233 305 1
233 363 1
233 376 1
233 381 1
233 382 1
233 385 4
233 400 1
233 423 1
233 425 1
233 426 2
234 185 1
234 187 1
234 233 1
235 145 3
235 147 3
235 236 1
235 237 2
236 145 2
236 147 2
236 235 1
236 444 1
237 145 2
237 147 2
237 235 2
238 3 2
238 7 2
238 145 4
238 147 4
238 163 2
238 186 3
238 240 1
238 243 5
238 244 2
238 245 4
238 249 1
238 257 1
238 334 3
238 369 1
238 378 1
238 379 1
238 410 1
238 412 2
238 426 2
238 429 1
238 443 1
239 186 2
239 227 2
239 228 2
239 242 2
239 243 2
240 238 1
240 244 1
240 249 1
240 257 2
240 355 1
241 4 2
241 6 2
241 243 4
242 239 2
243 3 2
243 4 2
243 6 4
243 7 2
243 163 2
243 186 2
243 227 2
243 228 2
243 238 5
243 239 2
243 241 4
243 245 4
243 378 1
243 379 1
243 426 4
244 145 3
244 147 3
244 153 1
244 238 2
244 240 1
244 257 1
244 355 1
244 407 1
244 451 1
245 6 2
245 145 5
245 147 5
245 154 3
245 163 2
245 205 1
245 208 1
245 231 2
245 238 4
245 243 4
245 408 3
245 426 4
246 146 1
246 147 1
246 183 1
246 186 3
246 188 1
246 205 1
246 208 1
246 227 1
246 228 1
246 247 1
246 307 1
246 426 1
247 186 1
247 246 1
247 307 1
248 62 1
248 125 1
248 128 1
248 136 2
248 145 2
248 147 2
248 376 2
248 408 2
249 12 1
249 176 1
249 182 1
249 238 1
249 240 1
249 257 1
250 57 2
250 135 1
250 304 1
250 426 1
251 186 1
251 254 1
251 255 1
252 186 1
252 253 1
252 255 1
253 186 1
253 252 1
253 255 1
254 186 1
254 251 1
254 255 1
255 186 2
255 251 1
255 252 1
255 253 1
255 254 1
256 186 1
256 313 1
256 314 1
257 238 1
257 240 2
257 244 1
257 249 1
257 355 1
258 145 1
258 147 1
258 259 1
259 145 1
259 147 1
259 161 2
259 186 2
259 258 1
259 295 2
260 186 1
260 194 1
260 219 1
261 50 2
261 186 2
261 198 2
261 311 2
261 408 2
262 113 2
262 186 2
263 205 2
263 231 2
263 397 2
264 155 1
264 414 1
264 434 1
265 153 1
265 415 1
266 110 1
266 316 1
266 408 2
266 417 1
267 155 1
267 202 1
267 220 1
267 295 1
267 298 1
267 439 1
268 86 2
268 89 2
268 165 2
269 89 2
269 109 2
269 186 2
269 205 2
269 220 2
269 408 2
270 78 1
270 153 2
270 155 1
270 343 1
270 391 2
270 395 2
271 153 2
271 155 2
271 298 2
271 343 2
271 395 2
271 427 2
272 80 1
272 81 1
272 82 1
272 83 1
272 84 1
272 156 1
272 186 2
272 210 2
272 273 3
272 300 2
273 80 1
273 81 1
273 82 1
273 83 1
273 84 1
273 147 1
273 156 1
273 186 1
273 216 1
273 272 3
273 408 1
273 426 1
274 56 1
274 123 2
274 225 1
274 433 2
275 127 2
275 128 2
275 231 2
275 344 2
276 153 2
276 155 1
276 343 1
276 388 1
276 392 2
276 395 2
277 89 1
277 153 1
277 155 1
277 343 1
277 395 1
277 437 1
278 101 1
278 119 1
278 426 1
279 186 4
279 317 2
279 389 2
280 105 2
280 155 2
280 173 2
280 174 2
280 289 2
280 298 2
281 73 1
281 349 1
281 426 1
282 89 2
282 153 4
282 205 2
282 223 2
282 227 2
282 228 2
282 233 2
282 385 2
282 421 2
283 186 1
283 284 1
283 408 1
284 186 1
284 283 1
284 408 1
285 94 2
285 145 2
285 147 2
285 150 2
285 151 1
285 152 2
285 154 1
285 173 2
285 174 2
285 186 2
285 227 3
285 228 3
285 229 2
285 230 2
285 308 1
285 373 3
285 374 7
285 375 2
285 426 1
286 153 1
286 173 3
286 174 3
286 186 2
286 191 2
286 309 2
286 370 1
287 24 2
287 173 2
287 174 2
287 186 2
287 337 2
288 46 2
288 173 2
288 174 2
288 186 2
288 394 2
289 25 2
289 173 2
289 174 2
289 186 2
289 280 2
290 48 2
290 173 2
290 174 2
290 186 2
290 414 2
291 47 2
291 173 2
291 174 2
291 186 2
291 401 2
292 26 2
292 173 2
292 174 2
292 186 2
292 402 2
293 186 3
293 192 2
293 221 2
293 227 4
293 228 4
293 229 1
293 230 1
293 295 3
293 357 2
293 376 4
294 186 1
294 231 1
294 295 1
295 146 2
295 147 2
295 155 4
295 161 2
295 176 2
295 184 2
295 186 6
295 202 1
295 227 2
295 228 2
295 229 1
295 230 1
295 231 1
295 259 2
295 267 1
295 293 3
295 294 1
295 298 4
295 408 2
295 426 2
295 439 1
296 115 2
296 186 2
296 365 2
297 45 2
297 155 4
297 186 2
297 191 2
297 227 2
297 228 2
297 298 4
298 32 2
298 45 2
298 75 1
298 77 2
298 102 2
298 103 2
298 104 2
298 105 2
298 106 2
298 107 2
298 146 2
298 147 2
298 155 3.1E1
298 176 2
298 184 2
298 186 7
298 215 2
298 220 1
298 267 1
298 271 2
298 280 2
298 295 4
298 297 4
298 309 2
298 317 1
298 337 2
298 343 2
298 382 2
298 392 3
298 394 2
298 401 2
298 402 2
298 408 2
298 409 1
298 422 2
298 426 2
299 10 2
299 11 2
299 135 2
299 146 2
299 186 1
299 300 5
299 408 4
299 426 2
299 431 1
300 10 2
300 11 2
300 145 2
300 146 2
300 147 2
300 186 5
300 210 2
300 231 2
300 272 2
300 299 5
300 387 2
300 408 4
300 431 1
301 93 2
301 412 2
301 440 2
301 443 2
302 146 2
302 176 2
302 184 2
302 186 2
302 188 2
302 198 2
302 365 2
302 408 2
303 93 2
303 145 2
303 147 4
303 426 2
303 438 2
304 135 1
304 205 1
304 208 1
304 231 1
304 250 1
304 316 2
304 426 1
304 427 2
305 186 1
305 233 1
305 400 1
306 145 4
306 147 4
306 153 2
306 185 6
306 186 4
306 306 2
306 399 2
306 408 4
306 409 2
306 422 2
306 427 2
307 186 1
307 246 1
307 247 1
308 186 1
308 285 1
308 375 1
309 103 2
309 155 2
309 173 2
309 174 2
309 286 2
309 298 2
310 183 1
310 184 1
310 186 1
310 408 1
311 145 2
311 147 2
311 153 2
311 186 2
311 198 2
311 200 2
311 205 1
311 208 1
311 217 2
311 231 1
311 261 2
311 408 6
312 52 2
312 69 2
312 71 3
312 186 4
312 373 1
312 446 1
313 186 1
313 256 1
313 314 1
314 186 2
314 256 1
314 313 1
314 315 1
314 438 1
315 186 1
315 314 1
315 438 1
316 119 2
316 205 1
316 208 1
316 231 1
316 266 1
316 304 2
316 408 1
316 421 2
316 427 4
317 155 1
317 186 3
317 279 2
317 298 1
317 409 1
318 145 1
318 147 1
318 152 1
318 186 1
318 231 1
318 451 1
319 186 1
319 231 1
319 449 1
320 145 4
320 147 4
320 321 2
320 322 2
321 145 2
321 147 2
321 320 2
322 145 2
322 147 2
322 320 2
323 145 5
323 147 5
323 149 1
323 186 1
323 323 1
323 324 1
323 325 2
323 412 1
323 429 1
324 145 1
324 147 1
324 186 1
324 231 1
324 323 1
324 335 1
325 145 2
325 147 2
325 323 2
326 145 4
326 147 4
326 327 2
326 328 2
327 145 2
327 147 2
327 326 2
328 145 2
328 147 2
328 326 2
329 145 4
329 147 4
329 332 2
329 333 2
330 177 2
330 186 2
330 331 2
331 186 2
331 330 2
332 127 2
332 143 2
332 145 3
332 147 3
332 329 2
332 335 2
332 444 1
333 145 2
333 147 2
333 329 2
334 145 3
334 147 3
334 186 3
334 238 3
334 335 1
334 336 2
334 369 1
334 410 1
334 412 2
334 429 1
334 443 1
335 127 2
335 143 2
335 145 2
335 147 2
335 186 2
335 231 1
335 324 1
335 332 2
335 334 1
335 336 1
335 342 1
335 426 1
336 145 2
336 147 2
336 186 1
336 334 2
336 335 1
336 426 1
337 104 2
337 155 2
337 173 2
337 174 2
337 287 2
337 298 2
338 186 1
338 231 1
338 341 1
339 186 1
339 231 1
339 342 1
340 74 2
340 383 2
340 408 2
341 186 1
341 231 1
341 338 1
342 74 2
342 145 1
342 147 1
342 186 1
342 231 1
342 335 1
342 339 1
342 408 2
342 449 2
343 78 1
343 155 5
343 270 1
343 271 2
343 276 1
343 277 1
343 298 2
343 388 1
343 437 1
344 127 2
344 128 2
344 231 2
344 275 2
345 186 2
345 346 2
345 348 2
345 380 2
345 408 2
346 186 3
346 345 2
346 347 1
346 408 2
346 426 1
347 184 1
347 186 2
347 205 1
347 346 1
347 426 1
348 73 2
348 146 2
348 147 2
348 345 2
348 380 2
349 73 1
349 143 2
349 145 2
349 147 2
349 205 2
349 281 1
349 408 2
349 426 1
350 6 4
350 158 2
351 366 2
351 390 2
351 426 2
352 8 2
352 15 2
352 18 1
352 19 2
352 20 2
352 21 2
352 22 2
352 23 2
352 149 1
352 154 1
352 353 3
352 354 5
352 355 1
352 356 1
353 8 2
353 15 2
353 23 1
353 352 3
353 356 1
354 18 1
354 19 2
354 20 2
354 21 2
354 22 2
354 23 1
354 352 5
355 149 1
355 154 1
355 240 1
355 244 1
355 257 1
355 352 1
356 15 1
356 352 1
356 353 1
357 227 2
357 228 2
357 293 2
358 426 1
359 51 2
359 72 1
359 186 2
359 447 1
360 6 2
360 108 2
360 408 2
360 428 2
361 166 1
361 189 1
361 362 2
361 427 2
362 166 1
362 189 1
362 361 2
362 427 2
363 186 1
363 187 1
363 226 1
363 233 1
363 376 1
364 63 2
364 145 2
364 147 2
364 205 2
364 408 2
365 60 2
365 115 2
365 124 2
365 146 2
365 173 1
365 174 1
365 186 7
365 195 2
365 196 2
365 198 1
365 215 2
365 231 1
365 296 2
365 302 2
365 435 1
366 351 2
366 390 2
366 426 2
367 390 2
367 403 2
368 145 1
368 147 1
368 155 1
368 370 1
368 408 1
369 186 1
369 238 1
369 334 1
369 410 1
370 145 1
370 147 1
370 153 1
370 155 1
370 173 1
370 174 1
370 286 1
370 368 1
370 408 1
371 14 1
371 34 2
371 145 1
371 147 1
371 166 2
371 186 3
371 187 1
371 376 1
371 408 1
371 411 1
372 34 2
372 398 2
373 71 1
373 145 2
373 147 2
373 186 2
373 285 3
373 312 1
373 373 1
373 375 1
374 6 4
374 158 2
374 173 2
374 174 2
374 227 3
374 228 3
374 229 2
374 230 2
374 285 7
375 186 2
375 285 2
375 308 1
375 373 1
376 14 1
376 127 2
376 128 2
376 136 2
376 145 3
376 147 3
376 186 3
376 187 1
376 192 2
376 193 2
376 220 2
376 221 2
376 226 1
376 233 1
376 248 2
376 293 4
376 363 1
376 371 1
376 382 2
376 408 3
376 427 2
377 379 1
378 238 1
378 243 1
378 379 1
379 238 1
379 243 1
379 377 1
379 378 1
380 345 2
380 348 2
381 186 1
381 187 1
381 227 2
381 228 2
381 233 1
381 382 3
381 408 1
381 418 1
382 155 2
382 171 2
382 186 1
382 187 1
382 193 2
382 215 2
382 227 2
382 228 2
382 233 1
382 298 2
382 376 2
382 381 3
382 389 2
382 427 4
382 435 2
383 11 2
383 74 2
383 135 2
383 183 2
383 186 1
383 340 2
383 384 3
383 408 4
383 426 2
383 431 1
384 11 2
384 186 1
384 383 3
384 408 2
384 431 1
385 120 2
385 153 2
385 233 4
385 282 2
386 10 2
386 186 1
386 387 3
386 408 2
386 431 1
387 10 2
387 186 3
387 231 2
387 300 2
387 386 3
387 408 2
387 431 1
388 155 1
388 173 1
388 174 1
388 276 1
388 343 1
388 396 1
389 89 2
389 153 2
389 186 2
389 227 1
389 228 1
389 229 1
389 230 1
389 279 2
389 382 2
389 435 2
390 33 2
390 145 2
390 147 2
390 153 2
390 351 2
390 366 2
390 367 2
390 403 2
390 408 2
390 426 2
391 153 2
391 193 2
391 212 2
391 270 2
391 395 2
391 427 2
392 27 2
392 32 2
392 75 1
392 89 2
392 153 2
392 155 3
392 186 5
392 193 2
392 205 2
392 224 4
392 276 2
392 298 3
392 395 2
392 427 2
393 162 1
393 186 1
393 404 1
394 107 2
394 155 2
394 173 2
394 174 2
394 288 2
394 298 2
395 89 1
395 153 7
395 270 2
395 271 2
395 276 2
395 277 1
395 391 2
395 392 2
395 427 2
396 43 1
396 173 1
396 174 1
396 186 1
396 388 1
397 205 2
397 231 2
397 263 2
397 397 1
398 372 2
399 35 2
399 145 2
399 147 2
399 306 2
399 408 2
399 422 2
400 186 1
400 233 1
400 305 1
401 106 2
401 155 2
401 173 2
401 174 2
401 291 2
401 298 2
402 102 2
402 155 2
402 173 2
402 174 2
402 292 2
402 298 2
403 367 2
403 390 2
404 4 2
404 145 2
404 147 2
404 162 1
404 186 1
404 393 1
405 145 1
405 146 1
405 164 1
406 50 2
406 135 2
406 227 2
406 228 2
406 407 2
406 426 2
407 135 2
407 153 1
407 244 1
407 406 2
407 426 2
408 2 1
408 3 1
408 6 4
408 10 5
408 11 4
408 14 2
408 33 2
408 58 2
408 59 1
408 60 2
408 62 2
408 63 4
408 66 1
408 67 1
408 70 2
408 74 6
408 92 1
408 94 1
408 95 1
408 97 2
408 108 4
408 110 1
408 122 2
408 125 1
408 126 2
408 128 2
408 133 2
408 136 2
408 143 2
408 144 4
408 145 3.2E1
408 146 2
408 147 3.6E1
408 153 4
408 154 3
408 155 4
408 157 2
408 176 5
408 184 6
408 185 2
408 186 2E1
408 188 2
408 198 6
408 199 2
408 200 2
408 202 1
408 205 1.4E1
408 206 2
408 207 2
408 208 5
408 216 1
408 217 2
408 220 2
408 221 2
408 227 2
408 228 2
408 229 4
408 230 4
408 231 5
408 245 3
408 248 2
408 261 2
408 266 2
408 269 2
408 273 1
408 283 1
408 284 1
408 295 2
408 298 2
408 299 4
408 300 4
408 302 2
408 306 4
408 310 1
408 311 6
408 316 1
408 340 2
408 342 2
408 345 2
408 346 2
408 349 2
408 360 2
408 364 2
408 368 1
408 370 1
408 371 1
408 376 3
408 381 1
408 383 4
408 384 2
408 386 2
408 387 2
408 390 2
408 399 2
408 409 2
408 416 2
408 417 3
408 418 1
408 422 2
408 426 2
408 427 2
408 428 2
408 435 1
408 437 1
408 441 2
408 444 2
408 445 2
408 449 3
408 451 1
409 89 2
409 145 2
409 147 2
409 155 1
409 186 1
409 198 2
409 205 2
409 215 2
409 227 2
409 228 2
409 298 1
409 306 2
409 317 1
409 408 2
409 427 2
410 186 1
410 238 1
410 334 1
410 369 1
411 186 1
411 187 1
411 371 1
412 93 2
412 149 1
412 186 5
412 238 2
412 301 2
412 323 1
412 334 2
412 429 2
412 439 2
412 440 4
412 443 5
413 64 2
413 146 2
413 147 2
413 155 2
413 186 2
413 227 2
413 228 2
413 414 2
413 426 2
414 96 1
414 146 2
414 147 2
414 153 1
414 155 4
414 173 2
414 174 2
414 220 1
414 264 1
414 290 2
414 413 2
414 426 2
414 434 1
415 153 1
415 265 1
416 145 2
416 147 2
416 186 2
416 211 2
416 221 2
416 408 2
417 91 2
417 110 1
417 144 2
417 145 2
417 147 2
417 157 2
417 186 4
417 266 1
417 408 3
417 427 2
418 186 1
418 381 1
418 408 1
419 146 1
419 147 1
419 186 1
420 176 2
420 186 2
420 426 2
421 153 2
421 227 2
421 228 2
421 282 2
421 316 2
422 49 2
422 77 2
422 145 2
422 147 2
422 153 2
422 155 4
422 227 2
422 228 2
422 298 2
422 306 2
422 399 2
422 408 2
423 187 1
423 233 1
423 425 1
424 145 2
424 147 2
424 425 2
425 145 2
425 147 2
425 187 1
425 233 1
425 423 1
425 424 2
426 6 2
426 53 2
426 55 1
426 73 1
426 101 1
426 119 1
426 124 2
426 131 2
426 135 1E1
426 136 1
426 146 1.1E1
426 147 1.4E1
426 150 3
426 151 1
426 154 4
426 155 4
426 163 2
426 173 2
426 175 2
426 176 2
426 183 3
426 186 8
426 196 2
426 197 2
426 198 4
426 200 2
426 204 2
426 205 4
426 208 4
426 216 1
426 222 2
426 233 2
426 238 2
426 243 4
426 245 4
426 246 1
426 250 1
426 273 1
426 278 1
426 281 1
426 285 1
426 295 2
426 298 2
426 299 2
426 303 2
426 304 1
426 335 1
426 336 1
426 346 1
426 347 1
426 349 1
426 351 2
426 358 1
426 366 2
426 383 2
426 390 2
426 406 2
426 407 2
426 408 2
426 413 2
426 414 2
426 420 2
426 438 2
427 38 2
427 39 2
427 88 2
427 99 2
427 119 2
427 145 4
427 147 4
427 153 6
427 166 1
427 171 2
427 186 6
427 189 1
427 193 9
427 202 1
427 203 1
427 205 1
427 208 1
427 212 2
427 220 5
427 224 2
427 231 5
427 271 2
427 304 2
427 306 2
427 316 4
427 361 2
427 362 2
427 376 2
427 382 4
427 391 2
427 392 2
427 395 2
427 408 2
427 409 2
427 417 2
427 439 1
427 442 1
428 6 2
428 108 2
428 360 2
428 408 2
429 149 1
429 186 2
429 238 1
429 323 1
429 334 1
429 412 2
430 145 2
430 147 2
430 175 2
431 145 2
431 147 2
431 167 2
431 186 3
431 299 1
431 300 1
431 383 1
431 384 1
431 386 1
431 387 1
432 98 2
432 110 2
432 145 2
432 147 2
432 229 2
432 230 2
433 56 1
433 123 2
433 225 1
433 274 2
434 155 1
434 172 1
434 173 1
434 174 1
434 264 1
434 414 1
435 155 1
435 173 1
435 174 1
435 176 1
435 184 1
435 186 4
435 227 2
435 228 2
435 229 2
435 230 2
435 365 1
435 382 2
435 389 2
435 408 1
435 436 4
435 437 1
436 89 2
436 114 2
436 186 4
436 205 2
436 227 2
436 228 2
436 229 2
436 230 2
436 435 4
437 35 2
437 155 2
437 176 1
437 184 1
437 277 1
437 343 1
437 408 1
437 435 1
438 147 2
438 186 1
438 303 2
438 314 1
438 315 1
438 426 2
439 186 5
439 202 4
439 220 1
439 231 2
439 267 1
439 295 1
439 412 2
439 427 1
439 440 2
439 442 1
439 443 2
440 93 2
440 186 2
440 301 2
440 412 4
440 439 2
440 443 4
441 128 2
441 145 2
441 147 2
441 205 2
441 408 2
442 186 2
442 202 1
442 203 1
442 231 2
442 427 1
442 439 1
443 93 2
443 186 3
443 238 1
443 301 2
443 334 1
443 412 5
443 439 2
443 440 4
444 74 2
444 145 2
444 147 2
444 236 1
444 332 1
444 408 2
444 445 2
445 74 2
445 129 2
445 229 2
445 230 2
445 408 2
445 444 2
446 52 1
446 69 1
446 186 1
446 312 1
447 51 1
447 186 1
447 359 1
448 137 1
448 141 1
448 186 1
449 10 1
449 74 2
449 130 2
449 186 1
449 229 2
449 230 2
449 231 1
449 319 1
449 342 2
449 408 3
449 451 1
450 186 2
450 195 3
450 217 3
451 10 1
451 145 1
451 147 1
451 186 1
451 231 1
451 244 1
451 318 1
451 408 1
451 449 1
452 113 2
452 186 2
452 209 2
452 231 2
453 185 4
453 453 1
