%%MatrixMarket matrix coordinate real general
%
366 366 2440
1 147 2.3517745856009097E-2
1 157 2.8650479686019004E-1
1 188 8.651695203120627E-3
1 189 3.877420783172203E-2
1 233 1.831563888873418E-2
1 281 1.831563888873418E-2
1 308 2.3517745856009097E-2
2 14 1.017013923042268E-1
2 32 1.2999334139678236E-2
2 61 5.1230072213984665E-2
2 84 1.831563888873418E-2
2 120 2.4101283176170413E-2
2 352 8.374322559219599E-2
3 39 1.5391912905853858E-2
3 144 1.293490138894978E-2
3 213 2.680819595377898E-2
3 254 6.948345122280154E-2
3 291 5.743261926761732E-2
3 301 1.831563888873418E-2
4 18 4.519475704062072E-2
4 53 1.831563888873418E-2
4 62 2.0838193670452684E-2
4 111 2.370817191173096E-2
4 195 1.4149662367536764E-2
5 24 2.149360134508993E-2
5 109 4.546060778829054E-2
5 128 1.831563888873418E-2
5 171 6.539740322986018E-2
5 218 2.6347980814448713E-2
6 87 1.5503853599009314E-2
6 200 2.7323722447292594E-2
6 222 1.831563888873418E-2
6 232 4.190233217493262E-2
6 347 4.0762203978366246E-2
6 360 6.0810062625218E-2
7 20 1.831563888873418E-2
7 25 2.179473272454189E-2
7 129 1.0539922456186433E-1
7 201 1.1283618731705691E-1
7 223 1.0836802322189582E-1
7 228 3.7902914400958505E-2
7 297 4.0762203978366204E-2
8 66 1.4264233908999242E-2
8 118 2.163737071949308E-2
8 215 8.208499862389876E-2
8 252 1.831563888873418E-2
8 317 1.1455884399268773E-1
9 68 9.697196786440501E-2
9 119 1.831563888873418E-2
9 141 1.831563888873418E-2
9 169 7.843739051713064E-2
9 260 1.3533528323661276E-1
9 286 1.831563888873418E-2
9 307 9.07179532894126E-2
9 332 4.455142624448967E-2
9 348 1.831563888873418E-2
10 35 2.932215912389381E-2
10 82 1.4838556515937157E-2
10 90 1.831563888873418E-2
10 149 2.635971381157267E-1
10 186 3.122092716123093E-2
10 221 1.017013923042268E-1
10 231 4.455142624448967E-2
10 322 1.831563888873418E-2
11 56 2.19677058894355E-2
11 70 5.1999470708748045E-2
11 194 1.034317319661825E-2
11 207 1.3533528323661273E-1
11 277 8.549309479686053E-3
11 284 1.831563888873418E-2
11 305 1.2277339903068438E-2
12 13 2.556153320650738E-2
12 57 2.4914440787632736E-2
12 101 1.3123728736940968E-2
12 165 5.452527577743514E-2
12 187 6.948345122280145E-2
12 196 7.843739051713064E-2
13 12 2.556153320650738E-2
13 57 1.831563888873418E-2
13 104 1.831563888873418E-2
13 126 1.831563888873418E-2
13 165 2.556153320650738E-2
13 196 3.567399334725236E-2
14 2 1.017013923042268E-1
14 43 7.340959562710439E-3
14 61 2.5806139322057265E-2
14 84 1.831563888873418E-2
14 352 7.136126955638608E-2
15 42 1.7400052573824525E-2
15 50 6.601002081511745E-2
15 66 1.937811903941261E-1
15 102 1.831563888873418E-2
15 252 2.7746755208626733E-1
16 205 1.293490138894978E-2
16 222 4.3698793646333126E-2
16 226 1.831563888873418E-2
16 347 3.0861035755572714E-2
16 360 3.0861035755572714E-2
17 34 1.587742257244866E-2
17 36 3.0119421191220225E-1
17 82 5.247762340746636E-2
17 86 1.831563888873418E-2
17 117 1.831563888873418E-2
17 140 1.831563888873418E-2
17 159 1.4666017116527073E-2
17 186 3.567399334725236E-2
18 4 4.519475704062072E-2
18 67 1.0425978464335062E-1
18 195 1.831563888873418E-2
18 276 2.593468769611923E-2
18 366 2.593468769611923E-2
19 95 3.473525894473856E-2
19 112 7.529784255650023E-3
19 170 1.831563888873418E-2
19 193 8.486906038938742E-3
19 301 2.9599435167892E-2
19 313 4.783488949419835E-2
20 7 1.831563888873418E-2
20 28 2.3912992862805328E-2
20 116 6.477457554835714E-2
20 223 4.31593092614526E-2
20 228 2.437284407327961E-2
21 27 3.790291440095854E-2
21 61 4.546060778829054E-2
21 120 1.831563888873418E-2
21 127 1.831563888873418E-2
21 240 1.831563888873418E-2
21 269 3.1601665485352926E-2
21 352 1.831563888873418E-2
22 41 2.593468769611923E-2
22 91 1.831563888873418E-2
22 154 1.831563888873418E-2
22 198 1.0425978464335062E-1
22 280 2.593468769611923E-2
23 29 2.770321253414219E-2
23 69 2.124036598442216E-2
23 81 1.831563888873418E-2
23 122 1.6163494588165888E-2
23 205 3.67231539113252E-2
23 226 2.593468769611923E-2
23 232 3.18004174453798E-2
23 338 7.363052096557704E-2
24 5 2.149360134508993E-2
24 109 6.587475442640295E-2
24 115 1.5607557919982844E-2
24 128 4.076220397836619E-2
24 171 1.831563888873418E-2
25 7 2.179473272454189E-2
25 57 1.293490138894978E-2
25 223 1.831563888873418E-2
25 228 1.831563888873418E-2
25 297 6.1876878704564466E-2
26 140 1.831563888873418E-2
26 209 1.5607557919982844E-2
26 237 1.2868907137631334E-2
26 245 4.783488949419835E-2
26 295 1.831563888873418E-2
26 331 7.730474044329974E-2
26 341 5.613476283413375E-2
27 21 3.790291440095854E-2
27 48 1.831563888873418E-2
27 61 9.403562551495197E-3
27 164 3.567399334725236E-2
27 267 6.948345122280151E-2
27 268 7.529784255650016E-3
27 269 3.567399334725236E-2
28 20 2.3912992862805328E-2
28 116 4.251515251442983E-2
28 201 1.4028466860135124E-2
28 223 9.071795328941251E-2
28 297 2.3912992862805328E-2
29 23 2.770321253414219E-2
29 222 2.1024455619461375E-2
29 232 1.831563888873418E-2
29 287 1.831563888873418E-2
29 333 1.831563888873418E-2
30 79 1.831563888873418E-2
30 88 1.831563888873418E-2
30 191 5.3219344338921504E-2
30 250 2.3912992862805328E-2
30 316 1.831563888873418E-2
30 328 9.071795328941251E-2
30 340 1.831563888873418E-2
31 54 2.19677058894355E-2
31 211 2.136173917500704E-2
31 238 2.136173917500704E-2
31 244 2.2907994981548765E-1
31 294 4.251515251442983E-2
31 311 4.251515251442983E-2
31 319 1.831563888873418E-2
31 330 5.129601655946807E-3
32 2 1.2999334139678236E-2
32 61 2.856550078455039E-2
32 84 1.0836802322189587E-1
32 164 2.124036598442216E-2
32 269 1.579363689630125E-2
32 296 4.8459492944676476E-2
32 309 1.831563888873418E-2
33 110 6.217652402211632E-2
33 124 1.3123728736940968E-2
33 209 2.287346491123891E-2
33 341 1.831563888873418E-2
33 356 7.76490817034759E-2
34 17 1.587742257244866E-2
34 35 1.831563888873418E-2
34 36 2.8115659748972045E-2
34 273 2.437284407327962E-2
34 331 2.112827988118329E-2
35 10 2.932215912389381E-2
35 34 1.831563888873418E-2
35 36 3.33732699603261E-2
35 90 7.515254527331507E-2
35 149 4.694288967532548E-2
35 323 1.831563888873418E-2
36 17 3.0119421191220225E-1
36 34 2.8115659748972045E-2
36 35 3.33732699603261E-2
36 80 1.831563888873418E-2
36 86 9.898375607203901E-3
36 90 1.831563888873418E-2
36 159 1.4995576820477717E-2
37 39 3.828748118219377E-3
37 51 3.952708164357857E-2
37 58 5.613476283413375E-2
37 213 1.831563888873418E-2
37 315 2.593468769611923E-2
38 75 1.831563888873418E-2
38 130 4.251515251442983E-2
38 279 4.546060778829054E-2
38 309 6.271022482807168E-2
38 329 1.2021571336618452E-2
38 345 1.831563888873418E-2
39 3 1.5391912905853858E-2
39 37 3.828748118219377E-3
39 144 3.6723153911325246E-2
39 213 2.593468769611923E-2
39 291 1.831563888873418E-2
39 301 5.1999470708748045E-2
39 313 3.0861035755572714E-2
40 64 3.312697388707257E-2
40 153 1.831563888873418E-2
40 236 3.312697388707257E-2
40 318 5.991581323378173E-2
40 358 1.831563888873418E-2
41 22 2.593468769611923E-2
41 49 8.761679210658638E-2
41 91 1.831563888873418E-2
41 147 1.831563888873418E-2
41 198 6.948345122280154E-2
41 280 1.488580808033331E-1
42 15 1.7400052573824525E-2
42 50 1.4188561758514389E-2
42 98 1.831563888873418E-2
42 102 2.112827988118329E-2
42 107 9.508907677188683E-2
42 162 1.488580808033331E-1
42 259 5.743261926761732E-2
42 271 9.071795328941251E-2
43 14 7.340959562710439E-3
43 48 2.124036598442216E-2
43 100 5.166560687888456E-2
43 129 1.831563888873418E-2
43 130 1.831563888873418E-2
43 305 2.732372244729256E-2
44 52 2.3912992862805328E-2
44 65 1.1108996538242316E-2
44 71 1.831563888873418E-2
44 135 1.376378673305039E-2
44 161 6.737946999085467E-3
44 199 1.831563888873418E-2
44 227 1.174362845702134E-2
44 257 3.0197383422318515E-2
44 304 3.0197383422318515E-2
44 346 1.831563888873418E-2
45 80 1.831563888873418E-2
45 93 7.427357821433395E-2
45 148 1.4995576820477717E-2
45 155 4.9787068367863944E-2
45 266 2.7323722447292594E-2
46 88 6.948345122280151E-2
46 115 1.9261559277384008E-1
46 250 2.3912992862805328E-2
46 255 2.149360134508993E-2
46 256 9.041932521329786E-3
46 328 1.831563888873418E-2
46 365 1.4028466860135124E-2
47 74 1.034317319661825E-2
47 150 1.831563888873418E-2
47 219 2.680819595377898E-2
47 230 1.831563888873418E-2
47 326 3.923856408515822E-2
48 27 1.831563888873418E-2
48 43 2.124036598442216E-2
48 72 2.112827988118329E-2
48 100 1.353352832366127E-1
48 164 3.0197383422318487E-2
48 267 3.567399334725236E-2
48 352 9.657697627537777E-3
49 41 8.761679210658638E-2
49 147 1.831563888873418E-2
49 188 1.831563888873418E-2
49 280 6.1876878704564466E-2
49 281 3.0861035755572714E-2
50 15 6.601002081511745E-2
50 42 1.4188561758514389E-2
50 66 1.984890633997344E-1
50 252 9.697196786440501E-2
50 259 1.831563888873418E-2
50 317 2.364317353738862E-2
51 37 3.952708164357857E-2
51 58 2.136173917500704E-2
51 158 1.831563888873418E-2
51 214 9.898375607203901E-3
51 315 8.530361363583897E-2
52 44 2.3912992862805328E-2
52 161 4.0762203978366246E-2
52 204 2.593468769611923E-2
52 257 3.122092716123093E-2
52 304 1.831563888873418E-2
52 346 1.4028466860135124E-2
53 4 1.831563888873418E-2
53 62 9.868824146980933E-2
53 64 3.444397966139715E-2
53 81 9.739369004403392E-3
53 87 1.831563888873418E-2
53 106 1.831563888873418E-2
53 108 1.831563888873418E-2
53 111 9.739369004403392E-3
53 292 4.251515251442983E-2
53 310 1.3123728736940968E-2
54 31 2.19677058894355E-2
54 236 1.3123728736940968E-2
54 311 1.831563888873418E-2
54 318 2.6347980814448713E-2
54 330 1.831563888873418E-2
55 74 1.831563888873418E-2
55 85 1.587742257244866E-2
55 203 2.231301601484298E-1
55 229 1.0615346461976673E-2
55 300 8.761679210658638E-2
55 343 9.40775004400739E-2
56 11 2.19677058894355E-2
56 70 2.179473272454189E-2
56 104 1.2732005168249957E-2
56 142 1.587742257244866E-2
56 184 1.203143884008993E-1
56 207 1.587742257244866E-2
56 249 5.452527577743517E-2
56 305 1.831563888873418E-2
57 12 2.4914440787632736E-2
57 13 1.831563888873418E-2
57 25 1.293490138894978E-2
57 196 1.1603700224776001E-1
57 307 4.610088752834598E-2
57 332 1.831563888873418E-2
57 348 1.831563888873418E-2
58 37 5.613476283413375E-2
58 51 2.136173917500704E-2
58 213 4.783488949419835E-2
58 214 1.831563888873418E-2
58 254 2.149360134508993E-2
58 315 1.831563888873418E-2
59 80 1.831563888873418E-2
59 202 2.6347980814448713E-2
59 258 1.831563888873418E-2
59 278 1.831563888873418E-2
59 282 3.243324089479554E-2
59 323 2.437284407327961E-2
59 362 1.8009231214795243E-1
60 65 2.3517745856009097E-2
60 97 5.3219344338921504E-2
60 151 5.3219344338921504E-2
60 159 9.071795328941251E-2
60 186 1.831563888873418E-2
61 2 5.1230072213984665E-2
61 14 2.5806139322057265E-2
61 21 4.546060778829054E-2
61 27 9.403562551495197E-3
61 32 2.856550078455039E-2
61 84 1.4995576820477717E-2
61 120 2.81945255030803E-2
61 127 1.831563888873418E-2
61 164 3.243324089479554E-2
61 240 1.831563888873418E-2
61 267 1.831563888873418E-2
61 269 5.743261926761732E-2
61 296 9.270078128185397E-2
61 344 1.831563888873418E-2
61 352 3.20646853278608E-2
62 4 2.0838193670452684E-2
62 53 9.868824146980933E-2
62 64 1.831563888873418E-2
62 81 1.2021571336618452E-2
62 106 2.2607497403282672E-2
62 108 3.1601665485352926E-2
62 292 5.247762340746636E-2
63 93 1.831563888873418E-2
63 105 1.831563888873418E-2
63 135 1.4838556515937157E-2
63 204 2.179473272454189E-2
63 227 1.5035789770837663E-1
63 334 1.831563888873418E-2
63 339 6.477457554835714E-2
64 40 3.312697388707257E-2
64 53 3.444397966139715E-2
64 62 1.831563888873418E-2
64 94 4.214384350927635E-2
64 106 1.2021571336618452E-2
64 292 4.251515251442983E-2
64 310 1.831563888873418E-2
65 44 1.1108996538242316E-2
65 60 2.3517745856009097E-2
65 97 2.2313016014842987E-1
65 151 4.9787068367863965E-2
65 178 2.19677058894355E-2
65 346 1.831563888873418E-2
66 8 1.4264233908999242E-2
66 15 1.937811903941261E-1
66 50 1.984890633997344E-1
66 162 9.898375607203901E-3
66 252 2.0528965757990913E-1
66 317 1.831563888873418E-2
67 18 1.0425978464335062E-1
67 195 1.2277339903068448E-2
67 245 1.831563888873418E-2
67 276 6.948345122280151E-2
67 312 1.831563888873418E-2
67 341 1.831563888873418E-2
67 366 1.1844182901380365E-1
68 9 9.697196786440501E-2
68 141 6.948345122280145E-2
68 169 1.831563888873418E-2
68 260 6.737946999085455E-3
68 332 3.567399334725236E-2
69 23 2.124036598442216E-2
69 81 1.831563888873418E-2
69 113 1.831563888873418E-2
69 205 1.831563888873418E-2
69 226 2.4632127216140873E-2
70 11 5.1999470708748045E-2
70 56 2.179473272454189E-2
70 184 1.831563888873418E-2
70 190 1.1931522535756151E-2
70 207 3.741385136723663E-2
70 284 3.0861035755572714E-2
70 306 1.293490138894978E-2
71 44 1.831563888873418E-2
71 77 2.437284407327961E-2
71 97 6.737946999085467E-3
71 105 4.0762203978366246E-2
71 121 5.563799827784279E-2
71 135 4.31593092614526E-2
71 151 1.831563888873418E-2
71 159 6.948345122280157E-2
71 199 3.567399334725236E-2
71 257 1.1108996538242316E-2
71 304 3.0197383422318515E-2
71 322 1.2277339903068448E-2
71 346 4.9787068367863986E-2
72 48 2.112827988118329E-2
72 100 8.816268936235747E-2
72 164 1.3763786733050402E-2
72 345 5.850110257890112E-2
72 349 1.831563888873418E-2
73 79 1.1770957893287493E-1
73 168 1.5139074073434077E-2
73 250 2.2158728220451646E-2
73 303 1.831563888873418E-2
73 316 2.680819595377898E-2
73 340 2.680819595377898E-2
74 47 1.034317319661825E-2
74 55 1.831563888873418E-2
74 122 7.24397570342515E-2
74 153 2.136173917500704E-2
74 229 9.40775004400739E-2
74 236 4.214384350927635E-2
74 280 2.7905056544536098E-2
74 343 4.251515251442983E-2
74 354 1.831563888873418E-2
75 38 1.831563888873418E-2
75 96 9.508907677188683E-2
75 130 1.5223149227758764E-1
75 169 1.831563888873418E-2
75 279 3.790291440095854E-2
75 314 1.831563888873418E-2
75 329 5.9395939605204784E-2
76 83 5.743261926761732E-2
76 117 9.697196786440501E-2
76 119 5.563799827784279E-2
76 126 1.831563888873418E-2
76 258 1.831563888873418E-2
76 278 3.567399334725236E-2
76 361 1.831563888873418E-2
76 362 1.3464585890646672E-2
77 71 2.437284407327961E-2
77 82 1.218136138366199E-1
77 121 4.455142624448967E-2
77 199 2.437284407327961E-2
77 304 5.840977343195257E-3
78 143 1.017013923042268E-1
78 234 6.948345122280157E-2
78 235 4.0762203978366204E-2
78 239 1.831563888873418E-2
78 243 1.0126570239892115E-2
78 324 2.124036598442216E-2
78 335 1.831563888873418E-2
79 30 1.831563888873418E-2
79 73 1.1770957893287493E-1
79 88 1.831563888873418E-2
79 118 2.4211435101758993E-2
79 250 6.736198650555973E-2
80 36 1.831563888873418E-2
80 45 1.831563888873418E-2
80 59 1.831563888873418E-2
80 117 3.710076657961781E-2
80 148 2.932215912389381E-2
80 155 1.831563888873418E-2
80 202 2.19677058894355E-2
80 224 2.179473272454189E-2
80 282 2.932215912389381E-2
81 23 1.831563888873418E-2
81 53 9.739369004403392E-3
81 62 1.2021571336618452E-2
81 69 1.831563888873418E-2
81 87 9.697196786440505E-2
81 103 9.134907876173914E-3
81 106 2.7905056544536098E-2
81 108 1.2732005168249957E-2
81 132 1.1080315836233391E-1
81 226 2.3174427241061245E-2
82 10 1.4838556515937157E-2
82 17 5.247762340746636E-2
82 77 1.218136138366199E-1
82 199 1.831563888873418E-2
82 231 2.2607497403282672E-2
83 76 5.743261926761732E-2
83 117 2.3965103644177574E-1
83 119 1.4666017116527073E-2
83 231 1.4666017116527073E-2
83 278 1.831563888873418E-2
83 282 1.831563888873418E-2
83 361 5.840977343195257E-3
84 2 1.831563888873418E-2
84 14 1.831563888873418E-2
84 32 1.0836802322189587E-1
84 61 1.4995576820477717E-2
84 267 1.831563888873418E-2
84 269 2.23707718561656E-2
84 296 1.831563888873418E-2
84 309 8.530361363583897E-2
85 55 1.587742257244866E-2
85 203 1.831563888873418E-2
85 281 1.831563888873418E-2
85 300 2.8115659748972045E-2
85 355 1.5611804531597115E-1
86 17 1.831563888873418E-2
86 36 9.898375607203901E-3
86 99 2.8115659748972045E-2
86 124 1.6282781831675534E-2
86 125 3.491500115242961E-2
86 140 1.273767484673777E-1
87 6 1.5503853599009314E-2
87 53 1.831563888873418E-2
87 81 9.697196786440505E-2
87 103 2.163737071949309E-2
87 132 2.163737071949309E-2
87 232 1.5955829438551027E-2
88 30 1.831563888873418E-2
88 46 6.948345122280151E-2
88 79 1.831563888873418E-2
88 115 5.563799827784279E-2
88 191 2.287346491123889E-2
88 328 9.403562551495197E-3
89 136 3.567399334725236E-2
89 207 2.8115659748972045E-2
89 284 1.831563888873418E-2
89 306 3.0197383422318487E-2
89 351 1.831563888873418E-2
90 10 1.831563888873418E-2
90 35 7.515254527331507E-2
90 36 1.831563888873418E-2
90 149 6.948345122280145E-2
90 221 1.831563888873418E-2
90 322 3.567399334725236E-2
91 22 1.831563888873418E-2
91 41 1.831563888873418E-2
91 147 1.9468670833151014E-1
91 188 6.539740322986018E-2
91 198 1.831563888873418E-2
91 230 3.790291440095854E-2
92 150 3.567399334725236E-2
92 200 5.8816471642429854E-2
92 205 1.831563888873418E-2
92 226 1.831563888873418E-2
92 338 1.831563888873418E-2
93 45 7.427357821433395E-2
93 63 1.831563888873418E-2
93 134 3.243324089479554E-2
93 148 2.3174427241061245E-2
93 155 4.9787068367863965E-2
93 263 3.567399334725236E-2
93 264 1.831563888873418E-2
93 265 2.556153320650738E-2
93 266 1.8887560283756175E-1
94 64 4.214384350927635E-2
94 103 6.948345122280151E-2
94 106 1.831563888873418E-2
94 111 3.1140322391459757E-1
94 132 1.3123728736940968E-2
95 19 3.473525894473856E-2
95 112 6.217652402211632E-2
95 163 5.1999470708748045E-2
95 170 8.761679210658638E-2
95 193 1.831563888873418E-2
95 301 2.680819595377898E-2
95 314 4.143317173311721E-2
96 75 9.508907677188683E-2
96 130 2.0189651799465547E-1
96 141 1.831563888873418E-2
96 169 1.831563888873418E-2
96 329 6.948345122280151E-2
97 60 5.3219344338921504E-2
97 65 2.2313016014842987E-1
97 71 6.737946999085467E-3
97 105 1.4028466860135124E-2
97 121 1.4666017116527073E-2
97 138 1.831563888873418E-2
97 151 6.948345122280145E-2
97 220 3.0197383422318515E-2
97 346 1.831563888873418E-2
98 42 1.831563888873418E-2
98 102 9.802030330762172E-2
98 107 1.0931256415982072E-2
98 183 1.2436783649284744E-2
98 335 1.831563888873418E-2
98 355 3.972373338644101E-2
99 86 2.8115659748972045E-2
99 124 9.508907677188683E-2
99 152 5.743261926761735E-2
99 273 1.831563888873418E-2
99 321 1.3763786733050402E-2
100 43 5.166560687888456E-2
100 48 1.353352832366127E-1
100 72 8.816268936235747E-2
100 164 1.831563888873418E-2
100 267 2.3174427241061245E-2
100 268 1.831563888873418E-2
100 309 1.831563888873418E-2
100 345 3.972373338644101E-2
101 12 1.3123728736940968E-2
101 104 1.2031438840089924E-1
101 141 1.831563888873418E-2
101 142 1.831563888873418E-2
101 165 4.9787068367863924E-2
101 187 6.737946999085455E-3
101 196 3.567399334725236E-2
102 15 1.831563888873418E-2
102 42 2.112827988118329E-2
102 98 9.802030330762172E-2
102 271 5.8409773431952515E-3
102 299 1.831563888873418E-2
102 335 3.972373338644101E-2
102 342 4.455142624448967E-2
103 81 9.134907876173914E-3
103 87 2.163737071949309E-2
103 94 6.948345122280151E-2
103 111 3.67231539113252E-2
103 132 6.1876878704564466E-2
104 13 1.831563888873418E-2
104 56 1.2732005168249957E-2
104 101 1.2031438840089924E-1
104 141 1.831563888873418E-2
104 165 5.9395939605204784E-2
104 196 2.932215912389381E-2
105 63 1.831563888873418E-2
105 71 4.0762203978366246E-2
105 97 1.4028466860135124E-2
105 138 3.790291440095854E-2
105 227 1.831563888873418E-2
105 257 1.831563888873418E-2
105 304 5.3219344338921504E-2
105 346 2.3912992862805328E-2
106 53 1.831563888873418E-2
106 62 2.2607497403282672E-2
106 64 1.2021571336618452E-2
106 81 2.7905056544536098E-2
106 94 1.831563888873418E-2
106 108 3.1601665485352926E-2
106 110 2.112827988118329E-2
106 111 2.7905056544536098E-2
106 132 1.831563888873418E-2
106 356 2.6649097336355523E-2
107 42 9.508907677188683E-2
107 98 1.0931256415982072E-2
107 162 2.1788028382312236E-1
107 259 3.923856408515822E-2
107 271 2.932215912389381E-2
108 53 1.831563888873418E-2
108 62 3.1601665485352926E-2
108 81 1.2732005168249957E-2
108 106 3.1601665485352926E-2
108 110 4.3159309261452616E-2
109 5 4.546060778829054E-2
109 24 6.587475442640295E-2
109 128 9.40775004400739E-2
109 171 5.452527577743517E-2
109 179 9.041932521329786E-3
109 218 1.4995576820477717E-2
110 33 6.217652402211632E-2
110 106 2.112827988118329E-2
110 108 4.3159309261452616E-2
110 356 3.0197383422318515E-2
110 366 1.831563888873418E-2
111 4 2.370817191173096E-2
111 53 9.739369004403392E-3
111 94 3.1140322391459757E-1
111 103 3.67231539113252E-2
111 106 2.7905056544536098E-2
111 132 2.23707718561656E-2
112 19 7.529784255650023E-3
112 95 6.217652402211632E-2
112 163 1.831563888873418E-2
112 170 7.76490817034759E-2
112 314 3.1890655732397044E-1
113 69 1.831563888873418E-2
113 226 9.697196786440505E-2
113 227 1.831563888873418E-2
113 298 1.831563888873418E-2
113 338 2.556153320650738E-2
113 347 2.163737071949309E-2
114 139 1.2031438840089924E-1
114 146 7.515254527331507E-2
114 175 1.831563888873418E-2
114 218 3.33732699603261E-2
114 251 2.110720877910901E-1
115 24 1.5607557919982844E-2
115 46 1.9261559277384008E-1
115 88 5.563799827784279E-2
115 128 3.790291440095854E-2
115 171 4.546060778829054E-2
115 328 9.508907677188683E-2
116 20 6.477457554835714E-2
116 28 4.251515251442983E-2
116 201 1.831563888873418E-2
116 223 3.444397966139715E-2
116 228 1.4838556515937157E-2
117 17 1.831563888873418E-2
117 76 9.697196786440501E-2
117 80 3.710076657961781E-2
117 83 2.3965103644177574E-1
117 119 2.8565500784550352E-2
117 152 1.831563888873418E-2
117 278 2.7323722447292583E-2
117 282 6.081006262521797E-2
117 323 2.4914440787632736E-2
118 8 2.163737071949308E-2
118 79 2.4211435101758993E-2
118 197 1.831563888873418E-2
118 215 7.843739051713067E-2
118 217 4.546060778829054E-2
118 250 2.19677058894355E-2
118 316 1.2732005168249957E-2
118 317 1.466601711652711E-2
119 9 1.831563888873418E-2
119 76 5.563799827784279E-2
119 83 1.4666017116527073E-2
119 117 2.8565500784550352E-2
119 278 3.567399334725236E-2
120 2 2.4101283176170413E-2
120 21 1.831563888873418E-2
120 61 2.81945255030803E-2
120 123 1.831563888873418E-2
120 240 2.1426276102353113E-2
121 71 5.563799827784279E-2
121 77 4.455142624448967E-2
121 97 1.4666017116527073E-2
121 140 3.7902914400958505E-2
121 159 3.567399334725236E-2
121 304 1.831563888873418E-2
122 23 1.6163494588165888E-2
122 74 7.24397570342515E-2
122 229 2.351774585600913E-2
122 236 1.831563888873418E-2
122 354 8.20849986238988E-2
123 120 1.831563888873418E-2
123 127 1.218136138366199E-1
123 185 6.477457554835714E-2
123 240 2.2607497403282672E-2
123 344 1.831563888873418E-2
123 350 1.831563888873418E-2
124 33 1.3123728736940968E-2
124 86 1.6282781831675534E-2
124 99 9.508907677188683E-2
124 125 5.280357033430051E-2
124 140 1.831563888873418E-2
124 273 5.9395939605204784E-2
125 86 3.491500115242961E-2
125 124 5.280357033430051E-2
125 210 1.6098450432302923E-2
125 246 1.831563888873418E-2
125 273 6.65582736632788E-2
126 13 1.831563888873418E-2
126 76 1.831563888873418E-2
126 163 5.421453617662285E-3
126 196 6.948345122280145E-2
126 224 1.293490138894978E-2
126 260 4.9787068367863924E-2
126 278 3.567399334725236E-2
126 361 1.831563888873418E-2
127 21 1.831563888873418E-2
127 61 1.831563888873418E-2
127 123 1.218136138366199E-1
127 185 5.3219344338921504E-2
127 241 1.4264233908999256E-2
127 269 1.831563888873418E-2
127 344 5.3219344338921504E-2
127 349 1.4264233908999256E-2
128 5 1.831563888873418E-2
128 24 4.076220397836619E-2
128 109 9.40775004400739E-2
128 115 3.790291440095854E-2
128 218 1.2732005168249957E-2
129 7 1.0539922456186433E-1
129 43 1.831563888873418E-2
129 201 6.392786120670757E-2
129 223 3.01973834223185E-2
129 228 1.831563888873418E-2
129 297 8.651695203120627E-3
130 38 4.251515251442983E-2
130 43 1.831563888873418E-2
130 75 1.5223149227758764E-1
130 96 2.0189651799465547E-1
130 279 1.831563888873418E-2
130 314 1.831563888873418E-2
130 329 2.3912992862805328E-2
131 166 5.743261926761735E-2
131 206 1.831563888873418E-2
131 247 1.831563888873418E-2
131 283 1.3763786733050402E-2
131 353 2.112827988118329E-2
132 81 1.1080315836233391E-1
132 87 2.163737071949309E-2
132 94 1.3123728736940968E-2
132 103 6.1876878704564466E-2
132 106 1.831563888873418E-2
132 111 2.23707718561656E-2
133 145 3.1601665485352926E-2
133 158 3.473525894473856E-2
133 180 3.790291440095854E-2
133 253 1.831563888873418E-2
133 290 6.152424231136855E-3
134 93 3.243324089479554E-2
134 155 4.747181807884439E-2
134 221 1.831563888873418E-2
134 263 1.5139074073434077E-2
134 266 1.831563888873418E-2
134 339 2.2158728220451646E-2
135 44 1.376378673305039E-2
135 63 1.4838556515937157E-2
135 71 4.31593092614526E-2
135 140 2.3340254280134747E-2
135 225 1.5391912905853858E-2
135 227 5.563799827784279E-2
135 304 1.831563888873418E-2
135 339 2.932215912389381E-2
135 363 1.831563888873418E-2
136 89 3.567399334725236E-2
136 210 1.831563888873418E-2
136 306 3.67231539113252E-2
136 351 2.179473272454189E-2
136 359 1.831563888873418E-2
137 167 1.641451883305237E-2
137 235 1.831563888873418E-2
137 285 3.9395962509427707E-1
137 299 1.3167779856311412E-1
137 342 1.0576079959230224E-1
137 357 1.4995576820477717E-2
138 97 1.831563888873418E-2
138 105 3.790291440095854E-2
138 257 1.5270717369893397E-2
138 262 3.790291440095854E-2
138 363 2.19677058894355E-2
139 114 1.2031438840089924E-1
139 146 1.831563888873418E-2
139 175 9.041932521329786E-3
139 179 2.3517745856009097E-2
139 218 1.831563888873418E-2
139 251 4.455142624448967E-2
140 17 1.831563888873418E-2
140 26 1.831563888873418E-2
140 86 1.273767484673777E-1
140 121 3.7902914400958505E-2
140 124 1.831563888873418E-2
140 135 2.3340254280134747E-2
141 9 1.831563888873418E-2
141 68 6.948345122280145E-2
141 96 1.831563888873418E-2
141 101 1.831563888873418E-2
141 104 1.831563888873418E-2
141 142 3.243324089479555E-2
141 165 1.831563888873418E-2
141 169 2.6347980814448713E-2
141 187 2.556153320650738E-2
142 56 1.587742257244866E-2
142 101 1.831563888873418E-2
142 141 3.243324089479555E-2
142 174 1.4149662367536764E-2
142 187 2.112827988118329E-2
142 249 6.625225915226167E-2
143 78 1.017013923042268E-1
143 208 1.831563888873418E-2
143 234 5.1230072213984665E-2
143 275 4.56973812533374E-2
143 324 1.6337605961220247E-2
144 3 1.293490138894978E-2
144 39 3.6723153911325246E-2
144 213 2.3774767856519337E-2
144 216 1.831563888873418E-2
144 254 2.1794732724541896E-2
145 133 3.1601665485352926E-2
145 180 4.251515251442983E-2
145 253 6.477457554835714E-2
145 290 1.831563888873418E-2
145 302 9.739369004403392E-3
145 327 1.855908932609494E-1
146 114 7.515254527331507E-2
146 139 1.831563888873418E-2
146 156 1.831563888873418E-2
146 175 5.9395939605204784E-2
146 179 3.877420783172203E-2
146 192 2.7323722447292594E-2
146 251 1.831563888873418E-2
146 288 4.455142624448967E-2
147 1 2.3517745856009097E-2
147 41 1.831563888873418E-2
147 49 1.831563888873418E-2
147 91 1.9468670833151014E-1
147 157 1.1108996538242316E-2
147 188 1.3533528323661262E-1
147 189 1.831563888873418E-2
147 233 2.9599435167892E-2
147 308 2.4787521766663607E-3
148 45 1.4995576820477717E-2
148 80 2.932215912389381E-2
148 93 2.3174427241061245E-2
148 155 1.5223149227758764E-1
148 224 5.1999470708748045E-2
149 10 2.635971381157267E-1
149 35 4.694288967532548E-2
149 90 6.948345122280145E-2
149 221 3.243324089479554E-2
149 322 1.831563888873418E-2
150 47 1.831563888873418E-2
150 92 3.567399334725236E-2
150 153 1.831563888873418E-2
150 160 7.7726597956035365E-3
150 219 1.831563888873418E-2
150 230 4.455142624448967E-2
150 287 5.743261926761732E-2
150 326 1.831563888873418E-2
150 354 2.179473272454189E-2
151 60 5.3219344338921504E-2
151 65 4.9787068367863965E-2
151 71 1.831563888873418E-2
151 97 6.948345122280145E-2
151 159 1.353352832366127E-1
152 99 5.743261926761735E-2
152 117 1.831563888873418E-2
152 181 3.389067471417901E-2
152 282 1.5607557919982844E-2
152 293 1.831563888873418E-2
153 40 1.831563888873418E-2
153 74 2.136173917500704E-2
153 150 1.831563888873418E-2
153 200 2.136173917500704E-2
153 230 1.831563888873418E-2
153 236 6.271022482807168E-2
154 22 1.831563888873418E-2
154 182 1.831563888873418E-2
154 206 1.831563888873418E-2
154 211 1.831563888873418E-2
154 229 2.9599435167892E-2
154 238 1.831563888873418E-2
154 311 2.9599435167892E-2
154 325 2.149360134508993E-2
155 45 4.9787068367863944E-2
155 80 1.831563888873418E-2
155 93 4.9787068367863965E-2
155 134 4.747181807884439E-2
155 148 1.5223149227758764E-1
155 224 2.593468769611923E-2
155 264 9.118819655545154E-4
155 265 3.18278079650967E-3
156 146 1.831563888873418E-2
156 175 1.5035789770837663E-1
156 179 3.444397966139715E-2
156 251 1.831563888873418E-2
156 288 2.2907994981548765E-1
157 1 2.8650479686019004E-1
157 147 1.1108996538242316E-2
157 188 3.01973834223185E-2
157 189 3.01973834223185E-2
157 233 2.9599435167892E-2
157 281 3.33732699603261E-2
157 308 1.831563888873418E-2
158 51 1.831563888873418E-2
158 133 3.473525894473856E-2
158 214 4.076220397836619E-2
158 253 1.831563888873418E-2
158 315 2.9599435167892E-2
159 17 1.4666017116527073E-2
159 36 1.4995576820477717E-2
159 60 9.071795328941251E-2
159 71 6.948345122280157E-2
159 121 3.567399334725236E-2
159 151 1.353352832366127E-1
159 186 2.3912992862805328E-2
159 199 1.831563888873418E-2
159 322 2.7323722447292583E-2
159 339 2.3174427241061245E-2
159 346 2.8565500784550352E-2
160 150 7.7726597956035365E-3
160 198 1.4666017116527073E-2
160 219 1.831563888873418E-2
160 230 5.563799827784279E-2
160 272 4.31593092614526E-2
160 287 2.556153320650738E-2
160 326 9.697196786440501E-2
161 44 6.737946999085467E-3
161 52 4.0762203978366246E-2
161 220 1.831563888873418E-2
161 257 1.800923121479525E-1
161 304 1.800923121479525E-1
161 346 3.243324089479555E-2
161 363 1.1108996538242316E-2
162 42 1.488580808033331E-1
162 66 9.898375607203901E-3
162 107 2.1788028382312236E-1
162 252 1.831563888873418E-2
162 259 1.831563888873418E-2
162 271 1.2304094470311124E-1
162 335 2.697342314238974E-2
163 95 5.1999470708748045E-2
163 112 1.831563888873418E-2
163 126 5.421453617662285E-3
163 170 7.363052096557704E-2
163 193 2.9057997322928766E-2
163 301 3.0861035755572714E-2
163 314 1.9873514826614536E-2
164 27 3.567399334725236E-2
164 32 2.124036598442216E-2
164 48 3.0197383422318487E-2
164 61 3.243324089479554E-2
164 72 1.3763786733050402E-2
164 100 1.831563888873418E-2
164 241 1.831563888873418E-2
164 267 7.642628699076809E-2
164 268 3.567399334725236E-2
164 269 1.831563888873418E-2
164 296 1.643884564421335E-2
164 309 2.9057997322928766E-2
164 344 1.831563888873418E-2
164 349 1.831563888873418E-2
165 12 5.452527577743514E-2
165 13 2.556153320650738E-2
165 101 4.9787068367863924E-2
165 104 5.9395939605204784E-2
165 141 1.831563888873418E-2
165 187 6.948345122280145E-2
165 329 1.831563888873418E-2
166 131 5.743261926761735E-2
166 182 2.9057997322928766E-2
166 206 2.6347980814448713E-2
166 283 1.831563888873418E-2
166 353 4.4551426244489684E-2
167 137 1.641451883305237E-2
167 212 2.5283959580474646E-1
167 235 2.2158728220451646E-2
167 248 1.831563888873418E-2
167 275 2.948688992287585E-2
167 324 1.2513435386733792E-2
167 357 1.831563888873418E-2
168 73 1.5139074073434077E-2
168 197 9.071795328941251E-2
168 215 1.831563888873418E-2
168 328 1.831563888873418E-2
168 340 1.831563888873418E-2
168 365 2.3912992862805328E-2
169 9 7.843739051713064E-2
169 68 1.831563888873418E-2
169 75 1.831563888873418E-2
169 96 1.831563888873418E-2
169 141 2.6347980814448713E-2
169 260 3.7902914400958505E-2
169 307 1.831563888873418E-2
170 19 1.831563888873418E-2
170 95 8.761679210658638E-2
170 112 7.76490817034759E-2
170 163 7.363052096557704E-2
170 193 1.831563888873418E-2
170 301 2.593468769611923E-2
171 5 6.539740322986018E-2
171 24 1.831563888873418E-2
171 109 5.452527577743517E-2
171 115 4.546060778829054E-2
171 255 2.9599435167892E-2
172 173 1.273767484673777E-1
172 206 1.831563888873418E-2
172 247 4.0762203978366246E-2
172 274 1.0051835744633595E-2
172 283 6.0810062625218E-2
173 172 1.273767484673777E-1
173 182 1.6224836050121608E-2
173 206 1.831563888873418E-2
173 247 2.3340254280134747E-2
173 283 2.3340254280134747E-2
174 142 1.4149662367536764E-2
174 190 1.831563888873418E-2
174 194 1.1152032841273712E-1
174 249 7.572513333507026E-2
174 277 1.2687966910542814E-1
175 114 1.831563888873418E-2
175 139 9.041932521329786E-3
175 146 5.9395939605204784E-2
175 156 1.5035789770837663E-1
175 179 2.932215912389381E-2
175 251 1.831563888873418E-2
175 288 1.831563888873418E-2
176 177 7.730474044329974E-2
176 181 1.346458589064666E-2
176 209 1.831563888873418E-2
176 210 1.831563888873418E-2
176 273 5.613476283413375E-2
176 293 1.831563888873418E-2
177 176 7.730474044329974E-2
177 195 9.07179532894126E-2
177 209 9.071795328941247E-2
177 245 7.529784255650016E-3
177 295 1.5139074073434077E-2
177 331 8.549309479686053E-3
177 341 1.831563888873418E-2
178 65 2.19677058894355E-2
178 205 2.19677058894355E-2
178 222 1.831563888873418E-2
178 232 4.190233217493262E-2
178 360 5.452527577743517E-2
179 109 9.041932521329786E-3
179 139 2.3517745856009097E-2
179 146 3.877420783172203E-2
179 156 3.444397966139715E-2
179 175 2.932215912389381E-2
179 288 2.287346491123889E-2
180 133 3.790291440095854E-2
180 145 4.251515251442983E-2
180 253 4.455142624448967E-2
180 290 1.831563888873418E-2
180 302 6.029379889393069E-3
181 152 3.389067471417901E-2
181 176 1.346458589064666E-2
181 190 3.243324089479555E-2
181 210 3.952708164357857E-2
181 321 1.831563888873418E-2
182 154 1.831563888873418E-2
182 166 2.9057997322928766E-2
182 173 1.6224836050121608E-2
182 183 3.1220927161230917E-2
182 206 3.952708164357857E-2
182 283 2.9057997322928766E-2
182 355 1.1544588712512842E-2
183 98 1.2436783649284744E-2
183 182 3.1220927161230917E-2
183 234 5.3219344338921504E-2
183 248 1.831563888873418E-2
183 324 1.40284668601351E-2
183 337 3.1220927161230917E-2
184 56 1.203143884008993E-1
184 70 1.831563888873418E-2
184 249 1.203143884008993E-1
184 277 1.831563888873418E-2
184 284 2.3174427241061224E-2
185 123 6.477457554835714E-2
185 127 5.3219344338921504E-2
185 240 3.389067471417901E-2
185 241 3.01973834223185E-2
185 349 1.831563888873418E-2
185 350 1.3533528323661262E-1
186 10 3.122092716123093E-2
186 17 3.567399334725236E-2
186 60 1.831563888873418E-2
186 159 2.3912992862805328E-2
186 221 1.831563888873418E-2
186 231 2.287346491123889E-2
187 12 6.948345122280145E-2
187 101 6.737946999085455E-3
187 141 2.556153320650738E-2
187 142 2.112827988118329E-2
187 165 6.948345122280145E-2
187 279 1.2732005168249957E-2
187 329 3.243324089479554E-2
188 1 8.651695203120627E-3
188 49 1.831563888873418E-2
188 91 6.539740322986018E-2
188 147 1.3533528323661262E-1
188 157 3.01973834223185E-2
188 189 1.831563888873418E-2
188 203 1.5503853599009314E-2
188 233 1.5607557919982844E-2
189 1 3.877420783172203E-2
189 147 1.831563888873418E-2
189 157 3.01973834223185E-2
189 188 1.831563888873418E-2
189 233 5.613476283413375E-2
189 281 6.737946999085473E-3
189 308 1.831563888873418E-2
190 70 1.1931522535756151E-2
190 174 1.831563888873418E-2
190 181 3.243324089479555E-2
190 284 2.8115659748972045E-2
190 306 1.831563888873418E-2
190 359 4.3159309261452616E-2
191 30 5.3219344338921504E-2
191 88 2.287346491123889E-2
191 197 1.831563888873418E-2
191 255 1.3299883542443767E-2
191 256 1.831563888873418E-2
191 303 6.948345122280151E-2
191 328 3.243324089479554E-2
192 146 2.7323722447292594E-2
192 288 1.831563888873418E-2
192 290 1.831563888873418E-2
192 302 3.33732699603261E-2
192 327 3.33732699603261E-2
193 19 8.486906038938742E-3
193 95 1.831563888873418E-2
193 163 2.9057997322928766E-2
193 170 1.831563888873418E-2
193 301 1.353352832366127E-1
193 313 8.530361363583897E-2
194 11 1.034317319661825E-2
194 174 1.1152032841273712E-1
194 207 1.831563888873418E-2
194 249 2.7905056544536098E-2
194 277 1.1080315836233391E-1
194 305 7.93939322770782E-2
195 4 1.4149662367536764E-2
195 18 1.831563888873418E-2
195 67 1.2277339903068448E-2
195 177 9.07179532894126E-2
195 209 1.831563888873418E-2
195 245 2.7323722447292594E-2
195 276 1.831563888873418E-2
195 366 4.0762203978366246E-2
196 12 7.843739051713064E-2
196 13 3.567399334725236E-2
196 57 1.1603700224776001E-1
196 101 3.567399334725236E-2
196 104 2.932215912389381E-2
196 126 6.948345122280145E-2
196 286 5.516564420760781E-3
197 118 1.831563888873418E-2
197 168 9.071795328941251E-2
197 191 1.831563888873418E-2
197 215 5.9395939605204784E-2
197 303 4.0762203978366246E-2
197 316 1.4028466860135124E-2
197 317 3.5673993347252395E-2
198 22 1.0425978464335062E-1
198 41 6.948345122280154E-2
198 91 1.831563888873418E-2
198 160 1.4666017116527073E-2
198 229 2.6347980814448713E-2
198 272 1.831563888873418E-2
198 280 1.6901331540606596E-1
199 44 1.831563888873418E-2
199 71 3.567399334725236E-2
199 77 2.437284407327961E-2
199 82 1.831563888873418E-2
199 159 1.831563888873418E-2
199 322 2.556153320650738E-2
200 6 2.7323722447292594E-2
200 92 5.8816471642429854E-2
200 153 2.136173917500704E-2
200 219 1.831563888873418E-2
200 326 1.831563888873418E-2
200 333 2.932215912389381E-2
201 7 1.1283618731705691E-1
201 28 1.4028466860135124E-2
201 116 1.831563888873418E-2
201 129 6.392786120670757E-2
201 223 7.843739051713064E-2
201 228 1.831563888873418E-2
201 297 2.6347980814448713E-2
202 59 2.6347980814448713E-2
202 80 2.19677058894355E-2
202 258 1.831563888873418E-2
202 282 1.2732005168249957E-2
202 362 2.6347980814448713E-2
203 55 2.231301601484298E-1
203 85 1.831563888873418E-2
203 188 1.5503853599009314E-2
203 229 1.831563888873418E-2
203 300 3.1140322391459757E-1
203 343 9.697196786440505E-2
203 355 1.831563888873418E-2
204 52 2.593468769611923E-2
204 63 2.179473272454189E-2
204 227 2.593468769611923E-2
204 262 1.831563888873418E-2
204 298 2.163737071949309E-2
204 334 1.831563888873418E-2
205 16 1.293490138894978E-2
205 23 3.67231539113252E-2
205 69 1.831563888873418E-2
205 92 1.831563888873418E-2
205 178 2.19677058894355E-2
205 226 4.747181807884439E-2
205 347 2.680819595377898E-2
205 360 1.831563888873418E-2
206 131 1.831563888873418E-2
206 154 1.831563888873418E-2
206 166 2.6347980814448713E-2
206 172 1.831563888873418E-2
206 173 1.831563888873418E-2
206 182 3.952708164357857E-2
206 247 4.0762203978366246E-2
206 283 9.07179532894126E-2
206 325 2.163737071949309E-2
207 11 1.3533528323661273E-1
207 56 1.587742257244866E-2
207 70 3.741385136723663E-2
207 89 2.8115659748972045E-2
207 194 1.831563888873418E-2
208 143 1.831563888873418E-2
208 234 1.3533528323661262E-1
208 243 1.831563888873418E-2
208 248 3.5673993347252395E-2
208 275 1.831563888873418E-2
208 337 2.732372244729256E-2
209 26 1.5607557919982844E-2
209 33 2.287346491123891E-2
209 176 1.831563888873418E-2
209 177 9.071795328941247E-2
209 195 1.831563888873418E-2
209 341 5.613476283413375E-2
209 366 2.5222974835227233E-2
210 125 1.6098450432302923E-2
210 136 1.831563888873418E-2
210 176 1.831563888873418E-2
210 181 3.952708164357857E-2
210 246 1.5503853599009314E-2
210 293 4.9787068367863944E-2
210 321 4.214384350927635E-2
211 31 2.136173917500704E-2
211 154 1.831563888873418E-2
211 294 4.610088752834598E-2
211 311 1.831563888873418E-2
211 319 1.831563888873418E-2
212 167 2.5283959580474646E-1
212 235 3.01973834223185E-2
212 285 2.6649097336355475E-2
212 342 1.831563888873418E-2
212 357 7.730474044329974E-2
213 3 2.680819595377898E-2
213 37 1.831563888873418E-2
213 39 2.593468769611923E-2
213 58 4.783488949419835E-2
213 144 2.3774767856519337E-2
213 214 7.995304217364516E-2
213 216 7.515254527331507E-2
213 254 1.831563888873418E-2
213 289 1.831563888873418E-2
213 291 4.0762203978366246E-2
213 301 1.4475552056282452E-2
213 313 2.3517745856009097E-2
213 364 1.831563888873418E-2
214 51 9.898375607203901E-3
214 58 1.831563888873418E-2
214 158 4.076220397836619E-2
214 213 7.995304217364516E-2
214 216 1.831563888873418E-2
214 254 1.2021571336618452E-2
214 289 1.831563888873418E-2
214 291 2.2607497403282672E-2
214 315 5.452527577743517E-2
214 364 5.516564420760781E-3
215 8 8.208499862389876E-2
215 118 7.843739051713067E-2
215 168 1.831563888873418E-2
215 197 5.9395939605204784E-2
215 217 3.567399334725236E-2
215 317 5.563799827784284E-2
215 340 9.041932521329786E-3
216 144 1.831563888873418E-2
216 213 7.515254527331507E-2
216 214 1.831563888873418E-2
216 291 1.831563888873418E-2
216 313 2.3174427241061245E-2
216 364 3.33732699603261E-2
217 118 4.546060778829054E-2
217 215 3.567399334725236E-2
217 250 1.831563888873418E-2
217 316 1.4666017116527073E-2
217 365 1.831563888873418E-2
218 5 2.6347980814448713E-2
218 109 1.4995576820477717E-2
218 114 3.33732699603261E-2
218 128 1.2732005168249957E-2
218 139 1.831563888873418E-2
218 251 6.0810062625218E-2
219 47 2.680819595377898E-2
219 150 1.831563888873418E-2
219 160 1.831563888873418E-2
219 200 1.831563888873418E-2
219 222 3.877420783172203E-2
219 287 3.567399334725236E-2
219 326 2.635971381157267E-1
219 333 4.610088752834598E-2
220 97 3.0197383422318515E-2
220 161 1.831563888873418E-2
220 257 1.831563888873418E-2
220 261 1.831563888873418E-2
220 270 3.243324089479555E-2
220 304 1.831563888873418E-2
220 346 3.567399334725236E-2
220 363 1.831563888873418E-2
221 10 1.017013923042268E-1
221 90 1.831563888873418E-2
221 134 1.831563888873418E-2
221 149 3.243324089479554E-2
221 186 1.831563888873418E-2
221 231 1.831563888873418E-2
221 322 5.743261926761732E-2
221 339 1.831563888873418E-2
222 6 1.831563888873418E-2
222 16 4.3698793646333126E-2
222 29 2.1024455619461375E-2
222 178 1.831563888873418E-2
222 219 3.877420783172203E-2
222 287 2.3517745856009097E-2
222 333 3.877420783172203E-2
222 360 1.831563888873418E-2
223 7 1.0836802322189582E-1
223 20 4.31593092614526E-2
223 25 1.831563888873418E-2
223 28 9.071795328941251E-2
223 116 3.444397966139715E-2
223 129 3.01973834223185E-2
223 201 7.843739051713064E-2
223 228 1.1283618731705691E-1
223 297 6.081006262521797E-2
224 80 2.179473272454189E-2
224 126 1.293490138894978E-2
224 148 5.1999470708748045E-2
224 155 2.593468769611923E-2
224 278 1.831563888873418E-2
225 135 1.5391912905853858E-2
225 226 1.831563888873418E-2
225 227 1.0425978464335062E-1
225 262 1.831563888873418E-2
225 298 5.8816471642429854E-2
225 334 1.3299883542443767E-2
226 16 1.831563888873418E-2
226 23 2.593468769611923E-2
226 69 2.4632127216140873E-2
226 81 2.3174427241061245E-2
226 92 1.831563888873418E-2
226 113 9.697196786440505E-2
226 205 4.747181807884439E-2
226 225 1.831563888873418E-2
226 347 6.477457554835714E-2
227 44 1.174362845702134E-2
227 63 1.5035789770837663E-1
227 105 1.831563888873418E-2
227 113 1.831563888873418E-2
227 135 5.563799827784279E-2
227 204 2.593468769611923E-2
227 225 1.0425978464335062E-1
227 298 3.567399334725236E-2
227 334 2.9599435167892E-2
228 7 3.7902914400958505E-2
228 20 2.437284407327961E-2
228 25 1.831563888873418E-2
228 116 1.4838556515937157E-2
228 129 1.831563888873418E-2
228 201 1.831563888873418E-2
228 223 1.1283618731705691E-1
228 297 3.7902914400958505E-2
229 55 1.0615346461976673E-2
229 74 9.40775004400739E-2
229 122 2.351774585600913E-2
229 154 2.9599435167892E-2
229 198 2.6347980814448713E-2
229 203 1.831563888873418E-2
229 280 1.831563888873418E-2
229 300 1.831563888873418E-2
229 343 5.452527577743517E-2
230 47 1.831563888873418E-2
230 91 3.790291440095854E-2
230 150 4.455142624448967E-2
230 153 1.831563888873418E-2
230 160 5.563799827784279E-2
230 287 1.831563888873418E-2
230 326 2.8565500784550352E-2
231 10 4.455142624448967E-2
231 82 2.2607497403282672E-2
231 83 1.4666017116527073E-2
231 186 2.287346491123889E-2
231 221 1.831563888873418E-2
232 6 4.190233217493262E-2
232 23 3.18004174453798E-2
232 29 1.831563888873418E-2
232 87 1.5955829438551027E-2
232 178 4.190233217493262E-2
233 1 1.831563888873418E-2
233 147 2.9599435167892E-2
233 157 2.9599435167892E-2
233 188 1.5607557919982844E-2
233 189 5.613476283413375E-2
234 78 6.948345122280157E-2
234 143 5.1230072213984665E-2
234 183 5.3219344338921504E-2
234 208 1.3533528323661262E-1
234 239 3.312697388707257E-2
234 243 1.2493021219858247E-1
234 248 2.8565500784550352E-2
234 275 2.7905056544536098E-2
234 324 9.697196786440505E-2
234 337 2.3174427241061245E-2
235 78 4.0762203978366204E-2
235 137 1.831563888873418E-2
235 167 2.2158728220451646E-2
235 212 3.01973834223185E-2
235 248 6.081006262521797E-2
235 275 1.6572675401761255E-2
235 285 1.831563888873418E-2
235 324 4.9787068367863965E-2
236 40 3.312697388707257E-2
236 54 1.3123728736940968E-2
236 74 4.214384350927635E-2
236 122 1.831563888873418E-2
236 153 6.271022482807168E-2
236 318 1.831563888873418E-2
236 358 1.831563888873418E-2
237 26 1.2868907137631334E-2
237 262 1.831563888873418E-2
237 276 4.694288967532548E-2
237 295 2.932215912389382E-2
237 312 4.694288967532548E-2
238 31 2.136173917500704E-2
238 154 1.831563888873418E-2
238 244 1.831563888873418E-2
238 311 4.610088752834598E-2
238 319 3.389067471417901E-2
239 78 1.831563888873418E-2
239 234 3.312697388707257E-2
239 243 3.841684440233281E-2
239 259 4.4551426244489684E-2
239 337 1.831563888873418E-2
240 21 1.831563888873418E-2
240 61 1.831563888873418E-2
240 120 2.1426276102353113E-2
240 123 2.2607497403282672E-2
240 185 3.389067471417901E-2
240 241 3.877420783172203E-2
240 269 1.376378673305039E-2
240 350 3.877420783172203E-2
241 127 1.4264233908999256E-2
241 164 1.831563888873418E-2
241 185 3.01973834223185E-2
241 240 3.877420783172203E-2
241 350 1.831563888873418E-2
242 284 1.831563888873418E-2
242 293 2.593468769611923E-2
242 306 1.5391912905853858E-2
242 351 2.9600133801485823E-1
242 359 6.1876878704564466E-2
243 78 1.0126570239892115E-2
243 208 1.831563888873418E-2
243 234 1.2493021219858247E-1
243 239 3.841684440233281E-2
243 248 2.5222974835227233E-2
243 324 1.831563888873418E-2
243 337 1.831563888873418E-2
244 31 2.2907994981548765E-1
244 238 1.831563888873418E-2
244 294 6.948345122280151E-2
244 311 4.455142624448967E-2
244 318 9.739369004403392E-3
244 319 5.247762340746636E-2
245 26 4.783488949419835E-2
245 67 1.831563888873418E-2
245 177 7.529784255650016E-3
245 195 2.7323722447292594E-2
245 331 3.923856408515822E-2
245 341 2.110720877910901E-1
245 366 6.948345122280151E-2
246 125 1.831563888873418E-2
246 210 1.5503853599009314E-2
246 273 1.831563888873418E-2
246 293 1.5987974607969385E-1
246 351 3.0197383422318487E-2
246 359 3.567399334725236E-2
247 131 1.831563888873418E-2
247 172 4.0762203978366246E-2
247 173 2.3340254280134747E-2
247 206 4.0762203978366246E-2
247 274 1.4666017116527073E-2
247 283 1.831563888873418E-2
247 320 1.831563888873418E-2
247 325 3.0197383422318487E-2
247 336 3.877420783172203E-2
247 353 3.312697388707257E-2
248 167 1.831563888873418E-2
248 183 1.831563888873418E-2
248 208 3.5673993347252395E-2
248 234 2.8565500784550352E-2
248 235 6.081006262521797E-2
248 243 2.5222974835227233E-2
248 275 6.477457554835714E-2
248 324 4.9787068367863944E-2
248 337 2.8565500784550352E-2
249 56 5.452527577743517E-2
249 142 6.625225915226167E-2
249 174 7.572513333507026E-2
249 184 1.203143884008993E-1
249 194 2.7905056544536098E-2
249 277 1.831563888873418E-2
250 30 2.3912992862805328E-2
250 46 2.3912992862805328E-2
250 73 2.2158728220451646E-2
250 79 6.736198650555973E-2
250 118 2.19677058894355E-2
250 217 1.831563888873418E-2
250 256 2.3174427241061245E-2
250 303 1.831563888873418E-2
250 316 1.831563888873418E-2
250 340 5.3219344338921504E-2
251 114 2.110720877910901E-1
251 139 4.455142624448967E-2
251 146 1.831563888873418E-2
251 156 1.831563888873418E-2
251 175 1.831563888873418E-2
251 218 6.0810062625218E-2
252 8 1.831563888873418E-2
252 15 2.7746755208626733E-1
252 50 9.697196786440501E-2
252 66 2.0528965757990913E-1
252 162 1.831563888873418E-2
253 133 1.831563888873418E-2
253 145 6.477457554835714E-2
253 158 1.831563888873418E-2
253 180 4.455142624448967E-2
253 290 6.948345122280151E-2
253 302 1.831563888873418E-2
253 327 6.392786120670757E-2
254 3 6.948345122280154E-2
254 58 2.149360134508993E-2
254 144 2.1794732724541896E-2
254 213 1.831563888873418E-2
254 214 1.2021571336618452E-2
254 289 5.247762340746636E-2
254 291 9.868824146980933E-2
255 46 2.149360134508993E-2
255 171 2.9599435167892E-2
255 191 1.3299883542443767E-2
255 256 7.730474044329974E-2
255 303 1.831563888873418E-2
256 46 9.041932521329786E-3
256 191 1.831563888873418E-2
256 250 2.3174427241061245E-2
256 255 7.730474044329974E-2
256 303 1.831563888873418E-2
257 44 3.0197383422318515E-2
257 52 3.122092716123093E-2
257 71 1.1108996538242316E-2
257 105 1.831563888873418E-2
257 138 1.5270717369893397E-2
257 161 1.800923121479525E-1
257 220 1.831563888873418E-2
257 261 1.831563888873418E-2
257 262 1.831563888873418E-2
257 270 1.0343173196618241E-2
257 304 6.948345122280151E-2
257 346 9.403562551495197E-3
257 363 4.9787068367863986E-2
258 59 1.831563888873418E-2
258 76 1.831563888873418E-2
258 202 1.831563888873418E-2
258 278 2.6347980814448713E-2
258 282 2.6347980814448713E-2
258 323 3.389067471417901E-2
258 361 3.567399334725236E-2
259 42 5.743261926761732E-2
259 50 1.831563888873418E-2
259 107 3.923856408515822E-2
259 162 1.831563888873418E-2
259 239 4.4551426244489684E-2
259 271 6.948345122280154E-2
260 9 1.3533528323661276E-1
260 68 6.737946999085455E-3
260 126 4.9787068367863924E-2
260 169 3.7902914400958505E-2
260 286 2.0189651799465547E-1
260 307 4.0762203978366204E-2
260 332 4.455142624448967E-2
260 348 1.831563888873418E-2
261 220 1.831563888873418E-2
261 257 1.831563888873418E-2
261 262 8.53036136358389E-2
261 270 4.455142624448967E-2
261 304 1.831563888873418E-2
262 138 3.790291440095854E-2
262 204 1.831563888873418E-2
262 225 1.831563888873418E-2
262 237 1.831563888873418E-2
262 257 1.831563888873418E-2
262 261 8.53036136358389E-2
262 270 3.389067471417901E-2
262 304 1.831563888873418E-2
262 346 2.4914440787632736E-2
263 93 3.567399334725236E-2
263 134 1.5139074073434077E-2
263 264 3.567399334725236E-2
263 265 1.623206111818481E-1
263 266 7.843739051713064E-2
264 93 1.831563888873418E-2
264 155 9.118819655545154E-4
264 263 3.567399334725236E-2
264 265 4.9787068367863924E-2
264 266 2.556153320650738E-2
265 93 2.556153320650738E-2
265 155 3.18278079650967E-3
265 263 1.623206111818481E-1
265 264 4.9787068367863924E-2
265 266 5.452527577743514E-2
266 45 2.7323722447292594E-2
266 93 1.8887560283756175E-1
266 134 1.831563888873418E-2
266 263 7.843739051713064E-2
266 264 2.556153320650738E-2
266 265 5.452527577743514E-2
267 27 6.948345122280151E-2
267 48 3.567399334725236E-2
267 61 1.831563888873418E-2
267 84 1.831563888873418E-2
267 100 2.3174427241061245E-2
267 164 7.642628699076809E-2
267 268 1.0836802322189576E-1
267 269 7.642628699076809E-2
267 344 2.437284407327961E-2
267 349 3.877420783172203E-2
268 27 7.529784255650016E-3
268 100 1.831563888873418E-2
268 164 3.567399334725236E-2
268 267 1.0836802322189576E-1
268 309 1.831563888873418E-2
268 345 1.831563888873418E-2
268 349 2.287346491123889E-2
269 21 3.1601665485352926E-2
269 27 3.567399334725236E-2
269 32 1.579363689630125E-2
269 61 5.743261926761732E-2
269 84 2.23707718561656E-2
269 127 1.831563888873418E-2
269 164 1.831563888873418E-2
269 240 1.376378673305039E-2
269 267 7.642628699076809E-2
269 296 3.144675567138355E-2
269 344 1.831563888873418E-2
269 350 3.01973834223185E-2
270 220 3.243324089479555E-2
270 257 1.0343173196618241E-2
270 261 4.455142624448967E-2
270 262 3.389067471417901E-2
270 346 1.831563888873418E-2
270 363 4.9787068367863986E-2
271 42 9.071795328941251E-2
271 102 5.8409773431952515E-3
271 107 2.932215912389381E-2
271 162 1.2304094470311124E-1
271 259 6.948345122280154E-2
272 160 4.31593092614526E-2
272 198 1.831563888873418E-2
272 280 8.208499862389876E-2
272 287 1.831563888873418E-2
272 326 3.243324089479554E-2
273 34 2.437284407327962E-2
273 99 1.831563888873418E-2
273 124 5.9395939605204784E-2
273 125 6.65582736632788E-2
273 176 5.613476283413375E-2
273 246 1.831563888873418E-2
273 293 4.214384350927635E-2
273 321 1.831563888873418E-2
274 172 1.0051835744633595E-2
274 247 1.4666017116527073E-2
274 283 2.287346491123889E-2
274 320 9.40775004400739E-2
274 336 4.455142624448967E-2
274 337 1.831563888873418E-2
275 143 4.56973812533374E-2
275 167 2.948688992287585E-2
275 208 1.831563888873418E-2
275 234 2.7905056544536098E-2
275 235 1.6572675401761255E-2
275 248 6.477457554835714E-2
275 324 4.214384350927635E-2
275 337 6.477457554835714E-2
276 18 2.593468769611923E-2
276 67 6.948345122280151E-2
276 195 1.831563888873418E-2
276 237 4.694288967532548E-2
276 295 6.948345122280154E-2
276 312 2.2313016014842987E-1
276 341 1.831563888873418E-2
276 356 1.831563888873418E-2
276 366 1.831563888873418E-2
277 11 8.549309479686053E-3
277 174 1.2687966910542814E-1
277 184 1.831563888873418E-2
277 194 1.1080315836233391E-1
277 249 1.831563888873418E-2
277 305 6.948345122280151E-2
278 59 1.831563888873418E-2
278 76 3.567399334725236E-2
278 83 1.831563888873418E-2
278 117 2.7323722447292583E-2
278 119 3.567399334725236E-2
278 126 3.567399334725236E-2
278 224 1.831563888873418E-2
278 258 2.6347980814448713E-2
278 282 4.0762203978366204E-2
278 361 6.948345122280145E-2
279 38 4.546060778829054E-2
279 75 3.790291440095854E-2
279 130 1.831563888873418E-2
279 187 1.2732005168249957E-2
279 329 5.452527577743517E-2
279 345 2.697342314238974E-2
280 22 2.593468769611923E-2
280 41 1.488580808033331E-1
280 49 6.1876878704564466E-2
280 74 2.7905056544536098E-2
280 198 1.6901331540606596E-1
280 229 1.831563888873418E-2
280 272 8.208499862389876E-2
281 1 1.831563888873418E-2
281 49 3.0861035755572714E-2
281 85 1.831563888873418E-2
281 157 3.33732699603261E-2
281 189 6.737946999085473E-3
281 308 2.465969639416065E-1
282 59 3.243324089479554E-2
282 80 2.932215912389381E-2
282 83 1.831563888873418E-2
282 117 6.081006262521797E-2
282 152 1.5607557919982844E-2
282 202 1.2732005168249957E-2
282 258 2.6347980814448713E-2
282 278 4.0762203978366204E-2
282 323 1.1603700224776001E-1
282 361 3.567399334725236E-2
282 362 2.4914440787632736E-2
283 131 1.3763786733050402E-2
283 166 1.831563888873418E-2
283 172 6.0810062625218E-2
283 173 2.3340254280134747E-2
283 182 2.9057997322928766E-2
283 206 9.07179532894126E-2
283 247 1.831563888873418E-2
283 274 2.287346491123889E-2
283 320 1.2732005168249957E-2
283 325 1.5503853599009314E-2
283 336 1.0539922456186433E-1
283 353 1.3618906112286193E-2
284 11 1.831563888873418E-2
284 70 3.0861035755572714E-2
284 89 1.831563888873418E-2
284 184 2.3174427241061224E-2
284 190 2.8115659748972045E-2
284 242 1.831563888873418E-2
284 306 3.923856408515822E-2
284 351 1.5139074073434077E-2
284 359 1.2304094470311124E-1
285 137 3.9395962509427707E-1
285 212 2.6649097336355475E-2
285 235 1.831563888873418E-2
285 299 1.2567273728339512E-1
285 342 6.948345122280154E-2
285 357 2.5222974835227233E-2
286 9 1.831563888873418E-2
286 196 5.516564420760781E-3
286 260 2.0189651799465547E-1
286 307 1.831563888873418E-2
286 332 2.7323722447292583E-2
286 348 1.831563888873418E-2
287 29 1.831563888873418E-2
287 150 5.743261926761732E-2
287 160 2.556153320650738E-2
287 219 3.567399334725236E-2
287 222 2.3517745856009097E-2
287 230 1.831563888873418E-2
287 272 1.831563888873418E-2
287 326 1.831563888873418E-2
287 333 2.4914440787632736E-2
288 146 4.455142624448967E-2
288 156 2.2907994981548765E-1
288 175 1.831563888873418E-2
288 179 2.287346491123889E-2
288 192 1.831563888873418E-2
289 213 1.831563888873418E-2
289 214 1.831563888873418E-2
289 254 5.247762340746636E-2
289 291 1.5035789770837663E-1
289 313 9.739369004403392E-3
290 133 6.152424231136855E-3
290 145 1.831563888873418E-2
290 180 1.831563888873418E-2
290 192 1.831563888873418E-2
290 253 6.948345122280151E-2
290 302 1.3533528323661262E-1
290 327 3.567399334725236E-2
291 3 5.743261926761732E-2
291 39 1.831563888873418E-2
291 213 4.0762203978366246E-2
291 214 2.2607497403282672E-2
291 216 1.831563888873418E-2
291 254 9.868824146980933E-2
291 289 1.5035789770837663E-1
291 301 3.710076657961781E-2
291 313 2.3517745856009097E-2
291 364 1.831563888873418E-2
292 53 4.251515251442983E-2
292 62 5.247762340746636E-2
292 64 4.251515251442983E-2
292 310 4.345982085070781E-1
292 358 1.831563888873418E-2
293 152 1.831563888873418E-2
293 176 1.831563888873418E-2
293 210 4.9787068367863944E-2
293 242 2.593468769611923E-2
293 246 1.5987974607969385E-1
293 273 4.214384350927635E-2
293 321 8.208499862389873E-2
294 31 4.251515251442983E-2
294 211 4.610088752834598E-2
294 244 6.948345122280151E-2
294 311 1.831563888873418E-2
294 318 2.2607497403282672E-2
294 319 1.218136138366199E-1
295 26 1.831563888873418E-2
295 177 1.5139074073434077E-2
295 237 2.932215912389382E-2
295 276 6.948345122280154E-2
295 312 6.948345122280154E-2
295 331 1.831563888873418E-2
295 341 5.743261926761732E-2
296 32 4.8459492944676476E-2
296 61 9.270078128185397E-2
296 84 1.831563888873418E-2
296 164 1.643884564421335E-2
296 269 3.144675567138355E-2
297 7 4.0762203978366204E-2
297 25 6.1876878704564466E-2
297 28 2.3912992862805328E-2
297 129 8.651695203120627E-3
297 201 2.6347980814448713E-2
297 223 6.081006262521797E-2
297 228 3.7902914400958505E-2
298 113 1.831563888873418E-2
298 204 2.163737071949309E-2
298 225 5.8816471642429854E-2
298 227 3.567399334725236E-2
298 334 2.149360134508993E-2
299 102 1.831563888873418E-2
299 137 1.3167779856311412E-1
299 285 1.2567273728339512E-1
299 335 5.199154518246587E-3
299 342 2.635971381157268E-1
299 357 1.9841094744370288E-2
300 55 8.761679210658638E-2
300 85 2.8115659748972045E-2
300 203 3.1140322391459757E-1
300 229 1.831563888873418E-2
300 343 5.1999470708748045E-2
300 355 2.149360134508993E-2
301 3 1.831563888873418E-2
301 19 2.9599435167892E-2
301 39 5.1999470708748045E-2
301 95 2.680819595377898E-2
301 163 3.0861035755572714E-2
301 170 2.593468769611923E-2
301 193 1.353352832366127E-1
301 213 1.4475552056282452E-2
301 291 3.710076657961781E-2
301 313 1.9261559277384008E-1
302 145 9.739369004403392E-3
302 180 6.029379889393069E-3
302 192 3.33732699603261E-2
302 253 1.831563888873418E-2
302 290 1.3533528323661262E-1
302 327 2.3174427241061245E-2
303 73 1.831563888873418E-2
303 191 6.948345122280151E-2
303 197 4.0762203978366246E-2
303 250 1.831563888873418E-2
303 255 1.831563888873418E-2
303 256 1.831563888873418E-2
303 316 1.4028466860135124E-2
303 328 4.0762203978366246E-2
304 44 3.0197383422318515E-2
304 52 1.831563888873418E-2
304 71 3.0197383422318515E-2
304 77 5.840977343195257E-3
304 105 5.3219344338921504E-2
304 121 1.831563888873418E-2
304 135 1.831563888873418E-2
304 161 1.800923121479525E-1
304 220 1.831563888873418E-2
304 257 6.948345122280151E-2
304 261 1.831563888873418E-2
304 262 1.831563888873418E-2
304 322 4.0762203978366204E-2
304 346 3.567399334725236E-2
305 11 1.2277339903068438E-2
305 43 2.732372244729256E-2
305 56 1.831563888873418E-2
305 194 7.93939322770782E-2
305 277 6.948345122280151E-2
306 70 1.293490138894978E-2
306 89 3.0197383422318487E-2
306 136 3.67231539113252E-2
306 190 1.831563888873418E-2
306 242 1.5391912905853858E-2
306 284 3.923856408515822E-2
306 321 2.556153320650738E-2
306 351 2.680819595377898E-2
306 359 5.247762340746636E-2
307 9 9.07179532894126E-2
307 57 4.610088752834598E-2
307 169 1.831563888873418E-2
307 260 4.0762203978366204E-2
307 286 1.831563888873418E-2
307 332 2.7323722447292583E-2
308 1 2.3517745856009097E-2
308 147 2.4787521766663607E-3
308 157 1.831563888873418E-2
308 189 1.831563888873418E-2
308 281 2.465969639416065E-1
309 32 1.831563888873418E-2
309 38 6.271022482807168E-2
309 84 8.530361363583897E-2
309 100 1.831563888873418E-2
309 164 2.9057997322928766E-2
309 268 1.831563888873418E-2
310 53 1.3123728736940968E-2
310 64 1.831563888873418E-2
310 292 4.345982085070781E-1
310 330 2.556153320650738E-2
310 358 9.697196786440505E-2
311 31 4.251515251442983E-2
311 54 1.831563888873418E-2
311 154 2.9599435167892E-2
311 211 1.831563888873418E-2
311 238 4.610088752834598E-2
311 244 4.455142624448967E-2
311 294 1.831563888873418E-2
311 319 3.444397966139715E-2
312 67 1.831563888873418E-2
312 237 4.694288967532548E-2
312 276 2.2313016014842987E-1
312 295 6.948345122280154E-2
312 341 8.651695203120627E-3
312 356 1.831563888873418E-2
312 366 3.01973834223185E-2
313 19 4.783488949419835E-2
313 39 3.0861035755572714E-2
313 193 8.530361363583897E-2
313 213 2.3517745856009097E-2
313 216 2.3174427241061245E-2
313 289 9.739369004403392E-3
313 291 2.3517745856009097E-2
313 301 1.9261559277384008E-1
313 364 3.33732699603261E-2
314 75 1.831563888873418E-2
314 95 4.143317173311721E-2
314 112 3.1890655732397044E-1
314 130 1.831563888873418E-2
314 163 1.9873514826614536E-2
315 37 2.593468769611923E-2
315 51 8.530361363583897E-2
315 58 1.831563888873418E-2
315 158 2.9599435167892E-2
315 214 5.452527577743517E-2
316 30 1.831563888873418E-2
316 73 2.680819595377898E-2
316 118 1.2732005168249957E-2
316 197 1.4028466860135124E-2
316 217 1.4666017116527073E-2
316 250 1.831563888873418E-2
316 303 1.4028466860135124E-2
316 328 2.3912992862805328E-2
316 340 1.1844182901380365E-1
316 365 3.122092716123093E-2
317 8 1.1455884399268773E-1
317 50 2.364317353738862E-2
317 66 1.831563888873418E-2
317 118 1.466601711652711E-2
317 197 3.5673993347252395E-2
317 215 5.563799827784284E-2
317 340 1.831563888873418E-2
318 40 5.991581323378173E-2
318 54 2.6347980814448713E-2
318 236 1.831563888873418E-2
318 244 9.739369004403392E-3
318 294 2.2607497403282672E-2
318 330 7.843739051713067E-2
318 358 5.247762340746636E-2
319 31 1.831563888873418E-2
319 211 1.831563888873418E-2
319 238 3.389067471417901E-2
319 244 5.247762340746636E-2
319 294 1.218136138366199E-1
319 311 3.444397966139715E-2
319 325 3.567399334725236E-2
320 247 1.831563888873418E-2
320 274 9.40775004400739E-2
320 283 1.2732005168249957E-2
320 336 1.353352832366127E-1
320 337 4.546060778829054E-2
321 99 1.3763786733050402E-2
321 181 1.831563888873418E-2
321 210 4.214384350927635E-2
321 273 1.831563888873418E-2
321 293 8.208499862389873E-2
321 306 2.556153320650738E-2
321 351 1.5503853599009314E-2
322 10 1.831563888873418E-2
322 71 1.2277339903068448E-2
322 90 3.567399334725236E-2
322 149 1.831563888873418E-2
322 159 2.7323722447292583E-2
322 199 2.556153320650738E-2
322 221 5.743261926761732E-2
322 304 4.0762203978366204E-2
322 339 1.1440584115415712E-2
323 35 1.831563888873418E-2
323 59 2.437284407327961E-2
323 117 2.4914440787632736E-2
323 258 3.389067471417901E-2
323 282 1.1603700224776001E-1
323 362 1.831563888873418E-2
324 78 2.124036598442216E-2
324 143 1.6337605961220247E-2
324 167 1.2513435386733792E-2
324 183 1.40284668601351E-2
324 234 9.697196786440505E-2
324 235 4.9787068367863965E-2
324 243 1.831563888873418E-2
324 248 4.9787068367863944E-2
324 275 4.214384350927635E-2
324 337 1.831563888873418E-2
325 154 2.149360134508993E-2
325 206 2.163737071949309E-2
325 247 3.0197383422318487E-2
325 283 1.5503853599009314E-2
325 319 3.567399334725236E-2
326 47 3.923856408515822E-2
326 150 1.831563888873418E-2
326 160 9.697196786440501E-2
326 200 1.831563888873418E-2
326 219 2.635971381157267E-1
326 230 2.8565500784550352E-2
326 272 3.243324089479554E-2
326 287 1.831563888873418E-2
326 333 2.4914440787632736E-2
326 354 1.5391912905853858E-2
327 145 1.855908932609494E-1
327 192 3.33732699603261E-2
327 253 6.392786120670757E-2
327 290 3.567399334725236E-2
327 302 2.3174427241061245E-2
328 30 9.071795328941251E-2
328 46 1.831563888873418E-2
328 88 9.403562551495197E-3
328 115 9.508907677188683E-2
328 168 1.831563888873418E-2
328 191 3.243324089479554E-2
328 303 4.0762203978366246E-2
328 316 2.3912992862805328E-2
328 340 1.831563888873418E-2
328 365 1.831563888873418E-2
329 38 1.2021571336618452E-2
329 75 5.9395939605204784E-2
329 96 6.948345122280151E-2
329 130 2.3912992862805328E-2
329 165 1.831563888873418E-2
329 187 3.243324089479554E-2
329 279 5.452527577743517E-2
330 31 5.129601655946807E-3
330 54 1.831563888873418E-2
330 310 2.556153320650738E-2
330 318 7.843739051713067E-2
330 358 1.1283618731705691E-1
331 26 7.730474044329974E-2
331 34 2.112827988118329E-2
331 177 8.549309479686053E-3
331 245 3.923856408515822E-2
331 295 1.831563888873418E-2
331 341 4.747181807884439E-2
332 9 4.455142624448967E-2
332 57 1.831563888873418E-2
332 68 3.567399334725236E-2
332 260 4.455142624448967E-2
332 286 2.7323722447292583E-2
332 307 2.7323722447292583E-2
332 348 2.149360134508993E-2
333 29 1.831563888873418E-2
333 200 2.932215912389381E-2
333 219 4.610088752834598E-2
333 222 3.877420783172203E-2
333 287 2.4914440787632736E-2
333 326 2.4914440787632736E-2
334 63 1.831563888873418E-2
334 204 1.831563888873418E-2
334 225 1.3299883542443767E-2
334 227 2.9599435167892E-2
334 298 2.149360134508993E-2
335 78 1.831563888873418E-2
335 98 1.831563888873418E-2
335 102 3.972373338644101E-2
335 162 2.697342314238974E-2
335 299 5.199154518246587E-3
335 342 2.5561533206507402E-2
336 247 3.877420783172203E-2
336 274 4.455142624448967E-2
336 283 1.0539922456186433E-1
336 320 1.353352832366127E-1
336 353 5.166560687888456E-2
337 183 3.1220927161230917E-2
337 208 2.732372244729256E-2
337 234 2.3174427241061245E-2
337 239 1.831563888873418E-2
337 243 1.831563888873418E-2
337 248 2.8565500784550352E-2
337 274 1.831563888873418E-2
337 275 6.477457554835714E-2
337 320 4.546060778829054E-2
337 324 1.831563888873418E-2
338 23 7.363052096557704E-2
338 92 1.831563888873418E-2
338 113 2.556153320650738E-2
338 354 4.3698793646333126E-2
338 360 4.546060778829054E-2
339 63 6.477457554835714E-2
339 134 2.2158728220451646E-2
339 135 2.932215912389381E-2
339 159 2.3174427241061245E-2
339 221 1.831563888873418E-2
339 322 1.1440584115415712E-2
340 30 1.831563888873418E-2
340 73 2.680819595377898E-2
340 168 1.831563888873418E-2
340 215 9.041932521329786E-3
340 250 5.3219344338921504E-2
340 316 1.1844182901380365E-1
340 317 1.831563888873418E-2
340 328 1.831563888873418E-2
340 365 2.635971381157267E-1
341 26 5.613476283413375E-2
341 33 1.831563888873418E-2
341 67 1.831563888873418E-2
341 177 1.831563888873418E-2
341 209 5.613476283413375E-2
341 245 2.110720877910901E-1
341 276 1.831563888873418E-2
341 295 5.743261926761732E-2
341 312 8.651695203120627E-3
341 331 4.747181807884439E-2
341 366 9.071795328941251E-2
342 102 4.455142624448967E-2
342 137 1.0576079959230224E-1
342 212 1.831563888873418E-2
342 285 6.948345122280154E-2
342 299 2.635971381157268E-1
342 335 2.5561533206507402E-2
343 55 9.40775004400739E-2
343 74 4.251515251442983E-2
343 203 9.697196786440505E-2
343 229 5.452527577743517E-2
343 300 5.1999470708748045E-2
344 61 1.831563888873418E-2
344 123 1.831563888873418E-2
344 127 5.3219344338921504E-2
344 164 1.831563888873418E-2
344 267 2.437284407327961E-2
344 269 1.831563888873418E-2
344 349 8.208499862389876E-2
344 350 1.831563888873418E-2
345 38 1.831563888873418E-2
345 72 5.850110257890112E-2
345 100 3.972373338644101E-2
345 268 1.831563888873418E-2
345 279 2.697342314238974E-2
346 44 1.831563888873418E-2
346 52 1.4028466860135124E-2
346 65 1.831563888873418E-2
346 71 4.9787068367863986E-2
346 97 1.831563888873418E-2
346 105 2.3912992862805328E-2
346 159 2.8565500784550352E-2
346 161 3.243324089479555E-2
346 220 3.567399334725236E-2
346 257 9.403562551495197E-3
346 262 2.4914440787632736E-2
346 270 1.831563888873418E-2
346 304 3.567399334725236E-2
346 363 3.0197383422318515E-2
347 6 4.0762203978366246E-2
347 16 3.0861035755572714E-2
347 113 2.163737071949309E-2
347 205 2.680819595377898E-2
347 226 6.477457554835714E-2
347 360 3.444397966139715E-2
348 9 1.831563888873418E-2
348 57 1.831563888873418E-2
348 260 1.831563888873418E-2
348 286 1.831563888873418E-2
348 332 2.149360134508993E-2
349 72 1.831563888873418E-2
349 127 1.4264233908999256E-2
349 164 1.831563888873418E-2
349 185 1.831563888873418E-2
349 267 3.877420783172203E-2
349 268 2.287346491123889E-2
349 344 8.208499862389876E-2
350 123 1.831563888873418E-2
350 185 1.3533528323661262E-1
350 240 3.877420783172203E-2
350 241 1.831563888873418E-2
350 269 3.01973834223185E-2
350 344 1.831563888873418E-2
351 89 1.831563888873418E-2
351 136 2.179473272454189E-2
351 242 2.9600133801485823E-1
351 246 3.0197383422318487E-2
351 284 1.5139074073434077E-2
351 306 2.680819595377898E-2
351 321 1.5503853599009314E-2
351 359 1.800923121479524E-1
352 2 8.374322559219599E-2
352 14 7.136126955638608E-2
352 21 1.831563888873418E-2
352 48 9.657697627537777E-3
352 61 3.20646853278608E-2
353 131 2.112827988118329E-2
353 166 4.4551426244489684E-2
353 247 3.312697388707257E-2
353 283 1.3618906112286193E-2
353 336 5.166560687888456E-2
354 74 1.831563888873418E-2
354 122 8.20849986238988E-2
354 150 2.179473272454189E-2
354 326 1.5391912905853858E-2
354 338 4.3698793646333126E-2
355 85 1.5611804531597115E-1
355 98 3.972373338644101E-2
355 182 1.1544588712512842E-2
355 203 1.831563888873418E-2
355 300 2.149360134508993E-2
356 33 7.76490817034759E-2
356 106 2.6649097336355523E-2
356 110 3.0197383422318515E-2
356 276 1.831563888873418E-2
356 312 1.831563888873418E-2
357 137 1.4995576820477717E-2
357 167 1.831563888873418E-2
357 212 7.730474044329974E-2
357 285 2.5222974835227233E-2
357 299 1.9841094744370288E-2
358 40 1.831563888873418E-2
358 236 1.831563888873418E-2
358 292 1.831563888873418E-2
358 310 9.697196786440505E-2
358 318 5.247762340746636E-2
358 330 1.1283618731705691E-1
359 136 1.831563888873418E-2
359 190 4.3159309261452616E-2
359 242 6.1876878704564466E-2
359 246 3.567399334725236E-2
359 284 1.2304094470311124E-1
359 306 5.247762340746636E-2
359 351 1.800923121479524E-1
360 6 6.0810062625218E-2
360 16 3.0861035755572714E-2
360 178 5.452527577743517E-2
360 205 1.831563888873418E-2
360 222 1.831563888873418E-2
360 338 4.546060778829054E-2
360 347 3.444397966139715E-2
361 76 1.831563888873418E-2
361 83 5.840977343195257E-3
361 126 1.831563888873418E-2
361 258 3.567399334725236E-2
361 278 6.948345122280145E-2
361 282 3.567399334725236E-2
361 362 2.4914440787632736E-2
362 59 1.8009231214795243E-1
362 76 1.3464585890646672E-2
362 202 2.6347980814448713E-2
362 282 2.4914440787632736E-2
362 323 1.831563888873418E-2
362 361 2.4914440787632736E-2
363 135 1.831563888873418E-2
363 138 2.19677058894355E-2
363 161 1.1108996538242316E-2
363 220 1.831563888873418E-2
363 257 4.9787068367863986E-2
363 270 4.9787068367863986E-2
363 346 3.0197383422318515E-2
364 213 1.831563888873418E-2
364 214 5.516564420760781E-3
364 216 3.33732699603261E-2
364 291 1.831563888873418E-2
364 313 3.33732699603261E-2
365 46 1.4028466860135124E-2
365 168 2.3912992862805328E-2
365 217 1.831563888873418E-2
365 316 3.122092716123093E-2
365 328 1.831563888873418E-2
365 340 2.635971381157267E-1
366 18 2.593468769611923E-2
366 67 1.1844182901380365E-1
366 110 1.831563888873418E-2
366 195 4.0762203978366246E-2
366 209 2.5222974835227233E-2
366 245 6.948345122280151E-2
366 276 1.831563888873418E-2
366 312 3.01973834223185E-2
366 341 9.071795328941251E-2
