%%MatrixMarket matrix coordinate real symmetric
%
87 87 314
1 1 1
2 1 1
2 2 1
3 1 1
3 3 1
4 1 1
4 2 1
4 3 1
4 4 1
5 3 1
5 4 1
5 5 1
6 4 1
6 5 1
6 6 1
7 5 1
7 7 1
8 5 1
8 6 1
8 7 1
8 8 1
9 7 1
9 8 1
9 9 1
10 8 1
10 9 1
10 10 1
11 9 1
11 11 1
12 9 1
12 10 1
12 11 1
12 12 1
13 11 1
13 12 1
13 13 1
14 12 1
14 13 1
14 14 1
15 13 1
15 15 1
16 13 1
16 14 1
16 15 1
16 16 1
17 15 1
17 16 1
17 17 1
18 16 1
18 17 1
18 18 1
19 17 1
19 19 1
20 17 1
20 18 1
20 19 1
20 20 1
21 5 1
21 21 1
22 5 1
22 21 1
22 22 1
23 5 1
23 9 1
23 13 1
23 22 1
23 23 1
24 2 1
24 24 1
25 24 1
25 25 1
26 25 1
26 26 1
27 25 1
27 26 1
27 27 1
28 2 1
28 4 1
28 24 1
28 27 1
28 28 1
29 25 1
29 26 1
29 27 1
29 29 1
30 2 1
30 24 1
30 28 1
30 29 1
30 30 1
31 26 1
31 31 1
32 1 1
32 32 1
33 2 1
33 33 1
34 1 1
34 3 1
34 34 1
35 2 1
35 30 1
35 34 1
35 35 1
36 4 1
36 36 1
37 10 1
37 37 1
38 18 1
38 38 1
39 36 1
39 39 1
40 37 1
40 40 1
41 38 1
41 41 1
42 39 1
42 42 1
43 40 1
43 43 1
44 41 1
44 44 1
45 39 1
45 42 1
45 45 1
46 40 1
46 43 1
46 46 1
47 41 1
47 44 1
47 47 1
48 4 1
48 6 1
48 36 1
48 45 1
48 48 1
49 10 1
49 12 1
49 37 1
49 46 1
49 49 1
50 18 1
50 20 1
50 38 1
50 47 1
50 50 1
51 39 1
51 42 1
51 45 1
51 51 1
52 40 1
52 43 1
52 46 1
52 52 1
53 41 1
53 44 1
53 47 1
53 53 1
54 4 1
54 36 1
54 48 1
54 51 1
54 54 1
55 10 1
55 37 1
55 49 1
55 52 1
55 55 1
56 18 1
56 38 1
56 50 1
56 53 1
56 56 1
57 3 1
57 34 1
57 35 1
57 57 1
58 43 1
58 58 1
59 44 1
59 59 1
60 1 1
60 2 1
60 34 1
60 35 1
60 60 1
61 5 1
61 6 1
61 61 1
62 9 1
62 10 1
62 62 1
63 13 1
63 14 1
63 63 1
64 17 1
64 18 1
64 64 1
65 2 1
65 4 1
65 6 1
65 28 1
65 30 1
65 35 1
65 54 1
65 57 1
65 65 1
66 3 1
66 5 1
66 7 1
66 57 1
66 61 1
66 66 1
67 6 1
67 48 1
67 54 1
67 57 1
67 61 1
67 65 1
67 66 1
67 67 1
68 7 1
68 66 1
68 67 1
68 68 1
69 6 1
69 8 1
69 10 1
69 67 1
69 68 1
69 69 1
70 7 1
70 9 1
70 11 1
70 62 1
70 68 1
70 70 1
71 10 1
71 55 1
71 62 1
71 68 1
71 69 1
71 70 1
71 71 1
72 11 1
72 70 1
72 71 1
72 72 1
73 10 1
73 12 1
73 14 1
73 49 1
73 71 1
73 72 1
73 73 1
74 11 1
74 13 1
74 15 1
74 63 1
74 72 1
74 74 1
75 14 1
75 63 1
75 72 1
75 73 1
75 74 1
75 75 1
76 74 1
76 75 1
76 76 1
77 14 1
77 16 1
77 75 1
77 76 1
77 77 1
78 15 1
78 17 1
78 19 1
78 64 1
78 76 1
78 78 1
79 18 1
79 56 1
79 64 1
79 76 1
79 77 1
79 78 1
79 79 1
80 19 1
80 78 1
80 79 1
80 80 1
81 18 1
81 20 1
81 50 1
81 56 1
81 79 1
81 80 1
81 81 1
82 67 1
82 82 1
83 67 1
83 82 1
83 83 1
84 67 1
84 71 1
84 75 1
84 83 1
84 84 1
85 42 1
85 85 1
86 34 1
86 86 1
87 35 1
87 87 1
