%%MatrixMarket matrix coordinate real symmetric
%
59 59 163
1 1 1
2 1 1
2 2 1
3 2 1
3 3 1
4 4 1
5 4 1
5 5 1
6 5 1
6 6 1
7 1 1
7 2 1
7 7 1
8 5 1
8 6 1
8 8 1
9 1 1
9 7 1
9 9 1
10 2 1
10 7 1
10 9 1
10 10 1
11 3 1
11 10 1
11 11 1
12 4 1
12 12 1
13 5 1
13 8 1
13 12 1
13 13 1
14 6 1
14 8 1
14 13 1
14 14 1
15 11 1
15 15 1
16 15 1
16 16 1
17 16 1
17 17 1
18 17 1
18 18 1
19 18 1
19 19 1
20 12 1
20 19 1
20 20 1
21 16 1
21 17 1
21 21 1
22 18 1
22 19 1
22 22 1
23 17 1
23 21 1
23 23 1
24 18 1
24 22 1
24 23 1
24 24 1
25 19 1
25 22 1
25 24 1
25 25 1
26 20 1
26 25 1
26 26 1
27 9 1
27 27 1
28 27 1
28 28 1
29 26 1
29 29 1
30 14 1
30 29 1
30 30 1
31 27 1
31 28 1
31 31 1
32 29 1
32 30 1
32 32 1
33 28 1
33 33 1
34 15 1
34 28 1
34 34 1
35 16 1
35 21 1
35 23 1
35 34 1
35 35 1
36 24 1
36 36 1
37 36 1
37 37 1
38 29 1
38 37 1
38 38 1
39 27 1
39 31 1
39 39 1
40 31 1
40 33 1
40 39 1
40 40 1
41 32 1
41 38 1
41 41 1
42 30 1
42 32 1
42 41 1
42 42 1
43 43 1
44 39 1
44 43 1
44 44 1
45 40 1
45 44 1
45 45 1
46 45 1
46 46 1
47 45 1
47 47 1
48 47 1
48 48 1
49 47 1
49 48 1
49 49 1
50 36 1
50 49 1
50 50 1
51 36 1
51 37 1
51 50 1
51 51 1
52 37 1
52 50 1
52 51 1
52 52 1
53 41 1
53 52 1
53 53 1
54 53 1
54 54 1
55 42 1
55 53 1
55 55 1
56 55 1
56 56 1
57 49 1
57 57 1
58 33 1
58 47 1
58 48 1
58 58 1
59 36 1
59 48 1
59 49 1
59 58 1
59 59 1
