%%MatrixMarket matrix coordinate real general
%
336 336 4560
1 10 1.92794031212963E-2
1 11 2.9706832876791694E-1
1 13 2.8081351443593024E-2
1 31 1.4918873270394853E-2
1 49 1.958927396460349E-2
1 65 5.108016720855043E-2
1 76 1.307866336778396E-1
1 79 2.8565500784550404E-2
1 103 2.57515809083157E-2
1 110 2.1302923299235677E-1
1 139 1.831563888873418E-2
2 8 5.374880339128076E-2
2 27 2.9130694204737538E-2
2 28 3.848292651283074E-2
2 46 8.16102457659359E-2
2 50 1.831563888873418E-2
2 123 2.4397906566409083E-1
2 124 5.743261926761735E-2
2 131 7.088197348619053E-2
2 135 7.647696755057648E-2
2 140 1.3235853118856652E-2
2 143 1.5198237493143582E-1
3 4 3.967659288558441E-2
3 6 9.897665278359E-2
3 29 3.211930999153995E-2
3 30 1.831563888873418E-2
3 38 4.3868846028763314E-2
3 45 2.562242791388637E-1
3 57 1.9275196400143156E-2
3 62 1.6537451875392583E-2
3 65 1.9606093001783127E-2
3 87 2.336177843241303E-2
3 88 3.7436602264296334E-2
3 100 3.636001074027819E-2
3 109 8.76816573948383E-2
3 125 5.134171190325921E-1
4 3 3.967659288558441E-2
4 14 3.596700191903304E-2
4 38 3.780045107691115E-2
4 45 1.386974796999228E-1
4 214 1.6916020825254386E-2
4 272 1.0149768402527293E-1
4 281 1.8011441557291834E-2
4 284 1.9264680889843788E-2
4 285 2.8398938571058074E-2
4 289 1.831563888873418E-2
4 293 3.3414243890063054E-2
4 295 2.992076811275227E-2
4 311 2.4013967498211865E-2
4 328 7.150150290763013E-2
4 334 6.0216074085576415E-2
4 335 4.4309134926272684E-2
5 7 1.831563888873418E-2
5 8 3.3249728128516787E-1
5 24 1.831563888873418E-2
5 64 8.254744810063935E-2
5 69 1.9592973544189235E-2
5 122 6.303627379128855E-2
5 123 5.386101672438234E-2
5 127 4.399868615523573E-2
5 129 3.212238155221388E-2
5 134 1.2051356375269884E-1
5 143 5.444473624145834E-2
5 301 3.285240460856262E-2
6 3 9.897665278359E-2
6 23 1.490675826459859E-2
6 31 1.831563888873418E-2
6 33 1.1781804202488884E-1
6 45 1.3804189957465682E-1
6 56 6.875349394062324E-2
6 57 1.2161065461865357E-1
6 62 3.5066989907138246E-2
6 88 1.1688851596195407E-1
6 125 1.6562653705043512E-1
6 258 1.917672081818754E-2
7 5 1.831563888873418E-2
7 13 4.8264648538466806E-2
7 24 3.237591304248778E-2
7 52 1.6969149877128623E-2
7 64 5.179550148529214E-2
7 69 5.181891717272586E-2
7 71 1.0001460792723399E-1
7 103 1.831563888873418E-2
7 113 2.8695343746882887E-2
7 114 1.9841094744370288E-2
7 121 1.831563888873418E-2
7 127 4.614722608559561E-1
7 129 8.83307783283852E-2
7 137 3.6638097426147966E-2
7 140 1.831563888873418E-2
8 2 5.374880339128076E-2
8 5 3.3249728128516787E-1
8 27 2.617744431909044E-2
8 44 2.6347980814448738E-2
8 50 2.179473272454189E-2
8 64 1.5674933457200846E-1
8 69 2.4499785683280793E-2
8 122 2.776441817076839E-2
8 123 3.304352240264088E-1
8 124 2.836781644971313E-2
8 129 6.306203442590816E-2
8 134 4.168956615178383E-2
8 140 4.889002856202374E-2
8 143 1.421006723738815E-1
8 301 1.831563888873418E-2
9 16 2.6257742125402506E-1
9 26 8.904578074031043E-2
9 46 1.2918476301522905E-1
9 54 1.5921496639049024E-1
9 63 3.275811205742015E-2
9 66 3.6787944117144233E-1
9 80 1.150335808244306E-2
9 112 2.8162402314688608E-2
9 119 3.637209248488881E-2
9 131 7.988446201301368E-2
9 144 1.703038750939074E-2
9 155 2.28734649112389E-2
9 208 1.3676900882702361E-2
9 215 4.163085258097601E-2
9 326 1.831563888873418E-2
10 1 1.92794031212963E-2
10 22 2.9495694607767943E-2
10 25 3.4960537502226254E-2
10 40 6.80938289866547E-2
10 49 4.5388293510293776E-1
10 74 1.831563888873418E-2
10 93 1.1513888753631667E-1
10 101 1.1686706967562993E-1
10 103 3.62064311982819E-2
10 104 5.911427592751333E-2
10 110 7.963103002175502E-2
10 111 3.475809043447287E-2
10 116 1.322361389529615E-1
10 118 1.0023044580662974E-1
10 139 5.345860198660524E-1
11 1 2.9706832876791694E-1
11 13 5.754589855887329E-2
11 24 1.669110632234099E-2
11 29 1.6177434643005674E-2
11 60 1.831563888873418E-2
11 65 1.1311951720558167E-1
11 76 1.9371266805028797E-1
11 79 5.082787548742425E-2
11 103 4.1328336662438556E-2
11 110 4.962825807731812E-2
11 114 2.9274616111822784E-2
11 134 3.885948206136923E-2
12 15 4.394926052572135E-1
12 17 1.831563888873418E-2
12 40 1.7303057864667085E-2
12 52 1.831563888873418E-2
12 83 1.9218648553235507E-1
12 94 9.712528319670653E-2
12 104 6.1622398789662115E-2
12 115 2.2994232661582403E-2
12 122 7.591059201079225E-2
12 133 1.3154108812332013E-1
12 137 5.93297418526792E-2
13 1 2.8081351443593024E-2
13 7 4.8264648538466806E-2
13 11 5.754589855887329E-2
13 30 2.348125595510262E-2
13 48 1.831563888873418E-2
13 58 3.0103748200025156E-2
13 76 5.885340576888406E-1
13 79 2.191339068637591E-1
13 103 4.198804389588273E-2
13 110 2.2760069779766565E-2
13 113 8.638168612061391E-2
13 114 2.5500818728753405E-1
13 127 3.859400269829209E-2
13 139 1.4286400546203061E-2
14 4 3.596700191903304E-2
14 23 1.2168978806448055E-1
14 31 3.218149643871891E-2
14 38 1.831563888873418E-2
14 45 5.1730789783827225E-2
14 72 1.6445337146000188E-1
14 77 6.798116549651573E-2
14 82 1.6782280287671963E-2
14 88 1.831563888873418E-2
14 98 1.036571286115279E-1
14 100 4.010210185878352E-2
14 107 3.028000275093954E-2
14 109 1.3682246926726513E-1
14 328 2.0961138715109784E-1
15 12 4.394926052572135E-1
15 25 1.3350445370625064E-2
15 52 4.7992490917537635E-2
15 69 2.4733300546697715E-2
15 83 4.301333653975188E-2
15 94 1.831563888873418E-2
15 104 7.133870829525364E-2
15 111 1.5413915100492337E-2
15 122 2.262383910702762E-1
15 127 3.850693222720332E-2
15 133 1.3426965661264798E-1
15 137 1.221180842815213E-1
16 9 2.6257742125402506E-1
16 26 5.58268877764859E-1
16 42 1.831563888873418E-2
16 46 2.5593497813934973E-1
16 53 2.697342314238975E-2
16 54 3.4432651268254275E-2
16 63 5.6927350230670824E-2
16 66 1.0793884349398529E-1
16 80 1.3679048739000718E-1
16 112 2.7266559868900787E-2
16 119 2.845811181057279E-2
16 120 5.0193491167977965E-2
16 131 2.6218124100061888E-2
16 184 1.831563888873418E-2
16 326 1.6232061118184818E-1
17 12 1.831563888873418E-2
17 20 5.4253414574381875E-2
17 37 4.33813978426052E-2
17 39 2.3808810045759055E-1
17 40 1.200376160456473E-2
17 48 1.9930721220177666E-2
17 55 1.831563888873418E-2
17 74 1.873546343946742E-2
17 75 1.8883520870714553E-2
17 83 2.948247857226171E-1
17 92 7.843739051713071E-2
17 94 3.6787944117144233E-1
17 95 9.48802046390019E-2
17 115 1.0439828981680828E-1
17 138 4.577718456204696E-2
18 26 2.5004087854338223E-2
18 42 1.831563888873418E-2
18 47 5.282781706153236E-1
18 63 6.562914431745064E-2
18 86 4.4821902418577614E-2
18 112 2.2269647678625962E-1
18 120 3.957443363749205E-2
18 141 2.3516431012898423E-1
18 176 1.7210135261152625E-2
18 197 4.3448160228767324E-2
19 27 2.0387014134515713E-2
19 35 2.2158728220451666E-2
19 39 3.4504460733950484E-2
19 50 1.831563888873418E-2
19 67 1.1902278102916772E-1
19 69 2.5722652421251274E-1
19 75 6.342674596569008E-1
19 95 1.831563888873418E-2
19 105 1.8487536299424007E-1
19 124 1.831563888873418E-2
19 129 1.2347172218841562E-1
19 138 4.2997135136453E-1
19 140 1.7179250616561959E-1
19 142 1.7345506999208997E-2
20 17 5.4253414574381875E-2
20 37 1.831563888873418E-2
20 40 4.794020914784714E-2
20 55 3.381808427403231E-2
20 72 1.2721767668229797E-1
20 83 2.963200227798248E-2
20 89 7.155743235739831E-2
20 92 1.831563888873418E-2
20 94 2.3136981194291254E-2
20 98 1.2464387197280343E-2
20 115 6.75992712983602E-2
21 25 7.377771449481428E-2
21 40 2.6754499034436233E-2
21 52 1.831563888873418E-2
21 55 2.0077932124848277E-2
21 74 1.7862117826158597E-1
21 92 5.369679762036553E-2
21 93 5.089500821729483E-2
21 113 2.1510062076696243E-2
21 115 2.217893221104751E-2
21 118 1.472539362310381E-2
22 10 2.9495694607767943E-2
22 24 2.3943648763208164E-1
22 25 1.831563888873418E-2
22 49 9.261442750954355E-2
22 52 6.962881403850672E-2
22 101 1.814419890871937E-2
22 103 9.953857402045704E-2
22 110 5.661545048645039E-2
22 111 3.819817504755143E-1
22 134 2.1626068880774143E-2
23 6 1.490675826459859E-2
23 14 1.2168978806448055E-1
23 33 2.350331587248143E-1
23 43 2.354616608923651E-2
23 45 1.831563888873418E-2
23 56 3.5328485229768176E-2
23 68 1.831563888873418E-2
23 72 1.831563888873418E-2
23 88 9.465771226571223E-2
23 89 1.831563888873418E-2
23 98 6.171765877656484E-2
23 107 1.3664920775436046E-1
23 128 2.6440714483304414E-2
23 295 9.359825130288246E-3
23 328 3.938481275733556E-2
23 334 2.3095535650176774E-2
23 335 1.9710466210683918E-2
24 5 1.831563888873418E-2
24 7 3.237591304248778E-2
24 11 1.669110632234099E-2
24 22 2.3943648763208164E-1
24 49 3.5089785535790556E-2
24 52 8.584491520919163E-2
24 103 2.5928039382340184E-1
24 110 4.0460449378981245E-2
24 111 1.1957170935656694E-1
24 127 1.960660960414929E-2
25 10 3.4960537502226254E-2
25 15 1.3350445370625064E-2
25 21 7.377771449481428E-2
25 22 1.831563888873418E-2
25 40 1.1711741349380943E-1
25 49 2.6067685803835703E-2
25 52 4.292455209270987E-2
25 74 2.371426347664204E-1
25 92 1.831563888873418E-2
25 93 2.9982825411399744E-1
25 103 1.831563888873418E-2
25 104 2.6931522687688163E-2
25 110 1.808306249249018E-2
25 111 2.267601233385126E-2
25 113 1.0593834985773148E-1
25 115 5.2878469003076856E-2
25 133 2.016887997455349E-2
25 137 4.360732577050897E-2
25 139 1.7038340401087024E-2
26 9 8.904578074031043E-2
26 16 5.58268877764859E-1
26 18 2.5004087854338223E-2
26 42 7.934604691527511E-2
26 46 5.6854685862057566E-2
26 63 2.084952132626127E-1
26 66 8.208499862389883E-2
26 80 1.705299699102888E-1
26 112 2.0434619309292357E-1
26 120 2.2042558546232402E-1
26 130 1.831563888873418E-2
26 141 1.770686578953451E-2
26 326 3.516123000684181E-1
27 2 2.9130694204737538E-2
27 8 2.617744431909044E-2
27 19 2.0387014134515713E-2
27 28 6.781925746835493E-2
27 41 3.465480673072951E-2
27 44 4.5579401832801725E-1
27 46 2.1478390021347778E-2
27 50 8.761679210658638E-2
27 53 1.4412904376917623E-2
27 67 2.0045953818931544E-1
27 69 1.9671754996539097E-2
27 80 1.215848559436554E-1
27 105 9.292279094081006E-3
27 106 5.7642036061601856E-2
27 123 6.79308137421319E-2
27 135 3.1784922054069784E-2
27 140 3.361250384964025E-2
27 142 2.6088556648040575E-2
27 143 3.869547850279448E-2
27 301 3.458834820910759E-2
27 326 2.1937695366934712E-2
28 2 3.848292651283074E-2
28 27 6.781925746835493E-2
28 37 7.563635827685558E-2
28 41 3.524419142912031E-2
28 44 1.831563888873418E-2
28 84 3.030315348397714E-2
28 91 1.969731932692224E-2
28 102 1.554182793664006E-1
28 106 3.2391545866873933E-1
28 123 4.002776990258974E-2
28 135 3.824601775753927E-1
28 143 9.31090641788397E-2
28 184 1.831563888873418E-2
29 3 3.211930999153995E-2
29 11 1.6177434643005674E-2
29 30 2.4152916978546302E-1
29 34 1.5420723216412888E-2
29 41 1.831563888873418E-2
29 58 1.559962208622911E-1
29 60 8.96470746293272E-1
29 65 1.4293644454515025E-1
29 82 5.962548884508459E-2
29 91 2.8358129642073023E-2
29 100 4.1433171733117224E-2
29 109 5.962548884508459E-2
29 136 1.3386426211148797E-1
30 3 1.831563888873418E-2
30 13 2.348125595510262E-2
30 29 2.4152916978546302E-1
30 31 5.452527577743514E-2
30 34 3.2733546545217915E-2
30 48 1.1111571995610277E-1
30 58 2.9043843979142936E-1
30 60 1.6483391275302836E-1
30 62 5.056700661469258E-2
30 65 4.001940551647398E-2
30 72 1.831563888873418E-2
30 76 4.056623222223697E-2
30 77 5.2181871471627214E-2
30 79 1.663268502394559E-2
30 82 4.4327748766857955E-1
30 100 2.191885259775482E-2
30 109 1.655553643349847E-1
30 114 1.831563888873418E-2
30 128 1.969731932692224E-2
30 136 5.4981233625742996E-2
31 1 1.4918873270394853E-2
31 6 1.831563888873418E-2
31 14 3.218149643871891E-2
31 30 5.452527577743514E-2
31 45 1.831563888873418E-2
31 48 7.563635827685558E-2
31 62 6.703200460356393E-1
31 74 1.730677520504667E-2
31 76 2.5873255381341477E-2
31 77 4.4932896411722156E-1
31 79 3.524419142912031E-2
31 82 1.831563888873418E-2
31 88 1.766157971248742E-2
31 109 1.6833181102726216E-1
31 125 3.923856408515826E-2
32 34 2.3168754788363355E-1
32 53 3.184086955307255E-2
32 58 6.381461436087232E-2
32 59 5.812332198777693E-2
32 67 3.9397908289303826E-2
32 81 4.81339327173288E-1
32 97 1.9955797458651683E-1
32 105 1.780334720164273E-2
32 108 3.56008909274755E-2
32 114 4.28977384932493E-2
32 117 7.353975916386793E-2
32 121 4.823941047195873E-2
32 132 4.3750520913254937E-1
32 142 2.156389924277239E-2
33 6 1.1781804202488884E-1
33 23 2.350331587248143E-1
33 56 2.831867385197669E-1
33 57 4.029735140900563E-2
33 68 2.4211435101759025E-2
33 88 2.712648855016109E-1
33 90 2.7398428408876553E-2
33 98 2.1139101023011427E-2
33 107 4.925459145621763E-2
33 258 2.0639443484665558E-2
33 334 1.9676791932882482E-2
33 335 1.831563888873418E-2
34 29 1.5420723216412888E-2
34 30 3.2733546545217915E-2
34 32 2.3168754788363355E-1
34 57 1.7095063912332578E-2
34 58 3.1988780749661005E-1
34 59 4.158913523792257E-2
34 65 5.4846011771641404E-2
34 76 1.831563888873418E-2
34 79 5.977281613411668E-2
34 81 4.4166469160605554E-1
34 108 3.9284584973109944E-2
34 114 2.3672403749202844E-1
34 132 6.098003588759453E-1
35 19 2.2158728220451666E-2
35 69 2.103701315566843E-2
35 71 7.980744140868694E-2
35 75 1.8635554648596852E-2
35 94 5.6446675979082754E-2
35 105 1.2732005168249945E-2
35 127 1.8961058315822746E-2
35 129 1.831563888873418E-2
35 137 3.992393657592869E-2
35 138 9.009177491592382E-2
36 43 3.147208057407357E-1
36 51 1.331167221320022E-1
36 54 2.426427924617675E-2
36 61 1.2532291567589995E-2
36 73 5.875511884313813E-1
36 85 1.2003162851145673E-1
36 107 5.065795717015563E-2
36 117 1.831563888873418E-2
36 119 4.8950330778943424E-2
36 126 5.875511884313813E-1
36 128 1.1378888827587251E-1
36 130 9.029941676344383E-2
36 145 1.6029358476645567E-2
36 217 2.051730738207909E-2
37 17 4.33813978426052E-2
37 20 1.831563888873418E-2
37 28 7.563635827685558E-2
37 39 2.1658975680973525E-2
37 41 1.4073339966629668E-2
37 51 1.831563888873418E-2
37 73 2.561260518395298E-2
37 75 4.135223771569166E-2
37 83 1.2445235397400017E-1
37 95 2.4243028966485062E-2
37 106 4.874522830531515E-1
37 117 1.831563888873418E-2
37 126 3.254440870694965E-2
38 3 4.3868846028763314E-2
38 4 3.780045107691115E-2
38 14 1.831563888873418E-2
38 45 1.9060191545359473E-1
38 100 1.3736527470630386E-1
38 109 2.4914440787632747E-2
38 125 6.333575806928571E-2
38 274 4.3295530008919836E-2
38 277 1.4741386446537346E-2
38 293 4.300658716609939E-2
38 333 3.2249808421433726E-2
39 17 2.3808810045759055E-1
39 19 3.4504460733950484E-2
39 37 2.1658975680973525E-2
39 48 1.831563888873418E-2
39 75 1.060438661337316E-1
39 83 2.47235264703394E-2
39 92 1.717722117818898E-2
39 94 7.388369156230501E-2
39 95 3.080263051088362E-1
39 97 9.728630135903299E-2
39 117 3.4504460733950484E-2
39 138 2.1581508339868977E-1
40 10 6.80938289866547E-2
40 12 1.7303057864667085E-2
40 17 1.200376160456473E-2
40 20 4.794020914784714E-2
40 21 2.6754499034436233E-2
40 25 1.1711741349380943E-1
40 72 7.389366304370734E-2
40 74 1.3305440594648135E-1
40 77 1.0422812251808453E-2
40 92 2.6347980814448713E-2
40 93 3.849870989234836E-1
40 104 1.6751763215390675E-1
40 115 3.526590611764585E-1
40 116 1.1157590101824634E-1
40 118 4.382815966122057E-2
40 133 9.123048273949944E-2
40 139 7.478758017150441E-2
41 27 3.465480673072951E-2
41 28 3.524419142912031E-2
41 29 1.831563888873418E-2
41 37 1.4073339966629668E-2
41 44 9.838759207140237E-2
41 60 1.831563888873418E-2
41 70 3.3333325895725366E-2
41 80 4.245034284327857E-2
41 82 3.27029544478707E-2
41 84 1.4513804861484822E-1
41 91 5.60060679469488E-1
41 101 1.918420578842856E-2
41 102 5.137757636909878E-2
41 106 2.972034155173952E-2
41 117 1.7792371032322424E-2
41 136 5.765318822492709E-1
41 301 1.8845911876651075E-1
42 16 1.831563888873418E-2
42 18 1.831563888873418E-2
42 26 7.934604691527511E-2
42 44 2.7274312474426732E-2
42 63 1.4475552056282438E-2
42 66 2.2692647952160434E-2
42 70 5.833057040839262E-2
42 80 5.9395939605204784E-2
42 91 2.359769279055842E-2
42 112 2.8279705273746125E-2
42 120 6.836277488896486E-2
42 134 3.647704733844886E-2
42 326 3.629193445842106E-1
43 23 2.354616608923651E-2
43 36 3.147208057407357E-1
43 51 8.10736973438925E-2
43 61 6.28629437172591E-2
43 68 1.520628405906584E-2
43 70 2.6233486781799667E-2
43 73 3.795571881830897E-1
43 78 1.2543728491714085E-1
43 85 7.730474044329974E-2
43 87 4.631713286729668E-2
43 91 1.9496896108598012E-2
43 107 4.515093182510806E-2
43 126 2.9013467363815215E-1
43 128 2.0961138715109787E-1
43 130 1.9709682956310598E-1
43 145 7.356956855104142E-2
43 331 2.4737821657261457E-2
44 8 2.6347980814448738E-2
44 27 4.5579401832801725E-1
44 28 1.831563888873418E-2
44 41 9.838759207140237E-2
44 42 2.7274312474426732E-2
44 50 3.086103575557274E-2
44 67 2.625234396568796E-2
44 80 1.3779585757662244E-1
44 91 2.9376534924966915E-2
44 120 1.831563888873418E-2
44 123 3.4484972194093744E-2
44 134 2.2457434361277787E-2
44 136 6.212380971919455E-2
44 143 1.831563888873418E-2
44 301 1.6951151199621856E-1
44 326 6.477457554835711E-2
45 3 2.562242791388637E-1
45 4 1.386974796999228E-1
45 6 1.3804189957465682E-1
45 14 5.1730789783827225E-2
45 23 1.831563888873418E-2
45 31 1.831563888873418E-2
45 38 1.9060191545359473E-1
45 88 3.0520347027747433E-2
45 100 2.893055017100333E-2
45 109 5.08577171865452E-2
45 125 2.8993595126671956E-1
45 328 1.831563888873418E-2
45 333 1.831563888873418E-2
46 2 8.16102457659359E-2
46 9 1.2918476301522905E-1
46 16 2.5593497813934973E-1
46 26 5.6854685862057566E-2
46 27 2.1478390021347778E-2
46 50 3.1703524109591756E-2
46 53 7.414223681938702E-2
46 66 1.831563888873418E-2
46 67 1.831563888873418E-2
46 80 3.226964355833307E-2
46 131 1.4211950987267727E-1
46 135 2.7988215526614305E-2
46 142 1.3085072715631746E-2
46 184 4.180424951613237E-2
46 215 2.0352150640537525E-2
46 216 1.831563888873418E-2
46 326 2.8009228356754734E-2
47 18 5.282781706153236E-1
47 63 7.906141951684162E-2
47 78 1.7964270606492628E-2
47 86 1.346814908723712E-1
47 87 1.831563888873418E-2
47 112 1.800923121479524E-1
47 141 2.7312633555385174E-1
47 176 5.461954897770514E-2
47 191 3.729526556693445E-2
47 197 2.0624458803400775E-1
48 13 1.831563888873418E-2
48 17 1.9930721220177666E-2
48 30 1.1111571995610277E-1
48 31 7.563635827685558E-2
48 39 1.831563888873418E-2
48 56 8.699188378984512E-3
48 57 3.8441384065760774E-2
48 58 5.3419605041309215E-2
48 59 6.987216882004946E-2
48 62 1.207552345225637E-1
48 72 1.6872819218831846E-2
48 77 8.926842986525055E-2
48 79 1.831563888873418E-2
48 82 1.7438690205217966E-1
48 88 2.2297545172535883E-2
48 89 2.81945255030803E-2
48 90 1.3198592931176964E-2
48 92 3.12654807422037E-2
48 97 1.831563888873418E-2
48 114 1.831563888873418E-2
48 117 1.8838907762285303E-2
48 128 2.7170218793472943E-2
48 132 1.831563888873418E-2
49 1 1.958927396460349E-2
49 10 4.5388293510293776E-1
49 22 9.261442750954355E-2
49 24 3.5089785535790556E-2
49 25 2.6067685803835703E-2
49 52 2.828722242344798E-2
49 93 2.741572142600391E-2
49 101 2.8663706105385114E-2
49 103 1.820081698360614E-1
49 104 1.2032209894629425E-2
49 110 2.5476540425671523E-1
49 111 1.4158918722942399E-1
49 118 3.1912445417406655E-2
49 139 1.0517803004803987E-1
50 2 1.831563888873418E-2
50 8 2.179473272454189E-2
50 19 1.831563888873418E-2
50 27 8.761679210658638E-2
50 44 3.086103575557274E-2
50 46 3.1703524109591756E-2
50 53 9.802030330762168E-2
50 67 4.1913374169932255E-1
50 69 1.6500776706093054E-2
50 81 3.5673993347252374E-2
50 105 2.0904256419766062E-1
50 120 2.01926010891092E-2
50 121 2.2430762528677595E-1
50 124 2.7865744426302547E-2
50 129 5.0221887173821735E-2
50 140 2.960013380148583E-1
51 36 1.331167221320022E-1
51 37 1.831563888873418E-2
51 43 8.10736973438925E-2
51 73 1.3533528323661262E-1
51 82 1.5525223483428437E-2
51 107 1.9468670833151014E-1
51 117 2.5073333368057775E-2
51 126 1.0050772777485294E-1
51 128 7.341916690648619E-2
51 130 4.0493590759373047E-2
51 213 1.831563888873418E-2
51 214 3.8976133512655345E-2
51 216 2.1333906294028544E-2
51 217 1.061137928480689E-1
52 7 1.6969149877128623E-2
52 12 1.831563888873418E-2
52 15 4.7992490917537635E-2
52 21 1.831563888873418E-2
52 22 6.962881403850672E-2
52 24 8.584491520919163E-2
52 25 4.292455209270987E-2
52 49 2.828722242344798E-2
52 103 6.399830512377816E-2
52 111 2.1587847452274544E-1
52 127 2.5151961755795052E-2
52 137 7.197586849633701E-2
53 16 2.697342314238975E-2
53 27 1.4412904376917623E-2
53 32 3.184086955307255E-2
53 46 7.414223681938702E-2
53 50 9.802030330762168E-2
53 67 1.3912948531923577E-1
53 105 6.65582736632788E-2
53 121 2.5522298320576273E-2
53 131 2.456281072304867E-2
53 140 1.831563888873418E-2
53 142 2.2057428722335745E-1
53 184 7.558297104894982E-2
54 9 1.5921496639049024E-1
54 16 3.4432651268254275E-2
54 36 2.426427924617675E-2
54 63 1.831563888873418E-2
54 66 3.975578157622132E-2
54 85 1.4496687658531526E-1
54 119 2.0316232275153182E-1
54 135 1.8201523128899413E-2
54 144 2.0852019682358915E-2
54 145 2.7667412566005613E-2
54 184 6.76268625409214E-2
54 215 4.058028816504039E-2
55 17 1.831563888873418E-2
55 20 3.381808427403231E-2
55 21 2.0077932124848277E-2
55 74 2.14995934279463E-2
55 89 3.21136664053042E-1
55 90 5.1340093802815984E-2
55 92 5.3194625647150925E-2
55 94 2.1649939624582372E-2
55 95 1.347902899560808E-2
55 98 1.9231234743832336E-2
55 115 1.857269629691517E-2
56 6 6.875349394062324E-2
56 23 3.5328485229768176E-2
56 33 2.831867385197669E-1
56 48 8.699188378984512E-3
56 57 7.658584076793214E-2
56 59 1.831563888873418E-2
56 88 2.2231730072063943E-1
56 89 1.4494911212524494E-1
56 90 2.641975869181527E-1
56 98 2.796945280032433E-2
56 107 2.4525811213362454E-2
56 258 6.14089873253305E-2
57 3 1.9275196400143156E-2
57 6 1.2161065461865357E-1
57 33 4.029735140900563E-2
57 34 1.7095063912332578E-2
57 48 3.8441384065760774E-2
57 56 7.658584076793214E-2
57 59 2.0054942363950523E-1
57 62 7.40179034992062E-2
57 88 3.3749421938927204E-1
57 90 3.9073108173482037E-2
57 108 6.427301658218432E-2
57 125 1.7111111847237525E-2
57 132 3.34885488440367E-2
57 258 2.6048906742385153E-2
58 13 3.0103748200025156E-2
58 29 1.559962208622911E-1
58 30 2.9043843979142936E-1
58 32 6.381461436087232E-2
58 34 3.1988780749661005E-1
58 48 5.3419605041309215E-2
58 59 1.7129629309980902E-2
58 60 6.692214487061827E-2
58 62 1.5198956612365554E-2
58 65 6.0531117874071755E-2
58 76 5.1619518026564185E-2
58 79 4.360732577050897E-2
58 81 9.593484445751574E-2
58 82 9.321176270882109E-2
58 114 1.6786161074395628E-1
58 117 1.831563888873418E-2
58 132 1.631095311936412E-1
58 136 1.831563888873418E-2
59 32 5.812332198777693E-2
59 34 4.158913523792257E-2
59 48 6.987216882004946E-2
59 56 1.831563888873418E-2
59 57 2.0054942363950523E-1
59 58 1.7129629309980902E-2
59 62 1.831563888873418E-2
59 88 2.3939688916816595E-2
59 90 7.838873208784966E-2
59 97 2.1805399741473977E-1
59 108 5.2784459378905E-2
59 132 1.9072860727620516E-1
59 258 3.267538518273204E-2
60 11 1.831563888873418E-2
60 29 8.96470746293272E-1
60 30 1.6483391275302836E-1
60 41 1.831563888873418E-2
60 58 6.692214487061827E-2
60 65 6.948345122280154E-2
60 82 3.4037865252974364E-2
60 91 2.2945168504371227E-2
60 100 5.8377991005119916E-2
60 101 2.238805325496366E-2
60 109 3.0410791607356505E-2
60 136 1.7936905082423493E-1
60 301 1.3328098612313105E-2
61 36 1.2532291567589995E-2
61 43 6.28629437172591E-2
61 68 1.777148906383516E-1
61 70 1.831563888873418E-2
61 78 2.527147059106181E-1
61 85 1.623206111818482E-1
61 86 1.221180842815213E-1
61 87 2.6628345524502256E-1
61 145 3.522274099927112E-1
61 331 7.318799887012897E-1
62 3 1.6537451875392583E-2
62 6 3.5066989907138246E-2
62 30 5.056700661469258E-2
62 31 6.703200460356393E-1
62 48 1.207552345225637E-1
62 57 7.40179034992062E-2
62 58 1.5198956612365554E-2
62 59 1.831563888873418E-2
62 76 1.831563888873418E-2
62 77 1.682366903982095E-1
62 79 6.221232967849654E-2
62 88 3.629547590604655E-2
62 109 6.758964297266236E-2
62 125 4.375052349368001E-2
63 9 3.275811205742015E-2
63 16 5.6927350230670824E-2
63 18 6.562914431745064E-2
63 26 2.084952132626127E-1
63 42 1.4475552056282438E-2
63 47 7.906141951684162E-2
63 54 1.831563888873418E-2
63 66 6.168501256797602E-2
63 70 1.652149888438007E-2
63 78 1.2462148860250932E-1
63 80 1.831563888873418E-2
63 86 2.847799086671653E-1
63 87 1.831563888873418E-2
63 108 1.1473763237716653E-2
63 112 3.087393974233687E-1
63 120 1.3892269227799885E-2
63 130 3.769037525252258E-2
63 141 1.5405855289749887E-1
63 145 1.831563888873418E-2
63 326 4.178333379659274E-2
63 331 1.0156967297582396E-2
64 5 8.254744810063935E-2
64 7 5.179550148529214E-2
64 8 1.5674933457200846E-1
64 69 7.957355648171519E-2
64 71 1.2397705021160634E-2
64 105 1.831563888873418E-2
64 122 2.2446733657177594E-2
64 123 1.5993174838581467E-2
64 124 9.553961643690859E-2
64 127 6.948345122280154E-2
64 129 2.696219562194718E-1
64 140 1.3381467816461115E-1
64 143 1.7162291605292222E-2
65 1 5.108016720855043E-2
65 3 1.9606093001783127E-2
65 11 1.1311951720558167E-1
65 29 1.4293644454515025E-1
65 30 4.001940551647398E-2
65 34 5.4846011771641404E-2
65 58 6.0531117874071755E-2
65 60 6.948345122280154E-2
65 76 4.7006411843819484E-2
65 79 3.486325606942548E-2
65 114 1.6706556647512173E-2
65 125 3.156260286303019E-2
66 9 3.6787944117144233E-1
66 16 1.0793884349398529E-1
66 26 8.208499862389883E-2
66 42 2.2692647952160434E-2
66 46 1.831563888873418E-2
66 54 3.975578157622132E-2
66 63 6.168501256797602E-2
66 70 7.151192231758933E-3
66 86 3.282165832666321E-2
66 112 1.0291935857976223E-1
66 131 1.46571634994604E-2
66 155 4.839185460973075E-2
66 189 1.728930626560555E-2
66 191 1.831563888873418E-2
66 208 2.4021318806461415E-2
66 326 2.49601134435756E-2
67 19 1.1902278102916772E-1
67 27 2.0045953818931544E-1
67 32 3.9397908289303826E-2
67 44 2.625234396568796E-2
67 46 1.831563888873418E-2
67 50 4.1913374169932255E-1
67 53 1.3912948531923577E-1
67 69 1.9998701908932524E-2
67 75 4.7032775506529526E-2
67 80 1.2321662381743578E-2
67 81 2.5837871429124554E-2
67 105 2.449763982886717E-1
67 117 1.5083184615759767E-2
67 121 7.046553323824517E-2
67 129 1.831563888873418E-2
67 140 1.5682392826976094E-1
67 142 1.4486213396276393E-1
67 184 1.813867757746483E-2
68 23 1.831563888873418E-2
68 33 2.4211435101759025E-2
68 43 1.520628405906584E-2
68 61 1.777148906383516E-1
68 78 1.831563888873418E-2
68 85 3.0348244308775498E-2
68 87 2.0568789151446926E-1
68 145 3.023973829329253E-1
68 289 1.0088386141640156E-1
68 320 4.455142624448965E-2
68 331 1.0739798348458635E-1
69 5 1.9592973544189235E-2
69 7 5.181891717272586E-2
69 8 2.4499785683280793E-2
69 15 2.4733300546697715E-2
69 19 2.5722652421251274E-1
69 27 1.9671754996539097E-2
69 35 2.103701315566843E-2
69 50 1.6500776706093054E-2
69 64 7.957355648171519E-2
69 67 1.9998701908932524E-2
69 71 1.831563888873418E-2
69 75 7.178021905848525E-2
69 105 5.090583233639851E-2
69 122 1.2099573281487792E-1
69 127 2.1140980305956755E-1
69 129 5.404329964865341E-1
69 133 1.4236182327273857E-2
69 137 2.3297749845217514E-2
69 138 9.289944347492396E-2
69 140 2.1057892893207442E-1
69 143 2.01926010891092E-2
70 41 3.3333325895725366E-2
70 42 5.833057040839262E-2
70 43 2.6233486781799667E-2
70 61 1.831563888873418E-2
70 63 1.652149888438007E-2
70 66 7.151192231758933E-3
70 78 1.2746923475735655E-1
70 80 2.327258915845556E-2
70 84 7.627373956244156E-2
70 86 2.543834533366892E-2
70 91 2.2649555927078147E-1
70 102 7.306891798168966E-2
70 126 1.831563888873418E-2
70 136 2.218401635262498E-2
70 326 4.135223771569166E-2
70 331 1.831563888873418E-2
71 7 1.0001460792723399E-1
71 35 7.980744140868694E-2
71 64 1.2397705021160634E-2
71 69 1.831563888873418E-2
71 105 7.319456229647489E-2
71 121 8.896500443947694E-2
71 127 2.602284461225821E-2
71 129 4.493946017653409E-2
71 138 1.831563888873418E-2
71 140 3.225293147365642E-2
72 14 1.6445337146000188E-1
72 20 1.2721767668229797E-1
72 23 1.831563888873418E-2
72 30 1.831563888873418E-2
72 40 7.389366304370734E-2
72 48 1.6872819218831846E-2
72 77 1.2089649498340008E-1
72 82 7.389366304370734E-2
72 84 1.8061259133042525E-2
72 100 1.831563888873418E-2
72 109 7.698824246074541E-2
72 115 3.6041763234000504E-2
72 116 5.2349811114140644E-2
72 118 2.297448320442834E-2
73 36 5.875511884313813E-1
73 37 2.561260518395298E-2
73 43 3.795571881830897E-1
73 51 1.3533528323661262E-1
73 82 2.2333825916005093E-2
73 85 2.5732512726359954E-2
73 91 1.831563888873418E-2
73 106 1.831563888873418E-2
73 107 7.089066337483983E-2
73 117 6.64873349290829E-2
73 119 1.9935479659028185E-2
73 126 6.310112077730381E-1
73 128 4.096050060740407E-1
73 130 2.2907994981548768E-1
74 10 1.831563888873418E-2
74 17 1.873546343946742E-2
74 21 1.7862117826158597E-1
74 25 2.371426347664204E-1
74 31 1.730677520504667E-2
74 40 1.3305440594648135E-1
74 55 2.14995934279463E-2
74 77 5.88442480157709E-2
74 92 3.446741478124536E-1
74 93 3.220190814858449E-1
74 113 6.974639679879947E-2
74 115 1.2015410281143131E-1
75 17 1.8883520870714553E-2
75 19 6.342674596569008E-1
75 35 1.8635554648596852E-2
75 37 4.135223771569166E-2
75 39 1.060438661337316E-1
75 67 4.7032775506529526E-2
75 69 7.178021905848525E-2
75 83 4.1295907748439234E-2
75 94 3.6305375122105785E-2
75 95 8.80450607082213E-2
75 105 5.3566614525653866E-2
75 106 3.9333890036715766E-2
75 129 1.831563888873418E-2
75 138 5.390827585976868E-1
75 140 2.619265050182827E-2
75 142 2.5388235342336796E-2
75 184 2.8906484831891618E-2
76 1 1.307866336778396E-1
76 11 1.9371266805028797E-1
76 13 5.885340576888406E-1
76 30 4.056623222223697E-2
76 31 2.5873255381341477E-2
76 34 1.831563888873418E-2
76 58 5.1619518026564185E-2
76 62 1.831563888873418E-2
76 65 4.7006411843819484E-2
76 79 4.302566043514381E-1
76 103 3.2159832692355374E-2
76 110 4.097110655358219E-2
76 113 3.3784434441711454E-2
76 114 2.413066501659768E-1
77 14 6.798116549651573E-2
77 30 5.2181871471627214E-2
77 31 4.4932896411722156E-1
77 40 1.0422812251808453E-2
77 48 8.926842986525055E-2
77 62 1.682366903982095E-1
77 72 1.2089649498340008E-1
77 74 5.88442480157709E-2
77 82 3.781052464931655E-2
77 89 1.726932402073141E-2
77 93 1.831563888873418E-2
77 100 1.2999334139678225E-2
77 109 1.6113651472909232E-1
77 115 1.831563888873418E-2
77 118 2.5441130541251904E-2
78 43 1.2543728491714085E-1
78 47 1.7964270606492628E-2
78 61 2.527147059106181E-1
78 63 1.2462148860250932E-1
78 68 1.831563888873418E-2
78 70 1.2746923475735655E-1
78 85 4.24257410805114E-2
78 86 3.3887444671875566E-1
78 87 2.393908290445064E-1
78 130 2.0267550342246796E-2
78 141 1.831563888873418E-2
78 145 1.3027662064301623E-1
78 331 1.3072203492696616E-1
79 1 2.8565500784550404E-2
79 11 5.082787548742425E-2
79 13 2.191339068637591E-1
79 30 1.663268502394559E-2
79 31 3.524419142912031E-2
79 34 5.977281613411668E-2
79 48 1.831563888873418E-2
79 58 4.360732577050897E-2
79 62 6.221232967849654E-2
79 65 3.486325606942548E-2
79 76 4.302566043514381E-1
79 114 3.1454551044164675E-1
79 132 3.1120779926754404E-2
80 9 1.150335808244306E-2
80 16 1.3679048739000718E-1
80 26 1.705299699102888E-1
80 27 1.215848559436554E-1
80 41 4.245034284327857E-2
80 42 5.9395939605204784E-2
80 44 1.3779585757662244E-1
80 46 3.226964355833307E-2
80 63 1.831563888873418E-2
80 67 1.2321662381743578E-2
80 70 2.327258915845556E-2
80 91 8.306025452958492E-2
80 117 2.7225435782070304E-2
80 120 3.567399334725241E-2
80 126 1.6800763700352637E-2
80 130 3.549562375305068E-2
80 135 2.29634469547901E-2
80 136 1.572235403017996E-2
80 142 2.5388235342336796E-2
80 326 4.3080261519743523E-1
81 32 4.81339327173288E-1
81 34 4.4166469160605554E-1
81 50 3.5673993347252374E-2
81 58 9.593484445751574E-2
81 67 2.5837871429124554E-2
81 97 1.8674757669009393E-2
81 105 1.831563888873418E-2
81 108 1.831563888873418E-2
81 114 1.6074162942164225E-1
81 120 4.4793552966679265E-2
81 121 1.1679109872333071E-1
81 132 3.7993999923303895E-1
82 14 1.6782280287671963E-2
82 29 5.962548884508459E-2
82 30 4.4327748766857955E-1
82 31 1.831563888873418E-2
82 41 3.27029544478707E-2
82 48 1.7438690205217966E-1
82 51 1.5525223483428437E-2
82 58 9.321176270882109E-2
82 60 3.4037865252974364E-2
82 72 7.389366304370734E-2
82 73 2.2333825916005093E-2
82 77 3.781052464931655E-2
82 91 1.5646933636544454E-2
82 107 1.945113950885766E-2
82 109 7.865880855101756E-2
82 117 6.870274654754813E-2
82 128 2.2502912882136994E-1
82 130 2.260749740328265E-2
82 136 6.212380971919455E-2
83 12 1.9218648553235507E-1
83 15 4.301333653975188E-2
83 17 2.948247857226171E-1
83 20 2.963200227798248E-2
83 37 1.2445235397400017E-1
83 39 2.47235264703394E-2
83 75 4.1295907748439234E-2
83 94 3.6787944117144233E-1
83 95 2.470043116471432E-2
83 106 1.831563888873418E-2
83 115 2.5422233643710546E-2
83 122 1.831563888873418E-2
83 133 9.129120859663639E-2
83 137 1.2388614128793681E-2
83 138 2.7129248378331597E-2
84 28 3.030315348397714E-2
84 41 1.4513804861484822E-1
84 70 7.627373956244156E-2
84 72 1.8061259133042525E-2
84 91 1.372413826969326E-1
84 102 3.039853768069138E-1
84 106 1.831563888873418E-2
84 116 1.831563888873418E-2
84 126 2.196770588943552E-2
84 136 6.1839263581890645E-2
85 36 1.2003162851145673E-1
85 43 7.730474044329974E-2
85 54 1.4496687658531526E-1
85 61 1.623206111818482E-1
85 68 3.0348244308775498E-2
85 73 2.5732512726359954E-2
85 78 4.24257410805114E-2
85 87 1.3719002217096089E-2
85 119 3.3714390718848394E-2
85 126 5.7268760265467386E-2
85 130 1.2778387649535771E-2
85 145 1.980872638135986E-1
85 217 2.5469585344656542E-2
85 331 1.501750361952547E-1
86 18 4.4821902418577614E-2
86 47 1.346814908723712E-1
86 61 1.221180842815213E-1
86 63 2.847799086671653E-1
86 66 3.282165832666321E-2
86 70 2.543834533366892E-2
86 78 3.3887444671875566E-1
86 87 1.2638265059528825E-1
86 112 4.7210446033008654E-2
86 141 8.478762878443545E-2
86 145 6.817248197125793E-2
86 331 1.27734234283836E-1
87 3 2.336177843241303E-2
87 43 4.631713286729668E-2
87 47 1.831563888873418E-2
87 61 2.6628345524502256E-1
87 63 1.831563888873418E-2
87 68 2.0568789151446926E-1
87 78 2.393908290445064E-1
87 85 1.3719002217096089E-2
87 86 1.2638265059528825E-1
87 141 2.455002875347965E-2
87 145 2.829861239701304E-1
87 289 3.4484972194093716E-2
87 331 1.3072203492696616E-1
88 3 3.7436602264296334E-2
88 6 1.1688851596195407E-1
88 14 1.831563888873418E-2
88 23 9.465771226571223E-2
88 31 1.766157971248742E-2
88 33 2.712648855016109E-1
88 45 3.0520347027747433E-2
88 48 2.2297545172535883E-2
88 56 2.2231730072063943E-1
88 57 3.3749421938927204E-1
88 59 2.3939688916816595E-2
88 62 3.629547590604655E-2
88 89 2.2724452639252407E-2
88 90 3.205593166006697E-2
88 98 1.831563888873418E-2
88 107 1.0995871814448856E-1
88 125 1.831563888873418E-2
88 128 2.0430827179208806E-2
88 258 2.0325780214129063E-2
89 20 7.155743235739831E-2
89 23 1.831563888873418E-2
89 48 2.81945255030803E-2
89 55 3.21136664053042E-1
89 56 1.4494911212524494E-1
89 77 1.726932402073141E-2
89 88 2.2724452639252407E-2
89 90 1.5619418188862286E-1
89 92 3.363605026118175E-2
89 98 1.646519266685677E-1
89 258 1.6707732979194853E-2
90 33 2.7398428408876553E-2
90 48 1.3198592931176964E-2
90 55 5.1340093802815984E-2
90 56 2.641975869181527E-1
90 57 3.9073108173482037E-2
90 59 7.838873208784966E-2
90 88 3.205593166006697E-2
90 89 1.5619418188862286E-1
90 97 1.831563888873418E-2
90 218 1.8144808058076906E-2
90 258 1.755795445581974E-1
91 28 1.969731932692224E-2
91 29 2.8358129642073023E-2
91 41 5.60060679469488E-1
91 42 2.359769279055842E-2
91 43 1.9496896108598012E-2
91 44 2.9376534924966915E-2
91 60 2.2945168504371227E-2
91 70 2.2649555927078147E-1
91 73 1.831563888873418E-2
91 80 8.306025452958492E-2
91 82 1.5646933636544454E-2
91 84 1.372413826969326E-1
91 102 5.587177103665062E-2
91 126 6.133731421459368E-2
91 130 1.5758491126350752E-2
91 136 3.039659183181108E-1
91 301 2.5169578771918506E-2
91 326 3.147232733549361E-2
92 17 7.843739051713071E-2
92 20 1.831563888873418E-2
92 21 5.369679762036553E-2
92 25 1.831563888873418E-2
92 39 1.717722117818898E-2
92 40 2.6347980814448713E-2
92 48 3.12654807422037E-2
92 55 5.3194625647150925E-2
92 74 3.446741478124536E-1
92 89 3.363605026118175E-2
92 93 1.9529505059204227E-2
92 94 2.5790372626765354E-2
92 113 2.5911685757320762E-2
92 115 9.714497757388728E-2
93 10 1.1513888753631667E-1
93 21 5.089500821729483E-2
93 25 2.9982825411399744E-1
93 40 3.849870989234836E-1
93 49 2.741572142600391E-2
93 74 3.220190814858449E-1
93 77 1.831563888873418E-2
93 92 1.9529505059204227E-2
93 101 1.170339336682942E-2
93 104 4.057734169285693E-2
93 110 1.831563888873418E-2
93 113 2.928697957307854E-2
93 115 8.024047041649797E-2
93 116 6.204329818065931E-2
93 118 6.1572778673339844E-2
93 139 1.0782208975362378E-1
94 12 9.712528319670653E-2
94 15 1.831563888873418E-2
94 17 3.6787944117144233E-1
94 20 2.3136981194291254E-2
94 35 5.6446675979082754E-2
94 39 7.388369156230501E-2
94 55 2.1649939624582372E-2
94 75 3.6305375122105785E-2
94 83 3.6787944117144233E-1
94 92 2.5790372626765354E-2
94 95 5.8360178581899486E-2
94 115 4.723445948418636E-2
94 137 3.6305375122105785E-2
94 138 9.119667489006625E-2
95 17 9.48802046390019E-2
95 19 1.831563888873418E-2
95 37 2.4243028966485062E-2
95 39 3.080263051088362E-1
95 55 1.347902899560808E-2
95 75 8.80450607082213E-2
95 83 2.470043116471432E-2
95 94 5.8360178581899486E-2
95 97 4.2473348041384314E-2
95 138 8.641464365021059E-2
95 142 1.606935685510997E-2
96 263 3.6665113032391994E-1
96 287 1.3447755160476249E-2
96 291 2.5288150444578536E-2
96 293 1.831563888873418E-2
96 297 5.832111663489725E-2
96 306 1.3642889387087243E-2
96 307 1.831563888873418E-2
96 309 5.898870130473192E-2
96 310 1.831563888873418E-2
96 318 2.564178994917233E-1
96 321 2.7259882003360877E-2
96 322 5.722727675712237E-1
96 324 8.61545154795365E-2
96 325 1.353352832366127E-1
96 327 3.353459502854703E-1
97 32 1.9955797458651683E-1
97 39 9.728630135903299E-2
97 48 1.831563888873418E-2
97 59 2.1805399741473977E-1
97 81 1.8674757669009393E-2
97 90 1.831563888873418E-2
97 95 4.2473348041384314E-2
97 105 1.4229653964963682E-2
97 108 2.4914440787632715E-2
97 117 5.759215421869916E-2
97 132 1.051437114154876E-1
97 142 5.027279203018757E-2
98 14 1.036571286115279E-1
98 20 1.2464387197280343E-2
98 23 6.171765877656484E-2
98 33 2.1139101023011427E-2
98 55 1.9231234743832336E-2
98 56 2.796945280032433E-2
98 88 1.831563888873418E-2
98 89 1.646519266685677E-1
98 99 6.948345122280151E-2
98 328 1.5236421370970554E-1
98 334 2.57515809083157E-2
98 335 1.361890611228618E-2
99 98 6.948345122280151E-2
99 223 1.8208137282553E-2
99 258 1.831563888873418E-2
99 295 4.008379196469361E-2
99 313 2.8814544556403775E-2
99 314 1.553254355218133E-1
99 317 4.854245730200969E-2
99 328 7.358051721811718E-2
99 329 4.5501613159510046E-3
99 333 4.2819176367420934E-2
99 334 2.1750359344450333E-2
99 335 2.2794180883612354E-2
100 3 3.636001074027819E-2
100 14 4.010210185878352E-2
100 29 4.1433171733117224E-2
100 30 2.191885259775482E-2
100 38 1.3736527470630386E-1
100 45 2.893055017100333E-2
100 60 5.8377991005119916E-2
100 72 1.831563888873418E-2
100 77 1.2999334139678225E-2
100 109 2.0859787179855105E-1
101 10 1.1686706967562993E-1
101 22 1.814419890871937E-2
101 41 1.918420578842856E-2
101 49 2.8663706105385114E-2
101 60 2.238805325496366E-2
101 93 1.170339336682942E-2
101 104 1.831563888873418E-2
101 116 4.845949294467652E-2
101 134 1.1312500158880083E-1
101 136 5.075754608950073E-2
101 139 2.8184182591759677E-1
101 301 9.128010767449216E-2
102 28 1.554182793664006E-1
102 41 5.137757636909878E-2
102 70 7.306891798168966E-2
102 84 3.039853768069138E-1
102 91 5.587177103665062E-2
102 106 2.9048626798236367E-2
102 123 1.448269430459264E-2
102 135 8.935890843839345E-2
102 136 1.831563888873418E-2
102 143 2.809040994398015E-2
102 155 3.1269369241762414E-2
103 1 2.57515809083157E-2
103 7 1.831563888873418E-2
103 10 3.62064311982819E-2
103 11 4.1328336662438556E-2
103 13 4.198804389588273E-2
103 22 9.953857402045704E-2
103 24 2.5928039382340184E-1
103 25 1.831563888873418E-2
103 49 1.820081698360614E-1
103 52 6.399830512377816E-2
103 76 3.2159832692355374E-2
103 110 2.329645437868084E-1
103 111 9.624459887261795E-2
104 10 5.911427592751333E-2
104 12 6.1622398789662115E-2
104 15 7.133870829525364E-2
104 25 2.6931522687688163E-2
104 40 1.6751763215390675E-1
104 49 1.2032209894629425E-2
104 93 4.057734169285693E-2
104 101 1.831563888873418E-2
104 111 2.0887943296836426E-2
104 115 2.2671046194675665E-2
104 116 1.746146478787442E-1
104 118 1.831563888873418E-2
104 133 1.7204486382305045E-1
104 139 3.968957712596126E-2
105 19 1.8487536299424007E-1
105 27 9.292279094081006E-3
105 32 1.780334720164273E-2
105 35 1.2732005168249945E-2
105 50 2.0904256419766062E-1
105 53 6.65582736632788E-2
105 64 1.831563888873418E-2
105 67 2.449763982886717E-1
105 69 5.090583233639851E-2
105 71 7.319456229647489E-2
105 75 5.3566614525653866E-2
105 81 1.831563888873418E-2
105 97 1.4229653964963682E-2
105 121 2.1057892893207442E-1
105 124 2.351774585600913E-2
105 129 1.0627148904859358E-1
105 138 6.504517390466688E-2
105 140 3.960100103150941E-1
105 142 1.831563888873418E-2
106 27 5.7642036061601856E-2
106 28 3.2391545866873933E-1
106 37 4.874522830531515E-1
106 41 2.972034155173952E-2
106 73 1.831563888873418E-2
106 75 3.9333890036715766E-2
106 83 1.831563888873418E-2
106 84 1.831563888873418E-2
106 102 2.9048626798236367E-2
106 117 2.486566069400388E-2
106 119 1.9600437534020555E-2
106 126 5.340043933874639E-2
106 135 1.0419573317269276E-1
106 142 1.9770450026048E-2
106 184 4.474408076111343E-2
107 14 3.028000275093954E-2
107 23 1.3664920775436046E-1
107 33 4.925459145621763E-2
107 36 5.065795717015563E-2
107 43 4.515093182510806E-2
107 51 1.9468670833151014E-1
107 56 2.4525811213362454E-2
107 73 7.089066337483983E-2
107 82 1.945113950885766E-2
107 88 1.0995871814448856E-1
107 128 1.695790498256939E-1
107 130 1.831563888873418E-2
108 32 3.56008909274755E-2
108 34 3.9284584973109944E-2
108 57 6.427301658218432E-2
108 59 5.2784459378905E-2
108 63 1.1473763237716653E-2
108 81 1.831563888873418E-2
108 97 2.4914440787632715E-2
108 130 1.900454870244174E-2
108 132 4.963411282516504E-2
108 141 7.575266223900605E-2
109 3 8.76816573948383E-2
109 14 1.3682246926726513E-1
109 29 5.962548884508459E-2
109 30 1.655553643349847E-1
109 31 1.6833181102726216E-1
109 38 2.4914440787632747E-2
109 45 5.08577171865452E-2
109 60 3.0410791607356505E-2
109 62 6.758964297266236E-2
109 72 7.698824246074541E-2
109 77 1.6113651472909232E-1
109 82 7.865880855101756E-2
109 100 2.0859787179855105E-1
109 125 4.143317173311721E-2
110 1 2.1302923299235677E-1
110 10 7.963103002175502E-2
110 11 4.962825807731812E-2
110 13 2.2760069779766565E-2
110 22 5.661545048645039E-2
110 24 4.0460449378981245E-2
110 25 1.808306249249018E-2
110 49 2.5476540425671523E-1
110 76 4.097110655358219E-2
110 93 1.831563888873418E-2
110 103 2.329645437868084E-1
110 111 1.831563888873418E-2
110 139 2.553432561652131E-2
111 10 3.475809043447287E-2
111 15 1.5413915100492337E-2
111 22 3.819817504755143E-1
111 24 1.1957170935656694E-1
111 25 2.267601233385126E-2
111 49 1.4158918722942399E-1
111 52 2.1587847452274544E-1
111 103 9.624459887261795E-2
111 104 2.0887943296836426E-2
111 110 1.831563888873418E-2
112 9 2.8162402314688608E-2
112 16 2.7266559868900787E-2
112 18 2.2269647678625962E-1
112 26 2.0434619309292357E-1
112 42 2.8279705273746125E-2
112 47 1.800923121479524E-1
112 63 3.087393974233687E-1
112 66 1.0291935857976223E-1
112 86 4.7210446033008654E-2
112 120 7.415290630228981E-2
112 141 1.5233242480648065E-1
112 191 1.7519434972107315E-2
112 326 1.991602954959136E-2
113 7 2.8695343746882887E-2
113 13 8.638168612061391E-2
113 21 2.1510062076696243E-2
113 25 1.0593834985773148E-1
113 74 6.974639679879947E-2
113 76 3.3784434441711454E-2
113 92 2.5911685757320762E-2
113 93 2.928697957307854E-2
113 114 2.5911685757320762E-2
113 127 4.5884282348149494E-2
113 137 1.831563888873418E-2
113 301 1.4337196583615465E-2
114 7 1.9841094744370288E-2
114 11 2.9274616111822784E-2
114 13 2.5500818728753405E-1
114 30 1.831563888873418E-2
114 32 4.28977384932493E-2
114 34 2.3672403749202844E-1
114 48 1.831563888873418E-2
114 58 1.6786161074395628E-1
114 65 1.6706556647512173E-2
114 76 2.413066501659768E-1
114 79 3.1454551044164675E-1
114 81 1.6074162942164225E-1
114 113 2.5911685757320762E-2
114 132 1.631095311936412E-1
115 12 2.2994232661582403E-2
115 17 1.0439828981680828E-1
115 20 6.75992712983602E-2
115 21 2.217893221104751E-2
115 25 5.2878469003076856E-2
115 40 3.526590611764585E-1
115 55 1.857269629691517E-2
115 72 3.6041763234000504E-2
115 74 1.2015410281143131E-1
115 77 1.831563888873418E-2
115 83 2.5422233643710546E-2
115 92 9.714497757388728E-2
115 93 8.024047041649797E-2
115 94 4.723445948418636E-2
115 104 2.2671046194675665E-2
115 116 1.2642939389552781E-2
115 118 1.790522177294206E-2
115 133 3.332075499090263E-2
115 137 2.8757054139785167E-2
115 139 1.054900076323527E-2
116 10 1.322361389529615E-1
116 40 1.1157590101824634E-1
116 72 5.2349811114140644E-2
116 84 1.831563888873418E-2
116 93 6.204329818065931E-2
116 101 4.845949294467652E-2
116 104 1.746146478787442E-1
116 115 1.2642939389552781E-2
116 118 1.1613818994769275E-1
116 133 1.831563888873418E-2
116 139 1.6163835392772818E-1
117 32 7.353975916386793E-2
117 36 1.831563888873418E-2
117 37 1.831563888873418E-2
117 39 3.4504460733950484E-2
117 41 1.7792371032322424E-2
117 48 1.8838907762285303E-2
117 51 2.5073333368057775E-2
117 58 1.831563888873418E-2
117 67 1.5083184615759767E-2
117 73 6.64873349290829E-2
117 80 2.7225435782070304E-2
117 82 6.870274654754813E-2
117 97 5.759215421869916E-2
117 106 2.486566069400388E-2
117 126 4.469410482968514E-2
117 128 1.3041455246776984E-1
117 130 1.912573571330472E-1
117 132 1.6029358476645567E-2
117 142 1.1035182229371188E-1
118 10 1.0023044580662974E-1
118 21 1.472539362310381E-2
118 40 4.382815966122057E-2
118 49 3.1912445417406655E-2
118 72 2.297448320442834E-2
118 77 2.5441130541251904E-2
118 93 6.1572778673339844E-2
118 104 1.831563888873418E-2
118 115 1.790522177294206E-2
118 116 1.1613818994769275E-1
118 139 3.2643931124323636E-2
119 9 3.637209248488881E-2
119 16 2.845811181057279E-2
119 36 4.8950330778943424E-2
119 54 2.0316232275153182E-1
119 73 1.9935479659028185E-2
119 85 3.3714390718848394E-2
119 106 1.9600437534020555E-2
119 126 5.5116558829728615E-2
119 130 1.831563888873418E-2
119 135 2.9200515825892486E-2
119 142 7.867948103672015E-2
119 184 3.437085685745488E-1
119 215 1.6221694745959067E-2
119 217 2.717642510984153E-2
120 16 5.0193491167977965E-2
120 18 3.957443363749205E-2
120 26 2.2042558546232402E-1
120 42 6.836277488896486E-2
120 44 1.831563888873418E-2
120 50 2.01926010891092E-2
120 63 1.3892269227799885E-2
120 80 3.567399334725241E-2
120 81 4.4793552966679265E-2
120 112 7.415290630228981E-2
120 326 1.1502547815121655E-1
121 7 1.831563888873418E-2
121 32 4.823941047195873E-2
121 50 2.2430762528677595E-1
121 53 2.5522298320576273E-2
121 67 7.046553323824517E-2
121 71 8.896500443947694E-2
121 81 1.1679109872333071E-1
121 105 2.1057892893207442E-1
121 129 4.723445948418636E-2
121 140 1.218136138366199E-1
122 5 6.303627379128855E-2
122 8 2.776441817076839E-2
122 12 7.591059201079225E-2
122 15 2.262383910702762E-1
122 64 2.2446733657177594E-2
122 69 1.2099573281487792E-1
122 83 1.831563888873418E-2
122 123 3.949274013258281E-2
122 127 5.9597366931282154E-2
122 129 3.5864762911748796E-2
122 133 2.2756600276375213E-1
122 137 2.065703689024801E-2
122 143 1.4679779446545452E-1
122 301 3.647025514559064E-2
123 2 2.4397906566409083E-1
123 5 5.386101672438234E-2
123 8 3.304352240264088E-1
123 27 6.79308137421319E-2
123 28 4.002776990258974E-2
123 44 3.4484972194093744E-2
123 64 1.5993174838581467E-2
123 102 1.448269430459264E-2
123 122 3.949274013258281E-2
123 124 3.421811831166605E-2
123 129 1.6732614831584093E-2
123 134 2.7925713567036832E-2
123 135 1.831563888873418E-2
123 140 2.0506658315027838E-2
123 143 6.040700924664373E-1
124 2 5.743261926761735E-2
124 8 2.836781644971313E-2
124 19 1.831563888873418E-2
124 50 2.7865744426302547E-2
124 64 9.553961643690859E-2
124 105 2.351774585600913E-2
124 123 3.421811831166605E-2
124 129 3.157602519022029E-2
124 131 2.442967928441432E-2
124 140 5.0684108610992665E-2
124 143 1.5736290860769768E-2
125 3 5.134171190325921E-1
125 6 1.6562653705043512E-1
125 31 3.923856408515826E-2
125 38 6.333575806928571E-2
125 45 2.8993595126671956E-1
125 57 1.7111111847237525E-2
125 62 4.375052349368001E-2
125 65 3.156260286303019E-2
125 88 1.831563888873418E-2
125 109 4.143317173311721E-2
126 36 5.875511884313813E-1
126 37 3.254440870694965E-2
126 43 2.9013467363815215E-1
126 51 1.0050772777485294E-1
126 70 1.831563888873418E-2
126 73 6.310112077730381E-1
126 80 1.6800763700352637E-2
126 84 2.196770588943552E-2
126 85 5.7268760265467386E-2
126 91 6.133731421459368E-2
126 106 5.340043933874639E-2
126 117 4.469410482968514E-2
126 119 5.5116558829728615E-2
126 128 1.2236836178554344E-1
126 130 1.4543041503391563E-1
126 217 1.831563888873418E-2
127 5 4.399868615523573E-2
127 7 4.614722608559561E-1
127 13 3.859400269829209E-2
127 15 3.850693222720332E-2
127 24 1.960660960414929E-2
127 35 1.8961058315822746E-2
127 52 2.5151961755795052E-2
127 64 6.948345122280154E-2
127 69 2.1140980305956755E-1
127 71 2.602284461225821E-2
127 113 4.5884282348149494E-2
127 122 5.9597366931282154E-2
127 129 1.6793594335017858E-1
127 133 1.7291262604300753E-2
127 137 2.4412571952025489E-1
127 140 2.3057039089621E-2
128 23 2.6440714483304414E-2
128 30 1.969731932692224E-2
128 36 1.1378888827587251E-1
128 43 2.0961138715109787E-1
128 48 2.7170218793472943E-2
128 51 7.341916690648619E-2
128 73 4.096050060740407E-1
128 82 2.2502912882136994E-1
128 88 2.0430827179208806E-2
128 107 1.695790498256939E-1
128 117 1.3041455246776984E-1
128 126 1.2236836178554344E-1
128 130 3.1890655732397055E-1
129 5 3.212238155221388E-2
129 7 8.83307783283852E-2
129 8 6.306203442590816E-2
129 19 1.2347172218841562E-1
129 35 1.831563888873418E-2
129 50 5.0221887173821735E-2
129 64 2.696219562194718E-1
129 67 1.831563888873418E-2
129 69 5.404329964865341E-1
129 71 4.493946017653409E-2
129 75 1.831563888873418E-2
129 105 1.0627148904859358E-1
129 121 4.723445948418636E-2
129 122 3.5864762911748796E-2
129 123 1.6732614831584093E-2
129 124 3.157602519022029E-2
129 127 1.6793594335017858E-1
129 138 2.416687760783305E-2
129 140 5.317515301305706E-1
130 26 1.831563888873418E-2
130 36 9.029941676344383E-2
130 43 1.9709682956310598E-1
130 51 4.0493590759373047E-2
130 63 3.769037525252258E-2
130 73 2.2907994981548768E-1
130 78 2.0267550342246796E-2
130 80 3.549562375305068E-2
130 82 2.260749740328265E-2
130 85 1.2778387649535771E-2
130 91 1.5758491126350752E-2
130 107 1.831563888873418E-2
130 108 1.900454870244174E-2
130 117 1.912573571330472E-1
130 119 1.831563888873418E-2
130 126 1.4543041503391563E-1
130 128 3.1890655732397055E-1
130 142 1.8820866289079235E-2
130 217 1.7258345429861155E-2
131 2 7.088197348619053E-2
131 9 7.988446201301368E-2
131 16 2.6218124100061888E-2
131 46 1.4211950987267727E-1
131 53 2.456281072304867E-2
131 66 1.46571634994604E-2
131 124 2.442967928441432E-2
131 135 1.831563888873418E-2
131 184 3.153927327368472E-2
131 215 1.0684012452217378E-1
132 32 4.3750520913254937E-1
132 34 6.098003588759453E-1
132 48 1.831563888873418E-2
132 57 3.34885488440367E-2
132 58 1.631095311936412E-1
132 59 1.9072860727620516E-1
132 79 3.1120779926754404E-2
132 81 3.7993999923303895E-1
132 97 1.051437114154876E-1
132 108 4.963411282516504E-2
132 114 1.631095311936412E-1
132 117 1.6029358476645567E-2
133 12 1.3154108812332013E-1
133 15 1.3426965661264798E-1
133 25 2.016887997455349E-2
133 40 9.123048273949944E-2
133 69 1.4236182327273857E-2
133 83 9.129120859663639E-2
133 104 1.7204486382305045E-1
133 115 3.332075499090263E-2
133 116 1.831563888873418E-2
133 122 2.2756600276375213E-1
133 127 1.7291262604300753E-2
133 137 3.6579376657517954E-2
133 139 1.831563888873418E-2
133 301 6.0328719006313355E-2
134 5 1.2051356375269884E-1
134 8 4.168956615178383E-2
134 11 3.885948206136923E-2
134 22 2.1626068880774143E-2
134 42 3.647704733844886E-2
134 44 2.2457434361277787E-2
134 101 1.1312500158880083E-1
134 123 2.7925713567036832E-2
134 136 1.831563888873418E-2
134 143 1.6482630415322535E-2
134 301 4.832158241906394E-2
135 2 7.647696755057648E-2
135 27 3.1784922054069784E-2
135 28 3.824601775753927E-1
135 46 2.7988215526614305E-2
135 54 1.8201523128899413E-2
135 80 2.29634469547901E-2
135 102 8.935890843839345E-2
135 106 1.0419573317269276E-1
135 119 2.9200515825892486E-2
135 123 1.831563888873418E-2
135 131 1.831563888873418E-2
135 184 7.558297104894982E-2
135 216 1.8538725536992928E-2
136 29 1.3386426211148797E-1
136 30 5.4981233625742996E-2
136 41 5.765318822492709E-1
136 44 6.212380971919455E-2
136 58 1.831563888873418E-2
136 60 1.7936905082423493E-1
136 70 2.218401635262498E-2
136 80 1.572235403017996E-2
136 82 6.212380971919455E-2
136 84 6.1839263581890645E-2
136 91 3.039659183181108E-1
136 101 5.075754608950073E-2
136 102 1.831563888873418E-2
136 134 1.831563888873418E-2
136 301 2.659350132184073E-1
137 7 3.6638097426147966E-2
137 12 5.93297418526792E-2
137 15 1.221180842815213E-1
137 25 4.360732577050897E-2
137 35 3.992393657592869E-2
137 52 7.197586849633701E-2
137 69 2.3297749845217514E-2
137 83 1.2388614128793681E-2
137 94 3.6305375122105785E-2
137 113 1.831563888873418E-2
137 115 2.8757054139785167E-2
137 122 2.065703689024801E-2
137 127 2.4412571952025489E-1
137 133 3.6579376657517954E-2
138 17 4.577718456204696E-2
138 19 4.2997135136453E-1
138 35 9.009177491592382E-2
138 39 2.1581508339868977E-1
138 69 9.289944347492396E-2
138 71 1.831563888873418E-2
138 75 5.390827585976868E-1
138 83 2.7129248378331597E-2
138 94 9.119667489006625E-2
138 95 8.641464365021059E-2
138 105 6.504517390466688E-2
138 129 2.416687760783305E-2
138 140 1.831563888873418E-2
139 1 1.831563888873418E-2
139 10 5.345860198660524E-1
139 13 1.4286400546203061E-2
139 25 1.7038340401087024E-2
139 40 7.478758017150441E-2
139 49 1.0517803004803987E-1
139 93 1.0782208975362378E-1
139 101 2.8184182591759677E-1
139 104 3.968957712596126E-2
139 110 2.553432561652131E-2
139 115 1.054900076323527E-2
139 116 1.6163835392772818E-1
139 118 3.2643931124323636E-2
139 133 1.831563888873418E-2
139 301 2.9505493638298574E-2
140 2 1.3235853118856652E-2
140 7 1.831563888873418E-2
140 8 4.889002856202374E-2
140 19 1.7179250616561959E-1
140 27 3.361250384964025E-2
140 50 2.960013380148583E-1
140 53 1.831563888873418E-2
140 64 1.3381467816461115E-1
140 67 1.5682392826976094E-1
140 69 2.1057892893207442E-1
140 71 3.225293147365642E-2
140 75 2.619265050182827E-2
140 105 3.960100103150941E-1
140 121 1.218136138366199E-1
140 123 2.0506658315027838E-2
140 124 5.0684108610992665E-2
140 127 2.3057039089621E-2
140 129 5.317515301305706E-1
140 138 1.831563888873418E-2
141 18 2.3516431012898423E-1
141 26 1.770686578953451E-2
141 47 2.7312633555385174E-1
141 63 1.5405855289749887E-1
141 78 1.831563888873418E-2
141 86 8.478762878443545E-2
141 87 2.455002875347965E-2
141 108 7.575266223900605E-2
141 112 1.5233242480648065E-1
141 145 2.1688222331178175E-2
141 191 2.9077872833318936E-2
142 19 1.7345506999208997E-2
142 27 2.6088556648040575E-2
142 32 2.156389924277239E-2
142 46 1.3085072715631746E-2
142 53 2.2057428722335745E-1
142 67 1.4486213396276393E-1
142 75 2.5388235342336796E-2
142 80 2.5388235342336796E-2
142 95 1.606935685510997E-2
142 97 5.027279203018757E-2
142 105 1.831563888873418E-2
142 106 1.9770450026048E-2
142 117 1.1035182229371188E-1
142 119 7.867948103672015E-2
142 130 1.8820866289079235E-2
142 184 9.358061339168933E-2
142 216 1.7156549166585974E-2
142 217 1.986255617520957E-2
143 2 1.5198237493143582E-1
143 5 5.444473624145834E-2
143 8 1.421006723738815E-1
143 27 3.869547850279448E-2
143 28 9.31090641788397E-2
143 44 1.831563888873418E-2
143 64 1.7162291605292222E-2
143 69 2.01926010891092E-2
143 102 2.809040994398015E-2
143 122 1.4679779446545452E-1
143 123 6.040700924664373E-1
143 124 1.5736290860769768E-2
143 134 1.6482630415322535E-2
144 9 1.703038750939074E-2
144 54 2.0852019682358915E-2
144 155 1.831563888873418E-2
144 189 2.214371298929985E-2
144 208 8.113306539063314E-2
144 213 2.962378951751673E-2
144 214 5.3948190992882214E-2
144 215 2.0369271002964584E-1
144 216 1.7416948988774095E-1
144 217 6.850136943845653E-2
145 36 1.6029358476645567E-2
145 43 7.356956855104142E-2
145 54 2.7667412566005613E-2
145 61 3.522274099927112E-1
145 63 1.831563888873418E-2
145 68 3.023973829329253E-1
145 78 1.3027662064301623E-1
145 85 1.980872638135986E-1
145 86 6.817248197125793E-2
145 87 2.829861239701304E-1
145 141 2.1688222331178175E-2
145 331 2.0050092552026985E-1
146 154 3.3890674714179024E-2
146 157 2.826121072629469E-2
146 160 7.63126419753065E-2
146 161 3.2479840370829086E-2
146 166 1.235811158573665E-2
146 167 1.2538550150788898E-2
146 169 1.4948600744941265E-1
146 172 6.213017551586069E-2
146 182 5.996043495075476E-2
146 183 1.8874852243623695E-2
146 195 2.4219716762393786E-2
146 196 5.133794388264028E-2
146 199 3.990532999890568E-1
146 206 1.934966656315367E-2
146 211 6.401121617212283E-3
146 220 1.831563888873418E-2
146 222 1.499526206017649E-1
146 224 1.974677898540444E-2
146 235 2.71348495444887E-2
146 241 1.8185502876824994E-1
146 242 9.212440522976928E-2
146 315 1.831563888873418E-2
147 148 1.6320210186720358E-1
147 151 1.831563888873418E-2
147 156 3.618361321813412E-2
147 171 4.126702698512651E-1
147 173 7.459030941219467E-2
147 180 2.327301949696638E-1
147 186 2.1428989483340527E-1
147 189 2.405549384579648E-2
147 193 3.66652607672672E-3
147 205 8.402879471267238E-2
147 209 1.5535088202167802E-1
148 147 1.6320210186720358E-1
148 149 1.8041252465514857E-2
148 151 2.4934155477633266E-2
148 156 1.8721984740178266E-1
148 159 1.831563888873418E-2
148 161 1.831563888873418E-2
148 171 6.324182382246049E-1
148 173 8.227092153119342E-2
148 180 2.147111723416974E-1
148 186 1.0534132880690089E-1
148 193 6.410904538755197E-2
148 194 2.9750464407407157E-2
148 204 2.4399136243410117E-2
148 205 1.2455363309545743E-1
148 209 4.3372441220805164E-2
149 148 1.8041252465514857E-2
149 151 3.191337503020693E-2
149 152 8.268197781029546E-2
149 154 1.831563888873418E-2
149 156 2.1779815043588203E-2
149 159 2.739838844120632E-1
149 170 1.7567309343087448E-1
149 174 7.574651283969664E-1
149 176 4.603355011103588E-2
149 191 2.1114869358065776E-2
149 193 5.510302166687646E-2
149 197 1.831563888873418E-2
149 202 2.8823659910019974E-2
149 203 2.536041540249885E-1
149 204 2.5354558364565676E-2
149 205 1.2811055005391841E-2
149 207 2.3095535650176774E-2
149 246 2.585523722870222E-1
150 160 7.817251144291962E-2
150 161 1.831563888873418E-2
150 162 1.930927476494044E-1
150 165 4.3141098582709564E-2
150 167 1.7889965220251608E-1
150 168 1.7889965220251608E-1
150 171 1.7483256492520697E-2
150 173 1.831563888873418E-2
150 193 3.783886217388091E-2
150 194 5.710731501791577E-2
150 196 5.913649829497026E-2
150 206 9.601513651445842E-2
150 315 1.7411351308865165E-2
151 147 1.831563888873418E-2
151 148 2.4934155477633266E-2
151 149 3.191337503020693E-2
151 171 2.417672129909299E-2
151 173 2.8536791740953506E-2
151 186 1.5646153922665318E-1
151 189 7.009321872819385E-2
151 191 6.414130962712655E-2
151 200 1.831563888873418E-2
151 202 3.0943930485668972E-2
151 203 1.0200062384242174E-1
151 205 3.1937536511512865E-1
151 208 2.943933043331888E-2
151 209 1.831563888873418E-2
152 149 8.268197781029546E-2
152 154 3.3180361424095736E-2
152 159 7.916413813302248E-2
152 174 2.674452036735344E-1
152 176 4.950542700364801E-1
152 197 1.2720289982292712E-1
152 232 1.2270370784530382E-1
152 242 1.5844584067987978E-2
152 246 2.090425641976607E-1
152 249 1.9659324188108274E-2
152 255 1.831563888873418E-2
153 155 1.3222426589896694E-1
153 174 2.282112290913707E-2
153 176 2.0304612205595256E-2
153 186 1.721704030650262E-2
153 189 1.1118137541957329E-1
153 198 2.0444643460798592E-2
153 202 3.847556329714197E-2
153 203 1.831563888873418E-2
153 204 2.3132826287921926E-1
153 208 5.620506676003416E-2
153 246 2.2664814461291417E-2
154 146 3.3890674714179024E-2
154 149 1.831563888873418E-2
154 152 3.3180361424095736E-2
154 159 2.1634861856214543E-1
154 161 3.664300738291173E-2
154 164 1.071283365560932E-2
154 167 7.995304217364509E-2
154 169 2.7872618237764345E-2
154 170 1.8454912843028592E-1
154 174 2.9643318681235473E-2
154 181 1.831563888873418E-2
154 183 1.953489024953761E-2
154 195 2.1531564717057392E-2
154 196 6.891739773713655E-2
154 199 2.7376066727175564E-2
154 201 1.7067345938819586E-2
154 207 3.755114975056453E-2
154 212 8.530361363583897E-2
154 222 8.3338180552594E-2
154 241 2.0519828090643028E-2
154 242 1.2479522548865511E-1
154 246 4.0989290880013E-2
154 255 1.5593212739081428E-2
155 9 2.28734649112389E-2
155 66 4.839185460973075E-2
155 102 3.1269369241762414E-2
155 144 1.831563888873418E-2
155 153 1.3222426589896694E-1
155 186 1.979193752025711E-2
155 189 8.325991037234148E-2
155 194 1.831563888873418E-2
155 198 1.7258827546949938E-2
155 204 4.0176610371653654E-2
155 208 1.378054812004322E-1
156 147 3.618361321813412E-2
156 148 1.8721984740178266E-1
156 149 2.1779815043588203E-2
156 159 1.003378187827019E-1
156 171 1.5604901235432103E-1
156 174 1.831563888873418E-2
156 180 3.5594927901162593E-1
156 193 2.6310286999974557E-2
156 194 1.2112480802736286E-2
156 204 1.5895292489046677E-2
156 209 1.962336201975269E-2
156 212 2.6727901903961616E-2
156 246 5.2608273024898976E-2
157 146 2.826121072629469E-2
157 169 2.036421869684135E-2
157 172 4.3233513463936374E-1
157 182 2.5939647652585757E-1
157 195 2.6931522687688128E-2
157 211 1.5104371340054486E-2
157 220 7.943329466213088E-2
157 224 1.831563888873418E-2
157 226 1.9035573076624773E-2
157 230 1.831563888873418E-2
157 243 1.182900778122648E-1
157 244 2.096165964843503E-2
158 163 3.1002599892108035E-2
158 179 2.5206023911916998E-2
158 187 1.2350134059239669E-1
158 229 8.320178421554902E-2
158 237 1.1556816651413945E-1
158 238 2.344527212036767E-2
158 239 3.4035102149752716E-1
158 245 1.831563888873418E-2
158 247 3.731767185377462E-2
158 253 5.02039925164814E-1
158 257 5.5591006728037885E-2
158 259 2.4108778896447028E-1
159 148 1.831563888873418E-2
159 149 2.739838844120632E-1
159 152 7.916413813302248E-2
159 154 2.1634861856214543E-1
159 156 1.003378187827019E-1
159 161 4.663860566086554E-2
159 164 1.831563888873418E-2
159 170 2.712232940134118E-1
159 174 3.2919298780790557E-1
159 176 1.831563888873418E-2
159 180 2.136173917500709E-2
159 193 2.6526007036827396E-2
159 207 3.6041763234000504E-2
159 212 7.300086777195937E-2
159 246 4.6513290419206577E-1
160 146 7.63126419753065E-2
160 150 7.817251144291962E-2
160 161 9.910674385576852E-2
160 162 1.659607098819135E-1
160 167 1.8897039677585655E-2
160 170 2.4518353159227037E-2
160 196 1.831563888873418E-2
160 199 2.5548710677461345E-1
160 206 3.260332633175023E-2
160 241 2.4012838199733454E-2
161 146 3.2479840370829086E-2
161 148 1.831563888873418E-2
161 150 1.831563888873418E-2
161 154 3.664300738291173E-2
161 159 4.663860566086554E-2
161 160 9.910674385576852E-2
161 169 1.813248403380452E-2
161 170 1.705299699102888E-1
161 173 7.792283794115629E-2
161 180 1.7021805621228563E-2
161 195 9.713453608766073E-2
161 199 4.39093437130908E-2
161 209 5.715039566362559E-2
162 150 1.930927476494044E-1
162 160 1.659607098819135E-1
162 165 4.581835737333367E-2
162 167 2.0518356977040717E-2
162 168 2.0518356977040717E-2
162 173 1.831563888873418E-2
162 196 1.4841841744576175E-2
162 199 2.2889505208556017E-2
162 206 1.9636889873147131E-1
162 315 6.25481175435105E-2
163 158 3.1002599892108035E-2
163 177 7.515254527331507E-2
163 188 1.831563888873418E-2
163 190 2.2893023238317316E-2
163 228 1.3763786733050402E-2
163 233 1.747007356245171E-1
163 234 1.6860108801212045E-1
163 235 3.1038482526868694E-2
163 239 1.4956861922263506E-1
163 247 2.4748720472356345E-1
163 257 1.66181152406069E-1
163 259 1.1544098685655767E-1
164 154 1.071283365560932E-2
164 159 1.831563888873418E-2
164 168 1.885934884720708E-1
164 178 3.350792991233321E-2
164 193 1.0235280012308202E-1
164 194 4.498655326950962E-2
164 198 4.703599566129657E-2
164 201 6.260252159166119E-2
164 202 1.831563888873418E-2
164 204 6.302475821335363E-2
164 207 7.698824246074541E-2
164 212 1.5649227936466872E-1
164 240 3.348532336377489E-2
164 246 8.559738386217755E-2
164 252 2.0340384056006317E-2
165 150 4.3141098582709564E-2
165 162 4.581835737333367E-2
165 168 3.42623726848423E-2
165 171 1.831563888873418E-2
165 173 7.170784694501113E-2
165 193 5.150756505194917E-2
165 194 5.59493358385816E-2
165 200 4.424791692894806E-1
165 202 3.677979993737137E-2
165 203 1.7677714208389466E-2
165 205 7.342275204556414E-2
166 146 1.235811158573665E-2
166 178 8.236091432630649E-2
166 188 1.831563888873418E-2
166 196 6.910479575253858E-2
166 201 4.366765806258035E-2
166 206 3.0025122718955143E-2
166 219 2.564978502155795E-2
166 222 7.500774272610765E-2
166 234 3.471248919206697E-2
166 235 5.4039890785534776E-2
166 236 4.968618275223105E-2
166 238 4.586893386782828E-2
166 240 4.0896069881167486E-2
166 315 9.362151345015762E-2
167 146 1.2538550150788898E-2
167 150 1.7889965220251608E-1
167 154 7.995304217364509E-2
167 160 1.8897039677585655E-2
167 162 2.0518356977040717E-2
167 168 1.3902601982231222E-1
167 169 3.166220505590834E-2
167 181 2.3088490032278343E-2
167 196 5.430649701760336E-1
167 206 6.969577634804919E-2
167 212 1.503578977083766E-1
167 222 1.831563888873418E-2
167 240 4.528692850504999E-2
167 315 2.4265345737583554E-2
168 150 1.7889965220251608E-1
168 162 2.0518356977040717E-2
168 164 1.885934884720708E-1
168 165 3.42623726848423E-2
168 167 1.3902601982231222E-1
168 193 1.576254496117766E-1
168 194 1.5678455083197257E-1
168 196 3.4935209516011166E-2
168 201 1.831563888873418E-2
168 207 5.091597900416167E-2
168 212 6.78413790558513E-2
168 240 3.370414240500719E-2
168 252 1.952151585251656E-2
169 146 1.4948600744941265E-1
169 154 2.7872618237764345E-2
169 157 2.036421869684135E-2
169 161 1.813248403380452E-2
169 167 3.166220505590834E-2
169 172 7.701474443723445E-2
169 181 8.231206624866323E-2
169 182 3.415369764986116E-2
169 196 8.991956063677767E-2
169 199 9.02159644327397E-3
169 206 1.831563888873418E-2
169 220 8.94676150161473E-2
169 222 3.182466018668407E-2
169 242 6.040823548454772E-2
169 248 1.4729116818176735E-1
170 149 1.7567309343087448E-1
170 154 1.8454912843028592E-1
170 159 2.712232940134118E-1
170 160 2.4518353159227037E-2
170 161 1.705299699102888E-1
170 174 9.87844757298322E-2
170 193 2.6347980814448713E-2
170 195 4.0523130155578034E-2
170 199 1.831563888873418E-2
170 200 1.9898748362314495E-2
170 203 2.2439010049973906E-2
170 207 4.1606986567292475E-2
170 242 1.576863213304033E-2
170 246 4.795783195690048E-2
171 147 4.126702698512651E-1
171 148 6.324182382246049E-1
171 150 1.7483256492520697E-2
171 151 2.417672129909299E-2
171 156 1.5604901235432103E-1
171 165 1.831563888873418E-2
171 173 1.564210889840588E-1
171 180 2.8571877596331674E-1
171 186 1.8984668349486777E-1
171 189 1.831563888873418E-2
171 193 4.6942889675325464E-2
171 194 3.460292380633046E-2
171 204 1.831563888873418E-2
171 205 2.2907994981548765E-1
171 209 7.376310890270915E-2
172 146 6.213017551586069E-2
172 157 4.3233513463936374E-1
172 169 7.701474443723445E-2
172 182 3.753614795612846E-1
172 211 1.831563888873418E-2
172 220 1.3907547080116964E-1
172 224 1.9609696726419528E-2
172 226 3.989610774612374E-2
172 242 1.7358182409103553E-2
172 243 1.6561707655119162E-1
172 244 1.69013315406066E-1
172 248 3.043799875526958E-2
172 250 1.831563888873418E-2
173 147 7.459030941219467E-2
173 148 8.227092153119342E-2
173 150 1.831563888873418E-2
173 151 2.8536791740953506E-2
173 161 7.792283794115629E-2
173 162 1.831563888873418E-2
173 165 7.170784694501113E-2
173 171 1.564210889840588E-1
173 180 2.1205814766370974E-2
173 186 1.4962655699092482E-2
173 200 6.62094467084193E-2
173 205 2.3504840650908154E-1
173 209 1.1390234812117402E-1
174 149 7.574651283969664E-1
174 152 2.674452036735344E-1
174 153 2.282112290913707E-2
174 154 2.9643318681235473E-2
174 156 1.831563888873418E-2
174 159 3.2919298780790557E-1
174 170 9.87844757298322E-2
174 176 1.2017997770308537E-1
174 193 2.3300993979424516E-2
174 197 3.5607062797772135E-2
174 202 1.0733206247493837E-2
174 203 9.697196786440505E-2
174 204 2.052361998346984E-2
174 207 1.831563888873418E-2
174 232 2.3064688910710715E-2
174 246 4.6801297492070437E-1
175 179 3.0824296431633876E-2
175 210 1.0774229837877645E-1
175 211 2.762480726805876E-2
175 225 2.0693667182148534E-1
175 226 1.831563888873418E-2
175 227 1.5327875322138302E-2
175 228 8.264915447693919E-2
175 231 3.6287435644188754E-1
175 232 1.810571983729766E-2
175 249 6.248296265431799E-2
175 255 3.6331560029101005E-2
176 18 1.7210135261152625E-2
176 47 5.461954897770514E-2
176 149 4.603355011103588E-2
176 152 4.950542700364801E-1
176 153 2.0304612205595256E-2
176 159 1.831563888873418E-2
176 174 1.2017997770308537E-1
176 197 3.903866669925387E-1
176 198 2.3980211350898624E-2
176 203 1.6342041610676795E-2
176 232 4.1861167382002684E-2
176 246 7.689452010034964E-2
176 249 7.059250130605782E-2
177 163 7.515254527331507E-2
177 178 1.3175045506222569E-1
177 185 6.502381715871111E-2
177 190 1.4842250516489663E-1
177 192 7.88356500877457E-2
177 198 2.438750884063112E-2
177 201 9.215219958925973E-2
177 219 3.508176303300524E-2
177 233 1.635085356313907E-2
177 234 1.301307341849855E-1
177 240 1.6410992052417486E-2
177 247 2.9792055543480998E-2
177 249 1.5684340768820865E-1
177 255 6.52576652419945E-2
177 257 2.0685403007113405E-2
178 164 3.350792991233321E-2
178 166 8.236091432630649E-2
178 177 1.3175045506222569E-1
178 185 5.808945411335499E-2
178 190 3.311753734707456E-2
178 192 1.5213175010767455E-1
178 196 1.4192614475355875E-2
178 198 1.9757728922970244E-2
178 201 4.0684261687015566E-1
178 219 1.1503929237046728E-1
178 222 1.831563888873418E-2
178 234 5.012233355883707E-2
178 236 3.7707718658524E-2
178 240 2.9479457826509003E-1
178 255 3.091511465954258E-2
179 158 2.5206023911916998E-2
179 175 3.0824296431633876E-2
179 225 2.356720481962051E-2
179 226 1.831563888873418E-2
179 227 5.321934433892148E-2
179 229 1.661752699932565E-2
179 230 1.3762904714673538E-1
179 231 2.88316201573527E-1
179 237 2.0951475227889996E-2
179 245 3.614711634314157E-2
179 251 5.457888961360666E-2
179 253 1.017013923042268E-1
180 147 2.327301949696638E-1
180 148 2.147111723416974E-1
180 156 3.5594927901162593E-1
180 159 2.136173917500709E-2
180 161 1.7021805621228563E-2
180 171 2.8571877596331674E-1
180 173 2.1205814766370974E-2
180 186 1.831563888873418E-2
180 205 2.0293880381212173E-2
180 209 9.134575669760032E-2
181 154 1.831563888873418E-2
181 167 2.3088490032278343E-2
181 169 8.231206624866323E-2
181 192 1.6941408802341167E-2
181 196 6.546386399978321E-2
181 210 2.9002590967470626E-1
181 212 4.094478913391591E-2
181 220 1.602141528628455E-2
181 222 2.863651504456512E-2
181 240 2.928364069380575E-2
181 248 1.8394440879773666E-1
181 255 1.5303402876857986E-1
182 146 5.996043495075476E-2
182 157 2.5939647652585757E-1
182 169 3.415369764986116E-2
182 172 3.753614795612846E-1
182 188 1.795116071208469E-2
182 195 6.583601596563994E-2
182 211 9.14502839664347E-2
182 220 3.776652713572072E-2
182 224 2.176966273159004E-2
182 225 2.3785158926221323E-2
182 226 3.0838492998536318E-2
182 228 1.831563888873418E-2
182 230 2.8405245942175104E-2
182 242 8.106023051159188E-2
182 243 4.436144177290663E-2
182 244 1.586260463365302E-2
182 248 1.7743322487183834E-2
182 251 2.2250174996147887E-2
183 146 1.8874852243623695E-2
183 154 1.953489024953761E-2
183 196 1.934003012525433E-2
183 222 2.0450983376543032E-2
183 224 6.855260416921929E-1
183 235 1.8029361242273632E-2
183 242 1.831563888873418E-2
183 252 6.372555766852127E-1
183 275 6.286621314613458E-2
183 281 3.44186876115288E-2
184 16 1.831563888873418E-2
184 28 1.831563888873418E-2
184 46 4.180424951613237E-2
184 53 7.558297104894982E-2
184 54 6.76268625409214E-2
184 67 1.813867757746483E-2
184 75 2.8906484831891618E-2
184 106 4.474408076111343E-2
184 119 3.437085685745488E-1
184 131 3.153927327368472E-2
184 135 7.558297104894982E-2
184 142 9.358061339168933E-2
184 215 3.382410822499089E-2
184 216 1.9935479659028203E-2
185 177 6.502381715871111E-2
185 178 5.808945411335499E-2
185 192 3.600332566176827E-1
185 201 1.7254168844854343E-2
185 210 1.831563888873418E-2
185 219 2.677832088556172E-1
185 236 1.0981532102648295E-1
185 240 3.218828957154569E-2
185 255 2.077586056997134E-2
185 257 2.800265216628926E-2
186 147 2.1428989483340527E-1
186 148 1.0534132880690089E-1
186 151 1.5646153922665318E-1
186 153 1.721704030650262E-2
186 155 1.979193752025711E-2
186 171 1.8984668349486777E-1
186 173 1.4962655699092482E-2
186 180 1.831563888873418E-2
186 189 3.1228876240014986E-1
186 202 1.831563888873418E-2
186 204 4.0762203978366204E-2
186 205 2.1283187434985143E-1
186 208 2.0593750513818984E-1
186 209 1.1538465886502855E-2
187 158 1.2350134059239669E-1
187 227 1.831563888873418E-2
187 236 3.1035715248811737E-2
187 237 2.166630787082225E-1
187 238 9.024484900183048E-2
187 239 1.9361970032290433E-2
187 245 1.1568749346948491E-1
187 250 1.2189744976850563E-1
187 253 1.0420054613094276E-1
187 256 3.938832941546597E-2
187 257 7.132396622761919E-2
187 259 1.1292007202852221E-2
188 163 1.831563888873418E-2
188 166 1.831563888873418E-2
188 182 1.795116071208469E-2
188 210 2.3460362202067674E-2
188 211 1.30874091301229E-1
188 222 1.0235280012308202E-1
188 225 4.578499403608646E-2
188 228 3.1992624169186556E-1
188 229 3.658532379836693E-2
188 231 1.8628719173983038E-2
188 234 1.3685588848836544E-1
188 235 5.0065986790931966E-2
188 237 1.831563888873418E-2
188 238 7.669634426147083E-2
188 241 1.831563888873418E-2
188 242 3.5807105108572816E-2
188 250 2.4811982642590203E-2
188 259 1.831563888873418E-2
189 66 1.728930626560555E-2
189 144 2.214371298929985E-2
189 147 2.405549384579648E-2
189 151 7.009321872819385E-2
189 153 1.1118137541957329E-1
189 155 8.325991037234148E-2
189 171 1.831563888873418E-2
189 186 3.1228876240014986E-1
189 202 2.0554697138892488E-2
189 204 4.350003888760126E-2
189 205 2.8900232594349342E-2
189 208 5.489547607864202E-1
190 163 2.2893023238317316E-2
190 177 1.4842250516489663E-1
190 178 3.311753734707456E-2
190 197 2.0874420497470434E-2
190 201 1.831563888873418E-2
190 233 1.7489512801808955E-2
190 249 2.9282382291936887E-2
190 286 2.6495795186978074E-2
190 289 2.2893023238317316E-2
190 311 4.2687627542115386E-2
191 47 3.729526556693445E-2
191 66 1.831563888873418E-2
191 112 1.7519434972107315E-2
191 141 2.9077872833318936E-2
191 149 2.1114869358065776E-2
191 151 6.414130962712655E-2
191 200 3.2350975267695786E-2
191 202 2.4333082705536316E-1
191 203 2.148580336029651E-1
191 205 2.1114869358065776E-2
192 177 7.88356500877457E-2
192 178 1.5213175010767455E-1
192 181 1.6941408802341167E-2
192 185 3.600332566176827E-1
192 198 6.813148829722526E-2
192 201 8.242868967325401E-2
192 210 1.831563888873418E-2
192 219 3.772341423276577E-1
192 236 1.831563888873418E-2
192 240 1.6817842576914993E-1
192 255 6.1697286970993505E-2
193 147 3.66652607672672E-3
193 148 6.410904538755197E-2
193 149 5.510302166687646E-2
193 150 3.783886217388091E-2
193 156 2.6310286999974557E-2
193 159 2.6526007036827396E-2
193 164 1.0235280012308202E-1
193 165 5.150756505194917E-2
193 168 1.576254496117766E-1
193 170 2.6347980814448713E-2
193 171 4.6942889675325464E-2
193 174 2.3300993979424516E-2
193 194 8.635365263382229E-2
193 200 9.223462384701445E-2
193 202 1.5035789770837657E-1
193 203 8.229360079544462E-2
193 204 1.1691109984170076E-1
193 205 3.9397908289303826E-2
193 207 1.1137283915878173E-1
193 246 2.1493601345089923E-2
194 148 2.9750464407407157E-2
194 150 5.710731501791577E-2
194 155 1.831563888873418E-2
194 156 1.2112480802736286E-2
194 164 4.498655326950962E-2
194 165 5.59493358385816E-2
194 168 1.5678455083197257E-1
194 171 3.460292380633046E-2
194 193 8.635365263382229E-2
194 202 1.831563888873418E-2
194 204 4.5707765251759694E-2
195 146 2.4219716762393786E-2
195 154 2.1531564717057392E-2
195 157 2.6931522687688128E-2
195 161 9.713453608766073E-2
195 170 4.0523130155578034E-2
195 182 6.583601596563994E-2
195 199 1.0629547592250722E-2
195 211 1.831563888873418E-2
195 232 5.603132439684557E-2
195 241 2.3866150580319823E-2
195 242 1.1344120564253245E-1
196 146 5.133794388264028E-2
196 150 5.913649829497026E-2
196 154 6.891739773713655E-2
196 160 1.831563888873418E-2
196 162 1.4841841744576175E-2
196 166 6.910479575253858E-2
196 167 5.430649701760336E-1
196 168 3.4935209516011166E-2
196 169 8.991956063677767E-2
196 178 1.4192614475355875E-2
196 181 6.546386399978321E-2
196 183 1.934003012525433E-2
196 199 2.054438802558318E-2
196 201 1.831563888873418E-2
196 206 8.446687097119956E-2
196 212 4.4309134926272684E-2
196 222 1.0719251727125112E-1
196 240 5.52600242046851E-2
196 315 4.7931868456441526E-2
197 18 4.3448160228767324E-2
197 47 2.0624458803400775E-1
197 149 1.831563888873418E-2
197 152 1.2720289982292712E-1
197 174 3.5607062797772135E-2
197 176 3.903866669925387E-1
197 190 2.0874420497470434E-2
197 198 1.641641247003966E-2
197 203 2.3205167647422073E-2
197 207 1.8110423805272877E-2
197 233 4.312458737333297E-2
197 246 2.686579377443668E-2
197 249 3.5607062797772135E-2
198 153 2.0444643460798592E-2
198 155 1.7258827546949938E-2
198 164 4.703599566129657E-2
198 176 2.3980211350898624E-2
198 177 2.438750884063112E-2
198 178 1.9757728922970244E-2
198 192 6.813148829722526E-2
198 197 1.641641247003966E-2
198 201 3.192995995787836E-2
198 219 1.736713285349239E-2
198 240 2.0607395491780985E-2
198 249 4.989199365755824E-2
198 255 1.831563888873418E-2
199 146 3.990532999890568E-1
199 154 2.7376066727175564E-2
199 160 2.5548710677461345E-1
199 161 4.39093437130908E-2
199 162 2.2889505208556017E-2
199 169 9.02159644327397E-3
199 170 1.831563888873418E-2
199 195 1.0629547592250722E-2
199 196 2.054438802558318E-2
199 206 1.4436634074496756E-2
199 222 6.860253186210039E-2
199 235 7.127937063321949E-2
199 241 3.2329611763644445E-1
199 242 2.304434379328906E-2
200 151 1.831563888873418E-2
200 165 4.424791692894806E-1
200 170 1.9898748362314495E-2
200 173 6.62094467084193E-2
200 191 3.2350975267695786E-2
200 193 9.223462384701445E-2
200 202 8.060982690316651E-2
200 203 8.229792975918877E-2
200 205 1.4856454758662938E-1
200 207 2.4228945782120724E-2
201 154 1.7067345938819586E-2
201 164 6.260252159166119E-2
201 166 4.366765806258035E-2
201 168 1.831563888873418E-2
201 177 9.215219958925973E-2
201 178 4.0684261687015566E-1
201 185 1.7254168844854343E-2
201 190 1.831563888873418E-2
201 192 8.242868967325401E-2
201 196 1.831563888873418E-2
201 198 3.192995995787836E-2
201 212 5.5347839884897686E-2
201 219 3.948219511462851E-2
201 222 4.5851244344766534E-2
201 234 5.666558407767378E-2
201 240 3.7223299351455147E-1
201 252 1.831563888873418E-2
201 255 1.0509678797035985E-1
202 149 2.8823659910019974E-2
202 151 3.0943930485668972E-2
202 153 3.847556329714197E-2
202 164 1.831563888873418E-2
202 165 3.677979993737137E-2
202 174 1.0733206247493837E-2
202 186 1.831563888873418E-2
202 189 2.0554697138892488E-2
202 191 2.4333082705536316E-1
202 193 1.5035789770837657E-1
202 194 1.831563888873418E-2
202 200 8.060982690316651E-2
202 203 3.547161996036898E-1
202 204 1.3208739422956067E-1
202 205 2.2244332627306542E-2
202 207 3.125465216703924E-2
202 208 2.4914440787632726E-2
203 149 2.536041540249885E-1
203 151 1.0200062384242174E-1
203 153 1.831563888873418E-2
203 165 1.7677714208389466E-2
203 170 2.2439010049973906E-2
203 174 9.697196786440505E-2
203 176 1.6342041610676795E-2
203 191 2.148580336029651E-1
203 193 8.229360079544462E-2
203 197 2.3205167647422073E-2
203 200 8.229792975918877E-2
203 202 3.547161996036898E-1
203 204 3.932981651869573E-2
203 205 5.08577171865452E-2
203 207 2.2899281460318388E-2
203 246 1.831563888873418E-2
204 148 2.4399136243410117E-2
204 149 2.5354558364565676E-2
204 153 2.3132826287921926E-1
204 155 4.0176610371653654E-2
204 156 1.5895292489046677E-2
204 164 6.302475821335363E-2
204 171 1.831563888873418E-2
204 174 2.052361998346984E-2
204 186 4.0762203978366204E-2
204 189 4.350003888760126E-2
204 193 1.1691109984170076E-1
204 194 4.5707765251759694E-2
204 202 1.3208739422956067E-1
204 203 3.932981651869573E-2
204 208 3.881214118056339E-2
204 246 4.703277550652955E-2
205 147 8.402879471267238E-2
205 148 1.2455363309545743E-1
205 149 1.2811055005391841E-2
205 151 3.1937536511512865E-1
205 165 7.342275204556414E-2
205 171 2.2907994981548765E-1
205 173 2.3504840650908154E-1
205 180 2.0293880381212173E-2
205 186 2.1283187434985143E-1
205 189 2.8900232594349342E-2
205 191 2.1114869358065776E-2
205 193 3.9397908289303826E-2
205 200 1.4856454758662938E-1
205 202 2.2244332627306542E-2
205 203 5.08577171865452E-2
205 208 2.054233757235076E-2
205 209 3.24652105727354E-2
206 146 1.934966656315367E-2
206 150 9.601513651445842E-2
206 160 3.260332633175023E-2
206 162 1.9636889873147131E-1
206 166 3.0025122718955143E-2
206 167 6.969577634804919E-2
206 169 1.831563888873418E-2
206 196 8.446687097119956E-2
206 199 1.4436634074496756E-2
206 315 4.5492483744566026E-1
207 149 2.3095535650176774E-2
207 154 3.755114975056453E-2
207 159 3.6041763234000504E-2
207 164 7.698824246074541E-2
207 168 5.091597900416167E-2
207 170 4.1606986567292475E-2
207 174 1.831563888873418E-2
207 193 1.1137283915878173E-1
207 197 1.8110423805272877E-2
207 200 2.4228945782120724E-2
207 202 3.125465216703924E-2
207 203 2.2899281460318388E-2
207 212 1.4615962499271279E-2
207 246 4.1606986567292475E-2
208 9 1.3676900882702361E-2
208 66 2.4021318806461415E-2
208 144 8.113306539063314E-2
208 151 2.943933043331888E-2
208 153 5.620506676003416E-2
208 155 1.378054812004322E-1
208 186 2.0593750513818984E-1
208 189 5.489547607864202E-1
208 202 2.4914440787632726E-2
208 204 3.881214118056339E-2
208 205 2.054233757235076E-2
208 215 1.831563888873418E-2
209 147 1.5535088202167802E-1
209 148 4.3372441220805164E-2
209 151 1.831563888873418E-2
209 156 1.962336201975269E-2
209 161 5.715039566362559E-2
209 171 7.376310890270915E-2
209 173 1.1390234812117402E-1
209 180 9.134575669760032E-2
209 186 1.1538465886502855E-2
209 205 3.24652105727354E-2
210 175 1.0774229837877645E-1
210 181 2.9002590967470626E-1
210 185 1.831563888873418E-2
210 188 2.3460362202067674E-2
210 192 1.831563888873418E-2
210 225 1.6562226383727852E-1
210 226 1.831563888873418E-2
210 227 2.8898258610591355E-2
210 228 6.397994092782576E-2
210 242 1.738552589861767E-2
210 248 1.072273177765203E-1
210 254 2.440345040338312E-2
210 255 3.2188836419422284E-1
211 146 6.401121617212283E-3
211 157 1.5104371340054486E-2
211 172 1.831563888873418E-2
211 175 2.762480726805876E-2
211 182 9.14502839664347E-2
211 188 1.30874091301229E-1
211 195 1.831563888873418E-2
211 222 2.0928013331991645E-2
211 224 2.016380227415495E-2
211 225 1.2230151818098663E-1
211 226 2.2408401404670084E-2
211 228 4.8998730509702154E-1
211 229 2.348598658216775E-2
211 230 1.3648218558149264E-1
211 231 7.867948103672015E-2
211 232 5.3506406184092296E-2
211 233 1.831563888873418E-2
211 234 1.831563888873418E-2
211 235 1.831563888873418E-2
211 241 5.452527577743514E-2
211 242 1.4660696213035018E-1
211 251 1.3244052243464427E-1
212 154 8.530361363583897E-2
212 156 2.6727901903961616E-2
212 159 7.300086777195937E-2
212 164 1.5649227936466872E-1
212 167 1.503578977083766E-1
212 168 6.78413790558513E-2
212 181 4.094478913391591E-2
212 196 4.4309134926272684E-2
212 201 5.5347839884897686E-2
212 207 1.4615962499271279E-2
212 240 8.41629902573104E-2
212 246 6.75799157447922E-2
212 252 1.7678195198130568E-2
212 255 2.5857038988653235E-2
213 51 1.831563888873418E-2
213 144 2.962378951751673E-2
213 214 5.361688048547172E-1
213 216 2.6082541301826044E-2
213 217 1.5208741894891425E-1
213 218 9.453658212463005E-2
213 295 5.651555117764292E-2
213 303 2.5661946667246793E-1
213 313 1.7783034472610707E-2
213 316 2.1001129133407383E-2
213 319 2.4080373475223828E-2
213 329 3.2001092222807864E-2
213 332 6.359643562813118E-2
214 4 1.6916020825254386E-2
214 51 3.8976133512655345E-2
214 144 5.3948190992882214E-2
214 213 5.361688048547172E-1
214 215 1.831563888873418E-2
214 216 2.110720877910902E-1
214 217 2.818202005211628E-1
214 218 4.6067668505366935E-2
214 295 3.126608488565277E-2
214 303 1.4107744964725102E-1
214 332 3.0265656925762996E-2
215 9 4.163085258097601E-2
215 46 2.0352150640537525E-2
215 54 4.058028816504039E-2
215 119 1.6221694745959067E-2
215 131 1.0684012452217378E-1
215 144 2.0369271002964584E-1
215 184 3.382410822499089E-2
215 208 1.831563888873418E-2
215 214 1.831563888873418E-2
215 216 1.9792745158845554E-1
215 217 3.1227577694204197E-2
216 46 1.831563888873418E-2
216 51 2.1333906294028544E-2
216 135 1.8538725536992928E-2
216 142 1.7156549166585974E-2
216 144 1.7416948988774095E-1
216 184 1.9935479659028203E-2
216 213 2.6082541301826044E-2
216 214 2.110720877910902E-1
216 215 1.9792745158845554E-1
216 217 2.283221796812385E-1
217 36 2.051730738207909E-2
217 51 1.061137928480689E-1
217 85 2.5469585344656542E-2
217 119 2.717642510984153E-2
217 126 1.831563888873418E-2
217 130 1.7258345429861155E-2
217 142 1.986255617520957E-2
217 144 6.850136943845653E-2
217 213 1.5208741894891425E-1
217 214 2.818202005211628E-1
217 215 3.1227577694204197E-2
217 216 2.283221796812385E-1
218 90 1.8144808058076906E-2
218 213 9.453658212463005E-2
218 214 4.6067668505366935E-2
218 258 2.3087855241956493E-1
218 285 2.961687504455878E-2
218 290 2.77736373392021E-2
218 295 2.44896503492091E-2
218 303 2.522162424355206E-2
218 332 3.050209713044025E-2
218 336 1.831563888873418E-2
219 166 2.564978502155795E-2
219 177 3.508176303300524E-2
219 178 1.1503929237046728E-1
219 185 2.677832088556172E-1
219 192 3.772341423276577E-1
219 198 1.736713285349239E-2
219 201 3.948219511462851E-2
219 236 6.371575052573054E-2
219 240 1.0908178994501543E-1
219 255 1.831563888873418E-2
219 275 1.9891473332398345E-2
220 146 1.831563888873418E-2
220 157 7.943329466213088E-2
220 169 8.94676150161473E-2
220 172 1.3907547080116964E-1
220 181 1.602141528628455E-2
220 182 3.776652713572072E-2
220 226 1.8406648087726362E-2
220 243 4.604818574783183E-2
220 244 1.1293792172902735E-1
220 248 1.5356890073285034E-1
221 272 2.4417381007582985E-2
221 285 1.8627872934362252E-1
221 286 9.895411298180987E-2
221 293 1.831563888873418E-2
221 302 3.447874814397267E-2
221 311 2.15769121289738E-1
221 321 1.6118372199916624E-2
221 330 2.938836152468141E-2
221 332 6.98982765688098E-2
221 333 3.276054606656252E-2
222 146 1.499526206017649E-1
222 154 8.3338180552594E-2
222 166 7.500774272610765E-2
222 167 1.831563888873418E-2
222 169 3.182466018668407E-2
222 178 1.831563888873418E-2
222 181 2.863651504456512E-2
222 183 2.0450983376543032E-2
222 188 1.0235280012308202E-1
222 196 1.0719251727125112E-1
222 199 6.860253186210039E-2
222 201 4.5851244344766534E-2
222 211 2.0928013331991645E-2
222 228 6.889585684331331E-2
222 234 1.6948344949947014E-1
222 235 2.2769032746055448E-1
222 241 1.3844630372403977E-1
222 242 1.1822861245754927E-1
222 255 5.153380693290396E-2
223 99 1.8208137282553E-2
223 275 2.2390534020831687E-2
223 280 8.151318977148028E-2
223 281 1.1578768615665562E-1
223 282 1.196858992776824E-1
223 283 7.299489950414838E-2
223 284 9.942865397907978E-2
223 285 1.9801423069440896E-2
223 329 1.8862742607357402E-2
223 333 1.831563888873418E-2
224 146 1.974677898540444E-2
224 157 1.831563888873418E-2
224 172 1.9609696726419528E-2
224 182 2.176966273159004E-2
224 183 6.855260416921929E-1
224 211 2.016380227415495E-2
224 230 1.783715544527107E-2
224 241 1.9884819522632522E-2
224 242 1.901775152620079E-2
224 252 1.9563838727790364E-1
225 175 2.0693667182148534E-1
225 179 2.356720481962051E-2
225 182 2.3785158926221323E-2
225 188 4.578499403608646E-2
225 210 1.6562226383727852E-1
225 211 1.2230151818098663E-1
225 226 2.4784344973878403E-1
225 227 8.387469059754482E-2
225 228 2.2454685483380823E-1
225 230 4.712968033579779E-2
225 231 1.5763743041590653E-1
225 232 1.831563888873418E-2
225 242 1.8785245252031433E-2
225 248 4.408246821604734E-2
225 251 2.9471713963394697E-2
225 254 1.7172918031294736E-2
226 157 1.9035573076624773E-2
226 172 3.989610774612374E-2
226 175 1.831563888873418E-2
226 179 1.831563888873418E-2
226 182 3.0838492998536318E-2
226 210 1.831563888873418E-2
226 211 2.2408401404670084E-2
226 220 1.8406648087726362E-2
226 225 2.4784344973878403E-1
226 227 1.8666655678947824E-1
226 228 1.831563888873418E-2
226 230 5.0207209921884474E-2
226 231 1.831563888873418E-2
226 243 1.2652597039660993E-1
226 244 2.2576411127808206E-2
226 245 4.655161062852427E-2
226 248 5.0583644603064255E-2
226 250 2.317442724106123E-2
226 254 3.655522361831109E-2
226 256 5.486623522708036E-2
227 175 1.5327875322138302E-2
227 179 5.321934433892148E-2
227 187 1.831563888873418E-2
227 210 2.8898258610591355E-2
227 225 8.387469059754482E-2
227 226 1.8666655678947824E-1
227 228 1.5656599695626522E-2
227 231 2.0764514062696048E-2
227 237 1.281053943142813E-1
227 243 1.831563888873418E-2
227 244 2.1148016712893212E-2
227 245 5.959210668709214E-1
227 250 2.4756590951053697E-1
227 253 1.831563888873418E-2
227 254 6.2287887953007055E-2
227 256 3.081579332485393E-1
228 163 1.3763786733050402E-2
228 175 8.264915447693919E-2
228 182 1.831563888873418E-2
228 188 3.1992624169186556E-1
228 210 6.397994092782576E-2
228 211 4.8998730509702154E-1
228 222 6.889585684331331E-2
228 225 2.2454685483380823E-1
228 226 1.831563888873418E-2
228 227 1.5656599695626522E-2
228 230 3.537421366210978E-2
228 231 1.2646412470966395E-1
228 232 2.443312312933501E-2
228 233 3.052034702774742E-2
228 234 1.2245642825298195E-1
228 235 2.651465172576932E-2
228 241 1.831563888873418E-2
228 242 9.594798621701002E-2
228 251 3.4660236816385984E-2
228 255 5.036263503907789E-2
229 158 8.320178421554902E-2
229 179 1.661752699932565E-2
229 188 3.658532379836693E-2
229 211 2.348598658216775E-2
229 230 7.713777562610845E-2
229 237 3.619193703066193E-2
229 239 3.391886994942049E-2
229 251 1.831563888873418E-2
229 253 6.081006262521795E-2
229 259 1.9545356783759837E-1
230 157 1.831563888873418E-2
230 179 1.3762904714673538E-1
230 182 2.8405245942175104E-2
230 211 1.3648218558149264E-1
230 224 1.783715544527107E-2
230 225 4.712968033579779E-2
230 226 5.0207209921884474E-2
230 228 3.537421366210978E-2
230 229 7.713777562610845E-2
230 231 8.225835652917035E-2
230 243 2.8779932495034816E-2
230 251 4.256856763273878E-1
230 253 1.831563888873418E-2
231 175 3.6287435644188754E-1
231 179 2.88316201573527E-1
231 188 1.8628719173983038E-2
231 211 7.867948103672015E-2
231 225 1.5763743041590653E-1
231 226 1.831563888873418E-2
231 227 2.0764514062696048E-2
231 228 1.2646412470966395E-1
231 230 8.225835652917035E-2
231 233 3.517155110153579E-2
231 249 1.831563888873418E-2
231 251 9.784953627191775E-2
232 152 1.2270370784530382E-1
232 174 2.3064688910710715E-2
232 175 1.810571983729766E-2
232 176 4.1861167382002684E-2
232 195 5.603132439684557E-2
232 211 5.3506406184092296E-2
232 225 1.831563888873418E-2
232 228 2.443312312933501E-2
232 242 5.867539118330712E-2
232 251 6.349737219112218E-2
233 163 1.747007356245171E-1
233 177 1.635085356313907E-2
233 190 1.7489512801808955E-2
233 197 4.312458737333297E-2
233 211 1.831563888873418E-2
233 228 3.052034702774742E-2
233 231 3.517155110153579E-2
233 234 6.38146143608723E-2
233 235 2.1408405981535907E-2
233 247 2.0855185417866284E-1
233 249 4.93484186332359E-2
233 251 1.5240730698399867E-2
234 163 1.6860108801212045E-1
234 166 3.471248919206697E-2
234 177 1.301307341849855E-1
234 178 5.012233355883707E-2
234 188 1.3685588848836544E-1
234 201 5.666558407767378E-2
234 211 1.831563888873418E-2
234 222 1.6948344949947014E-1
234 228 1.2245642825298195E-1
234 233 6.38146143608723E-2
234 235 2.676917692379758E-1
234 238 1.831563888873418E-2
234 241 2.2989279676644825E-2
234 247 2.077772304066216E-2
234 249 2.110158591141836E-2
234 255 5.5213282804043445E-2
234 257 1.5731483521564886E-2
235 146 2.71348495444887E-2
235 163 3.1038482526868694E-2
235 166 5.4039890785534776E-2
235 183 1.8029361242273632E-2
235 188 5.0065986790931966E-2
235 199 7.127937063321949E-2
235 211 1.831563888873418E-2
235 222 2.2769032746055448E-1
235 228 2.651465172576932E-2
235 233 2.1408405981535907E-2
235 234 2.676917692379758E-1
235 241 3.283627411166251E-1
236 166 4.968618275223105E-2
236 178 3.7707718658524E-2
236 185 1.0981532102648295E-1
236 187 3.1035715248811737E-2
236 192 1.831563888873418E-2
236 219 6.371575052573054E-2
236 238 8.216829136015884E-2
236 250 1.6085815113101806E-2
236 257 4.8886422570834795E-2
236 300 1.831563888873418E-2
236 315 1.254372849171409E-1
237 158 1.1556816651413945E-1
237 179 2.0951475227889996E-2
237 187 2.166630787082225E-1
237 188 1.831563888873418E-2
237 227 1.281053943142813E-1
237 229 3.619193703066193E-2
237 238 1.8965447020142306E-1
237 239 1.831563888873418E-2
237 244 1.831563888873418E-2
237 245 3.103792089759625E-1
237 250 3.54972738393122E-1
237 253 1.862487247161421E-1
237 254 2.3978437431548573E-2
237 256 1.0891986428943749E-1
237 257 2.0685403007113405E-2
237 259 2.4343724788724794E-2
238 158 2.344527212036767E-2
238 166 4.586893386782828E-2
238 187 9.024484900183048E-2
238 188 7.669634426147083E-2
238 234 1.831563888873418E-2
238 236 8.216829136015884E-2
238 237 1.8965447020142306E-1
238 239 1.5503853599009314E-2
238 245 1.5150476124541656E-2
238 250 2.0256229321424424E-1
238 256 2.732372244729256E-2
238 257 5.907796076586675E-2
238 259 2.718912310218597E-2
238 315 4.712968033579779E-2
239 158 3.4035102149752716E-1
239 163 1.4956861922263506E-1
239 187 1.9361970032290433E-2
239 229 3.391886994942049E-2
239 237 1.831563888873418E-2
239 238 1.5503853599009314E-2
239 247 1.6800126265832074E-1
239 253 7.104481211802705E-2
239 257 1.529295719257221E-1
239 259 5.488116360940265E-1
240 164 3.348532336377489E-2
240 166 4.0896069881167486E-2
240 167 4.528692850504999E-2
240 168 3.370414240500719E-2
240 177 1.6410992052417486E-2
240 178 2.9479457826509003E-1
240 181 2.928364069380575E-2
240 185 3.218828957154569E-2
240 192 1.6817842576914993E-1
240 196 5.52600242046851E-2
240 198 2.0607395491780985E-2
240 201 3.7223299351455147E-1
240 212 8.41629902573104E-2
240 219 1.0908178994501543E-1
240 252 1.8842103728986485E-2
240 255 4.809953551255483E-2
241 146 1.8185502876824994E-1
241 154 2.0519828090643028E-2
241 160 2.4012838199733454E-2
241 188 1.831563888873418E-2
241 195 2.3866150580319823E-2
241 199 3.2329611763644445E-1
241 211 5.452527577743514E-2
241 222 1.3844630372403977E-1
241 224 1.9884819522632522E-2
241 228 1.831563888873418E-2
241 234 2.2989279676644825E-2
241 235 3.283627411166251E-1
241 242 8.989698196504778E-2
242 146 9.212440522976928E-2
242 152 1.5844584067987978E-2
242 154 1.2479522548865511E-1
242 169 6.040823548454772E-2
242 170 1.576863213304033E-2
242 172 1.7358182409103553E-2
242 182 8.106023051159188E-2
242 183 1.831563888873418E-2
242 188 3.5807105108572816E-2
242 195 1.1344120564253245E-1
242 199 2.304434379328906E-2
242 210 1.738552589861767E-2
242 211 1.4660696213035018E-1
242 222 1.1822861245754927E-1
242 224 1.901775152620079E-2
242 225 1.8785245252031433E-2
242 228 9.594798621701002E-2
242 232 5.867539118330712E-2
242 241 8.989698196504778E-2
243 157 1.182900778122648E-1
243 172 1.6561707655119162E-1
243 182 4.436144177290663E-2
243 220 4.604818574783183E-2
243 226 1.2652597039660993E-1
243 227 1.831563888873418E-2
243 230 2.8779932495034816E-2
243 244 1.0641756667378574E-1
243 245 2.2413833963875276E-2
243 250 1.779485063249013E-2
243 256 2.467602691441579E-2
244 157 2.096165964843503E-2
244 172 1.69013315406066E-1
244 182 1.586260463365302E-2
244 220 1.1293792172902735E-1
244 226 2.2576411127808206E-2
244 227 2.1148016712893212E-2
244 237 1.831563888873418E-2
244 243 1.0641756667378574E-1
244 245 2.9322159123893795E-2
244 248 4.5504361979128535E-2
244 250 1.4830315849916983E-1
244 254 1.831563888873418E-2
244 256 2.3692775868212182E-1
244 315 2.0845758472718592E-2
245 158 1.831563888873418E-2
245 179 3.614711634314157E-2
245 187 1.1568749346948491E-1
245 226 4.655161062852427E-2
245 227 5.959210668709214E-1
245 237 3.103792089759625E-1
245 238 1.5150476124541656E-2
245 243 2.2413833963875276E-2
245 244 2.9322159123893795E-2
245 250 3.522274099927112E-1
245 253 8.488964483600211E-2
245 254 3.612954899677669E-2
245 256 3.9174551080700565E-1
246 149 2.585523722870222E-1
246 152 2.090425641976607E-1
246 153 2.2664814461291417E-2
246 154 4.0989290880013E-2
246 156 5.2608273024898976E-2
246 159 4.6513290419206577E-1
246 164 8.559738386217755E-2
246 170 4.795783195690048E-2
246 174 4.6801297492070437E-1
246 176 7.689452010034964E-2
246 193 2.1493601345089923E-2
246 197 2.686579377443668E-2
246 203 1.831563888873418E-2
246 204 4.703277550652955E-2
246 207 4.1606986567292475E-2
246 212 6.75799157447922E-2
247 158 3.731767185377462E-2
247 163 2.4748720472356345E-1
247 177 2.9792055543480998E-2
247 233 2.0855185417866284E-1
247 234 2.077772304066216E-2
247 239 1.6800126265832074E-1
247 249 1.4622041086207712E-2
247 257 9.353969667973944E-2
247 259 8.782294916948315E-2
247 311 1.831563888873418E-2
248 169 1.4729116818176735E-1
248 172 3.043799875526958E-2
248 181 1.8394440879773666E-1
248 182 1.7743322487183834E-2
248 210 1.072273177765203E-1
248 220 1.5356890073285034E-1
248 225 4.408246821604734E-2
248 226 5.0583644603064255E-2
248 244 4.5504361979128535E-2
248 254 4.061922065614749E-2
248 256 2.463212721614086E-2
249 152 1.9659324188108274E-2
249 175 6.248296265431799E-2
249 176 7.059250130605782E-2
249 177 1.5684340768820865E-1
249 190 2.9282382291936887E-2
249 197 3.5607062797772135E-2
249 198 4.989199365755824E-2
249 231 1.831563888873418E-2
249 233 4.93484186332359E-2
249 234 2.110158591141836E-2
249 247 1.4622041086207712E-2
249 255 4.283316994327638E-2
250 172 1.831563888873418E-2
250 187 1.2189744976850563E-1
250 188 2.4811982642590203E-2
250 226 2.317442724106123E-2
250 227 2.4756590951053697E-1
250 236 1.6085815113101806E-2
250 237 3.54972738393122E-1
250 238 2.0256229321424424E-1
250 243 1.779485063249013E-2
250 244 1.4830315849916983E-1
250 245 3.522274099927112E-1
250 253 2.317442724106123E-2
250 254 2.454678890821764E-2
250 256 3.6578326770708824E-1
251 179 5.457888961360666E-2
251 182 2.2250174996147887E-2
251 211 1.3244052243464427E-1
251 225 2.9471713963394697E-2
251 228 3.4660236816385984E-2
251 229 1.831563888873418E-2
251 230 4.256856763273878E-1
251 231 9.784953627191775E-2
251 232 6.349737219112218E-2
251 233 1.5240730698399867E-2
252 164 2.0340384056006317E-2
252 168 1.952151585251656E-2
252 183 6.372555766852127E-1
252 201 1.831563888873418E-2
252 212 1.7678195198130568E-2
252 224 1.9563838727790364E-1
252 240 1.8842103728986485E-2
252 275 1.8404339034938472E-1
252 281 5.290337161267106E-2
252 282 2.0464134619587578E-2
252 284 2.2975747815433045E-2
253 158 5.02039925164814E-1
253 179 1.017013923042268E-1
253 187 1.0420054613094276E-1
253 227 1.831563888873418E-2
253 229 6.081006262521795E-2
253 230 1.831563888873418E-2
253 237 1.862487247161421E-1
253 239 7.104481211802705E-2
253 245 8.488964483600211E-2
253 250 2.317442724106123E-2
253 259 3.4021821953794405E-2
254 210 2.440345040338312E-2
254 225 1.7172918031294736E-2
254 226 3.655522361831109E-2
254 227 6.2287887953007055E-2
254 237 2.3978437431548573E-2
254 244 1.831563888873418E-2
254 245 3.612954899677669E-2
254 248 4.061922065614749E-2
254 250 2.454678890821764E-2
254 256 7.645826451623917E-2
255 152 1.831563888873418E-2
255 154 1.5593212739081428E-2
255 175 3.6331560029101005E-2
255 177 6.52576652419945E-2
255 178 3.091511465954258E-2
255 181 1.5303402876857986E-1
255 185 2.077586056997134E-2
255 192 6.1697286970993505E-2
255 198 1.831563888873418E-2
255 201 1.0509678797035985E-1
255 210 3.2188836419422284E-1
255 212 2.5857038988653235E-2
255 219 1.831563888873418E-2
255 222 5.153380693290396E-2
255 228 5.036263503907789E-2
255 234 5.5213282804043445E-2
255 240 4.809953551255483E-2
255 249 4.283316994327638E-2
256 187 3.938832941546597E-2
256 226 5.486623522708036E-2
256 227 3.081579332485393E-1
256 237 1.0891986428943749E-1
256 238 2.732372244729256E-2
256 243 2.467602691441579E-2
256 244 2.3692775868212182E-1
256 245 3.9174551080700565E-1
256 248 2.463212721614086E-2
256 250 3.6578326770708824E-1
256 254 7.645826451623917E-2
257 158 5.5591006728037885E-2
257 163 1.66181152406069E-1
257 177 2.0685403007113405E-2
257 185 2.800265216628926E-2
257 187 7.132396622761919E-2
257 234 1.5731483521564886E-2
257 236 4.8886422570834795E-2
257 237 2.0685403007113405E-2
257 238 5.907796076586675E-2
257 239 1.529295719257221E-1
257 247 9.353969667973944E-2
257 259 6.983660650627466E-2
258 6 1.917672081818754E-2
258 33 2.0639443484665558E-2
258 56 6.14089873253305E-2
258 57 2.6048906742385153E-2
258 59 3.267538518273204E-2
258 88 2.0325780214129063E-2
258 89 1.6707732979194853E-2
258 90 1.755795445581974E-1
258 99 1.831563888873418E-2
258 218 2.3087855241956493E-1
259 158 2.4108778896447028E-1
259 163 1.1544098685655767E-1
259 187 1.1292007202852221E-2
259 188 1.831563888873418E-2
259 229 1.9545356783759837E-1
259 237 2.4343724788724794E-2
259 238 2.718912310218597E-2
259 239 5.488116360940265E-1
259 247 8.782294916948315E-2
259 253 3.4021821953794405E-2
259 257 6.983660650627466E-2
260 261 2.1065053155726043E-2
260 266 6.000739260187964E-2
260 267 9.143817144632868E-2
260 268 1.560919626086028E-1
260 269 2.8015425774221833E-2
260 270 2.5752374317007964E-1
260 274 2.227710511880802E-2
260 276 1.589507554060251E-1
260 277 3.3093695499308434E-2
260 278 9.212440522976928E-2
260 279 2.0588869321494413E-1
261 260 2.1065053155726043E-2
261 262 1.4292790924313561E-2
261 263 2.1605480716840347E-2
261 269 1.831563888873418E-2
261 270 1.228929446872912E-2
261 271 7.241636295822867E-2
261 272 2.5472000782593433E-2
261 273 7.13879932870274E-2
261 274 1.7377394345044517E-1
261 276 9.663231158226945E-2
261 277 3.609597381838677E-2
261 278 2.1295664753950758E-1
261 279 2.156877964171853E-1
261 288 1.831563888873418E-2
261 292 2.270508795986297E-2
261 299 1.831563888873418E-2
261 307 1.68349868505364E-1
261 321 2.2383973845665185E-2
261 330 3.943749174171377E-2
262 261 1.4292790924313561E-2
262 264 2.6820997133113395E-1
262 265 8.346971767612422E-2
262 266 2.517918944737722E-1
262 267 8.067728742967882E-2
262 269 1.861411541133798E-1
262 270 9.442022319630239E-2
262 273 2.5495156891720612E-2
262 278 1.831563888873418E-2
262 288 4.141964474279236E-2
262 292 3.615283175404646E-2
263 96 3.6665113032391994E-1
263 261 2.1605480716840347E-2
263 273 2.250378497359852E-2
263 291 4.610088752834602E-2
263 293 2.5934687696119264E-2
263 299 3.2168048258204816E-2
263 306 1.831563888873418E-2
263 307 8.30515055890238E-2
263 309 1.3109106199471914E-2
263 318 4.165538037815169E-1
263 321 1.0708699768770441E-1
263 322 4.921212743245992E-1
263 327 1.3807847302026505E-1
264 262 2.6820997133113395E-1
264 265 3.823742540096697E-2
264 266 3.038277387074816E-1
264 267 1.7213558683924587E-1
264 269 2.83678164497131E-2
264 270 7.63451550589107E-2
264 271 1.831563888873418E-2
264 273 4.555096103924694E-2
264 275 2.5237461084375565E-2
264 278 7.806715402907313E-2
264 288 6.2459670610795055E-2
264 330 1.831563888873418E-2
265 262 8.346971767612422E-2
265 264 3.823742540096697E-2
265 266 1.5963394131754655E-2
265 288 3.182298327881009E-1
265 292 2.4169604626272653E-1
265 304 1.1750622823816564E-1
265 305 2.0629341082251E-2
265 308 8.991217368144006E-2
265 309 9.520812445209833E-3
265 312 1.831563888873418E-2
265 316 1.3333775101537343E-1
266 260 6.000739260187964E-2
266 262 2.517918944737722E-1
266 264 3.038277387074816E-1
266 265 1.5963394131754655E-2
266 267 6.963031050824888E-1
266 268 1.9890246894518706E-2
266 269 1.835435057608383E-1
266 270 2.955888542582132E-1
266 278 2.922747614959038E-2
266 288 1.831563888873418E-2
267 260 9.143817144632868E-2
267 262 8.067728742967882E-2
267 264 1.7213558683924587E-1
267 266 6.963031050824888E-1
267 268 9.373801502957829E-2
267 269 1.5050635045035463E-1
267 270 2.624416456660129E-1
267 278 3.7563841845505E-2
267 279 1.831563888873418E-2
267 288 1.2092661385811894E-2
268 260 1.560919626086028E-1
268 266 1.9890246894518706E-2
268 267 9.373801502957829E-2
268 269 4.892122832392759E-2
268 270 6.915914165553723E-2
268 272 2.0206430453239048E-2
268 274 1.2955966926790668E-2
268 276 1.6433504904657403E-1
268 277 1.1145302840140558E-1
268 279 5.735590180463914E-2
268 283 1.6287515370457334E-2
269 260 2.8015425774221833E-2
269 261 1.831563888873418E-2
269 262 1.861411541133798E-1
269 264 2.83678164497131E-2
269 266 1.835435057608383E-1
269 267 1.5050635045035463E-1
269 268 4.892122832392759E-2
269 270 1.1503716832633243E-1
269 276 1.7098748590389717E-2
269 288 3.1155951269699805E-2
269 292 2.5349405522724956E-2
270 260 2.5752374317007964E-1
270 261 1.228929446872912E-2
270 262 9.442022319630239E-2
270 264 7.63451550589107E-2
270 266 2.955888542582132E-1
270 267 2.624416456660129E-1
270 268 6.915914165553723E-2
270 269 1.1503716832633243E-1
270 271 3.267357504102293E-2
270 273 2.440545715147646E-2
270 276 5.589890283381331E-2
270 278 2.600061632337671E-2
270 279 4.2711602620138595E-2
271 261 7.241636295822867E-2
271 264 1.831563888873418E-2
271 270 3.267357504102293E-2
271 273 2.5687309068518555E-1
271 274 4.409331794974004E-2
271 275 1.7925498178845034E-2
271 277 1.7393136813751094E-2
271 278 1.0028475374817258E-1
271 279 1.1063150361998726E-1
271 307 1.2719734462597526E-1
271 330 6.331139675717595E-2
272 4 1.0149768402527293E-1
272 221 2.4417381007582985E-2
272 261 2.5472000782593433E-2
272 268 2.0206430453239048E-2
272 274 2.213652508782086E-2
272 276 1.831563888873418E-2
272 277 2.1524968895140345E-1
272 278 1.831563888873418E-2
272 279 5.749022469836473E-2
272 281 1.831563888873418E-2
272 283 2.3711006348253124E-2
272 284 2.804810528992325E-2
272 286 9.938322622365658E-2
272 303 3.426599590049084E-2
272 311 4.4655762089703135E-2
272 330 1.0512222281727603E-1
272 332 1.831563888873418E-2
273 261 7.13879932870274E-2
273 262 2.5495156891720612E-2
273 263 2.250378497359852E-2
273 264 4.555096103924694E-2
273 270 2.440545715147646E-2
273 271 2.5687309068518555E-1
273 278 4.252911823739352E-2
273 279 1.7423733692079876E-2
273 307 9.93712586328266E-2
273 322 1.831563888873418E-2
274 38 4.3295530008919836E-2
274 260 2.227710511880802E-2
274 261 1.7377394345044517E-1
274 268 1.2955966926790668E-2
274 271 4.409331794974004E-2
274 272 2.213652508782086E-2
274 276 3.7702695459472124E-1
274 277 2.0277504374986977E-1
274 278 3.6828967311954085E-2
274 279 3.959487132003934E-1
274 293 1.8048262082569776E-2
274 307 2.2668823652037925E-2
275 183 6.286621314613458E-2
275 219 1.9891473332398345E-2
275 223 2.2390534020831687E-2
275 252 1.8404339034938472E-1
275 264 2.5237461084375565E-2
275 271 1.7925498178845034E-2
275 281 1.5492215161368006E-1
275 282 7.824996553946831E-2
275 283 1.0204956516675204E-1
275 284 1.4575366320663596E-1
275 330 1.831563888873418E-2
276 260 1.589507554060251E-1
276 261 9.663231158226945E-2
276 268 1.6433504904657403E-1
276 269 1.7098748590389717E-2
276 270 5.589890283381331E-2
276 272 1.831563888873418E-2
276 274 3.7702695459472124E-1
276 277 2.9488586588559473E-1
276 278 3.6947931506477606E-2
276 279 4.461868163787222E-1
276 283 1.8474706717321904E-2
277 38 1.4741386446537346E-2
277 260 3.3093695499308434E-2
277 261 3.609597381838677E-2
277 268 1.1145302840140558E-1
277 271 1.7393136813751094E-2
277 272 2.1524968895140345E-1
277 274 2.0277504374986977E-1
277 276 2.9488586588559473E-1
277 278 1.831563888873418E-2
277 279 2.1177332331923826E-1
277 283 1.831563888873418E-2
277 284 1.7617543147709004E-2
277 330 1.9442410174544924E-2
278 260 9.212440522976928E-2
278 261 2.1295664753950758E-1
278 262 1.831563888873418E-2
278 264 7.806715402907313E-2
278 266 2.922747614959038E-2
278 267 3.7563841845505E-2
278 270 2.600061632337671E-2
278 271 1.0028475374817258E-1
278 272 1.831563888873418E-2
278 273 4.252911823739352E-2
278 274 3.6828967311954085E-2
278 276 3.6947931506477606E-2
278 277 1.831563888873418E-2
278 279 2.1754852860165994E-1
278 286 1.831563888873418E-2
278 288 7.567303934222654E-2
278 307 2.1069718187235226E-1
278 321 1.4178904749012556E-2
278 330 2.932685119265625E-1
279 260 2.0588869321494413E-1
279 261 2.156877964171853E-1
279 267 1.831563888873418E-2
279 268 5.735590180463914E-2
279 270 4.2711602620138595E-2
279 271 1.1063150361998726E-1
279 272 5.749022469836473E-2
279 273 1.7423733692079876E-2
279 274 3.959487132003934E-1
279 276 4.461868163787222E-1
279 277 2.1177332331923826E-1
279 278 2.1754852860165994E-1
279 307 1.831563888873418E-2
279 330 3.26526615635991E-2
280 223 8.151318977148028E-2
280 281 1.563551635166425E-1
280 282 2.5669993276898584E-1
280 283 2.7464087910495794E-1
280 284 1.9506312889875382E-1
280 299 1.7553617360422123E-2
280 303 1.8516301246270225E-2
280 314 1.831563888873418E-2
280 317 2.0760699139877176E-2
280 329 2.312546171584943E-2
281 4 1.8011441557291834E-2
281 183 3.44186876115288E-2
281 223 1.1578768615665562E-1
281 252 5.290337161267106E-2
281 272 1.831563888873418E-2
281 275 1.5492215161368006E-1
281 280 1.563551635166425E-1
281 282 8.91296629327321E-1
281 283 4.854551794840011E-1
281 284 8.417436264571355E-1
281 311 1.9394274407823077E-2
282 223 1.196858992776824E-1
282 252 2.0464134619587578E-2
282 275 7.824996553946831E-2
282 280 2.5669993276898584E-1
282 281 8.91296629327321E-1
282 283 5.459041211541737E-1
282 284 8.363095354722956E-1
282 285 1.8366497971375486E-2
282 311 1.8804541940337035E-2
282 332 1.7472267291096747E-2
283 223 7.299489950414838E-2
283 268 1.6287515370457334E-2
283 272 2.3711006348253124E-2
283 275 1.0204956516675204E-1
283 276 1.8474706717321904E-2
283 277 1.831563888873418E-2
283 280 2.7464087910495794E-1
283 281 4.854551794840011E-1
283 282 5.459041211541737E-1
283 284 7.753210534586761E-1
283 303 1.984697809051643E-2
284 4 1.9264680889843788E-2
284 223 9.942865397907978E-2
284 252 2.2975747815433045E-2
284 272 2.804810528992325E-2
284 275 1.4575366320663596E-1
284 277 1.7617543147709004E-2
284 280 1.9506312889875382E-1
284 281 8.417436264571355E-1
284 282 8.363095354722956E-1
284 283 7.753210534586761E-1
284 311 1.831563888873418E-2
285 4 2.8398938571058074E-2
285 218 2.961687504455878E-2
285 221 1.8627872934362252E-1
285 223 1.9801423069440896E-2
285 282 1.8366497971375486E-2
285 286 2.766134581620728E-2
285 289 2.0348728673224792E-2
285 295 1.831563888873418E-2
285 302 3.1002599892108035E-2
285 303 3.551473471347239E-2
285 311 3.711206488531218E-1
285 329 1.8969700548269255E-2
285 332 1.6179445082910116E-1
285 333 1.4077776007559578E-2
286 190 2.6495795186978074E-2
286 221 9.895411298180987E-2
286 272 9.938322622365658E-2
286 278 1.831563888873418E-2
286 285 2.766134581620728E-2
286 289 9.216445061285103E-2
286 291 1.6218859501317268E-2
286 293 3.165410186517721E-2
286 302 2.722833970678948E-1
286 307 1.9228383560035672E-2
286 311 8.424377227603166E-2
286 320 8.932633433561428E-2
286 321 2.1979849452359885E-2
286 330 3.514834315818313E-1
286 332 3.854409451606453E-2
287 96 1.3447755160476249E-2
287 290 4.0273726353604516E-2
287 294 5.891882470586962E-2
287 297 8.050765667748642E-2
287 298 1.359262660691278E-1
287 305 3.539511069923439E-1
287 306 3.699723443933638E-2
287 308 3.052034702774742E-2
287 309 4.266093943573762E-2
287 310 4.5079257508619475E-1
287 312 5.293050193270879E-2
287 318 1.831563888873418E-2
287 325 2.2234031969977813E-1
287 327 3.288843685568854E-2
288 261 1.831563888873418E-2
288 262 4.141964474279236E-2
288 264 6.2459670610795055E-2
288 265 3.182298327881009E-1
288 266 1.831563888873418E-2
288 267 1.2092661385811894E-2
288 269 3.1155951269699805E-2
288 278 7.567303934222654E-2
288 291 3.5048150009019015E-2
288 292 2.6721729980691106E-1
288 304 9.222898508598687E-2
288 307 1.85330326588158E-2
288 316 7.030817098886433E-2
288 321 1.4810937060882937E-2
288 330 2.3190517799166005E-2
289 4 1.831563888873418E-2
289 68 1.0088386141640156E-1
289 87 3.4484972194093716E-2
289 190 2.2893023238317316E-2
289 285 2.0348728673224792E-2
289 286 9.216445061285103E-2
289 293 3.186243072029721E-2
289 302 3.018756464904414E-1
289 311 3.50883141837011E-2
289 320 7.411761903392539E-1
289 334 4.8950330778943445E-2
289 335 3.4484972194093716E-2
290 218 2.77736373392021E-2
290 287 4.0273726353604516E-2
290 298 2.7598581412000767E-1
290 305 3.2194725723838635E-2
290 306 2.2715341471049984E-2
290 308 6.036657636787367E-2
290 310 1.831563888873418E-2
290 312 1.2126276467813449E-1
290 314 3.137365134106018E-2
290 316 1.9453658495103644E-2
290 329 1.2062505085241064E-2
291 96 2.5288150444578536E-2
291 263 4.610088752834602E-2
291 286 1.6218859501317268E-2
291 288 3.5048150009019015E-2
291 292 4.599218043585177E-2
291 293 5.803463285401572E-2
291 295 2.1662603802022222E-2
291 296 7.98279934528434E-2
291 299 7.359373329661212E-2
291 302 2.6725159947932745E-2
291 304 1.9369493626535138E-2
291 307 1.912653386563193E-2
291 309 3.49150011524296E-2
291 313 1.874939294105839E-1
291 314 2.5541302472932695E-2
291 316 1.831563888873418E-2
291 317 3.9642714174525806E-2
291 318 2.0616639124426937E-2
291 319 3.962857112945218E-1
291 321 3.7993999923303895E-1
291 322 2.6571741520398855E-2
291 324 9.255721219814363E-2
291 329 1.3735517561797742E-1
291 333 2.81775203615555E-2
291 334 1.831563888873418E-2
291 335 3.2947363490519896E-2
292 261 2.270508795986297E-2
292 262 3.615283175404646E-2
292 265 2.4169604626272653E-1
292 269 2.5349405522724956E-2
292 288 2.6721729980691106E-1
292 291 4.599218043585177E-2
292 299 1.5859012661952593E-1
292 304 1.6876360348552475E-2
292 305 1.831563888873418E-2
292 306 4.26642349255439E-2
292 308 2.992828058489491E-2
292 316 2.339412129269963E-1
293 4 3.3414243890063054E-2
293 38 4.300658716609939E-2
293 96 1.831563888873418E-2
293 221 1.831563888873418E-2
293 263 2.5934687696119264E-2
293 274 1.8048262082569776E-2
293 286 3.165410186517721E-2
293 289 3.186243072029721E-2
293 291 5.803463285401572E-2
293 307 5.032920897482124E-2
293 313 3.284162891219065E-2
293 320 6.815366538789101E-2
293 321 3.8155371082509687E-1
293 324 1.831563888873418E-2
293 330 2.505904656880449E-2
293 333 3.6901312114211815E-1
293 334 2.687782434543997E-1
293 335 8.238512625587038E-2
294 287 5.891882470586962E-2
294 300 3.606926903009721E-2
294 304 1.4603010530722662E-2
294 305 6.717547228160158E-2
294 308 3.0949147146926138E-2
294 309 1.831563888873418E-2
294 310 1.05046391333776E-1
294 312 1.9909814578764815E-2
294 323 1.9791480220406887E-2
294 325 4.120194781641236E-2
295 4 2.992076811275227E-2
295 23 9.359825130288246E-3
295 99 4.008379196469361E-2
295 213 5.651555117764292E-2
295 214 3.126608488565277E-2
295 218 2.44896503492091E-2
295 285 1.831563888873418E-2
295 291 2.1662603802022222E-2
295 303 2.3530902636564554E-2
295 313 3.045831407682175E-1
295 314 1.618750809524858E-2
295 317 1.4400298706420189E-2
295 319 3.389067471417904E-2
295 328 1.2100927155636708E-1
295 329 2.290903794437192E-2
295 334 1.6006619474205058E-1
295 335 4.4432952820458466E-1
296 291 7.98279934528434E-2
296 300 4.992441191776222E-2
296 302 1.0634759567265514E-1
296 303 1.3754991981443643E-2
296 304 3.485204872207542E-2
296 308 2.0516520841381006E-2
296 309 7.301427041896305E-2
296 312 3.33278950251585E-2
296 313 3.968564279040485E-2
296 316 1.7828873539235193E-2
296 319 4.2212511341567055E-1
296 323 1.953046320982634E-2
296 324 2.0838193670452712E-2
296 329 2.7731531685814048E-2
296 332 3.5673993347252395E-2
296 336 1.018248537668332E-1
297 96 5.832111663489725E-2
297 287 8.050765667748642E-2
297 298 2.441840077792229E-2
297 309 9.071795328941247E-2
297 310 9.402645459192877E-2
297 313 4.817881772066273E-2
297 314 1.831563888873418E-2
297 319 2.2707168148712487E-2
297 324 3.248861133102953E-2
297 325 3.373726530471217E-1
297 327 1.831563888873418E-2
297 336 4.318549816190019E-2
298 287 1.359262660691278E-1
298 290 2.7598581412000767E-1
298 297 2.441840077792229E-2
298 305 5.0332375852582274E-2
298 306 7.987973279913996E-2
298 308 1.831563888873418E-2
298 310 3.171452845662103E-2
298 312 5.303415324525153E-2
298 314 1.2900162430031836E-1
298 319 1.0670151544687874E-2
299 261 1.831563888873418E-2
299 263 3.2168048258204816E-2
299 280 1.7553617360422123E-2
299 291 7.359373329661212E-2
299 292 1.5859012661952593E-1
299 306 1.3342019348957126E-1
299 316 1.3900060741464356E-2
299 317 2.8241777969303217E-1
299 318 3.368156588382332E-2
299 321 4.489412783991957E-2
299 329 7.53051392214976E-2
300 236 1.831563888873418E-2
300 294 3.606926903009721E-2
300 296 4.992441191776222E-2
300 302 2.283149526263713E-2
300 304 2.9743296052666252E-2
300 308 1.831563888873418E-2
300 309 2.386035008196942E-2
300 310 2.399217488614828E-2
300 323 1.147167472674884E-1
300 336 1.8223115072069865E-1
301 5 3.285240460856262E-2
301 8 1.831563888873418E-2
301 27 3.458834820910759E-2
301 41 1.8845911876651075E-1
301 44 1.6951151199621856E-1
301 60 1.3328098612313105E-2
301 91 2.5169578771918506E-2
301 101 9.128010767449216E-2
301 113 1.4337196583615465E-2
301 122 3.647025514559064E-2
301 133 6.0328719006313355E-2
301 134 4.832158241906394E-2
301 136 2.659350132184073E-1
301 139 2.9505493638298574E-2
302 221 3.447874814397267E-2
302 285 3.1002599892108035E-2
302 286 2.722833970678948E-1
302 289 3.018756464904414E-1
302 291 2.6725159947932745E-2
302 296 1.0634759567265514E-1
302 300 2.283149526263713E-2
302 309 2.285691392432654E-2
302 311 3.38436288432533E-2
302 313 1.831563888873418E-2
302 319 4.055031515729869E-2
302 320 3.768736058939651E-1
302 321 1.831563888873418E-2
302 323 5.661056598429062E-2
302 330 2.238480181610483E-2
302 332 1.9907342077733692E-2
302 336 3.318955138704048E-2
303 213 2.5661946667246793E-1
303 214 1.4107744964725102E-1
303 218 2.522162424355206E-2
303 272 3.426599590049084E-2
303 280 1.8516301246270225E-2
303 283 1.984697809051643E-2
303 285 3.551473471347239E-2
303 295 2.3530902636564554E-2
303 296 1.3754991981443643E-2
303 311 1.994077169553985E-2
303 316 3.063970344099181E-2
303 319 1.831563888873418E-2
303 329 6.644309606078774E-2
303 332 3.5733456683951004E-1
304 265 1.1750622823816564E-1
304 288 9.222898508598687E-2
304 291 1.9369493626535138E-2
304 292 1.6876360348552475E-2
304 294 1.4603010530722662E-2
304 296 3.485204872207542E-2
304 300 2.9743296052666252E-2
304 305 1.7319122242976256E-2
304 308 5.1558666463021575E-2
304 309 2.0302917431976075E-1
304 310 2.4568412489124922E-2
304 312 2.4043486361752728E-2
304 319 1.831563888873418E-2
304 323 4.7120559227209105E-2
304 324 5.013644987499204E-2
305 265 2.0629341082251E-2
305 287 3.539511069923439E-1
305 290 3.2194725723838635E-2
305 292 1.831563888873418E-2
305 294 6.717547228160158E-2
305 298 5.0332375852582274E-2
305 304 1.7319122242976256E-2
305 306 5.837572712964133E-2
305 308 1.9087426791296744E-1
305 309 8.22291337908023E-2
305 310 5.027213199781867E-1
305 312 7.53935151522377E-2
305 316 2.1528366564116035E-2
305 318 1.3149639347954042E-2
305 319 3.0785799380861296E-2
305 325 6.569010211741101E-2
305 327 4.8239410471958774E-2
306 96 1.3642889387087243E-2
306 263 1.831563888873418E-2
306 287 3.699723443933638E-2
306 290 2.2715341471049984E-2
306 292 4.26642349255439E-2
306 298 7.987973279913996E-2
306 299 1.3342019348957126E-1
306 305 5.837572712964133E-2
306 314 1.9025116544238697E-2
306 317 6.23902170870237E-2
306 318 1.3727786184154966E-1
307 96 1.831563888873418E-2
307 261 1.68349868505364E-1
307 263 8.30515055890238E-2
307 271 1.2719734462597526E-1
307 273 9.93712586328266E-2
307 274 2.2668823652037925E-2
307 278 2.1069718187235226E-1
307 279 1.831563888873418E-2
307 286 1.9228383560035672E-2
307 288 1.85330326588158E-2
307 291 1.912653386563193E-2
307 293 5.032920897482124E-2
307 321 6.718125520067378E-2
307 322 8.967597826931853E-2
307 330 1.543799421795598E-1
308 265 8.991217368144006E-2
308 287 3.052034702774742E-2
308 290 6.036657636787367E-2
308 292 2.992828058489491E-2
308 294 3.0949147146926138E-2
308 296 2.0516520841381006E-2
308 298 1.831563888873418E-2
308 300 1.831563888873418E-2
308 304 5.1558666463021575E-2
308 305 1.9087426791296744E-1
308 309 1.831563888873418E-2
308 310 5.306858142476406E-2
308 312 5.064791561557569E-1
308 316 1.9600215407574684E-1
308 319 1.9942670093453067E-2
309 96 5.898870130473192E-2
309 263 1.3109106199471914E-2
309 265 9.520812445209833E-3
309 287 4.266093943573762E-2
309 291 3.49150011524296E-2
309 294 1.831563888873418E-2
309 296 7.301427041896305E-2
309 297 9.071795328941247E-2
309 300 2.386035008196942E-2
309 302 2.285691392432654E-2
309 304 2.0302917431976075E-1
309 305 8.22291337908023E-2
309 308 1.831563888873418E-2
309 310 2.0120152206252734E-1
309 312 1.831563888873418E-2
309 319 9.564542278636143E-2
309 322 6.736198650555973E-2
309 323 1.316612509290092E-1
309 324 1.6901331540606618E-1
309 325 2.789854233226987E-1
309 327 7.76490817034759E-2
309 336 4.069302757753985E-2
310 96 1.831563888873418E-2
310 287 4.5079257508619475E-1
310 290 1.831563888873418E-2
310 294 1.05046391333776E-1
310 297 9.402645459192877E-2
310 298 3.171452845662103E-2
310 300 2.399217488614828E-2
310 304 2.4568412489124922E-2
310 305 5.027213199781867E-1
310 308 5.306858142476406E-2
310 309 2.0120152206252734E-1
310 312 4.812210685682051E-2
310 319 1.9246746930726116E-2
310 323 3.958291084566474E-2
310 325 4.209470492552837E-1
310 327 5.6173489816271335E-2
310 336 2.3035917816798666E-2
311 4 2.4013967498211865E-2
311 190 4.2687627542115386E-2
311 221 2.15769121289738E-1
311 247 1.831563888873418E-2
311 272 4.4655762089703135E-2
311 281 1.9394274407823077E-2
311 282 1.8804541940337035E-2
311 284 1.831563888873418E-2
311 285 3.711206488531218E-1
311 286 8.424377227603166E-2
311 289 3.50883141837011E-2
311 302 3.38436288432533E-2
311 303 1.994077169553985E-2
311 332 1.2086328622245424E-1
312 265 1.831563888873418E-2
312 287 5.293050193270879E-2
312 290 1.2126276467813449E-1
312 294 1.9909814578764815E-2
312 296 3.33278950251585E-2
312 298 5.303415324525153E-2
312 304 2.4043486361752728E-2
312 305 7.53935151522377E-2
312 308 5.064791561557569E-1
312 309 1.831563888873418E-2
312 310 4.812210685682051E-2
312 316 3.5915032928899956E-2
312 319 1.831563888873418E-2
312 336 1.7112594741061655E-2
313 99 2.8814544556403775E-2
313 213 1.7783034472610707E-2
313 291 1.874939294105839E-1
313 293 3.284162891219065E-2
313 295 3.045831407682175E-1
313 296 3.968564279040485E-2
313 297 4.817881772066273E-2
313 302 1.831563888873418E-2
313 314 7.911782340154652E-2
313 317 3.914407029804428E-2
313 319 2.453771957969796E-1
313 320 1.9037345868379275E-2
313 321 7.633015330912342E-2
313 328 1.7205950425851397E-2
313 329 7.264125831489247E-2
313 333 2.522297483522721E-2
313 334 2.1210776819020918E-1
313 335 4.217105404733013E-1
314 99 1.553254355218133E-1
314 280 1.831563888873418E-2
314 290 3.137365134106018E-2
314 291 2.5541302472932695E-2
314 295 1.618750809524858E-2
314 297 1.831563888873418E-2
314 298 1.2900162430031836E-1
314 306 1.9025116544238697E-2
314 313 7.911782340154652E-2
314 317 2.1252543860537734E-1
314 319 2.5060539344950287E-2
314 329 9.844179824313673E-2
315 146 1.831563888873418E-2
315 150 1.7411351308865165E-2
315 162 6.25481175435105E-2
315 166 9.362151345015762E-2
315 167 2.4265345737583554E-2
315 196 4.7931868456441526E-2
315 206 4.5492483744566026E-1
315 236 1.254372849171409E-1
315 238 4.712968033579779E-2
315 244 2.0845758472718592E-2
316 213 2.1001129133407383E-2
316 265 1.3333775101537343E-1
316 288 7.030817098886433E-2
316 290 1.9453658495103644E-2
316 291 1.831563888873418E-2
316 292 2.339412129269963E-1
316 296 1.7828873539235193E-2
316 299 1.3900060741464356E-2
316 303 3.063970344099181E-2
316 305 2.1528366564116035E-2
316 308 1.9600215407574684E-1
316 312 3.5915032928899956E-2
316 319 3.689558806702639E-2
316 329 2.5995504757998927E-2
317 99 4.854245730200969E-2
317 280 2.0760699139877176E-2
317 291 3.9642714174525806E-2
317 295 1.4400298706420189E-2
317 299 2.8241777969303217E-1
317 306 6.23902170870237E-2
317 313 3.914407029804428E-2
317 314 2.1252543860537734E-1
317 321 2.962942446134405E-2
317 328 1.831563888873418E-2
317 329 1.1480078443927157E-1
317 333 1.5416642175524645E-2
318 96 2.564178994917233E-1
318 263 4.165538037815169E-1
318 287 1.831563888873418E-2
318 291 2.0616639124426937E-2
318 299 3.368156588382332E-2
318 305 1.3149639347954042E-2
318 306 1.3727786184154966E-1
318 321 2.5814866457355264E-2
318 322 2.2247098733415954E-1
318 327 1.5784308913485165E-1
319 213 2.4080373475223828E-2
319 291 3.962857112945218E-1
319 295 3.389067471417904E-2
319 296 4.2212511341567055E-1
319 297 2.2707168148712487E-2
319 298 1.0670151544687874E-2
319 302 4.055031515729869E-2
319 303 1.831563888873418E-2
319 304 1.831563888873418E-2
319 305 3.0785799380861296E-2
319 308 1.9942670093453067E-2
319 309 9.564542278636143E-2
319 310 1.9246746930726116E-2
319 312 1.831563888873418E-2
319 313 2.453771957969796E-1
319 314 2.5060539344950287E-2
319 316 3.689558806702639E-2
319 321 4.6988553961293734E-2
319 324 2.775805000240372E-2
319 329 1.3735517561797742E-1
319 332 1.8098888310522254E-2
319 335 2.7233545227473777E-2
319 336 1.831563888873418E-2
320 68 4.455142624448965E-2
320 286 8.932633433561428E-2
320 289 7.411761903392539E-1
320 293 6.815366538789101E-2
320 302 3.768736058939651E-1
320 313 1.9037345868379275E-2
320 321 1.831563888873418E-2
320 323 1.7655688591890786E-2
320 334 6.069266871842021E-2
320 335 3.432159001495333E-2
321 96 2.7259882003360877E-2
321 221 1.6118372199916624E-2
321 261 2.2383973845665185E-2
321 263 1.0708699768770441E-1
321 278 1.4178904749012556E-2
321 286 2.1979849452359885E-2
321 288 1.4810937060882937E-2
321 291 3.7993999923303895E-1
321 293 3.8155371082509687E-1
321 299 4.489412783991957E-2
321 302 1.831563888873418E-2
321 307 6.718125520067378E-2
321 313 7.633015330912342E-2
321 317 2.962942446134405E-2
321 318 2.5814866457355264E-2
321 319 4.6988553961293734E-2
321 320 1.831563888873418E-2
321 322 4.2307508715668025E-2
321 324 1.1476433065332403E-1
321 329 2.57515809083157E-2
321 330 1.9500716407617535E-2
321 333 1.8072671858121125E-1
321 334 6.1663095704618795E-2
321 335 3.746291870626375E-2
322 96 5.722727675712237E-1
322 263 4.921212743245992E-1
322 273 1.831563888873418E-2
322 291 2.6571741520398855E-2
322 307 8.967597826931853E-2
322 309 6.736198650555973E-2
322 318 2.2247098733415954E-1
322 321 4.2307508715668025E-2
322 323 1.7982636530303783E-2
322 324 4.5847377651874174E-2
322 325 4.229355505197014E-2
322 327 4.035691593156431E-1
323 294 1.9791480220406887E-2
323 296 1.953046320982634E-2
323 300 1.147167472674884E-1
323 302 5.661056598429062E-2
323 304 4.7120559227209105E-2
323 309 1.316612509290092E-1
323 310 3.958291084566474E-2
323 320 1.7655688591890786E-2
323 322 1.7982636530303783E-2
323 325 5.661056598429062E-2
323 327 2.7676932808808716E-2
323 336 2.465538152379963E-2
324 96 8.61545154795365E-2
324 291 9.255721219814363E-2
324 293 1.831563888873418E-2
324 296 2.0838193670452712E-2
324 297 3.248861133102953E-2
324 304 5.013644987499204E-2
324 309 1.6901331540606618E-1
324 319 2.775805000240372E-2
324 321 1.1476433065332403E-1
324 322 4.5847377651874174E-2
324 325 1.831563888873418E-2
324 327 1.1743628457021371E-2
325 96 1.353352832366127E-1
325 287 2.2234031969977813E-1
325 294 4.120194781641236E-2
325 297 3.373726530471217E-1
325 305 6.569010211741101E-2
325 309 2.789854233226987E-1
325 310 4.209470492552837E-1
325 322 4.229355505197014E-2
325 323 5.661056598429062E-2
325 324 1.831563888873418E-2
325 327 1.984890633997345E-1
325 336 2.2841112066691316E-2
326 9 1.831563888873418E-2
326 16 1.6232061118184818E-1
326 26 3.516123000684181E-1
326 27 2.1937695366934712E-2
326 42 3.629193445842106E-1
326 44 6.477457554835711E-2
326 46 2.8009228356754734E-2
326 63 4.178333379659274E-2
326 66 2.49601134435756E-2
326 70 4.135223771569166E-2
326 80 4.3080261519743523E-1
326 91 3.147232733549361E-2
326 112 1.991602954959136E-2
326 120 1.1502547815121655E-1
327 96 3.353459502854703E-1
327 263 1.3807847302026505E-1
327 287 3.288843685568854E-2
327 297 1.831563888873418E-2
327 305 4.8239410471958774E-2
327 309 7.76490817034759E-2
327 310 5.6173489816271335E-2
327 318 1.5784308913485165E-1
327 322 4.035691593156431E-1
327 323 2.7676932808808716E-2
327 324 1.1743628457021371E-2
327 325 1.984890633997345E-1
328 4 7.150150290763013E-2
328 14 2.0961138715109784E-1
328 23 3.938481275733556E-2
328 45 1.831563888873418E-2
328 98 1.5236421370970554E-1
328 99 7.358051721811718E-2
328 295 1.2100927155636708E-1
328 313 1.7205950425851397E-2
328 317 1.831563888873418E-2
328 333 3.7397409332182774E-2
328 334 1.3117145431019428E-1
328 335 1.2516467608766013E-1
329 99 4.5501613159510046E-3
329 213 3.2001092222807864E-2
329 223 1.8862742607357402E-2
329 280 2.312546171584943E-2
329 285 1.8969700548269255E-2
329 290 1.2062505085241064E-2
329 291 1.3735517561797742E-1
329 295 2.290903794437192E-2
329 296 2.7731531685814048E-2
329 299 7.53051392214976E-2
329 303 6.644309606078774E-2
329 313 7.264125831489247E-2
329 314 9.844179824313673E-2
329 316 2.5995504757998927E-2
329 317 1.1480078443927157E-1
329 319 1.3735517561797742E-1
329 321 2.57515809083157E-2
329 332 4.80403360917092E-2
330 221 2.938836152468141E-2
330 261 3.943749174171377E-2
330 264 1.831563888873418E-2
330 271 6.331139675717595E-2
330 272 1.0512222281727603E-1
330 275 1.831563888873418E-2
330 277 1.9442410174544924E-2
330 278 2.932685119265625E-1
330 279 3.26526615635991E-2
330 286 3.514834315818313E-1
330 288 2.3190517799166005E-2
330 293 2.505904656880449E-2
330 302 2.238480181610483E-2
330 307 1.543799421795598E-1
330 321 1.9500716407617535E-2
331 43 2.4737821657261457E-2
331 61 7.318799887012897E-1
331 63 1.0156967297582396E-2
331 68 1.0739798348458635E-1
331 70 1.831563888873418E-2
331 78 1.3072203492696616E-1
331 85 1.501750361952547E-1
331 86 1.27734234283836E-1
331 87 1.3072203492696616E-1
331 145 2.0050092552026985E-1
332 213 6.359643562813118E-2
332 214 3.0265656925762996E-2
332 218 3.050209713044025E-2
332 221 6.98982765688098E-2
332 272 1.831563888873418E-2
332 282 1.7472267291096747E-2
332 285 1.6179445082910116E-1
332 286 3.854409451606453E-2
332 296 3.5673993347252395E-2
332 302 1.9907342077733692E-2
332 303 3.5733456683951004E-1
332 311 1.2086328622245424E-1
332 319 1.8098888310522254E-2
332 329 4.80403360917092E-2
333 38 3.2249808421433726E-2
333 45 1.831563888873418E-2
333 99 4.2819176367420934E-2
333 221 3.276054606656252E-2
333 223 1.831563888873418E-2
333 285 1.4077776007559578E-2
333 291 2.81775203615555E-2
333 293 3.6901312114211815E-1
333 313 2.522297483522721E-2
333 317 1.5416642175524645E-2
333 321 1.8072671858121125E-1
333 328 3.7397409332182774E-2
333 334 1.1321557453317832E-1
333 335 3.6041763234000504E-2
334 4 6.0216074085576415E-2
334 23 2.3095535650176774E-2
334 33 1.9676791932882482E-2
334 98 2.57515809083157E-2
334 99 2.1750359344450333E-2
334 289 4.8950330778943445E-2
334 291 1.831563888873418E-2
334 293 2.687782434543997E-1
334 295 1.6006619474205058E-1
334 313 2.1210776819020918E-1
334 320 6.069266871842021E-2
334 321 6.1663095704618795E-2
334 328 1.3117145431019428E-1
334 333 1.1321557453317832E-1
334 335 7.056585115389087E-1
335 4 4.4309134926272684E-2
335 23 1.9710466210683918E-2
335 33 1.831563888873418E-2
335 98 1.361890611228618E-2
335 99 2.2794180883612354E-2
335 289 3.4484972194093716E-2
335 291 3.2947363490519896E-2
335 293 8.238512625587038E-2
335 295 4.4432952820458466E-1
335 313 4.217105404733013E-1
335 319 2.7233545227473777E-2
335 320 3.432159001495333E-2
335 321 3.746291870626375E-2
335 328 1.2516467608766013E-1
335 333 3.6041763234000504E-2
335 334 7.056585115389087E-1
336 218 1.831563888873418E-2
336 296 1.018248537668332E-1
336 297 4.318549816190019E-2
336 300 1.8223115072069865E-1
336 302 3.318955138704048E-2
336 309 4.069302757753985E-2
336 310 2.3035917816798666E-2
336 312 1.7112594741061655E-2
336 319 1.831563888873418E-2
336 323 2.465538152379963E-2
336 325 2.2841112066691316E-2
