%%MatrixMarket matrix coordinate real general
%
560 560 8736
1 2 1
1 3 1
1 5 1
1 9 1
1 10 1
1 15 1
1 17 1
1 19 1
1 20 1
1 21 1
1 107 1
1 108 1
1 111 1
1 113 1
2 1 1
2 5 1
2 6 1
2 8 1
2 10 1
2 29 1
2 31 1
2 32 1
2 33 1
2 106 1
2 119 1
2 120 1
2 123 1
2 125 1
3 1 1
3 4 1
3 5 1
3 11 1
3 12 1
3 28 1
3 40 1
3 42 1
3 43 1
3 44 1
3 107 1
3 131 1
3 134 1
3 136 1
4 3 1
4 6 1
4 12 1
4 14 1
4 29 1
4 52 1
4 53 1
4 54 1
4 108 1
4 131 1
4 144 1
4 146 1
5 1 1
5 2 1
5 3 1
5 6 1
5 11 1
5 13 1
5 30 1
5 51 1
5 61 1
5 62 1
5 63 1
5 109 1
5 132 1
5 142 1
5 153 1
5 155 1
6 2 1
6 4 1
6 5 1
6 13 1
6 14 1
6 31 1
6 52 1
6 70 1
6 71 1
6 110 1
6 133 1
6 143 1
6 161 1
6 163 1
7 8 1
7 9 1
7 11 1
7 13 1
7 32 1
7 53 1
7 70 1
7 78 1
7 111 1
7 134 1
7 144 1
7 170 1
8 2 1
8 7 1
8 10 1
8 11 1
8 12 1
8 33 1
8 54 1
8 71 1
8 78 1
8 112 1
8 135 1
8 145 1
8 169 1
8 176 1
9 1 1
9 7 1
9 10 1
9 13 1
9 14 1
9 34 1
9 55 1
9 72 1
9 79 1
9 85 1
9 113 1
9 136 1
9 146 1
9 170 1
10 1 1
10 2 1
10 8 1
10 9 1
10 12 1
10 14 1
10 35 1
10 56 1
10 73 1
10 80 1
10 86 1
10 114 1
10 137 1
10 147 1
10 171 1
10 182 1
11 3 1
11 5 1
11 7 1
11 8 1
11 12 1
11 13 1
11 36 1
11 57 1
11 74 1
11 81 1
11 87 1
11 115 1
11 138 1
11 148 1
11 172 1
11 183 1
12 3 1
12 4 1
12 8 1
12 10 1
12 11 1
12 14 1
12 37 1
12 58 1
12 75 1
12 82 1
12 88 1
12 116 1
12 139 1
12 149 1
12 173 1
12 184 1
13 5 1
13 6 1
13 7 1
13 9 1
13 11 1
13 14 1
13 38 1
13 59 1
13 76 1
13 83 1
13 89 1
13 117 1
13 140 1
13 150 1
13 174 1
13 185 1
14 4 1
14 6 1
14 9 1
14 10 1
14 12 1
14 13 1
14 39 1
14 60 1
14 77 1
14 84 1
14 90 1
14 118 1
14 141 1
14 151 1
14 175 1
14 186 1
15 1 1
15 18 1
15 19 1
15 21 1
15 23 1
15 28 1
15 30 1
15 34 1
15 35 1
15 106 1
15 197 1
15 198 1
15 201 1
15 203 1
16 17 1
16 18 1
16 24 1
16 25 1
16 28 1
16 41 1
16 45 1
16 46 1
16 107 1
16 209 1
16 212 1
16 214 1
17 1 1
17 16 1
17 19 1
17 25 1
17 27 1
17 29 1
17 40 1
17 51 1
17 55 1
17 56 1
17 108 1
17 209 1
17 222 1
17 224 1
18 15 1
18 16 1
18 19 1
18 24 1
18 26 1
18 30 1
18 41 1
18 64 1
18 65 1
18 109 1
18 210 1
18 220 1
18 231 1
18 233 1
19 1 1
19 15 1
19 17 1
19 18 1
19 26 1
19 27 1
19 31 1
19 42 1
19 61 1
19 72 1
19 73 1
19 110 1
19 211 1
19 221 1
19 239 1
19 241 1
20 1 1
20 21 1
20 22 1
20 24 1
20 26 1
20 32 1
20 43 1
20 62 1
20 79 1
20 80 1
20 111 1
20 212 1
20 222 1
20 248 1
21 1 1
21 15 1
21 20 1
21 23 1
21 24 1
21 25 1
21 33 1
21 44 1
21 63 1
21 85 1
21 86 1
21 112 1
21 213 1
21 223 1
21 247 1
21 254 1
22 20 1
22 23 1
22 26 1
22 27 1
22 34 1
22 45 1
22 64 1
22 91 1
22 113 1
22 214 1
22 224 1
22 248 1
23 15 1
23 21 1
23 22 1
23 25 1
23 27 1
23 35 1
23 46 1
23 65 1
23 91 1
23 114 1
23 215 1
23 225 1
23 249 1
23 260 1
24 16 1
24 18 1
24 20 1
24 21 1
24 25 1
24 26 1
24 36 1
24 47 1
24 66 1
24 92 1
24 96 1
24 115 1
24 216 1
24 226 1
24 250 1
24 261 1
25 16 1
25 17 1
25 21 1
25 23 1
25 24 1
25 27 1
25 37 1
25 48 1
25 67 1
25 93 1
25 97 1
25 116 1
25 217 1
25 227 1
25 251 1
25 262 1
26 18 1
26 19 1
26 20 1
26 22 1
26 24 1
26 27 1
26 38 1
26 49 1
26 68 1
26 94 1
26 98 1
26 117 1
26 218 1
26 228 1
26 252 1
26 263 1
27 17 1
27 19 1
27 22 1
27 23 1
27 25 1
27 26 1
27 39 1
27 50 1
27 69 1
27 95 1
27 99 1
27 118 1
27 219 1
27 229 1
27 253 1
27 264 1
28 3 1
28 15 1
28 16 1
28 29 1
28 30 1
28 36 1
28 37 1
28 41 1
28 42 1
28 44 1
28 46 1
28 119 1
28 197 1
28 275 1
28 278 1
28 280 1
29 2 1
29 4 1
29 17 1
29 28 1
29 31 1
29 37 1
29 39 1
29 51 1
29 52 1
29 54 1
29 56 1
29 120 1
29 198 1
29 275 1
29 288 1
29 290 1
30 5 1
30 15 1
30 18 1
30 28 1
30 31 1
30 36 1
30 38 1
30 61 1
30 63 1
30 65 1
30 121 1
30 199 1
30 276 1
30 286 1
30 297 1
30 299 1
31 2 1
31 6 1
31 19 1
31 29 1
31 30 1
31 38 1
31 39 1
31 61 1
31 71 1
31 73 1
31 122 1
31 200 1
31 277 1
31 287 1
31 305 1
31 307 1
32 2 1
32 7 1
32 20 1
32 33 1
32 34 1
32 36 1
32 38 1
32 62 1
32 70 1
32 78 1
32 80 1
32 123 1
32 201 1
32 278 1
32 288 1
32 314 1
33 2 1
33 8 1
33 21 1
33 32 1
33 35 1
33 36 1
33 37 1
33 63 1
33 71 1
33 86 1
33 124 1
33 202 1
33 279 1
33 289 1
33 313 1
33 320 1
34 9 1
34 15 1
34 22 1
34 32 1
34 35 1
34 38 1
34 39 1
34 64 1
34 72 1
34 85 1
34 91 1
34 125 1
34 203 1
34 280 1
34 290 1
34 314 1
35 10 1
35 15 1
35 23 1
35 33 1
35 34 1
35 37 1
35 39 1
35 65 1
35 73 1
35 86 1
35 126 1
35 204 1
35 281 1
35 291 1
35 315 1
35 326 1
36 11 1
36 24 1
36 28 1
36 30 1
36 32 1
36 33 1
36 37 1
36 38 1
36 66 1
36 74 1
36 87 1
36 96 1
36 127 1
36 205 1
36 282 1
36 292 1
36 316 1
36 327 1
37 12 1
37 25 1
37 28 1
37 29 1
37 33 1
37 35 1
37 36 1
37 39 1
37 67 1
37 75 1
37 88 1
37 97 1
37 128 1
37 206 1
37 283 1
37 293 1
37 317 1
37 328 1
38 13 1
38 26 1
38 30 1
38 31 1
38 32 1
38 34 1
38 36 1
38 39 1
38 68 1
38 76 1
38 89 1
38 98 1
38 129 1
38 207 1
38 284 1
38 294 1
38 318 1
38 329 1
39 14 1
39 27 1
39 29 1
39 31 1
39 34 1
39 35 1
39 37 1
39 38 1
39 69 1
39 77 1
39 90 1
39 99 1
39 130 1
39 208 1
39 285 1
39 295 1
39 319 1
39 330 1
40 3 1
40 17 1
40 42 1
40 48 1
40 50 1
40 51 1
40 57 1
40 58 1
40 131 1
40 209 1
40 343 1
40 345 1
41 16 1
41 18 1
41 28 1
41 42 1
41 47 1
41 49 1
41 51 1
41 66 1
41 67 1
41 132 1
41 210 1
41 341 1
41 352 1
41 354 1
42 3 1
42 19 1
42 28 1
42 40 1
42 41 1
42 49 1
42 50 1
42 52 1
42 61 1
42 74 1
42 75 1
42 133 1
42 211 1
42 342 1
42 360 1
42 362 1
43 3 1
43 20 1
43 44 1
43 45 1
43 47 1
43 49 1
43 53 1
43 62 1
43 81 1
43 82 1
43 134 1
43 212 1
43 343 1
43 369 1
44 3 1
44 21 1
44 28 1
44 43 1
44 46 1
44 47 1
44 48 1
44 54 1
44 63 1
44 87 1
44 88 1
44 135 1
44 213 1
44 344 1
44 368 1
44 375 1
45 16 1
45 22 1
45 43 1
45 46 1
45 49 1
45 50 1
45 55 1
45 64 1
45 92 1
45 93 1
45 136 1
45 214 1
45 345 1
45 369 1
46 16 1
46 23 1
46 28 1
46 44 1
46 45 1
46 48 1
46 50 1
46 56 1
46 65 1
46 96 1
46 97 1
46 137 1
46 215 1
46 346 1
46 370 1
46 381 1
47 24 1
47 41 1
47 43 1
47 44 1
47 48 1
47 49 1
47 57 1
47 66 1
47 100 1
47 138 1
47 216 1
47 347 1
47 371 1
47 382 1
48 25 1
48 40 1
48 44 1
48 46 1
48 47 1
48 50 1
48 58 1
48 67 1
48 100 1
48 139 1
48 217 1
48 348 1
48 372 1
48 383 1
49 26 1
49 41 1
49 42 1
49 43 1
49 45 1
49 47 1
49 50 1
49 59 1
49 68 1
49 101 1
49 103 1
49 140 1
49 218 1
49 349 1
49 373 1
49 384 1
50 27 1
50 40 1
50 42 1
50 45 1
50 46 1
50 48 1
50 49 1
50 60 1
50 69 1
50 102 1
50 104 1
50 141 1
50 219 1
50 350 1
50 374 1
50 385 1
51 5 1
51 17 1
51 29 1
51 40 1
51 41 1
51 52 1
51 57 1
51 59 1
51 61 1
51 67 1
51 69 1
51 142 1
51 220 1
51 341 1
51 397 1
51 399 1
52 4 1
52 6 1
52 29 1
52 42 1
52 51 1
52 59 1
52 60 1
52 75 1
52 77 1
52 143 1
52 221 1
52 342 1
52 405 1
52 407 1
53 4 1
53 7 1
53 43 1
53 54 1
53 55 1
53 57 1
53 59 1
53 70 1
53 82 1
53 84 1
53 144 1
53 222 1
53 343 1
53 414 1
54 4 1
54 8 1
54 29 1
54 44 1
54 53 1
54 56 1
54 57 1
54 58 1
54 71 1
54 88 1
54 90 1
54 145 1
54 223 1
54 344 1
54 413 1
54 420 1
55 9 1
55 17 1
55 45 1
55 53 1
55 56 1
55 59 1
55 60 1
55 72 1
55 93 1
55 95 1
55 146 1
55 224 1
55 345 1
55 414 1
56 10 1
56 17 1
56 29 1
56 46 1
56 54 1
56 55 1
56 58 1
56 60 1
56 73 1
56 97 1
56 99 1
56 147 1
56 225 1
56 346 1
56 415 1
56 426 1
57 11 1
57 40 1
57 47 1
57 51 1
57 53 1
57 54 1
57 58 1
57 59 1
57 74 1
57 100 1
57 102 1
57 148 1
57 226 1
57 347 1
57 416 1
57 427 1
58 12 1
58 40 1
58 48 1
58 54 1
58 56 1
58 57 1
58 60 1
58 75 1
58 104 1
58 149 1
58 227 1
58 348 1
58 417 1
58 428 1
59 13 1
59 49 1
59 51 1
59 52 1
59 53 1
59 55 1
59 57 1
59 60 1
59 76 1
59 103 1
59 105 1
59 150 1
59 228 1
59 349 1
59 418 1
59 429 1
60 14 1
60 50 1
60 52 1
60 55 1
60 56 1
60 58 1
60 59 1
60 77 1
60 104 1
60 151 1
60 229 1
60 350 1
60 419 1
60 430 1
61 5 1
61 19 1
61 30 1
61 31 1
61 42 1
61 51 1
61 68 1
61 69 1
61 74 1
61 76 1
61 152 1
61 230 1
61 351 1
61 396 1
61 441 1
61 443 1
62 5 1
62 20 1
62 32 1
62 43 1
62 63 1
62 64 1
62 66 1
62 68 1
62 70 1
62 81 1
62 83 1
62 153 1
62 231 1
62 352 1
62 397 1
62 450 1
63 5 1
63 21 1
63 30 1
63 33 1
63 44 1
63 62 1
63 65 1
63 66 1
63 67 1
63 71 1
63 87 1
63 89 1
63 154 1
63 232 1
63 353 1
63 398 1
63 449 1
63 456 1
64 18 1
64 22 1
64 34 1
64 45 1
64 62 1
64 65 1
64 68 1
64 69 1
64 72 1
64 92 1
64 94 1
64 155 1
64 233 1
64 354 1
64 399 1
64 450 1
65 18 1
65 23 1
65 30 1
65 35 1
65 46 1
65 63 1
65 64 1
65 67 1
65 69 1
65 73 1
65 96 1
65 98 1
65 156 1
65 234 1
65 355 1
65 400 1
65 451 1
65 462 1
66 24 1
66 36 1
66 41 1
66 47 1
66 62 1
66 63 1
66 67 1
66 68 1
66 74 1
66 101 1
66 157 1
66 235 1
66 356 1
66 401 1
66 452 1
66 463 1
67 25 1
67 37 1
67 41 1
67 48 1
67 51 1
67 63 1
67 65 1
67 66 1
67 69 1
67 75 1
67 100 1
67 103 1
67 158 1
67 236 1
67 357 1
67 402 1
67 453 1
67 464 1
68 26 1
68 38 1
68 49 1
68 61 1
68 62 1
68 64 1
68 66 1
68 69 1
68 76 1
68 101 1
68 159 1
68 237 1
68 358 1
68 403 1
68 454 1
68 465 1
69 27 1
69 39 1
69 50 1
69 51 1
69 61 1
69 64 1
69 65 1
69 67 1
69 68 1
69 77 1
69 102 1
69 105 1
69 160 1
69 238 1
69 359 1
69 404 1
69 455 1
69 466 1
70 6 1
70 7 1
70 32 1
70 53 1
70 62 1
70 71 1
70 72 1
70 74 1
70 76 1
70 83 1
70 84 1
70 161 1
70 239 1
70 360 1
70 405 1
70 478 1
71 6 1
71 8 1
71 31 1
71 33 1
71 54 1
71 63 1
71 70 1
71 73 1
71 74 1
71 75 1
71 89 1
71 90 1
71 162 1
71 240 1
71 361 1
71 406 1
71 477 1
71 484 1
72 9 1
72 19 1
72 34 1
72 55 1
72 64 1
72 70 1
72 73 1
72 76 1
72 77 1
72 94 1
72 95 1
72 163 1
72 241 1
72 362 1
72 407 1
72 478 1
73 10 1
73 19 1
73 31 1
73 35 1
73 56 1
73 65 1
73 71 1
73 72 1
73 75 1
73 77 1
73 98 1
73 99 1
73 164 1
73 242 1
73 363 1
73 408 1
73 479 1
73 490 1
74 11 1
74 36 1
74 42 1
74 57 1
74 61 1
74 66 1
74 70 1
74 71 1
74 75 1
74 76 1
74 101 1
74 102 1
74 165 1
74 243 1
74 364 1
74 409 1
74 480 1
74 491 1
75 12 1
75 37 1
75 42 1
75 52 1
75 58 1
75 67 1
75 71 1
75 73 1
75 74 1
75 77 1
75 103 1
75 104 1
75 166 1
75 244 1
75 365 1
75 410 1
75 481 1
75 492 1
76 13 1
76 38 1
76 59 1
76 61 1
76 68 1
76 70 1
76 72 1
76 74 1
76 77 1
76 105 1
76 167 1
76 245 1
76 366 1
76 411 1
76 482 1
76 493 1
77 14 1
77 39 1
77 52 1
77 60 1
77 69 1
77 72 1
77 73 1
77 75 1
77 76 1
77 105 1
77 168 1
77 246 1
77 367 1
77 412 1
77 483 1
77 494 1
78 7 1
78 8 1
78 32 1
78 80 1
78 81 1
78 82 1
78 85 1
78 87 1
78 89 1
78 169 1
78 247 1
78 368 1
78 413 1
78 505 1
79 9 1
79 20 1
79 80 1
79 83 1
79 84 1
79 85 1
79 92 1
79 94 1
79 170 1
79 248 1
79 369 1
79 414 1
80 10 1
80 20 1
80 32 1
80 78 1
80 79 1
80 82 1
80 84 1
80 86 1
80 91 1
80 96 1
80 98 1
80 171 1
80 249 1
80 370 1
80 415 1
80 511 1
81 11 1
81 43 1
81 62 1
81 78 1
81 82 1
81 83 1
81 87 1
81 92 1
81 101 1
81 172 1
81 250 1
81 371 1
81 416 1
81 512 1
82 12 1
82 43 1
82 53 1
82 78 1
82 80 1
82 81 1
82 84 1
82 88 1
82 93 1
82 100 1
82 103 1
82 173 1
82 251 1
82 372 1
82 417 1
82 513 1
83 13 1
83 62 1
83 70 1
83 79 1
83 81 1
83 84 1
83 89 1
83 94 1
83 101 1
83 174 1
83 252 1
83 373 1
83 418 1
83 514 1
84 14 1
84 53 1
84 70 1
84 79 1
84 80 1
84 82 1
84 83 1
84 90 1
84 95 1
84 102 1
84 105 1
84 175 1
84 253 1
84 374 1
84 419 1
84 515 1
85 9 1
85 21 1
85 34 1
85 78 1
85 79 1
85 86 1
85 89 1
85 90 1
85 91 1
85 92 1
85 93 1
85 176 1
85 254 1
85 375 1
85 420 1
85 505 1
86 10 1
86 21 1
86 33 1
86 35 1
86 80 1
86 85 1
86 88 1
86 90 1
86 96 1
86 97 1
86 177 1
86 255 1
86 376 1
86 421 1
86 506 1
86 526 1
87 11 1
87 36 1
87 44 1
87 63 1
87 78 1
87 81 1
87 88 1
87 89 1
87 96 1
87 100 1
87 178 1
87 256 1
87 377 1
87 422 1
87 507 1
87 527 1
88 12 1
88 37 1
88 44 1
88 54 1
88 82 1
88 86 1
88 87 1
88 90 1
88 97 1
88 100 1
88 179 1
88 257 1
88 378 1
88 423 1
88 508 1
88 528 1
89 13 1
89 38 1
89 63 1
89 71 1
89 78 1
89 83 1
89 85 1
89 87 1
89 90 1
89 98 1
89 101 1
89 103 1
89 180 1
89 258 1
89 379 1
89 424 1
89 509 1
89 529 1
90 14 1
90 39 1
90 54 1
90 71 1
90 84 1
90 85 1
90 86 1
90 88 1
90 89 1
90 99 1
90 102 1
90 104 1
90 181 1
90 259 1
90 380 1
90 425 1
90 510 1
90 530 1
91 22 1
91 23 1
91 34 1
91 80 1
91 85 1
91 93 1
91 95 1
91 98 1
91 99 1
91 182 1
91 260 1
91 381 1
91 426 1
91 511 1
92 24 1
92 45 1
92 64 1
92 79 1
92 81 1
92 85 1
92 93 1
92 94 1
92 96 1
92 101 1
92 102 1
92 183 1
92 261 1
92 382 1
92 427 1
92 512 1
93 25 1
93 45 1
93 55 1
93 82 1
93 85 1
93 91 1
93 92 1
93 95 1
93 97 1
93 103 1
93 104 1
93 184 1
93 262 1
93 383 1
93 428 1
93 513 1
94 26 1
94 64 1
94 72 1
94 79 1
94 83 1
94 92 1
94 95 1
94 98 1
94 105 1
94 185 1
94 263 1
94 384 1
94 429 1
94 514 1
95 27 1
95 55 1
95 72 1
95 84 1
95 91 1
95 93 1
95 94 1
95 99 1
95 105 1
95 186 1
95 264 1
95 385 1
95 430 1
95 515 1
96 24 1
96 36 1
96 46 1
96 65 1
96 80 1
96 86 1
96 87 1
96 92 1
96 97 1
96 98 1
96 100 1
96 102 1
96 187 1
96 265 1
96 386 1
96 431 1
96 516 1
96 541 1
97 25 1
97 37 1
97 46 1
97 56 1
97 86 1
97 88 1
97 93 1
97 96 1
97 99 1
97 104 1
97 188 1
97 266 1
97 387 1
97 432 1
97 517 1
97 542 1
98 26 1
98 38 1
98 65 1
98 73 1
98 80 1
98 89 1
98 91 1
98 94 1
98 96 1
98 99 1
98 103 1
98 105 1
98 189 1
98 267 1
98 388 1
98 433 1
98 518 1
98 543 1
99 27 1
99 39 1
99 56 1
99 73 1
99 90 1
99 91 1
99 95 1
99 97 1
99 98 1
99 104 1
99 190 1
99 268 1
99 389 1
99 434 1
99 519 1
99 544 1
100 47 1
100 48 1
100 57 1
100 67 1
100 82 1
100 87 1
100 88 1
100 96 1
100 102 1
100 103 1
100 191 1
100 269 1
100 390 1
100 435 1
100 520 1
100 545 1
101 49 1
101 66 1
101 68 1
101 74 1
101 81 1
101 83 1
101 89 1
101 92 1
101 102 1
101 103 1
101 192 1
101 270 1
101 391 1
101 436 1
101 521 1
101 546 1
102 50 1
102 57 1
102 69 1
102 74 1
102 84 1
102 90 1
102 92 1
102 96 1
102 100 1
102 101 1
102 104 1
102 105 1
102 193 1
102 271 1
102 392 1
102 437 1
102 522 1
102 547 1
103 49 1
103 59 1
103 67 1
103 75 1
103 82 1
103 89 1
103 93 1
103 98 1
103 100 1
103 101 1
103 104 1
103 105 1
103 194 1
103 272 1
103 393 1
103 438 1
103 523 1
103 548 1
104 50 1
104 58 1
104 60 1
104 75 1
104 90 1
104 93 1
104 97 1
104 99 1
104 102 1
104 103 1
104 195 1
104 273 1
104 394 1
104 439 1
104 524 1
104 549 1
105 59 1
105 69 1
105 76 1
105 77 1
105 84 1
105 94 1
105 95 1
105 98 1
105 102 1
105 103 1
105 196 1
105 274 1
105 395 1
105 440 1
105 525 1
105 550 1
106 2 1
106 15 1
106 109 1
106 110 1
106 112 1
106 114 1
106 119 1
106 121 1
106 125 1
106 126 1
106 198 1
106 200 1
106 201 1
106 202 1
107 1 1
107 3 1
107 16 1
107 108 1
107 109 1
107 115 1
107 116 1
107 119 1
107 132 1
107 136 1
107 137 1
107 197 1
107 209 1
107 211 1
107 212 1
107 213 1
108 1 1
108 4 1
108 17 1
108 107 1
108 110 1
108 116 1
108 118 1
108 120 1
108 131 1
108 142 1
108 146 1
108 147 1
108 198 1
108 221 1
108 222 1
108 223 1
109 5 1
109 18 1
109 106 1
109 107 1
109 110 1
109 115 1
109 117 1
109 121 1
109 132 1
109 155 1
109 156 1
109 199 1
109 220 1
109 230 1
109 231 1
109 232 1
110 6 1
110 19 1
110 106 1
110 108 1
110 109 1
110 117 1
110 118 1
110 122 1
110 133 1
110 152 1
110 163 1
110 164 1
110 200 1
110 221 1
110 239 1
110 240 1
111 1 1
111 7 1
111 20 1
111 112 1
111 113 1
111 115 1
111 117 1
111 123 1
111 134 1
111 153 1
111 170 1
111 171 1
111 201 1
111 222 1
111 239 1
111 247 1
112 8 1
112 21 1
112 106 1
112 111 1
112 114 1
112 115 1
112 116 1
112 124 1
112 135 1
112 154 1
112 176 1
112 177 1
112 202 1
112 223 1
112 240 1
112 247 1
113 1 1
113 9 1
113 22 1
113 111 1
113 114 1
113 117 1
113 118 1
113 125 1
113 136 1
113 155 1
113 182 1
113 203 1
113 224 1
113 241 1
113 248 1
113 254 1
114 10 1
114 23 1
114 106 1
114 112 1
114 113 1
114 116 1
114 118 1
114 126 1
114 137 1
114 156 1
114 182 1
114 204 1
114 225 1
114 242 1
114 249 1
114 255 1
115 11 1
115 24 1
115 107 1
115 109 1
115 111 1
115 112 1
115 116 1
115 117 1
115 127 1
115 138 1
115 157 1
115 183 1
115 187 1
115 205 1
115 226 1
115 243 1
115 250 1
115 256 1
116 12 1
116 25 1
116 107 1
116 108 1
116 112 1
116 114 1
116 115 1
116 118 1
116 128 1
116 139 1
116 158 1
116 184 1
116 188 1
116 206 1
116 227 1
116 244 1
116 251 1
116 257 1
117 13 1
117 26 1
117 109 1
117 110 1
117 111 1
117 113 1
117 115 1
117 118 1
117 129 1
117 140 1
117 159 1
117 185 1
117 189 1
117 207 1
117 228 1
117 245 1
117 252 1
117 258 1
118 14 1
118 27 1
118 108 1
118 110 1
118 113 1
118 114 1
118 116 1
118 117 1
118 130 1
118 141 1
118 160 1
118 186 1
118 190 1
118 208 1
118 229 1
118 246 1
118 253 1
118 259 1
119 2 1
119 28 1
119 106 1
119 107 1
119 120 1
119 121 1
119 127 1
119 128 1
119 132 1
119 133 1
119 135 1
119 137 1
119 275 1
119 277 1
119 278 1
119 279 1
120 2 1
120 29 1
120 108 1
120 119 1
120 122 1
120 128 1
120 130 1
120 142 1
120 143 1
120 145 1
120 147 1
120 287 1
120 288 1
120 289 1
121 30 1
121 106 1
121 109 1
121 119 1
121 122 1
121 127 1
121 129 1
121 152 1
121 154 1
121 156 1
121 286 1
121 296 1
121 297 1
121 298 1
122 31 1
122 110 1
122 120 1
122 121 1
122 129 1
122 130 1
122 152 1
122 162 1
122 164 1
122 287 1
122 305 1
122 306 1
123 2 1
123 32 1
123 111 1
123 124 1
123 125 1
123 127 1
123 129 1
123 153 1
123 161 1
123 169 1
123 171 1
123 288 1
123 305 1
123 313 1
124 33 1
124 112 1
124 123 1
124 126 1
124 127 1
124 128 1
124 154 1
124 162 1
124 177 1
124 289 1
124 306 1
124 313 1
125 2 1
125 34 1
125 106 1
125 113 1
125 123 1
125 126 1
125 129 1
125 130 1
125 155 1
125 163 1
125 176 1
125 182 1
125 290 1
125 307 1
125 314 1
125 320 1
126 35 1
126 106 1
126 114 1
126 124 1
126 125 1
126 128 1
126 130 1
126 156 1
126 164 1
126 177 1
126 291 1
126 308 1
126 315 1
126 321 1
127 36 1
127 115 1
127 119 1
127 121 1
127 123 1
127 124 1
127 128 1
127 129 1
127 157 1
127 165 1
127 178 1
127 187 1
127 292 1
127 309 1
127 316 1
127 322 1
128 37 1
128 116 1
128 119 1
128 120 1
128 124 1
128 126 1
128 127 1
128 130 1
128 158 1
128 166 1
128 179 1
128 188 1
128 293 1
128 310 1
128 317 1
128 323 1
129 38 1
129 117 1
129 121 1
129 122 1
129 123 1
129 125 1
129 127 1
129 130 1
129 159 1
129 167 1
129 180 1
129 189 1
129 294 1
129 311 1
129 318 1
129 324 1
130 39 1
130 118 1
130 120 1
130 122 1
130 125 1
130 126 1
130 128 1
130 129 1
130 160 1
130 168 1
130 181 1
130 190 1
130 295 1
130 312 1
130 319 1
130 325 1
131 3 1
131 4 1
131 40 1
131 108 1
131 133 1
131 139 1
131 141 1
131 142 1
131 148 1
131 149 1
131 275 1
131 342 1
131 343 1
131 344 1
132 5 1
132 41 1
132 107 1
132 109 1
132 119 1
132 133 1
132 138 1
132 140 1
132 142 1
132 157 1
132 158 1
132 276 1
132 341 1
132 351 1
132 352 1
132 353 1
133 6 1
133 42 1
133 110 1
133 119 1
133 131 1
133 132 1
133 140 1
133 141 1
133 143 1
133 152 1
133 165 1
133 166 1
133 277 1
133 342 1
133 360 1
133 361 1
134 3 1
134 7 1
134 43 1
134 111 1
134 135 1
134 136 1
134 138 1
134 140 1
134 144 1
134 153 1
134 172 1
134 173 1
134 278 1
134 343 1
134 360 1
134 368 1
135 8 1
135 44 1
135 112 1
135 119 1
135 134 1
135 137 1
135 138 1
135 139 1
135 145 1
135 154 1
135 178 1
135 179 1
135 279 1
135 344 1
135 361 1
135 368 1
136 3 1
136 9 1
136 45 1
136 107 1
136 113 1
136 134 1
136 137 1
136 140 1
136 141 1
136 146 1
136 155 1
136 183 1
136 184 1
136 280 1
136 345 1
136 362 1
136 369 1
136 375 1
137 10 1
137 46 1
137 107 1
137 114 1
137 119 1
137 135 1
137 136 1
137 139 1
137 141 1
137 147 1
137 156 1
137 187 1
137 188 1
137 281 1
137 346 1
137 363 1
137 370 1
137 376 1
138 11 1
138 47 1
138 115 1
138 132 1
138 134 1
138 135 1
138 139 1
138 140 1
138 148 1
138 157 1
138 191 1
138 282 1
138 347 1
138 364 1
138 371 1
138 377 1
139 12 1
139 48 1
139 116 1
139 131 1
139 135 1
139 137 1
139 138 1
139 141 1
139 149 1
139 158 1
139 191 1
139 283 1
139 348 1
139 365 1
139 372 1
139 378 1
140 13 1
140 49 1
140 117 1
140 132 1
140 133 1
140 134 1
140 136 1
140 138 1
140 141 1
140 150 1
140 159 1
140 192 1
140 194 1
140 284 1
140 349 1
140 366 1
140 373 1
140 379 1
141 14 1
141 50 1
141 118 1
141 131 1
141 133 1
141 136 1
141 137 1
141 139 1
141 140 1
141 151 1
141 160 1
141 193 1
141 195 1
141 285 1
141 350 1
141 367 1
141 374 1
141 380 1
142 5 1
142 51 1
142 108 1
142 120 1
142 131 1
142 132 1
142 143 1
142 148 1
142 150 1
142 152 1
142 158 1
142 160 1
142 286 1
142 396 1
142 397 1
142 398 1
143 6 1
143 52 1
143 120 1
143 133 1
143 142 1
143 150 1
143 151 1
143 166 1
143 168 1
143 287 1
143 405 1
143 406 1
144 4 1
144 7 1
144 53 1
144 134 1
144 145 1
144 146 1
144 148 1
144 150 1
144 161 1
144 173 1
144 175 1
144 288 1
144 405 1
144 413 1
145 8 1
145 54 1
145 120 1
145 135 1
145 144 1
145 147 1
145 148 1
145 149 1
145 162 1
145 179 1
145 181 1
145 289 1
145 406 1
145 413 1
146 4 1
146 9 1
146 55 1
146 108 1
146 136 1
146 144 1
146 147 1
146 150 1
146 151 1
146 163 1
146 184 1
146 186 1
146 290 1
146 407 1
146 414 1
146 420 1
147 10 1
147 56 1
147 108 1
147 120 1
147 137 1
147 145 1
147 146 1
147 149 1
147 151 1
147 164 1
147 188 1
147 190 1
147 291 1
147 408 1
147 415 1
147 421 1
148 11 1
148 57 1
148 131 1
148 138 1
148 142 1
148 144 1
148 145 1
148 149 1
148 150 1
148 165 1
148 191 1
148 193 1
148 292 1
148 409 1
148 416 1
148 422 1
149 12 1
149 58 1
149 131 1
149 139 1
149 145 1
149 147 1
149 148 1
149 151 1
149 166 1
149 195 1
149 293 1
149 410 1
149 417 1
149 423 1
150 13 1
150 59 1
150 140 1
150 142 1
150 143 1
150 144 1
150 146 1
150 148 1
150 151 1
150 167 1
150 194 1
150 196 1
150 294 1
150 411 1
150 418 1
150 424 1
151 14 1
151 60 1
151 141 1
151 143 1
151 146 1
151 147 1
151 149 1
151 150 1
151 168 1
151 195 1
151 295 1
151 412 1
151 419 1
151 425 1
152 61 1
152 110 1
152 121 1
152 122 1
152 133 1
152 142 1
152 159 1
152 160 1
152 165 1
152 167 1
152 296 1
152 396 1
152 441 1
152 442 1
153 5 1
153 62 1
153 111 1
153 123 1
153 134 1
153 154 1
153 155 1
153 157 1
153 159 1
153 161 1
153 172 1
153 174 1
153 297 1
153 397 1
153 441 1
153 449 1
154 63 1
154 112 1
154 121 1
154 124 1
154 135 1
154 153 1
154 156 1
154 157 1
154 158 1
154 162 1
154 178 1
154 180 1
154 298 1
154 398 1
154 442 1
154 449 1
155 5 1
155 64 1
155 109 1
155 113 1
155 125 1
155 136 1
155 153 1
155 156 1
155 159 1
155 160 1
155 163 1
155 183 1
155 185 1
155 299 1
155 399 1
155 443 1
155 450 1
155 456 1
156 65 1
156 109 1
156 114 1
156 121 1
156 126 1
156 137 1
156 154 1
156 155 1
156 158 1
156 160 1
156 164 1
156 187 1
156 189 1
156 300 1
156 400 1
156 444 1
156 451 1
156 457 1
157 66 1
157 115 1
157 127 1
157 132 1
157 138 1
157 153 1
157 154 1
157 158 1
157 159 1
157 165 1
157 192 1
157 301 1
157 401 1
157 445 1
157 452 1
157 458 1
158 67 1
158 116 1
158 128 1
158 132 1
158 139 1
158 142 1
158 154 1
158 156 1
158 157 1
158 160 1
158 166 1
158 191 1
158 194 1
158 302 1
158 402 1
158 446 1
158 453 1
158 459 1
159 68 1
159 117 1
159 129 1
159 140 1
159 152 1
159 153 1
159 155 1
159 157 1
159 160 1
159 167 1
159 192 1
159 303 1
159 403 1
159 447 1
159 454 1
159 460 1
160 69 1
160 118 1
160 130 1
160 141 1
160 142 1
160 152 1
160 155 1
160 156 1
160 158 1
160 159 1
160 168 1
160 193 1
160 196 1
160 304 1
160 404 1
160 448 1
160 455 1
160 461 1
161 6 1
161 70 1
161 123 1
161 144 1
161 153 1
161 162 1
161 163 1
161 165 1
161 167 1
161 174 1
161 175 1
161 305 1
161 405 1
161 477 1
162 71 1
162 122 1
162 124 1
162 145 1
162 154 1
162 161 1
162 164 1
162 165 1
162 166 1
162 180 1
162 181 1
162 306 1
162 406 1
162 477 1
163 6 1
163 72 1
163 110 1
163 125 1
163 146 1
163 155 1
163 161 1
163 164 1
163 167 1
163 168 1
163 185 1
163 186 1
163 307 1
163 407 1
163 478 1
163 484 1
164 73 1
164 110 1
164 122 1
164 126 1
164 147 1
164 156 1
164 162 1
164 163 1
164 166 1
164 168 1
164 189 1
164 190 1
164 308 1
164 408 1
164 479 1
164 485 1
165 74 1
165 127 1
165 133 1
165 148 1
165 152 1
165 157 1
165 161 1
165 162 1
165 166 1
165 167 1
165 192 1
165 193 1
165 309 1
165 409 1
165 480 1
165 486 1
166 75 1
166 128 1
166 133 1
166 143 1
166 149 1
166 158 1
166 162 1
166 164 1
166 165 1
166 168 1
166 194 1
166 195 1
166 310 1
166 410 1
166 481 1
166 487 1
167 76 1
167 129 1
167 150 1
167 152 1
167 159 1
167 161 1
167 163 1
167 165 1
167 168 1
167 196 1
167 311 1
167 411 1
167 482 1
167 488 1
168 77 1
168 130 1
168 143 1
168 151 1
168 160 1
168 163 1
168 164 1
168 166 1
168 167 1
168 196 1
168 312 1
168 412 1
168 483 1
168 489 1
169 8 1
169 78 1
169 123 1
169 171 1
169 172 1
169 173 1
169 176 1
169 178 1
169 180 1
169 313 1
169 413 1
169 477 1
170 7 1
170 9 1
170 79 1
170 111 1
170 171 1
170 174 1
170 175 1
170 176 1
170 183 1
170 185 1
170 314 1
170 414 1
170 478 1
170 505 1
171 10 1
171 80 1
171 111 1
171 123 1
171 169 1
171 170 1
171 173 1
171 175 1
171 177 1
171 182 1
171 187 1
171 189 1
171 315 1
171 415 1
171 479 1
171 506 1
172 11 1
172 81 1
172 134 1
172 153 1
172 169 1
172 173 1
172 174 1
172 178 1
172 183 1
172 192 1
172 316 1
172 416 1
172 480 1
172 507 1
173 12 1
173 82 1
173 134 1
173 144 1
173 169 1
173 171 1
173 172 1
173 175 1
173 179 1
173 184 1
173 191 1
173 194 1
173 317 1
173 417 1
173 481 1
173 508 1
174 13 1
174 83 1
174 153 1
174 161 1
174 170 1
174 172 1
174 175 1
174 180 1
174 185 1
174 192 1
174 318 1
174 418 1
174 482 1
174 509 1
175 14 1
175 84 1
175 144 1
175 161 1
175 170 1
175 171 1
175 173 1
175 174 1
175 181 1
175 186 1
175 193 1
175 196 1
175 319 1
175 419 1
175 483 1
175 510 1
176 8 1
176 85 1
176 112 1
176 125 1
176 169 1
176 170 1
176 177 1
176 180 1
176 181 1
176 182 1
176 183 1
176 184 1
176 320 1
176 420 1
176 484 1
176 505 1
177 86 1
177 112 1
177 124 1
177 126 1
177 171 1
177 176 1
177 179 1
177 181 1
177 187 1
177 188 1
177 321 1
177 421 1
177 485 1
177 506 1
178 87 1
178 127 1
178 135 1
178 154 1
178 169 1
178 172 1
178 179 1
178 180 1
178 187 1
178 191 1
178 322 1
178 422 1
178 486 1
178 507 1
179 88 1
179 128 1
179 135 1
179 145 1
179 173 1
179 177 1
179 178 1
179 181 1
179 188 1
179 191 1
179 323 1
179 423 1
179 487 1
179 508 1
180 89 1
180 129 1
180 154 1
180 162 1
180 169 1
180 174 1
180 176 1
180 178 1
180 181 1
180 189 1
180 192 1
180 194 1
180 324 1
180 424 1
180 488 1
180 509 1
181 90 1
181 130 1
181 145 1
181 162 1
181 175 1
181 176 1
181 177 1
181 179 1
181 180 1
181 190 1
181 193 1
181 195 1
181 325 1
181 425 1
181 489 1
181 510 1
182 10 1
182 91 1
182 113 1
182 114 1
182 125 1
182 171 1
182 176 1
182 184 1
182 186 1
182 189 1
182 190 1
182 326 1
182 426 1
182 490 1
182 511 1
182 526 1
183 11 1
183 92 1
183 115 1
183 136 1
183 155 1
183 170 1
183 172 1
183 176 1
183 184 1
183 185 1
183 187 1
183 192 1
183 193 1
183 327 1
183 427 1
183 491 1
183 512 1
183 527 1
184 12 1
184 93 1
184 116 1
184 136 1
184 146 1
184 173 1
184 176 1
184 182 1
184 183 1
184 186 1
184 188 1
184 194 1
184 195 1
184 328 1
184 428 1
184 492 1
184 513 1
184 528 1
185 13 1
185 94 1
185 117 1
185 155 1
185 163 1
185 170 1
185 174 1
185 183 1
185 186 1
185 189 1
185 196 1
185 329 1
185 429 1
185 493 1
185 514 1
185 529 1
186 14 1
186 95 1
186 118 1
186 146 1
186 163 1
186 175 1
186 182 1
186 184 1
186 185 1
186 190 1
186 196 1
186 330 1
186 430 1
186 494 1
186 515 1
186 530 1
187 96 1
187 115 1
187 127 1
187 137 1
187 156 1
187 171 1
187 177 1
187 178 1
187 183 1
187 188 1
187 189 1
187 191 1
187 193 1
187 331 1
187 431 1
187 495 1
187 516 1
187 531 1
188 97 1
188 116 1
188 128 1
188 137 1
188 147 1
188 177 1
188 179 1
188 184 1
188 187 1
188 190 1
188 195 1
188 332 1
188 432 1
188 496 1
188 517 1
188 532 1
189 98 1
189 117 1
189 129 1
189 156 1
189 164 1
189 171 1
189 180 1
189 182 1
189 185 1
189 187 1
189 190 1
189 194 1
189 196 1
189 333 1
189 433 1
189 497 1
189 518 1
189 533 1
190 99 1
190 118 1
190 130 1
190 147 1
190 164 1
190 181 1
190 182 1
190 186 1
190 188 1
190 189 1
190 195 1
190 334 1
190 434 1
190 498 1
190 519 1
190 534 1
191 100 1
191 138 1
191 139 1
191 148 1
191 158 1
191 173 1
191 178 1
191 179 1
191 187 1
191 193 1
191 194 1
191 335 1
191 435 1
191 499 1
191 520 1
191 535 1
192 101 1
192 140 1
192 157 1
192 159 1
192 165 1
192 172 1
192 174 1
192 180 1
192 183 1
192 193 1
192 194 1
192 336 1
192 436 1
192 500 1
192 521 1
192 536 1
193 102 1
193 141 1
193 148 1
193 160 1
193 165 1
193 175 1
193 181 1
193 183 1
193 187 1
193 191 1
193 192 1
193 195 1
193 196 1
193 337 1
193 437 1
193 501 1
193 522 1
193 537 1
194 103 1
194 140 1
194 150 1
194 158 1
194 166 1
194 173 1
194 180 1
194 184 1
194 189 1
194 191 1
194 192 1
194 195 1
194 196 1
194 338 1
194 438 1
194 502 1
194 523 1
194 538 1
195 104 1
195 141 1
195 149 1
195 151 1
195 166 1
195 181 1
195 184 1
195 188 1
195 190 1
195 193 1
195 194 1
195 339 1
195 439 1
195 503 1
195 524 1
195 539 1
196 105 1
196 150 1
196 160 1
196 167 1
196 168 1
196 175 1
196 185 1
196 186 1
196 189 1
196 193 1
196 194 1
196 340 1
196 440 1
196 504 1
196 525 1
196 540 1
197 15 1
197 28 1
197 107 1
197 198 1
197 199 1
197 205 1
197 206 1
197 210 1
197 211 1
197 213 1
197 215 1
197 276 1
197 280 1
197 281 1
198 15 1
198 29 1
198 106 1
198 108 1
198 197 1
198 200 1
198 206 1
198 208 1
198 220 1
198 221 1
198 223 1
198 225 1
198 275 1
198 286 1
198 290 1
198 291 1
199 30 1
199 109 1
199 197 1
199 200 1
199 205 1
199 207 1
199 230 1
199 232 1
199 234 1
199 276 1
199 299 1
199 300 1
200 31 1
200 106 1
200 110 1
200 198 1
200 199 1
200 207 1
200 208 1
200 230 1
200 240 1
200 242 1
200 277 1
200 296 1
200 307 1
200 308 1
201 15 1
201 32 1
201 106 1
201 111 1
201 202 1
201 203 1
201 205 1
201 207 1
201 231 1
201 239 1
201 247 1
201 249 1
201 278 1
201 297 1
201 314 1
201 315 1
202 33 1
202 106 1
202 112 1
202 201 1
202 204 1
202 205 1
202 206 1
202 232 1
202 240 1
202 255 1
202 279 1
202 298 1
202 320 1
202 321 1
203 15 1
203 34 1
203 113 1
203 201 1
203 204 1
203 207 1
203 208 1
203 233 1
203 241 1
203 254 1
203 260 1
203 280 1
203 299 1
203 326 1
204 35 1
204 114 1
204 202 1
204 203 1
204 206 1
204 208 1
204 234 1
204 242 1
204 255 1
204 281 1
204 300 1
204 326 1
205 36 1
205 115 1
205 197 1
205 199 1
205 201 1
205 202 1
205 206 1
205 207 1
205 235 1
205 243 1
205 256 1
205 265 1
205 282 1
205 301 1
205 327 1
205 331 1
206 37 1
206 116 1
206 197 1
206 198 1
206 202 1
206 204 1
206 205 1
206 208 1
206 236 1
206 244 1
206 257 1
206 266 1
206 283 1
206 302 1
206 328 1
206 332 1
207 38 1
207 117 1
207 199 1
207 200 1
207 201 1
207 203 1
207 205 1
207 208 1
207 237 1
207 245 1
207 258 1
207 267 1
207 284 1
207 303 1
207 329 1
207 333 1
208 39 1
208 118 1
208 198 1
208 200 1
208 203 1
208 204 1
208 206 1
208 207 1
208 238 1
208 246 1
208 259 1
208 268 1
208 285 1
208 304 1
208 330 1
208 334 1
209 16 1
209 17 1
209 40 1
209 107 1
209 211 1
209 217 1
209 219 1
209 220 1
209 226 1
209 227 1
209 275 1
209 341 1
209 345 1
209 346 1
210 18 1
210 41 1
210 197 1
210 211 1
210 216 1
210 218 1
210 220 1
210 235 1
210 236 1
210 276 1
210 354 1
210 355 1
211 19 1
211 42 1
211 107 1
211 197 1
211 209 1
211 210 1
211 218 1
211 219 1
211 221 1
211 230 1
211 243 1
211 244 1
211 277 1
211 351 1
211 362 1
211 363 1
212 16 1
212 20 1
212 43 1
212 107 1
212 213 1
212 214 1
212 216 1
212 218 1
212 222 1
212 231 1
212 250 1
212 251 1
212 278 1
212 352 1
212 369 1
212 370 1
213 21 1
213 44 1
213 107 1
213 197 1
213 212 1
213 215 1
213 216 1
213 217 1
213 223 1
213 232 1
213 256 1
213 257 1
213 279 1
213 353 1
213 375 1
213 376 1
214 16 1
214 22 1
214 45 1
214 212 1
214 215 1
214 218 1
214 219 1
214 224 1
214 233 1
214 261 1
214 262 1
214 280 1
214 354 1
214 381 1
215 23 1
215 46 1
215 197 1
215 213 1
215 214 1
215 217 1
215 219 1
215 225 1
215 234 1
215 265 1
215 266 1
215 281 1
215 355 1
215 381 1
216 24 1
216 47 1
216 210 1
216 212 1
216 213 1
216 217 1
216 218 1
216 226 1
216 235 1
216 269 1
216 282 1
216 356 1
216 382 1
216 386 1
217 25 1
217 48 1
217 209 1
217 213 1
217 215 1
217 216 1
217 219 1
217 227 1
217 236 1
217 269 1
217 283 1
217 357 1
217 383 1
217 387 1
218 26 1
218 49 1
218 210 1
218 211 1
218 212 1
218 214 1
218 216 1
218 219 1
218 228 1
218 237 1
218 270 1
218 272 1
218 284 1
218 358 1
218 384 1
218 388 1
219 27 1
219 50 1
219 209 1
219 211 1
219 214 1
219 215 1
219 217 1
219 218 1
219 229 1
219 238 1
219 271 1
219 273 1
219 285 1
219 359 1
219 385 1
219 389 1
220 18 1
220 51 1
220 109 1
220 198 1
220 209 1
220 210 1
220 221 1
220 226 1
220 228 1
220 230 1
220 236 1
220 238 1
220 286 1
220 341 1
220 399 1
220 400 1
221 19 1
221 52 1
221 108 1
221 110 1
221 198 1
221 211 1
221 220 1
221 228 1
221 229 1
221 244 1
221 246 1
221 287 1
221 342 1
221 396 1
221 407 1
221 408 1
222 17 1
222 20 1
222 53 1
222 108 1
222 111 1
222 212 1
222 223 1
222 224 1
222 226 1
222 228 1
222 239 1
222 251 1
222 253 1
222 288 1
222 343 1
222 397 1
222 414 1
222 415 1
223 21 1
223 54 1
223 108 1
223 112 1
223 198 1
223 213 1
223 222 1
223 225 1
223 226 1
223 227 1
223 240 1
223 257 1
223 259 1
223 289 1
223 344 1
223 398 1
223 420 1
223 421 1
224 17 1
224 22 1
224 55 1
224 113 1
224 214 1
224 222 1
224 225 1
224 228 1
224 229 1
224 241 1
224 262 1
224 264 1
224 290 1
224 345 1
224 399 1
224 426 1
225 23 1
225 56 1
225 114 1
225 198 1
225 215 1
225 223 1
225 224 1
225 227 1
225 229 1
225 242 1
225 266 1
225 268 1
225 291 1
225 346 1
225 400 1
225 426 1
226 24 1
226 57 1
226 115 1
226 209 1
226 216 1
226 220 1
226 222 1
226 223 1
226 227 1
226 228 1
226 243 1
226 269 1
226 271 1
226 292 1
226 347 1
226 401 1
226 427 1
226 431 1
227 25 1
227 58 1
227 116 1
227 209 1
227 217 1
227 223 1
227 225 1
227 226 1
227 229 1
227 244 1
227 273 1
227 293 1
227 348 1
227 402 1
227 428 1
227 432 1
228 26 1
228 59 1
228 117 1
228 218 1
228 220 1
228 221 1
228 222 1
228 224 1
228 226 1
228 229 1
228 245 1
228 272 1
228 274 1
228 294 1
228 349 1
228 403 1
228 429 1
228 433 1
229 27 1
229 60 1
229 118 1
229 219 1
229 221 1
229 224 1
229 225 1
229 227 1
229 228 1
229 246 1
229 273 1
229 295 1
229 350 1
229 404 1
229 430 1
229 434 1
230 61 1
230 109 1
230 199 1
230 200 1
230 211 1
230 220 1
230 237 1
230 238 1
230 243 1
230 245 1
230 296 1
230 351 1
230 443 1
230 444 1
231 18 1
231 62 1
231 109 1
231 201 1
231 212 1
231 232 1
231 233 1
231 235 1
231 237 1
231 239 1
231 250 1
231 252 1
231 297 1
231 352 1
231 450 1
231 451 1
232 63 1
232 109 1
232 199 1
232 202 1
232 213 1
232 231 1
232 234 1
232 235 1
232 236 1
232 240 1
232 256 1
232 258 1
232 298 1
232 353 1
232 456 1
232 457 1
233 18 1
233 64 1
233 203 1
233 214 1
233 231 1
233 234 1
233 237 1
233 238 1
233 241 1
233 261 1
233 263 1
233 299 1
233 354 1
233 462 1
234 65 1
234 199 1
234 204 1
234 215 1
234 232 1
234 233 1
234 236 1
234 238 1
234 242 1
234 265 1
234 267 1
234 300 1
234 355 1
234 462 1
235 66 1
235 205 1
235 210 1
235 216 1
235 231 1
235 232 1
235 236 1
235 237 1
235 243 1
235 270 1
235 301 1
235 356 1
235 463 1
235 467 1
236 67 1
236 206 1
236 210 1
236 217 1
236 220 1
236 232 1
236 234 1
236 235 1
236 238 1
236 244 1
236 269 1
236 272 1
236 302 1
236 357 1
236 464 1
236 468 1
237 68 1
237 207 1
237 218 1
237 230 1
237 231 1
237 233 1
237 235 1
237 238 1
237 245 1
237 270 1
237 303 1
237 358 1
237 465 1
237 469 1
238 69 1
238 208 1
238 219 1
238 220 1
238 230 1
238 233 1
238 234 1
238 236 1
238 237 1
238 246 1
238 271 1
238 274 1
238 304 1
238 359 1
238 466 1
238 470 1
239 19 1
239 70 1
239 110 1
239 111 1
239 201 1
239 222 1
239 231 1
239 240 1
239 241 1
239 243 1
239 245 1
239 252 1
239 253 1
239 305 1
239 360 1
239 441 1
239 478 1
239 479 1
240 71 1
240 110 1
240 112 1
240 200 1
240 202 1
240 223 1
240 232 1
240 239 1
240 242 1
240 243 1
240 244 1
240 258 1
240 259 1
240 306 1
240 361 1
240 442 1
240 484 1
240 485 1
241 19 1
241 72 1
241 113 1
241 203 1
241 224 1
241 233 1
241 239 1
241 242 1
241 245 1
241 246 1
241 263 1
241 264 1
241 307 1
241 362 1
241 443 1
241 490 1
242 73 1
242 114 1
242 200 1
242 204 1
242 225 1
242 234 1
242 240 1
242 241 1
242 244 1
242 246 1
242 267 1
242 268 1
242 308 1
242 363 1
242 444 1
242 490 1
243 74 1
243 115 1
243 205 1
243 211 1
243 226 1
243 230 1
243 235 1
243 239 1
243 240 1
243 244 1
243 245 1
243 270 1
243 271 1
243 309 1
243 364 1
243 445 1
243 491 1
243 495 1
244 75 1
244 116 1
244 206 1
244 211 1
244 221 1
244 227 1
244 236 1
244 240 1
244 242 1
244 243 1
244 246 1
244 272 1
244 273 1
244 310 1
244 365 1
244 446 1
244 492 1
244 496 1
245 76 1
245 117 1
245 207 1
245 228 1
245 230 1
245 237 1
245 239 1
245 241 1
245 243 1
245 246 1
245 274 1
245 311 1
245 366 1
245 447 1
245 493 1
245 497 1
246 77 1
246 118 1
246 208 1
246 221 1
246 229 1
246 238 1
246 241 1
246 242 1
246 244 1
246 245 1
246 274 1
246 312 1
246 367 1
246 448 1
246 494 1
246 498 1
247 21 1
247 78 1
247 111 1
247 112 1
247 201 1
247 249 1
247 250 1
247 251 1
247 254 1
247 256 1
247 258 1
247 313 1
247 368 1
247 449 1
247 505 1
247 506 1
248 20 1
248 22 1
248 79 1
248 113 1
248 249 1
248 252 1
248 253 1
248 254 1
248 261 1
248 263 1
248 314 1
248 369 1
248 450 1
248 511 1
249 23 1
249 80 1
249 114 1
249 201 1
249 247 1
249 248 1
249 251 1
249 253 1
249 255 1
249 260 1
249 265 1
249 267 1
249 315 1
249 370 1
249 451 1
249 511 1
250 24 1
250 81 1
250 115 1
250 212 1
250 231 1
250 247 1
250 251 1
250 252 1
250 256 1
250 261 1
250 270 1
250 316 1
250 371 1
250 452 1
250 512 1
250 516 1
251 25 1
251 82 1
251 116 1
251 212 1
251 222 1
251 247 1
251 249 1
251 250 1
251 253 1
251 257 1
251 262 1
251 269 1
251 272 1
251 317 1
251 372 1
251 453 1
251 513 1
251 517 1
252 26 1
252 83 1
252 117 1
252 231 1
252 239 1
252 248 1
252 250 1
252 253 1
252 258 1
252 263 1
252 270 1
252 318 1
252 373 1
252 454 1
252 514 1
252 518 1
253 27 1
253 84 1
253 118 1
253 222 1
253 239 1
253 248 1
253 249 1
253 251 1
253 252 1
253 259 1
253 264 1
253 271 1
253 274 1
253 319 1
253 374 1
253 455 1
253 515 1
253 519 1
254 21 1
254 85 1
254 113 1
254 203 1
254 247 1
254 248 1
254 255 1
254 258 1
254 259 1
254 260 1
254 261 1
254 262 1
254 320 1
254 375 1
254 456 1
254 526 1
255 86 1
255 114 1
255 202 1
255 204 1
255 249 1
255 254 1
255 257 1
255 259 1
255 265 1
255 266 1
255 321 1
255 376 1
255 457 1
255 526 1
256 87 1
256 115 1
256 205 1
256 213 1
256 232 1
256 247 1
256 250 1
256 257 1
256 258 1
256 265 1
256 269 1
256 322 1
256 377 1
256 458 1
256 527 1
256 531 1
257 88 1
257 116 1
257 206 1
257 213 1
257 223 1
257 251 1
257 255 1
257 256 1
257 259 1
257 266 1
257 269 1
257 323 1
257 378 1
257 459 1
257 528 1
257 532 1
258 89 1
258 117 1
258 207 1
258 232 1
258 240 1
258 247 1
258 252 1
258 254 1
258 256 1
258 259 1
258 267 1
258 270 1
258 272 1
258 324 1
258 379 1
258 460 1
258 529 1
258 533 1
259 90 1
259 118 1
259 208 1
259 223 1
259 240 1
259 253 1
259 254 1
259 255 1
259 257 1
259 258 1
259 268 1
259 271 1
259 273 1
259 325 1
259 380 1
259 461 1
259 530 1
259 534 1
260 23 1
260 91 1
260 203 1
260 249 1
260 254 1
260 262 1
260 264 1
260 267 1
260 268 1
260 326 1
260 381 1
260 462 1
261 24 1
261 92 1
261 214 1
261 233 1
261 248 1
261 250 1
261 254 1
261 262 1
261 263 1
261 265 1
261 270 1
261 271 1
261 327 1
261 382 1
261 463 1
261 541 1
262 25 1
262 93 1
262 214 1
262 224 1
262 251 1
262 254 1
262 260 1
262 261 1
262 264 1
262 266 1
262 272 1
262 273 1
262 328 1
262 383 1
262 464 1
262 542 1
263 26 1
263 94 1
263 233 1
263 241 1
263 248 1
263 252 1
263 261 1
263 264 1
263 267 1
263 274 1
263 329 1
263 384 1
263 465 1
263 543 1
264 27 1
264 95 1
264 224 1
264 241 1
264 253 1
264 260 1
264 262 1
264 263 1
264 268 1
264 274 1
264 330 1
264 385 1
264 466 1
264 544 1
265 96 1
265 205 1
265 215 1
265 234 1
265 249 1
265 255 1
265 256 1
265 261 1
265 266 1
265 267 1
265 269 1
265 271 1
265 331 1
265 386 1
265 467 1
265 541 1
266 97 1
266 206 1
266 215 1
266 225 1
266 255 1
266 257 1
266 262 1
266 265 1
266 268 1
266 273 1
266 332 1
266 387 1
266 468 1
266 542 1
267 98 1
267 207 1
267 234 1
267 242 1
267 249 1
267 258 1
267 260 1
267 263 1
267 265 1
267 268 1
267 272 1
267 274 1
267 333 1
267 388 1
267 469 1
267 543 1
268 99 1
268 208 1
268 225 1
268 242 1
268 259 1
268 260 1
268 264 1
268 266 1
268 267 1
268 273 1
268 334 1
268 389 1
268 470 1
268 544 1
269 100 1
269 216 1
269 217 1
269 226 1
269 236 1
269 251 1
269 256 1
269 257 1
269 265 1
269 271 1
269 272 1
269 335 1
269 390 1
269 471 1
269 545 1
269 551 1
270 101 1
270 218 1
270 235 1
270 237 1
270 243 1
270 250 1
270 252 1
270 258 1
270 261 1
270 271 1
270 272 1
270 336 1
270 391 1
270 472 1
270 546 1
270 552 1
271 102 1
271 219 1
271 226 1
271 238 1
271 243 1
271 253 1
271 259 1
271 261 1
271 265 1
271 269 1
271 270 1
271 273 1
271 274 1
271 337 1
271 392 1
271 473 1
271 547 1
271 553 1
272 103 1
272 218 1
272 228 1
272 236 1
272 244 1
272 251 1
272 258 1
272 262 1
272 267 1
272 269 1
272 270 1
272 273 1
272 274 1
272 338 1
272 393 1
272 474 1
272 548 1
272 554 1
273 104 1
273 219 1
273 227 1
273 229 1
273 244 1
273 259 1
273 262 1
273 266 1
273 268 1
273 271 1
273 272 1
273 339 1
273 394 1
273 475 1
273 549 1
273 555 1
274 105 1
274 228 1
274 238 1
274 245 1
274 246 1
274 253 1
274 263 1
274 264 1
274 267 1
274 271 1
274 272 1
274 340 1
274 395 1
274 476 1
274 550 1
274 556 1
275 28 1
275 29 1
275 119 1
275 131 1
275 198 1
275 209 1
275 277 1
275 283 1
275 285 1
275 286 1
275 292 1
275 293 1
275 341 1
275 342 1
275 344 1
275 346 1
276 30 1
276 132 1
276 197 1
276 199 1
276 210 1
276 277 1
276 282 1
276 284 1
276 286 1
276 301 1
276 302 1
276 351 1
276 353 1
276 355 1
277 31 1
277 119 1
277 133 1
277 200 1
277 211 1
277 275 1
277 276 1
277 284 1
277 285 1
277 287 1
277 296 1
277 309 1
277 310 1
277 351 1
277 361 1
277 363 1
278 28 1
278 32 1
278 119 1
278 134 1
278 201 1
278 212 1
278 279 1
278 280 1
278 282 1
278 284 1
278 288 1
278 297 1
278 316 1
278 317 1
278 352 1
278 360 1
278 368 1
278 370 1
279 33 1
279 119 1
279 135 1
279 202 1
279 213 1
279 278 1
279 281 1
279 282 1
279 283 1
279 289 1
279 298 1
279 322 1
279 323 1
279 353 1
279 361 1
279 376 1
280 28 1
280 34 1
280 136 1
280 197 1
280 203 1
280 214 1
280 278 1
280 281 1
280 284 1
280 285 1
280 290 1
280 299 1
280 327 1
280 328 1
280 354 1
280 362 1
280 375 1
280 381 1
281 35 1
281 137 1
281 197 1
281 204 1
281 215 1
281 279 1
281 280 1
281 283 1
281 285 1
281 291 1
281 300 1
281 331 1
281 332 1
281 355 1
281 363 1
281 376 1
282 36 1
282 138 1
282 205 1
282 216 1
282 276 1
282 278 1
282 279 1
282 283 1
282 284 1
282 292 1
282 301 1
282 335 1
282 356 1
282 364 1
282 377 1
282 386 1
283 37 1
283 139 1
283 206 1
283 217 1
283 275 1
283 279 1
283 281 1
283 282 1
283 285 1
283 293 1
283 302 1
283 335 1
283 357 1
283 365 1
283 378 1
283 387 1
284 38 1
284 140 1
284 207 1
284 218 1
284 276 1
284 277 1
284 278 1
284 280 1
284 282 1
284 285 1
284 294 1
284 303 1
284 336 1
284 338 1
284 358 1
284 366 1
284 379 1
284 388 1
285 39 1
285 141 1
285 208 1
285 219 1
285 275 1
285 277 1
285 280 1
285 281 1
285 283 1
285 284 1
285 295 1
285 304 1
285 337 1
285 339 1
285 359 1
285 367 1
285 380 1
285 389 1
286 30 1
286 121 1
286 142 1
286 198 1
286 220 1
286 275 1
286 276 1
286 287 1
286 292 1
286 294 1
286 296 1
286 302 1
286 304 1
286 396 1
286 398 1
286 400 1
287 31 1
287 120 1
287 122 1
287 143 1
287 221 1
287 277 1
287 286 1
287 294 1
287 295 1
287 310 1
287 312 1
287 396 1
287 406 1
287 408 1
288 29 1
288 32 1
288 120 1
288 123 1
288 144 1
288 222 1
288 278 1
288 289 1
288 290 1
288 292 1
288 294 1
288 305 1
288 317 1
288 319 1
288 397 1
288 405 1
288 413 1
288 415 1
289 33 1
289 120 1
289 124 1
289 145 1
289 223 1
289 279 1
289 288 1
289 291 1
289 292 1
289 293 1
289 306 1
289 323 1
289 325 1
289 398 1
289 406 1
289 421 1
290 29 1
290 34 1
290 125 1
290 146 1
290 198 1
290 224 1
290 280 1
290 288 1
290 291 1
290 294 1
290 295 1
290 307 1
290 328 1
290 330 1
290 399 1
290 407 1
290 420 1
290 426 1
291 35 1
291 126 1
291 147 1
291 198 1
291 225 1
291 281 1
291 289 1
291 290 1
291 293 1
291 295 1
291 308 1
291 332 1
291 334 1
291 400 1
291 408 1
291 421 1
292 36 1
292 127 1
292 148 1
292 226 1
292 275 1
292 282 1
292 286 1
292 288 1
292 289 1
292 293 1
292 294 1
292 309 1
292 335 1
292 337 1
292 401 1
292 409 1
292 422 1
292 431 1
293 37 1
293 128 1
293 149 1
293 227 1
293 275 1
293 283 1
293 289 1
293 291 1
293 292 1
293 295 1
293 310 1
293 339 1
293 402 1
293 410 1
293 423 1
293 432 1
294 38 1
294 129 1
294 150 1
294 228 1
294 284 1
294 286 1
294 287 1
294 288 1
294 290 1
294 292 1
294 295 1
294 311 1
294 338 1
294 340 1
294 403 1
294 411 1
294 424 1
294 433 1
295 39 1
295 130 1
295 151 1
295 229 1
295 285 1
295 287 1
295 290 1
295 291 1
295 293 1
295 294 1
295 312 1
295 339 1
295 404 1
295 412 1
295 425 1
295 434 1
296 121 1
296 152 1
296 200 1
296 230 1
296 277 1
296 286 1
296 303 1
296 304 1
296 309 1
296 311 1
296 442 1
296 444 1
297 30 1
297 121 1
297 153 1
297 201 1
297 231 1
297 278 1
297 298 1
297 299 1
297 301 1
297 303 1
297 305 1
297 316 1
297 318 1
297 441 1
297 449 1
297 451 1
298 121 1
298 154 1
298 202 1
298 232 1
298 279 1
298 297 1
298 300 1
298 301 1
298 302 1
298 306 1
298 322 1
298 324 1
298 442 1
298 457 1
299 30 1
299 155 1
299 199 1
299 203 1
299 233 1
299 280 1
299 297 1
299 300 1
299 303 1
299 304 1
299 307 1
299 327 1
299 329 1
299 443 1
299 456 1
299 462 1
300 156 1
300 199 1
300 204 1
300 234 1
300 281 1
300 298 1
300 299 1
300 302 1
300 304 1
300 308 1
300 331 1
300 333 1
300 444 1
300 457 1
301 157 1
301 205 1
301 235 1
301 276 1
301 282 1
301 297 1
301 298 1
301 302 1
301 303 1
301 309 1
301 336 1
301 445 1
301 458 1
301 467 1
302 158 1
302 206 1
302 236 1
302 276 1
302 283 1
302 286 1
302 298 1
302 300 1
302 301 1
302 304 1
302 310 1
302 335 1
302 338 1
302 446 1
302 459 1
302 468 1
303 159 1
303 207 1
303 237 1
303 284 1
303 296 1
303 297 1
303 299 1
303 301 1
303 304 1
303 311 1
303 336 1
303 447 1
303 460 1
303 469 1
304 160 1
304 208 1
304 238 1
304 285 1
304 286 1
304 296 1
304 299 1
304 300 1
304 302 1
304 303 1
304 312 1
304 337 1
304 340 1
304 448 1
304 461 1
304 470 1
305 31 1
305 122 1
305 123 1
305 161 1
305 239 1
305 288 1
305 297 1
305 306 1
305 307 1
305 309 1
305 311 1
305 318 1
305 319 1
305 441 1
305 477 1
305 479 1
306 122 1
306 124 1
306 162 1
306 240 1
306 289 1
306 298 1
306 305 1
306 308 1
306 309 1
306 310 1
306 324 1
306 325 1
306 442 1
306 485 1
307 31 1
307 125 1
307 163 1
307 200 1
307 241 1
307 290 1
307 299 1
307 305 1
307 308 1
307 311 1
307 312 1
307 329 1
307 330 1
307 443 1
307 484 1
307 490 1
308 126 1
308 164 1
308 200 1
308 242 1
308 291 1
308 300 1
308 306 1
308 307 1
308 310 1
308 312 1
308 333 1
308 334 1
308 444 1
308 485 1
309 127 1
309 165 1
309 243 1
309 277 1
309 292 1
309 296 1
309 301 1
309 305 1
309 306 1
309 310 1
309 311 1
309 336 1
309 337 1
309 445 1
309 486 1
309 495 1
310 128 1
310 166 1
310 244 1
310 277 1
310 287 1
310 293 1
310 302 1
310 306 1
310 308 1
310 309 1
310 312 1
310 338 1
310 339 1
310 446 1
310 487 1
310 496 1
311 129 1
311 167 1
311 245 1
311 294 1
311 296 1
311 303 1
311 305 1
311 307 1
311 309 1
311 312 1
311 340 1
311 447 1
311 488 1
311 497 1
312 130 1
312 168 1
312 246 1
312 287 1
312 295 1
312 304 1
312 307 1
312 308 1
312 310 1
312 311 1
312 340 1
312 448 1
312 489 1
312 498 1
313 33 1
313 123 1
313 124 1
313 169 1
313 247 1
313 315 1
313 316 1
313 317 1
313 320 1
313 322 1
313 324 1
313 449 1
313 477 1
313 506 1
314 32 1
314 34 1
314 125 1
314 170 1
314 201 1
314 248 1
314 315 1
314 318 1
314 319 1
314 320 1
314 327 1
314 329 1
314 450 1
314 478 1
314 505 1
314 511 1
315 35 1
315 126 1
315 171 1
315 201 1
315 249 1
315 313 1
315 314 1
315 317 1
315 319 1
315 321 1
315 326 1
315 331 1
315 333 1
315 451 1
315 479 1
315 506 1
316 36 1
316 127 1
316 172 1
316 250 1
316 278 1
316 297 1
316 313 1
316 317 1
316 318 1
316 322 1
316 327 1
316 336 1
316 452 1
316 480 1
316 507 1
316 516 1
317 37 1
317 128 1
317 173 1
317 251 1
317 278 1
317 288 1
317 313 1
317 315 1
317 316 1
317 319 1
317 323 1
317 328 1
317 335 1
317 338 1
317 453 1
317 481 1
317 508 1
317 517 1
318 38 1
318 129 1
318 174 1
318 252 1
318 297 1
318 305 1
318 314 1
318 316 1
318 319 1
318 324 1
318 329 1
318 336 1
318 454 1
318 482 1
318 509 1
318 518 1
319 39 1
319 130 1
319 175 1
319 253 1
319 288 1
319 305 1
319 314 1
319 315 1
319 317 1
319 318 1
319 325 1
319 330 1
319 337 1
319 340 1
319 455 1
319 483 1
319 510 1
319 519 1
320 33 1
320 125 1
320 176 1
320 202 1
320 254 1
320 313 1
320 314 1
320 321 1
320 324 1
320 325 1
320 326 1
320 327 1
320 328 1
320 456 1
320 484 1
320 526 1
321 126 1
321 177 1
321 202 1
321 255 1
321 315 1
321 320 1
321 323 1
321 325 1
321 331 1
321 332 1
321 457 1
321 485 1
322 127 1
322 178 1
322 256 1
322 279 1
322 298 1
322 313 1
322 316 1
322 323 1
322 324 1
322 331 1
322 335 1
322 458 1
322 486 1
322 531 1
323 128 1
323 179 1
323 257 1
323 279 1
323 289 1
323 317 1
323 321 1
323 322 1
323 325 1
323 332 1
323 335 1
323 459 1
323 487 1
323 532 1
324 129 1
324 180 1
324 258 1
324 298 1
324 306 1
324 313 1
324 318 1
324 320 1
324 322 1
324 325 1
324 333 1
324 336 1
324 338 1
324 460 1
324 488 1
324 533 1
325 130 1
325 181 1
325 259 1
325 289 1
325 306 1
325 319 1
325 320 1
325 321 1
325 323 1
325 324 1
325 334 1
325 337 1
325 339 1
325 461 1
325 489 1
325 534 1
326 35 1
326 182 1
326 203 1
326 204 1
326 260 1
326 315 1
326 320 1
326 328 1
326 330 1
326 333 1
326 334 1
326 462 1
326 490 1
326 526 1
327 36 1
327 183 1
327 205 1
327 261 1
327 280 1
327 299 1
327 314 1
327 316 1
327 320 1
327 328 1
327 329 1
327 331 1
327 336 1
327 337 1
327 463 1
327 491 1
327 527 1
327 541 1
328 37 1
328 184 1
328 206 1
328 262 1
328 280 1
328 290 1
328 317 1
328 320 1
328 326 1
328 327 1
328 330 1
328 332 1
328 338 1
328 339 1
328 464 1
328 492 1
328 528 1
328 542 1
329 38 1
329 185 1
329 207 1
329 263 1
329 299 1
329 307 1
329 314 1
329 318 1
329 327 1
329 330 1
329 333 1
329 340 1
329 465 1
329 493 1
329 529 1
329 543 1
330 39 1
330 186 1
330 208 1
330 264 1
330 290 1
330 307 1
330 319 1
330 326 1
330 328 1
330 329 1
330 334 1
330 340 1
330 466 1
330 494 1
330 530 1
330 544 1
331 187 1
331 205 1
331 265 1
331 281 1
331 300 1
331 315 1
331 321 1
331 322 1
331 327 1
331 332 1
331 333 1
331 335 1
331 337 1
331 467 1
331 495 1
331 531 1
332 188 1
332 206 1
332 266 1
332 281 1
332 291 1
332 321 1
332 323 1
332 328 1
332 331 1
332 334 1
332 339 1
332 468 1
332 496 1
332 532 1
333 189 1
333 207 1
333 267 1
333 300 1
333 308 1
333 315 1
333 324 1
333 326 1
333 329 1
333 331 1
333 334 1
333 338 1
333 340 1
333 469 1
333 497 1
333 533 1
334 190 1
334 208 1
334 268 1
334 291 1
334 308 1
334 325 1
334 326 1
334 330 1
334 332 1
334 333 1
334 339 1
334 470 1
334 498 1
334 534 1
335 191 1
335 269 1
335 282 1
335 283 1
335 292 1
335 302 1
335 317 1
335 322 1
335 323 1
335 331 1
335 337 1
335 338 1
335 471 1
335 499 1
335 535 1
335 551 1
336 192 1
336 270 1
336 284 1
336 301 1
336 303 1
336 309 1
336 316 1
336 318 1
336 324 1
336 327 1
336 337 1
336 338 1
336 472 1
336 500 1
336 536 1
336 552 1
337 193 1
337 271 1
337 285 1
337 292 1
337 304 1
337 309 1
337 319 1
337 325 1
337 327 1
337 331 1
337 335 1
337 336 1
337 339 1
337 340 1
337 473 1
337 501 1
337 537 1
337 553 1
338 194 1
338 272 1
338 284 1
338 294 1
338 302 1
338 310 1
338 317 1
338 324 1
338 328 1
338 333 1
338 335 1
338 336 1
338 339 1
338 340 1
338 474 1
338 502 1
338 538 1
338 554 1
339 195 1
339 273 1
339 285 1
339 293 1
339 295 1
339 310 1
339 325 1
339 328 1
339 332 1
339 334 1
339 337 1
339 338 1
339 475 1
339 503 1
339 539 1
339 555 1
340 196 1
340 274 1
340 294 1
340 304 1
340 311 1
340 312 1
340 319 1
340 329 1
340 330 1
340 333 1
340 337 1
340 338 1
340 476 1
340 504 1
340 540 1
340 556 1
341 41 1
341 51 1
341 132 1
341 209 1
341 220 1
341 275 1
341 342 1
341 347 1
341 349 1
341 351 1
341 357 1
341 359 1
341 401 1
341 402 1
342 42 1
342 52 1
342 131 1
342 133 1
342 221 1
342 275 1
342 341 1
342 349 1
342 350 1
342 365 1
342 367 1
342 396 1
342 409 1
342 410 1
343 40 1
343 43 1
343 53 1
343 131 1
343 134 1
343 222 1
343 344 1
343 345 1
343 347 1
343 349 1
343 360 1
343 372 1
343 374 1
343 397 1
343 416 1
343 417 1
344 44 1
344 54 1
344 131 1
344 135 1
344 223 1
344 275 1
344 343 1
344 346 1
344 347 1
344 348 1
344 361 1
344 378 1
344 380 1
344 398 1
344 422 1
344 423 1
345 40 1
345 45 1
345 55 1
345 136 1
345 209 1
345 224 1
345 343 1
345 346 1
345 349 1
345 350 1
345 362 1
345 383 1
345 385 1
345 399 1
345 427 1
345 428 1
346 46 1
346 56 1
346 137 1
346 209 1
346 225 1
346 275 1
346 344 1
346 345 1
346 348 1
346 350 1
346 363 1
346 387 1
346 389 1
346 400 1
346 431 1
346 432 1
347 47 1
347 57 1
347 138 1
347 226 1
347 341 1
347 343 1
347 344 1
347 348 1
347 349 1
347 364 1
347 390 1
347 392 1
347 401 1
347 435 1
348 48 1
348 58 1
348 139 1
348 227 1
348 344 1
348 346 1
348 347 1
348 350 1
348 365 1
348 394 1
348 402 1
348 435 1
349 49 1
349 59 1
349 140 1
349 228 1
349 341 1
349 342 1
349 343 1
349 345 1
349 347 1
349 350 1
349 366 1
349 393 1
349 395 1
349 403 1
349 436 1
349 438 1
350 50 1
350 60 1
350 141 1
350 229 1
350 342 1
350 345 1
350 346 1
350 348 1
350 349 1
350 367 1
350 394 1
350 404 1
350 437 1
350 439 1
351 61 1
351 132 1
351 211 1
351 230 1
351 276 1
351 277 1
351 341 1
351 358 1
351 359 1
351 364 1
351 366 1
351 396 1
351 445 1
351 446 1
352 41 1
352 62 1
352 132 1
352 212 1
352 231 1
352 278 1
352 353 1
352 354 1
352 356 1
352 358 1
352 360 1
352 371 1
352 373 1
352 397 1
352 452 1
352 453 1
353 63 1
353 132 1
353 213 1
353 232 1
353 276 1
353 279 1
353 352 1
353 355 1
353 356 1
353 357 1
353 361 1
353 377 1
353 379 1
353 398 1
353 458 1
353 459 1
354 41 1
354 64 1
354 210 1
354 214 1
354 233 1
354 280 1
354 352 1
354 355 1
354 358 1
354 359 1
354 362 1
354 382 1
354 384 1
354 399 1
354 463 1
354 464 1
355 65 1
355 210 1
355 215 1
355 234 1
355 276 1
355 281 1
355 353 1
355 354 1
355 357 1
355 359 1
355 363 1
355 386 1
355 388 1
355 400 1
355 467 1
355 468 1
356 66 1
356 216 1
356 235 1
356 282 1
356 352 1
356 353 1
356 357 1
356 358 1
356 364 1
356 391 1
356 401 1
356 471 1
357 67 1
357 217 1
357 236 1
357 283 1
357 341 1
357 353 1
357 355 1
357 356 1
357 359 1
357 365 1
357 390 1
357 393 1
357 402 1
357 471 1
358 68 1
358 218 1
358 237 1
358 284 1
358 351 1
358 352 1
358 354 1
358 356 1
358 359 1
358 366 1
358 391 1
358 403 1
358 472 1
358 474 1
359 69 1
359 219 1
359 238 1
359 285 1
359 341 1
359 351 1
359 354 1
359 355 1
359 357 1
359 358 1
359 367 1
359 392 1
359 395 1
359 404 1
359 473 1
359 475 1
360 42 1
360 70 1
360 133 1
360 134 1
360 239 1
360 278 1
360 343 1
360 352 1
360 361 1
360 362 1
360 364 1
360 366 1
360 373 1
360 374 1
360 405 1
360 441 1
360 480 1
360 481 1
361 71 1
361 133 1
361 135 1
361 240 1
361 277 1
361 279 1
361 344 1
361 353 1
361 360 1
361 363 1
361 364 1
361 365 1
361 379 1
361 380 1
361 406 1
361 442 1
361 486 1
361 487 1
362 42 1
362 72 1
362 136 1
362 211 1
362 241 1
362 280 1
362 345 1
362 354 1
362 360 1
362 363 1
362 366 1
362 367 1
362 384 1
362 385 1
362 407 1
362 443 1
362 491 1
362 492 1
363 73 1
363 137 1
363 211 1
363 242 1
363 277 1
363 281 1
363 346 1
363 355 1
363 361 1
363 362 1
363 365 1
363 367 1
363 388 1
363 389 1
363 408 1
363 444 1
363 495 1
363 496 1
364 74 1
364 138 1
364 243 1
364 282 1
364 347 1
364 351 1
364 356 1
364 360 1
364 361 1
364 365 1
364 366 1
364 391 1
364 392 1
364 409 1
364 445 1
364 499 1
365 75 1
365 139 1
365 244 1
365 283 1
365 342 1
365 348 1
365 357 1
365 361 1
365 363 1
365 364 1
365 367 1
365 393 1
365 394 1
365 410 1
365 446 1
365 499 1
366 76 1
366 140 1
366 245 1
366 284 1
366 349 1
366 351 1
366 358 1
366 360 1
366 362 1
366 364 1
366 367 1
366 395 1
366 411 1
366 447 1
366 500 1
366 502 1
367 77 1
367 141 1
367 246 1
367 285 1
367 342 1
367 350 1
367 359 1
367 362 1
367 363 1
367 365 1
367 366 1
367 395 1
367 412 1
367 448 1
367 501 1
367 503 1
368 44 1
368 78 1
368 134 1
368 135 1
368 247 1
368 278 1
368 370 1
368 371 1
368 372 1
368 375 1
368 377 1
368 379 1
368 413 1
368 449 1
368 507 1
368 508 1
369 43 1
369 45 1
369 79 1
369 136 1
369 212 1
369 248 1
369 370 1
369 373 1
369 374 1
369 375 1
369 382 1
369 384 1
369 414 1
369 450 1
369 512 1
369 513 1
370 46 1
370 80 1
370 137 1
370 212 1
370 249 1
370 278 1
370 368 1
370 369 1
370 372 1
370 374 1
370 376 1
370 381 1
370 386 1
370 388 1
370 415 1
370 451 1
370 516 1
370 517 1
371 47 1
371 81 1
371 138 1
371 250 1
371 352 1
371 368 1
371 372 1
371 373 1
371 377 1
371 382 1
371 391 1
371 416 1
371 452 1
371 520 1
372 48 1
372 82 1
372 139 1
372 251 1
372 343 1
372 368 1
372 370 1
372 371 1
372 374 1
372 378 1
372 383 1
372 390 1
372 393 1
372 417 1
372 453 1
372 520 1
373 49 1
373 83 1
373 140 1
373 252 1
373 352 1
373 360 1
373 369 1
373 371 1
373 374 1
373 379 1
373 384 1
373 391 1
373 418 1
373 454 1
373 521 1
373 523 1
374 50 1
374 84 1
374 141 1
374 253 1
374 343 1
374 360 1
374 369 1
374 370 1
374 372 1
374 373 1
374 380 1
374 385 1
374 392 1
374 395 1
374 419 1
374 455 1
374 522 1
374 524 1
375 44 1
375 85 1
375 136 1
375 213 1
375 254 1
375 280 1
375 368 1
375 369 1
375 376 1
375 379 1
375 380 1
375 381 1
375 382 1
375 383 1
375 420 1
375 456 1
375 527 1
375 528 1
376 86 1
376 137 1
376 213 1
376 255 1
376 279 1
376 281 1
376 370 1
376 375 1
376 378 1
376 380 1
376 386 1
376 387 1
376 421 1
376 457 1
376 531 1
376 532 1
377 87 1
377 138 1
377 256 1
377 282 1
377 353 1
377 368 1
377 371 1
377 378 1
377 379 1
377 386 1
377 390 1
377 422 1
377 458 1
377 535 1
378 88 1
378 139 1
378 257 1
378 283 1
378 344 1
378 372 1
378 376 1
378 377 1
378 380 1
378 387 1
378 390 1
378 423 1
378 459 1
378 535 1
379 89 1
379 140 1
379 258 1
379 284 1
379 353 1
379 361 1
379 368 1
379 373 1
379 375 1
379 377 1
379 380 1
379 388 1
379 391 1
379 393 1
379 424 1
379 460 1
379 536 1
379 538 1
380 90 1
380 141 1
380 259 1
380 285 1
380 344 1
380 361 1
380 374 1
380 375 1
380 376 1
380 378 1
380 379 1
380 389 1
380 392 1
380 394 1
380 425 1
380 461 1
380 537 1
380 539 1
381 46 1
381 91 1
381 214 1
381 215 1
381 260 1
381 280 1
381 370 1
381 375 1
381 383 1
381 385 1
381 388 1
381 389 1
381 426 1
381 462 1
381 541 1
381 542 1
382 47 1
382 92 1
382 216 1
382 261 1
382 354 1
382 369 1
382 371 1
382 375 1
382 383 1
382 384 1
382 386 1
382 391 1
382 392 1
382 427 1
382 463 1
382 545 1
383 48 1
383 93 1
383 217 1
383 262 1
383 345 1
383 372 1
383 375 1
383 381 1
383 382 1
383 385 1
383 387 1
383 393 1
383 394 1
383 428 1
383 464 1
383 545 1
384 49 1
384 94 1
384 218 1
384 263 1
384 354 1
384 362 1
384 369 1
384 373 1
384 382 1
384 385 1
384 388 1
384 395 1
384 429 1
384 465 1
384 546 1
384 548 1
385 50 1
385 95 1
385 219 1
385 264 1
385 345 1
385 362 1
385 374 1
385 381 1
385 383 1
385 384 1
385 389 1
385 395 1
385 430 1
385 466 1
385 547 1
385 549 1
386 96 1
386 216 1
386 265 1
386 282 1
386 355 1
386 370 1
386 376 1
386 377 1
386 382 1
386 387 1
386 388 1
386 390 1
386 392 1
386 431 1
386 467 1
386 551 1
387 97 1
387 217 1
387 266 1
387 283 1
387 346 1
387 376 1
387 378 1
387 383 1
387 386 1
387 389 1
387 394 1
387 432 1
387 468 1
387 551 1
388 98 1
388 218 1
388 267 1
388 284 1
388 355 1
388 363 1
388 370 1
388 379 1
388 381 1
388 384 1
388 386 1
388 389 1
388 393 1
388 395 1
388 433 1
388 469 1
388 552 1
388 554 1
389 99 1
389 219 1
389 268 1
389 285 1
389 346 1
389 363 1
389 380 1
389 381 1
389 385 1
389 387 1
389 388 1
389 394 1
389 434 1
389 470 1
389 553 1
389 555 1
390 100 1
390 269 1
390 347 1
390 357 1
390 372 1
390 377 1
390 378 1
390 386 1
390 392 1
390 393 1
390 435 1
390 471 1
391 101 1
391 270 1
391 356 1
391 358 1
391 364 1
391 371 1
391 373 1
391 379 1
391 382 1
391 392 1
391 393 1
391 436 1
391 472 1
391 557 1
392 102 1
392 271 1
392 347 1
392 359 1
392 364 1
392 374 1
392 380 1
392 382 1
392 386 1
392 390 1
392 391 1
392 394 1
392 395 1
392 437 1
392 473 1
392 558 1
393 103 1
393 272 1
393 349 1
393 357 1
393 365 1
393 372 1
393 379 1
393 383 1
393 388 1
393 390 1
393 391 1
393 394 1
393 395 1
393 438 1
393 474 1
393 557 1
394 104 1
394 273 1
394 348 1
394 350 1
394 365 1
394 380 1
394 383 1
394 387 1
394 389 1
394 392 1
394 393 1
394 439 1
394 475 1
394 558 1
395 105 1
395 274 1
395 349 1
395 359 1
395 366 1
395 367 1
395 374 1
395 384 1
395 385 1
395 388 1
395 392 1
395 393 1
395 440 1
395 476 1
395 559 1
395 560 1
396 61 1
396 142 1
396 152 1
396 221 1
396 286 1
396 287 1
396 342 1
396 351 1
396 403 1
396 404 1
396 409 1
396 411 1
396 446 1
396 448 1
397 51 1
397 62 1
397 142 1
397 153 1
397 222 1
397 288 1
397 343 1
397 352 1
397 398 1
397 399 1
397 401 1
397 403 1
397 405 1
397 416 1
397 418 1
397 441 1
397 453 1
397 455 1
398 63 1
398 142 1
398 154 1
398 223 1
398 286 1
398 289 1
398 344 1
398 353 1
398 397 1
398 400 1
398 401 1
398 402 1
398 406 1
398 422 1
398 424 1
398 442 1
398 459 1
398 461 1
399 51 1
399 64 1
399 155 1
399 220 1
399 224 1
399 290 1
399 345 1
399 354 1
399 397 1
399 400 1
399 403 1
399 404 1
399 407 1
399 427 1
399 429 1
399 443 1
399 464 1
399 466 1
400 65 1
400 156 1
400 220 1
400 225 1
400 286 1
400 291 1
400 346 1
400 355 1
400 398 1
400 399 1
400 402 1
400 404 1
400 408 1
400 431 1
400 433 1
400 444 1
400 468 1
400 470 1
401 66 1
401 157 1
401 226 1
401 292 1
401 341 1
401 347 1
401 356 1
401 397 1
401 398 1
401 402 1
401 403 1
401 409 1
401 436 1
401 445 1
401 471 1
401 473 1
402 67 1
402 158 1
402 227 1
402 293 1
402 341 1
402 348 1
402 357 1
402 398 1
402 400 1
402 401 1
402 404 1
402 410 1
402 435 1
402 438 1
402 446 1
402 475 1
403 68 1
403 159 1
403 228 1
403 294 1
403 349 1
403 358 1
403 396 1
403 397 1
403 399 1
403 401 1
403 404 1
403 411 1
403 436 1
403 447 1
403 474 1
403 476 1
404 69 1
404 160 1
404 229 1
404 295 1
404 350 1
404 359 1
404 396 1
404 399 1
404 400 1
404 402 1
404 403 1
404 412 1
404 437 1
404 440 1
404 448 1
404 475 1
405 52 1
405 70 1
405 143 1
405 144 1
405 161 1
405 288 1
405 360 1
405 397 1
405 406 1
405 407 1
405 409 1
405 411 1
405 418 1
405 419 1
405 481 1
405 483 1
406 71 1
406 143 1
406 145 1
406 162 1
406 287 1
406 289 1
406 361 1
406 398 1
406 405 1
406 408 1
406 409 1
406 410 1
406 424 1
406 425 1
406 487 1
406 489 1
407 52 1
407 72 1
407 146 1
407 163 1
407 221 1
407 290 1
407 362 1
407 399 1
407 405 1
407 408 1
407 411 1
407 412 1
407 429 1
407 430 1
407 492 1
407 494 1
408 73 1
408 147 1
408 164 1
408 221 1
408 287 1
408 291 1
408 363 1
408 400 1
408 406 1
408 407 1
408 410 1
408 412 1
408 433 1
408 434 1
408 496 1
408 498 1
409 74 1
409 148 1
409 165 1
409 292 1
409 342 1
409 364 1
409 396 1
409 401 1
409 405 1
409 406 1
409 410 1
409 411 1
409 436 1
409 437 1
409 499 1
409 501 1
410 75 1
410 149 1
410 166 1
410 293 1
410 342 1
410 365 1
410 402 1
410 406 1
410 408 1
410 409 1
410 412 1
410 438 1
410 439 1
410 503 1
411 76 1
411 150 1
411 167 1
411 294 1
411 366 1
411 396 1
411 403 1
411 405 1
411 407 1
411 409 1
411 412 1
411 440 1
411 502 1
411 504 1
412 77 1
412 151 1
412 168 1
412 295 1
412 367 1
412 404 1
412 407 1
412 408 1
412 410 1
412 411 1
412 440 1
412 503 1
413 54 1
413 78 1
413 144 1
413 145 1
413 169 1
413 288 1
413 368 1
413 415 1
413 416 1
413 417 1
413 420 1
413 422 1
413 424 1
413 477 1
413 508 1
413 510 1
414 53 1
414 55 1
414 79 1
414 146 1
414 170 1
414 222 1
414 369 1
414 415 1
414 418 1
414 419 1
414 420 1
414 427 1
414 429 1
414 478 1
414 513 1
414 515 1
415 56 1
415 80 1
415 147 1
415 171 1
415 222 1
415 288 1
415 370 1
415 413 1
415 414 1
415 417 1
415 419 1
415 421 1
415 426 1
415 431 1
415 433 1
415 479 1
415 517 1
415 519 1
416 57 1
416 81 1
416 148 1
416 172 1
416 343 1
416 371 1
416 397 1
416 413 1
416 417 1
416 418 1
416 422 1
416 427 1
416 436 1
416 480 1
416 520 1
416 522 1
417 58 1
417 82 1
417 149 1
417 173 1
417 343 1
417 372 1
417 413 1
417 415 1
417 416 1
417 419 1
417 423 1
417 428 1
417 435 1
417 438 1
417 481 1
417 524 1
418 59 1
418 83 1
418 150 1
418 174 1
418 373 1
418 397 1
418 405 1
418 414 1
418 416 1
418 419 1
418 424 1
418 429 1
418 436 1
418 482 1
418 523 1
418 525 1
419 60 1
419 84 1
419 151 1
419 175 1
419 374 1
419 405 1
419 414 1
419 415 1
419 417 1
419 418 1
419 425 1
419 430 1
419 437 1
419 440 1
419 483 1
419 524 1
420 54 1
420 85 1
420 146 1
420 176 1
420 223 1
420 290 1
420 375 1
420 413 1
420 414 1
420 421 1
420 424 1
420 425 1
420 426 1
420 427 1
420 428 1
420 484 1
420 528 1
420 530 1
421 86 1
421 147 1
421 177 1
421 223 1
421 289 1
421 291 1
421 376 1
421 415 1
421 420 1
421 423 1
421 425 1
421 431 1
421 432 1
421 485 1
421 532 1
421 534 1
422 87 1
422 148 1
422 178 1
422 292 1
422 344 1
422 377 1
422 398 1
422 413 1
422 416 1
422 423 1
422 424 1
422 431 1
422 435 1
422 486 1
422 535 1
422 537 1
423 88 1
423 149 1
423 179 1
423 293 1
423 344 1
423 378 1
423 417 1
423 421 1
423 422 1
423 425 1
423 432 1
423 435 1
423 487 1
423 539 1
424 89 1
424 150 1
424 180 1
424 294 1
424 379 1
424 398 1
424 406 1
424 413 1
424 418 1
424 420 1
424 422 1
424 425 1
424 433 1
424 436 1
424 438 1
424 488 1
424 538 1
424 540 1
425 90 1
425 151 1
425 181 1
425 295 1
425 380 1
425 406 1
425 419 1
425 420 1
425 421 1
425 423 1
425 424 1
425 434 1
425 437 1
425 439 1
425 489 1
425 539 1
426 56 1
426 91 1
426 182 1
426 224 1
426 225 1
426 290 1
426 381 1
426 415 1
426 420 1
426 428 1
426 430 1
426 433 1
426 434 1
426 490 1
426 542 1
426 544 1
427 57 1
427 92 1
427 183 1
427 226 1
427 345 1
427 382 1
427 399 1
427 414 1
427 416 1
427 420 1
427 428 1
427 429 1
427 431 1
427 436 1
427 437 1
427 491 1
427 545 1
427 547 1
428 58 1
428 93 1
428 184 1
428 227 1
428 345 1
428 383 1
428 417 1
428 420 1
428 426 1
428 427 1
428 430 1
428 432 1
428 438 1
428 439 1
428 492 1
428 549 1
429 59 1
429 94 1
429 185 1
429 228 1
429 384 1
429 399 1
429 407 1
429 414 1
429 418 1
429 427 1
429 430 1
429 433 1
429 440 1
429 493 1
429 548 1
429 550 1
430 60 1
430 95 1
430 186 1
430 229 1
430 385 1
430 407 1
430 419 1
430 426 1
430 428 1
430 429 1
430 434 1
430 440 1
430 494 1
430 549 1
431 96 1
431 187 1
431 226 1
431 292 1
431 346 1
431 386 1
431 400 1
431 415 1
431 421 1
431 422 1
431 427 1
431 432 1
431 433 1
431 435 1
431 437 1
431 495 1
431 551 1
431 553 1
432 97 1
432 188 1
432 227 1
432 293 1
432 346 1
432 387 1
432 421 1
432 423 1
432 428 1
432 431 1
432 434 1
432 439 1
432 496 1
432 555 1
433 98 1
433 189 1
433 228 1
433 294 1
433 388 1
433 400 1
433 408 1
433 415 1
433 424 1
433 426 1
433 429 1
433 431 1
433 434 1
433 438 1
433 440 1
433 497 1
433 554 1
433 556 1
434 99 1
434 190 1
434 229 1
434 295 1
434 389 1
434 408 1
434 425 1
434 426 1
434 430 1
434 432 1
434 433 1
434 439 1
434 498 1
434 555 1
435 100 1
435 191 1
435 347 1
435 348 1
435 390 1
435 402 1
435 417 1
435 422 1
435 423 1
435 431 1
435 437 1
435 438 1
435 499 1
435 558 1
436 101 1
436 192 1
436 349 1
436 391 1
436 401 1
436 403 1
436 409 1
436 416 1
436 418 1
436 424 1
436 427 1
436 437 1
436 438 1
436 500 1
436 557 1
436 559 1
437 102 1
437 193 1
437 350 1
437 392 1
437 404 1
437 409 1
437 419 1
437 425 1
437 427 1
437 431 1
437 435 1
437 436 1
437 439 1
437 440 1
437 501 1
437 558 1
438 103 1
438 194 1
438 349 1
438 393 1
438 402 1
438 410 1
438 417 1
438 424 1
438 428 1
438 433 1
438 435 1
438 436 1
438 439 1
438 440 1
438 502 1
438 560 1
439 104 1
439 195 1
439 350 1
439 394 1
439 410 1
439 425 1
439 428 1
439 432 1
439 434 1
439 437 1
439 438 1
439 503 1
440 105 1
440 196 1
440 395 1
440 404 1
440 411 1
440 412 1
440 419 1
440 429 1
440 430 1
440 433 1
440 437 1
440 438 1
440 504 1
440 560 1
441 61 1
441 152 1
441 153 1
441 239 1
441 297 1
441 305 1
441 360 1
441 397 1
441 442 1
441 443 1
441 445 1
441 447 1
441 454 1
441 455 1
441 480 1
441 482 1
442 152 1
442 154 1
442 240 1
442 296 1
442 298 1
442 306 1
442 361 1
442 398 1
442 441 1
442 444 1
442 445 1
442 446 1
442 460 1
442 461 1
442 486 1
442 488 1
443 61 1
443 155 1
443 230 1
443 241 1
443 299 1
443 307 1
443 362 1
443 399 1
443 441 1
443 444 1
443 447 1
443 448 1
443 465 1
443 466 1
443 491 1
443 493 1
444 156 1
444 230 1
444 242 1
444 296 1
444 300 1
444 308 1
444 363 1
444 400 1
444 442 1
444 443 1
444 446 1
444 448 1
444 469 1
444 470 1
444 495 1
444 497 1
445 157 1
445 243 1
445 301 1
445 309 1
445 351 1
445 364 1
445 401 1
445 441 1
445 442 1
445 446 1
445 447 1
445 472 1
445 473 1
445 500 1
446 158 1
446 244 1
446 302 1
446 310 1
446 351 1
446 365 1
446 396 1
446 402 1
446 442 1
446 444 1
446 445 1
446 448 1
446 474 1
446 475 1
446 499 1
446 502 1
447 159 1
447 245 1
447 303 1
447 311 1
447 366 1
447 403 1
447 441 1
447 443 1
447 445 1
447 448 1
447 476 1
447 500 1
448 160 1
448 246 1
448 304 1
448 312 1
448 367 1
448 396 1
448 404 1
448 443 1
448 444 1
448 446 1
448 447 1
448 476 1
448 501 1
448 504 1
449 63 1
449 153 1
449 154 1
449 247 1
449 297 1
449 313 1
449 368 1
449 451 1
449 452 1
449 453 1
449 456 1
449 458 1
449 460 1
449 477 1
449 507 1
449 509 1
450 62 1
450 64 1
450 155 1
450 231 1
450 248 1
450 314 1
450 369 1
450 451 1
450 454 1
450 455 1
450 456 1
450 463 1
450 465 1
450 478 1
450 512 1
450 514 1
451 65 1
451 156 1
451 231 1
451 249 1
451 297 1
451 315 1
451 370 1
451 449 1
451 450 1
451 453 1
451 455 1
451 457 1
451 462 1
451 467 1
451 469 1
451 479 1
451 516 1
451 518 1
452 66 1
452 157 1
452 250 1
452 316 1
452 352 1
452 371 1
452 449 1
452 453 1
452 454 1
452 458 1
452 463 1
452 472 1
452 480 1
452 521 1
453 67 1
453 158 1
453 251 1
453 317 1
453 352 1
453 372 1
453 397 1
453 449 1
453 451 1
453 452 1
453 455 1
453 459 1
453 464 1
453 471 1
453 474 1
453 481 1
453 520 1
453 523 1
454 68 1
454 159 1
454 252 1
454 318 1
454 373 1
454 441 1
454 450 1
454 452 1
454 455 1
454 460 1
454 465 1
454 472 1
454 482 1
454 521 1
455 69 1
455 160 1
455 253 1
455 319 1
455 374 1
455 397 1
455 441 1
455 450 1
455 451 1
455 453 1
455 454 1
455 461 1
455 466 1
455 473 1
455 476 1
455 483 1
455 522 1
455 525 1
456 63 1
456 155 1
456 232 1
456 254 1
456 299 1
456 320 1
456 375 1
456 449 1
456 450 1
456 457 1
456 460 1
456 461 1
456 462 1
456 463 1
456 464 1
456 484 1
456 527 1
456 529 1
457 156 1
457 232 1
457 255 1
457 298 1
457 300 1
457 321 1
457 376 1
457 451 1
457 456 1
457 459 1
457 461 1
457 467 1
457 468 1
457 485 1
457 531 1
457 533 1
458 157 1
458 256 1
458 301 1
458 322 1
458 353 1
458 377 1
458 449 1
458 452 1
458 459 1
458 460 1
458 467 1
458 471 1
458 486 1
458 536 1
459 158 1
459 257 1
459 302 1
459 323 1
459 353 1
459 378 1
459 398 1
459 453 1
459 457 1
459 458 1
459 461 1
459 468 1
459 471 1
459 487 1
459 535 1
459 538 1
460 159 1
460 258 1
460 303 1
460 324 1
460 379 1
460 442 1
460 449 1
460 454 1
460 456 1
460 458 1
460 461 1
460 469 1
460 472 1
460 474 1
460 488 1
460 536 1
461 160 1
461 259 1
461 304 1
461 325 1
461 380 1
461 398 1
461 442 1
461 455 1
461 456 1
461 457 1
461 459 1
461 460 1
461 470 1
461 473 1
461 475 1
461 489 1
461 537 1
461 540 1
462 65 1
462 233 1
462 234 1
462 260 1
462 299 1
462 326 1
462 381 1
462 451 1
462 456 1
462 464 1
462 466 1
462 469 1
462 470 1
462 490 1
462 541 1
462 543 1
463 66 1
463 235 1
463 261 1
463 327 1
463 354 1
463 382 1
463 450 1
463 452 1
463 456 1
463 464 1
463 465 1
463 467 1
463 472 1
463 473 1
463 491 1
463 546 1
464 67 1
464 236 1
464 262 1
464 328 1
464 354 1
464 383 1
464 399 1
464 453 1
464 456 1
464 462 1
464 463 1
464 466 1
464 468 1
464 474 1
464 475 1
464 492 1
464 545 1
464 548 1
465 68 1
465 237 1
465 263 1
465 329 1
465 384 1
465 443 1
465 450 1
465 454 1
465 463 1
465 466 1
465 469 1
465 476 1
465 493 1
465 546 1
466 69 1
466 238 1
466 264 1
466 330 1
466 385 1
466 399 1
466 443 1
466 455 1
466 462 1
466 464 1
466 465 1
466 470 1
466 476 1
466 494 1
466 547 1
466 550 1
467 235 1
467 265 1
467 301 1
467 331 1
467 355 1
467 386 1
467 451 1
467 457 1
467 458 1
467 463 1
467 468 1
467 469 1
467 471 1
467 473 1
467 495 1
467 552 1
468 236 1
468 266 1
468 302 1
468 332 1
468 355 1
468 387 1
468 400 1
468 457 1
468 459 1
468 464 1
468 467 1
468 470 1
468 475 1
468 496 1
468 551 1
468 554 1
469 237 1
469 267 1
469 303 1
469 333 1
469 388 1
469 444 1
469 451 1
469 460 1
469 462 1
469 465 1
469 467 1
469 470 1
469 474 1
469 476 1
469 497 1
469 552 1
470 238 1
470 268 1
470 304 1
470 334 1
470 389 1
470 400 1
470 444 1
470 461 1
470 462 1
470 466 1
470 468 1
470 469 1
470 475 1
470 498 1
470 553 1
470 556 1
471 269 1
471 335 1
471 356 1
471 357 1
471 390 1
471 401 1
471 453 1
471 458 1
471 459 1
471 467 1
471 473 1
471 474 1
471 499 1
471 557 1
472 270 1
472 336 1
472 358 1
472 391 1
472 445 1
472 452 1
472 454 1
472 460 1
472 463 1
472 473 1
472 474 1
472 500 1
473 271 1
473 337 1
473 359 1
473 392 1
473 401 1
473 445 1
473 455 1
473 461 1
473 463 1
473 467 1
473 471 1
473 472 1
473 475 1
473 476 1
473 501 1
473 559 1
474 272 1
474 338 1
474 358 1
474 393 1
474 403 1
474 446 1
474 453 1
474 460 1
474 464 1
474 469 1
474 471 1
474 472 1
474 475 1
474 476 1
474 502 1
474 557 1
475 273 1
475 339 1
475 359 1
475 394 1
475 402 1
475 404 1
475 446 1
475 461 1
475 464 1
475 468 1
475 470 1
475 473 1
475 474 1
475 503 1
475 558 1
475 560 1
476 274 1
476 340 1
476 395 1
476 403 1
476 447 1
476 448 1
476 455 1
476 465 1
476 466 1
476 469 1
476 473 1
476 474 1
476 504 1
476 559 1
477 71 1
477 161 1
477 162 1
477 169 1
477 305 1
477 313 1
477 413 1
477 449 1
477 479 1
477 480 1
477 481 1
477 484 1
477 486 1
477 488 1
477 509 1
477 510 1
478 70 1
478 72 1
478 163 1
478 170 1
478 239 1
478 314 1
478 414 1
478 450 1
478 479 1
478 482 1
478 483 1
478 484 1
478 491 1
478 493 1
478 514 1
478 515 1
479 73 1
479 164 1
479 171 1
479 239 1
479 305 1
479 315 1
479 415 1
479 451 1
479 477 1
479 478 1
479 481 1
479 483 1
479 485 1
479 490 1
479 495 1
479 497 1
479 518 1
479 519 1
480 74 1
480 165 1
480 172 1
480 316 1
480 360 1
480 416 1
480 441 1
480 452 1
480 477 1
480 481 1
480 482 1
480 486 1
480 491 1
480 500 1
480 521 1
480 522 1
481 75 1
481 166 1
481 173 1
481 317 1
481 360 1
481 405 1
481 417 1
481 453 1
481 477 1
481 479 1
481 480 1
481 483 1
481 487 1
481 492 1
481 499 1
481 502 1
481 523 1
481 524 1
482 76 1
482 167 1
482 174 1
482 318 1
482 418 1
482 441 1
482 454 1
482 478 1
482 480 1
482 483 1
482 488 1
482 493 1
482 500 1
482 525 1
483 77 1
483 168 1
483 175 1
483 319 1
483 405 1
483 419 1
483 455 1
483 478 1
483 479 1
483 481 1
483 482 1
483 489 1
483 494 1
483 501 1
483 504 1
483 525 1
484 71 1
484 163 1
484 176 1
484 240 1
484 307 1
484 320 1
484 420 1
484 456 1
484 477 1
484 478 1
484 485 1
484 488 1
484 489 1
484 490 1
484 491 1
484 492 1
484 529 1
484 530 1
485 164 1
485 177 1
485 240 1
485 306 1
485 308 1
485 321 1
485 421 1
485 457 1
485 479 1
485 484 1
485 487 1
485 489 1
485 495 1
485 496 1
485 533 1
485 534 1
486 165 1
486 178 1
486 309 1
486 322 1
486 361 1
486 422 1
486 442 1
486 458 1
486 477 1
486 480 1
486 487 1
486 488 1
486 495 1
486 499 1
486 536 1
486 537 1
487 166 1
487 179 1
487 310 1
487 323 1
487 361 1
487 406 1
487 423 1
487 459 1
487 481 1
487 485 1
487 486 1
487 489 1
487 496 1
487 499 1
487 538 1
487 539 1
488 167 1
488 180 1
488 311 1
488 324 1
488 424 1
488 442 1
488 460 1
488 477 1
488 482 1
488 484 1
488 486 1
488 489 1
488 497 1
488 500 1
488 502 1
488 540 1
489 168 1
489 181 1
489 312 1
489 325 1
489 406 1
489 425 1
489 461 1
489 483 1
489 484 1
489 485 1
489 487 1
489 488 1
489 498 1
489 501 1
489 503 1
489 540 1
490 73 1
490 182 1
490 241 1
490 242 1
490 307 1
490 326 1
490 426 1
490 462 1
490 479 1
490 484 1
490 492 1
490 494 1
490 497 1
490 498 1
490 543 1
490 544 1
491 74 1
491 183 1
491 243 1
491 327 1
491 362 1
491 427 1
491 443 1
491 463 1
491 478 1
491 480 1
491 484 1
491 492 1
491 493 1
491 495 1
491 500 1
491 501 1
491 546 1
491 547 1
492 75 1
492 184 1
492 244 1
492 328 1
492 362 1
492 407 1
492 428 1
492 464 1
492 481 1
492 484 1
492 490 1
492 491 1
492 494 1
492 496 1
492 502 1
492 503 1
492 548 1
492 549 1
493 76 1
493 185 1
493 245 1
493 329 1
493 429 1
493 443 1
493 465 1
493 478 1
493 482 1
493 491 1
493 494 1
493 497 1
493 504 1
493 550 1
494 77 1
494 186 1
494 246 1
494 330 1
494 407 1
494 430 1
494 466 1
494 483 1
494 490 1
494 492 1
494 493 1
494 498 1
494 504 1
494 550 1
495 187 1
495 243 1
495 309 1
495 331 1
495 363 1
495 431 1
495 444 1
495 467 1
495 479 1
495 485 1
495 486 1
495 491 1
495 496 1
495 497 1
495 499 1
495 501 1
495 552 1
495 553 1
496 188 1
496 244 1
496 310 1
496 332 1
496 363 1
496 408 1
496 432 1
496 468 1
496 485 1
496 487 1
496 492 1
496 495 1
496 498 1
496 503 1
496 554 1
496 555 1
497 189 1
497 245 1
497 311 1
497 333 1
497 433 1
497 444 1
497 469 1
497 479 1
497 488 1
497 490 1
497 493 1
497 495 1
497 498 1
497 502 1
497 504 1
497 556 1
498 190 1
498 246 1
498 312 1
498 334 1
498 408 1
498 434 1
498 470 1
498 489 1
498 490 1
498 494 1
498 496 1
498 497 1
498 503 1
498 556 1
499 191 1
499 335 1
499 364 1
499 365 1
499 409 1
499 435 1
499 446 1
499 471 1
499 481 1
499 486 1
499 487 1
499 495 1
499 501 1
499 502 1
499 557 1
499 558 1
500 192 1
500 336 1
500 366 1
500 436 1
500 445 1
500 447 1
500 472 1
500 480 1
500 482 1
500 488 1
500 491 1
500 501 1
500 502 1
500 559 1
501 193 1
501 337 1
501 367 1
501 409 1
501 437 1
501 448 1
501 473 1
501 483 1
501 489 1
501 491 1
501 495 1
501 499 1
501 500 1
501 503 1
501 504 1
501 559 1
502 194 1
502 338 1
502 366 1
502 411 1
502 438 1
502 446 1
502 474 1
502 481 1
502 488 1
502 492 1
502 497 1
502 499 1
502 500 1
502 503 1
502 504 1
502 560 1
503 195 1
503 339 1
503 367 1
503 410 1
503 412 1
503 439 1
503 475 1
503 489 1
503 492 1
503 496 1
503 498 1
503 501 1
503 502 1
503 560 1
504 196 1
504 340 1
504 411 1
504 440 1
504 448 1
504 476 1
504 483 1
504 493 1
504 494 1
504 497 1
504 501 1
504 502 1
505 78 1
505 85 1
505 170 1
505 176 1
505 247 1
505 314 1
505 506 1
505 509 1
505 510 1
505 511 1
505 512 1
505 513 1
505 527 1
505 529 1
506 86 1
506 171 1
506 177 1
506 247 1
506 313 1
506 315 1
506 505 1
506 508 1
506 510 1
506 516 1
506 517 1
506 526 1
506 531 1
506 533 1
507 87 1
507 172 1
507 178 1
507 316 1
507 368 1
507 449 1
507 508 1
507 509 1
507 516 1
507 520 1
507 527 1
507 536 1
508 88 1
508 173 1
508 179 1
508 317 1
508 368 1
508 413 1
508 506 1
508 507 1
508 510 1
508 517 1
508 520 1
508 528 1
508 535 1
508 538 1
509 89 1
509 174 1
509 180 1
509 318 1
509 449 1
509 477 1
509 505 1
509 507 1
509 510 1
509 518 1
509 521 1
509 523 1
509 529 1
509 536 1
510 90 1
510 175 1
510 181 1
510 319 1
510 413 1
510 477 1
510 505 1
510 506 1
510 508 1
510 509 1
510 519 1
510 522 1
510 524 1
510 530 1
510 537 1
510 540 1
511 80 1
511 91 1
511 182 1
511 248 1
511 249 1
511 314 1
511 505 1
511 513 1
511 515 1
511 518 1
511 519 1
511 526 1
511 541 1
511 543 1
512 81 1
512 92 1
512 183 1
512 250 1
512 369 1
512 450 1
512 505 1
512 513 1
512 514 1
512 516 1
512 521 1
512 522 1
512 527 1
512 546 1
513 82 1
513 93 1
513 184 1
513 251 1
513 369 1
513 414 1
513 505 1
513 511 1
513 512 1
513 515 1
513 517 1
513 523 1
513 524 1
513 528 1
513 545 1
513 548 1
514 83 1
514 94 1
514 185 1
514 252 1
514 450 1
514 478 1
514 512 1
514 515 1
514 518 1
514 525 1
514 529 1
514 546 1
515 84 1
515 95 1
515 186 1
515 253 1
515 414 1
515 478 1
515 511 1
515 513 1
515 514 1
515 519 1
515 525 1
515 530 1
515 547 1
515 550 1
516 96 1
516 187 1
516 250 1
516 316 1
516 370 1
516 451 1
516 506 1
516 507 1
516 512 1
516 517 1
516 518 1
516 520 1
516 522 1
516 531 1
516 541 1
516 552 1
517 97 1
517 188 1
517 251 1
517 317 1
517 370 1
517 415 1
517 506 1
517 508 1
517 513 1
517 516 1
517 519 1
517 524 1
517 532 1
517 542 1
517 551 1
517 554 1
518 98 1
518 189 1
518 252 1
518 318 1
518 451 1
518 479 1
518 509 1
518 511 1
518 514 1
518 516 1
518 519 1
518 523 1
518 525 1
518 533 1
518 543 1
518 552 1
519 99 1
519 190 1
519 253 1
519 319 1
519 415 1
519 479 1
519 510 1
519 511 1
519 515 1
519 517 1
519 518 1
519 524 1
519 534 1
519 544 1
519 553 1
519 556 1
520 100 1
520 191 1
520 371 1
520 372 1
520 416 1
520 453 1
520 507 1
520 508 1
520 516 1
520 522 1
520 523 1
520 535 1
520 545 1
520 557 1
521 101 1
521 192 1
521 373 1
521 452 1
521 454 1
521 480 1
521 509 1
521 512 1
521 522 1
521 523 1
521 536 1
521 546 1
522 102 1
522 193 1
522 374 1
522 416 1
522 455 1
522 480 1
522 510 1
522 512 1
522 516 1
522 520 1
522 521 1
522 524 1
522 525 1
522 537 1
522 547 1
522 559 1
523 103 1
523 194 1
523 373 1
523 418 1
523 453 1
523 481 1
523 509 1
523 513 1
523 518 1
523 520 1
523 521 1
523 524 1
523 525 1
523 538 1
523 548 1
523 557 1
524 104 1
524 195 1
524 374 1
524 417 1
524 419 1
524 481 1
524 510 1
524 513 1
524 517 1
524 519 1
524 522 1
524 523 1
524 539 1
524 549 1
524 558 1
524 560 1
525 105 1
525 196 1
525 418 1
525 455 1
525 482 1
525 483 1
525 514 1
525 515 1
525 518 1
525 522 1
525 523 1
525 540 1
525 550 1
525 559 1
526 86 1
526 182 1
526 254 1
526 255 1
526 320 1
526 326 1
526 506 1
526 511 1
526 528 1
526 530 1
526 533 1
526 534 1
526 541 1
526 542 1
527 87 1
527 183 1
527 256 1
527 327 1
527 375 1
527 456 1
527 505 1
527 507 1
527 512 1
527 528 1
527 529 1
527 531 1
527 536 1
527 537 1
527 541 1
527 545 1
528 88 1
528 184 1
528 257 1
528 328 1
528 375 1
528 420 1
528 508 1
528 513 1
528 526 1
528 527 1
528 530 1
528 532 1
528 538 1
528 539 1
528 542 1
528 545 1
529 89 1
529 185 1
529 258 1
529 329 1
529 456 1
529 484 1
529 505 1
529 509 1
529 514 1
529 527 1
529 530 1
529 533 1
529 540 1
529 543 1
529 546 1
529 548 1
530 90 1
530 186 1
530 259 1
530 330 1
530 420 1
530 484 1
530 510 1
530 515 1
530 526 1
530 528 1
530 529 1
530 534 1
530 540 1
530 544 1
530 547 1
530 549 1
531 187 1
531 256 1
531 322 1
531 331 1
531 376 1
531 457 1
531 506 1
531 516 1
531 527 1
531 532 1
531 533 1
531 535 1
531 537 1
531 551 1
532 188 1
532 257 1
532 323 1
532 332 1
532 376 1
532 421 1
532 517 1
532 528 1
532 531 1
532 534 1
532 539 1
532 551 1
533 189 1
533 258 1
533 324 1
533 333 1
533 457 1
533 485 1
533 506 1
533 518 1
533 526 1
533 529 1
533 531 1
533 534 1
533 538 1
533 540 1
533 552 1
533 554 1
534 190 1
534 259 1
534 325 1
534 334 1
534 421 1
534 485 1
534 519 1
534 526 1
534 530 1
534 532 1
534 533 1
534 539 1
534 553 1
534 555 1
535 191 1
535 335 1
535 377 1
535 378 1
535 422 1
535 459 1
535 508 1
535 520 1
535 531 1
535 537 1
535 538 1
535 551 1
536 192 1
536 336 1
536 379 1
536 458 1
536 460 1
536 486 1
536 507 1
536 509 1
536 521 1
536 527 1
536 537 1
536 538 1
536 552 1
536 557 1
537 193 1
537 337 1
537 380 1
537 422 1
537 461 1
537 486 1
537 510 1
537 522 1
537 527 1
537 531 1
537 535 1
537 536 1
537 539 1
537 540 1
537 553 1
537 558 1
538 194 1
538 338 1
538 379 1
538 424 1
538 459 1
538 487 1
538 508 1
538 523 1
538 528 1
538 533 1
538 535 1
538 536 1
538 539 1
538 540 1
538 554 1
538 557 1
539 195 1
539 339 1
539 380 1
539 423 1
539 425 1
539 487 1
539 524 1
539 528 1
539 532 1
539 534 1
539 537 1
539 538 1
539 555 1
539 558 1
540 196 1
540 340 1
540 424 1
540 461 1
540 488 1
540 489 1
540 510 1
540 525 1
540 529 1
540 530 1
540 533 1
540 537 1
540 538 1
540 556 1
540 559 1
540 560 1
541 96 1
541 261 1
541 265 1
541 327 1
541 381 1
541 462 1
541 511 1
541 516 1
541 526 1
541 527 1
541 542 1
541 543 1
541 545 1
541 547 1
541 552 1
541 553 1
542 97 1
542 262 1
542 266 1
542 328 1
542 381 1
542 426 1
542 517 1
542 526 1
542 528 1
542 541 1
542 544 1
542 549 1
542 554 1
542 555 1
543 98 1
543 263 1
543 267 1
543 329 1
543 462 1
543 490 1
543 511 1
543 518 1
543 529 1
543 541 1
543 544 1
543 548 1
543 550 1
543 556 1
544 99 1
544 264 1
544 268 1
544 330 1
544 426 1
544 490 1
544 519 1
544 530 1
544 542 1
544 543 1
544 549 1
544 556 1
545 100 1
545 269 1
545 382 1
545 383 1
545 427 1
545 464 1
545 513 1
545 520 1
545 527 1
545 528 1
545 541 1
545 547 1
545 548 1
545 551 1
545 557 1
545 558 1
546 101 1
546 270 1
546 384 1
546 463 1
546 465 1
546 491 1
546 512 1
546 514 1
546 521 1
546 529 1
546 547 1
546 548 1
546 552 1
546 559 1
547 102 1
547 271 1
547 385 1
547 427 1
547 466 1
547 491 1
547 515 1
547 522 1
547 530 1
547 541 1
547 545 1
547 546 1
547 549 1
547 550 1
547 553 1
547 559 1
548 103 1
548 272 1
548 384 1
548 429 1
548 464 1
548 492 1
548 513 1
548 523 1
548 529 1
548 543 1
548 545 1
548 546 1
548 549 1
548 550 1
548 554 1
548 560 1
549 104 1
549 273 1
549 385 1
549 428 1
549 430 1
549 492 1
549 524 1
549 530 1
549 542 1
549 544 1
549 547 1
549 548 1
549 555 1
549 560 1
550 105 1
550 274 1
550 429 1
550 466 1
550 493 1
550 494 1
550 515 1
550 525 1
550 543 1
550 547 1
550 548 1
550 556 1
551 269 1
551 335 1
551 386 1
551 387 1
551 431 1
551 468 1
551 517 1
551 531 1
551 532 1
551 535 1
551 545 1
551 553 1
551 554 1
551 558 1
552 270 1
552 336 1
552 388 1
552 467 1
552 469 1
552 495 1
552 516 1
552 518 1
552 533 1
552 536 1
552 541 1
552 546 1
552 553 1
552 554 1
552 557 1
552 559 1
553 271 1
553 337 1
553 389 1
553 431 1
553 470 1
553 495 1
553 519 1
553 534 1
553 537 1
553 541 1
553 547 1
553 551 1
553 552 1
553 555 1
553 556 1
553 558 1
554 272 1
554 338 1
554 388 1
554 433 1
554 468 1
554 496 1
554 517 1
554 533 1
554 538 1
554 542 1
554 548 1
554 551 1
554 552 1
554 555 1
554 556 1
554 560 1
555 273 1
555 339 1
555 389 1
555 432 1
555 434 1
555 496 1
555 534 1
555 539 1
555 542 1
555 549 1
555 553 1
555 554 1
556 274 1
556 340 1
556 433 1
556 470 1
556 497 1
556 498 1
556 519 1
556 540 1
556 543 1
556 544 1
556 550 1
556 553 1
556 554 1
556 560 1
557 391 1
557 393 1
557 436 1
557 471 1
557 474 1
557 499 1
557 520 1
557 523 1
557 536 1
557 538 1
557 545 1
557 552 1
557 558 1
557 559 1
558 392 1
558 394 1
558 435 1
558 437 1
558 475 1
558 499 1
558 524 1
558 537 1
558 539 1
558 545 1
558 551 1
558 553 1
558 557 1
558 560 1
559 395 1
559 436 1
559 473 1
559 476 1
559 500 1
559 501 1
559 522 1
559 525 1
559 540 1
559 546 1
559 547 1
559 552 1
559 557 1
559 560 1
560 395 1
560 438 1
560 440 1
560 475 1
560 502 1
560 503 1
560 524 1
560 540 1
560 548 1
560 549 1
560 554 1
560 556 1
560 558 1
560 559 1
