%%MatrixMarket matrix coordinate real general
%
800 800 9388
1 2 1
1 3 1
1 4 1
1 5 1
1 6 1
1 7 1
1 8 1
1 9 1
1 10 1
1 11 1
1 12 1
1 13 1
1 14 1
1 15 1
1 20 1
1 21 1
1 23 1
1 24 1
1 27 1
1 31 1
1 34 1
1 35 1
1 38 1
1 40 1
1 77 1
1 89 1
1 93 1
1 97 1
1 101 1
1 109 1
1 112 1
1 122 1
1 127 1
1 145 1
1 154 1
1 155 1
1 156 1
1 159 1
1 168 1
1 171 1
1 178 1
1 190 1
1 197 1
1 200 1
1 202 1
1 207 1
1 217 1
1 227 1
1 234 1
1 235 1
1 236 1
1 250 1
1 256 1
1 259 1
1 279 1
1 288 1
1 304 1
1 308 1
1 324 1
1 331 1
1 349 1
1 353 1
1 363 1
1 368 1
1 377 1
1 382 1
1 385 1
1 392 1
1 400 1
1 401 1
1 402 1
1 410 1
1 424 1
1 444 1
1 468 1
1 471 1
1 476 1
1 533 1
1 538 1
1 559 1
1 579 1
1 580 1
1 605 1
1 647 1
1 670 1
1 685 1
1 711 1
1 728 1
1 731 1
1 739 1
1 754 1
1 766 1
2 1 1
2 3 1
2 4 1
2 8 1
2 9 1
2 11 1
2 23 1
2 32 1
2 51 1
2 61 1
2 92 1
2 161 1
2 187 1
2 247 1
2 310 1
2 377 1
2 444 1
2 483 1
2 563 1
2 638 1
2 710 1
2 711 1
2 763 1
2 766 1
3 1 1
3 2 1
3 4 1
3 5 1
3 7 1
3 8 1
3 10 1
3 11 1
3 13 1
3 14 1
3 15 1
3 17 1
3 18 1
3 19 1
3 20 1
3 26 1
3 27 1
3 29 1
3 30 1
3 32 1
3 40 1
3 45 1
3 54 1
3 55 1
3 62 1
3 64 1
3 68 1
3 69 1
3 76 1
3 91 1
3 100 1
3 101 1
3 126 1
3 139 1
3 147 1
3 170 1
3 174 1
3 183 1
3 184 1
3 185 1
3 186 1
3 189 1
3 202 1
3 217 1
3 221 1
3 234 1
3 247 1
3 248 1
3 271 1
3 301 1
3 304 1
3 308 1
3 313 1
3 314 1
3 328 1
3 333 1
3 355 1
3 361 1
3 373 1
3 375 1
3 393 1
3 398 1
3 400 1
3 407 1
3 419 1
3 425 1
3 427 1
3 435 1
3 445 1
3 447 1
3 451 1
3 464 1
3 470 1
3 482 1
3 486 1
3 494 1
3 518 1
3 521 1
3 526 1
3 545 1
3 559 1
3 567 1
3 601 1
3 609 1
3 631 1
3 635 1
3 643 1
3 645 1
3 670 1
3 680 1
3 717 1
3 722 1
3 733 1
3 737 1
3 742 1
3 768 1
4 1 1
4 2 1
4 3 1
4 5 1
4 6 1
4 7 1
4 8 1
4 9 1
4 11 1
4 17 1
4 18 1
4 21 1
4 22 1
4 23 1
4 24 1
4 26 1
4 27 1
4 29 1
4 30 1
4 32 1
4 35 1
4 36 1
4 44 1
4 45 1
4 47 1
4 48 1
4 49 1
4 51 1
4 52 1
4 56 1
4 57 1
4 62 1
4 69 1
4 70 1
4 72 1
4 79 1
4 81 1
4 85 1
4 93 1
4 109 1
4 115 1
4 118 1
4 119 1
4 122 1
4 134 1
4 135 1
4 143 1
4 154 1
4 155 1
4 163 1
4 168 1
4 170 1
4 174 1
4 177 1
4 182 1
4 186 1
4 187 1
4 188 1
4 193 1
4 199 1
4 200 1
4 214 1
4 218 1
4 231 1
4 233 1
4 235 1
4 246 1
4 259 1
4 278 1
4 280 1
4 308 1
4 310 1
4 319 1
4 340 1
4 349 1
4 350 1
4 354 1
4 365 1
4 379 1
4 385 1
4 389 1
4 393 1
4 401 1
4 406 1
4 411 1
4 418 1
4 427 1
4 432 1
4 439 1
4 442 1
4 456 1
4 460 1
4 466 1
4 483 1
4 490 1
4 491 1
4 492 1
4 493 1
4 505 1
4 509 1
4 510 1
4 518 1
4 529 1
4 536 1
4 537 1
4 543 1
4 556 1
4 574 1
4 578 1
4 588 1
4 610 1
4 612 1
4 661 1
4 663 1
4 680 1
4 685 1
4 686 1
4 697 1
4 709 1
4 717 1
4 720 1
4 722 1
4 734 1
4 745 1
4 751 1
4 753 1
4 763 1
4 773 1
4 775 1
4 780 1
4 788 1
4 791 1
5 1 1
5 3 1
5 4 1
5 6 1
5 7 1
5 8 1
5 10 1
5 12 1
5 13 1
5 14 1
5 16 1
5 19 1
5 21 1
5 23 1
5 24 1
5 25 1
5 26 1
5 29 1
5 37 1
5 38 1
5 42 1
5 46 1
5 47 1
5 50 1
5 55 1
5 57 1
5 58 1
5 59 1
5 60 1
5 66 1
5 68 1
5 76 1
5 86 1
5 88 1
5 91 1
5 95 1
5 105 1
5 107 1
5 109 1
5 111 1
5 119 1
5 121 1
5 130 1
5 132 1
5 136 1
5 139 1
5 146 1
5 151 1
5 155 1
5 166 1
5 167 1
5 204 1
5 209 1
5 229 1
5 239 1
5 258 1
5 262 1
5 264 1
5 267 1
5 275 1
5 279 1
5 286 1
5 289 1
5 294 1
5 301 1
5 313 1
5 344 1
5 360 1
5 361 1
5 367 1
5 394 1
5 397 1
5 413 1
5 429 1
5 434 1
5 485 1
5 492 1
5 495 1
5 496 1
5 518 1
5 537 1
5 560 1
5 574 1
5 584 1
5 587 1
5 591 1
5 607 1
5 610 1
5 612 1
5 622 1
5 634 1
5 637 1
5 667 1
5 680 1
5 701 1
5 716 1
5 750 1
5 754 1
5 792 1
5 797 1
6 1 1
6 4 1
6 5 1
6 9 1
6 10 1
6 13 1
6 14 1
6 18 1
6 20 1
6 25 1
6 28 1
6 29 1
6 30 1
6 33 1
6 35 1
6 45 1
6 47 1
6 48 1
6 49 1
6 56 1
6 57 1
6 60 1
6 63 1
6 65 1
6 77 1
6 78 1
6 87 1
6 89 1
6 103 1
6 125 1
6 129 1
6 152 1
6 164 1
6 168 1
6 172 1
6 186 1
6 206 1
6 237 1
6 250 1
6 253 1
6 265 1
6 299 1
6 307 1
6 321 1
6 443 1
6 449 1
6 460 1
6 462 1
6 464 1
6 489 1
6 509 1
6 510 1
6 517 1
6 550 1
6 555 1
6 564 1
6 616 1
6 652 1
6 688 1
6 733 1
6 747 1
6 757 1
6 761 1
6 771 1
7 1 1
7 3 1
7 4 1
7 5 1
7 10 1
7 12 1
7 14 1
7 15 1
7 16 1
7 17 1
7 19 1
7 22 1
7 24 1
7 30 1
7 33 1
7 34 1
7 36 1
7 37 1
7 38 1
7 39 1
7 43 1
7 44 1
7 46 1
7 48 1
7 49 1
7 51 1
7 52 1
7 53 1
7 57 1
7 66 1
7 70 1
7 71 1
7 72 1
7 73 1
7 75 1
7 78 1
7 79 1
7 80 1
7 83 1
7 84 1
7 85 1
7 88 1
7 99 1
7 102 1
7 106 1
7 114 1
7 115 1
7 117 1
7 118 1
7 124 1
7 128 1
7 129 1
7 154 1
7 157 1
7 159 1
7 177 1
7 181 1
7 184 1
7 186 1
7 192 1
7 194 1
7 202 1
7 207 1
7 211 1
7 224 1
7 233 1
7 251 1
7 267 1
7 276 1
7 309 1
7 315 1
7 318 1
7 322 1
7 326 1
7 332 1
7 337 1
7 357 1
7 394 1
7 420 1
7 423 1
7 426 1
7 431 1
7 438 1
7 440 1
7 453 1
7 463 1
7 482 1
7 484 1
7 528 1
7 537 1
7 542 1
7 557 1
7 565 1
7 572 1
7 573 1
7 574 1
7 575 1
7 581 1
7 599 1
7 605 1
7 606 1
7 620 1
7 645 1
7 679 1
7 693 1
7 708 1
7 722 1
7 731 1
7 752 1
7 756 1
7 800 1
8 1 1
8 2 1
8 3 1
8 4 1
8 5 1
8 11 1
8 26 1
8 44 1
8 51 1
8 62 1
8 70 1
8 75 1
8 99 1
8 101 1
8 115 1
8 127 1
8 138 1
8 161 1
8 175 1
8 187 1
8 205 1
8 210 1
8 223 1
8 227 1
8 243 1
8 259 1
8 260 1
8 263 1
8 311 1
8 344 1
8 359 1
8 368 1
8 375 1
8 396 1
8 417 1
8 418 1
8 421 1
8 445 1
8 447 1
8 490 1
8 496 1
8 516 1
8 539 1
8 573 1
8 578 1
8 631 1
8 658 1
8 670 1
8 692 1
8 754 1
8 796 1
9 1 1
9 2 1
9 4 1
9 6 1
9 10 1
9 11 1
9 15 1
9 18 1
9 21 1
9 22 1
9 33 1
9 36 1
9 40 1
9 61 1
9 63 1
9 72 1
9 77 1
9 80 1
9 92 1
9 97 1
9 98 1
9 114 1
9 135 1
9 173 1
9 178 1
9 189 1
9 190 1
9 195 1
9 208 1
9 214 1
9 219 1
9 230 1
9 252 1
9 254 1
9 302 1
9 310 1
9 324 1
9 330 1
9 343 1
9 347 1
9 350 1
9 385 1
9 412 1
9 419 1
9 431 1
9 490 1
9 497 1
9 511 1
9 514 1
9 519 1
9 530 1
9 543 1
9 547 1
9 556 1
9 562 1
9 590 1
9 593 1
9 622 1
9 659 1
9 672 1
9 674 1
9 682 1
9 707 1
9 729 1
9 733 1
9 753 1
9 759 1
9 760 1
9 769 1
9 771 1
9 773 1
9 789 1
9 800 1
10 1 1
10 3 1
10 5 1
10 6 1
10 7 1
10 9 1
10 12 1
10 13 1
10 14 1
10 15 1
10 21 1
10 27 1
10 33 1
10 35 1
10 63 1
10 99 1
10 123 1
10 144 1
10 153 1
10 157 1
10 165 1
10 189 1
10 208 1
10 233 1
10 240 1
10 300 1
10 317 1
10 344 1
10 392 1
10 394 1
10 406 1
10 413 1
10 442 1
10 454 1
10 455 1
10 464 1
10 601 1
10 606 1
10 617 1
10 618 1
10 715 1
10 755 1
10 787 1
10 798 1
11 1 1
11 2 1
11 3 1
11 4 1
11 8 1
11 9 1
11 17 1
11 26 1
11 29 1
11 61 1
11 76 1
11 81 1
11 101 1
11 106 1
11 113 1
11 138 1
11 169 1
11 190 1
11 223 1
11 243 1
11 260 1
11 306 1
11 366 1
11 369 1
11 409 1
11 417 1
11 425 1
11 441 1
11 656 1
11 672 1
11 674 1
11 683 1
11 698 1
11 711 1
11 776 1
12 1 1
12 5 1
12 7 1
12 10 1
12 16 1
12 21 1
12 23 1
12 25 1
12 31 1
12 33 1
12 34 1
12 37 1
12 38 1
12 42 1
12 43 1
12 46 1
12 57 1
12 85 1
12 109 1
12 128 1
12 129 1
12 130 1
12 139 1
12 142 1
12 144 1
12 146 1
12 151 1
12 197 1
12 200 1
12 205 1
12 207 1
12 209 1
12 251 1
12 294 1
12 320 1
12 361 1
12 363 1
12 384 1
12 416 1
12 422 1
12 424 1
12 450 1
12 453 1
12 456 1
12 463 1
12 486 1
12 530 1
12 534 1
12 560 1
12 580 1
12 599 1
12 609 1
12 622 1
12 645 1
12 703 1
12 718 1
12 729 1
12 798 1
13 1 1
13 3 1
13 5 1
13 6 1
13 10 1
13 16 1
13 18 1
13 45 1
13 59 1
13 89 1
13 100 1
13 145 1
13 156 1
13 239 1
13 241 1
13 306 1
13 344 1
13 366 1
13 384 1
13 419 1
13 427 1
13 445 1
13 457 1
13 489 1
13 511 1
13 531 1
13 571 1
13 599 1
13 601 1
13 627 1
13 671 1
13 727 1
14 1 1
14 3 1
14 5 1
14 6 1
14 7 1
14 10 1
14 15 1
14 20 1
14 24 1
14 25 1
14 27 1
14 31 1
14 32 1
14 38 1
14 39 1
14 41 1
14 43 1
14 53 1
14 54 1
14 56 1
14 60 1
14 66 1
14 71 1
14 86 1
14 87 1
14 94 1
14 99 1
14 102 1
14 112 1
14 117 1
14 119 1
14 123 1
14 126 1
14 129 1
14 131 1
14 132 1
14 143 1
14 144 1
14 150 1
14 153 1
14 183 1
14 194 1
14 202 1
14 211 1
14 222 1
14 257 1
14 264 1
14 267 1
14 268 1
14 281 1
14 287 1
14 323 1
14 329 1
14 331 1
14 356 1
14 358 1
14 376 1
14 385 1
14 405 1
14 420 1
14 430 1
14 437 1
14 467 1
14 476 1
14 477 1
14 501 1
14 528 1
14 534 1
14 565 1
14 568 1
14 601 1
14 608 1
14 645 1
14 649 1
14 664 1
14 669 1
14 709 1
14 736 1
14 764 1
14 779 1
15 1 1
15 3 1
15 7 1
15 9 1
15 10 1
15 14 1
15 17 1
15 35 1
15 39 1
15 40 1
15 53 1
15 71 1
15 75 1
15 90 1
15 104 1
15 183 1
15 248 1
15 276 1
15 282 1
15 283 1
15 308 1
15 315 1
15 363 1
15 394 1
15 412 1
15 451 1
15 454 1
15 455 1
15 484 1
15 513 1
15 522 1
15 581 1
16 5 1
16 7 1
16 12 1
16 13 1
16 18 1
16 20 1
16 26 1
16 28 1
16 41 1
16 59 1
16 60 1
16 67 1
16 68 1
16 74 1
16 81 1
16 85 1
16 89 1
16 91 1
16 105 1
16 111 1
16 116 1
16 120 1
16 141 1
16 146 1
16 160 1
16 175 1
16 180 1
16 204 1
16 231 1
16 239 1
16 241 1
16 255 1
16 263 1
16 275 1
16 301 1
16 303 1
16 306 1
16 314 1
16 325 1
16 343 1
16 356 1
16 370 1
16 373 1
16 376 1
16 392 1
16 393 1
16 409 1
16 422 1
16 429 1
16 450 1
16 467 1
16 477 1
16 488 1
16 511 1
16 519 1
16 532 1
16 533 1
16 537 1
16 548 1
16 553 1
16 582 1
16 586 1
16 611 1
16 619 1
16 643 1
16 648 1
16 663 1
16 696 1
16 704 1
16 741 1
16 758 1
16 779 1
16 793 1
17 3 1
17 4 1
17 7 1
17 11 1
17 15 1
17 29 1
17 53 1
17 64 1
17 202 1
17 224 1
17 308 1
17 355 1
17 363 1
17 393 1
18 3 1
18 4 1
18 6 1
18 9 1
18 13 1
18 16 1
18 20 1
18 30 1
18 33 1
18 40 1
18 41 1
18 45 1
18 49 1
18 59 1
18 60 1
18 63 1
18 69 1
18 83 1
18 98 1
18 130 1
18 158 1
18 176 1
18 185 1
18 239 1
18 254 1
18 265 1
18 269 1
18 271 1
18 302 1
18 346 1
18 384 1
18 395 1
18 404 1
18 409 1
18 424 1
18 441 1
18 447 1
18 475 1
18 493 1
18 497 1
18 511 1
18 526 1
18 553 1
18 566 1
18 605 1
18 644 1
18 664 1
18 694 1
18 708 1
18 719 1
18 723 1
18 746 1
18 762 1
18 765 1
19 3 1
19 5 1
19 7 1
19 22 1
19 30 1
19 34 1
19 37 1
19 42 1
19 55 1
19 58 1
19 61 1
19 62 1
19 78 1
19 82 1
19 152 1
19 174 1
19 177 1
19 186 1
19 221 1
19 256 1
19 309 1
19 337 1
19 354 1
19 373 1
19 398 1
19 415 1
19 420 1
19 425 1
19 426 1
19 437 1
19 438 1
19 469 1
19 507 1
19 552 1
19 595 1
19 598 1
19 686 1
19 693 1
19 700 1
19 709 1
19 795 1
20 1 1
20 3 1
20 6 1
20 14 1
20 16 1
20 18 1
20 25 1
20 28 1
20 32 1
20 38 1
20 40 1
20 50 1
20 53 1
20 54 1
20 63 1
20 95 1
20 100 1
20 108 1
20 130 1
20 131 1
20 150 1
20 158 1
20 169 1
20 176 1
20 180 1
20 298 1
20 304 1
20 325 1
20 373 1
20 381 1
20 400 1
20 473 1
20 479 1
20 494 1
20 497 1
20 529 1
20 554 1
20 620 1
20 669 1
20 704 1
20 713 1
20 757 1
20 768 1
21 1 1
21 4 1
21 5 1
21 9 1
21 10 1
21 12 1
21 22 1
21 23 1
21 36 1
21 50 1
21 76 1
21 97 1
21 107 1
21 142 1
21 173 1
21 214 1
21 230 1
21 231 1
21 258 1
21 294 1
21 311 1
21 349 1
21 378 1
21 380 1
21 386 1
21 416 1
21 432 1
21 538 1
21 581 1
21 622 1
21 675 1
21 798 1
22 4 1
22 7 1
22 9 1
22 19 1
22 21 1
22 36 1
22 51 1
22 58 1
22 72 1
22 78 1
22 87 1
22 103 1
22 118 1
22 152 1
22 159 1
22 172 1
22 217 1
22 231 1
22 246 1
22 249 1
22 256 1
22 341 1
22 354 1
22 378 1
22 380 1
22 451 1
22 518 1
22 543 1
22 562 1
22 570 1
22 610 1
22 673 1
22 675 1
22 730 1
23 1 1
23 2 1
23 4 1
23 5 1
23 12 1
23 21 1
23 25 1
23 27 1
23 31 1
23 37 1
23 46 1
23 50 1
23 64 1
23 65 1
23 79 1
23 142 1
23 167 1
23 171 1
23 197 1
23 209 1
23 234 1
23 256 1
23 262 1
23 288 1
23 299 1
23 311 1
23 351 1
23 377 1
23 382 1
23 422 1
23 453 1
23 478 1
23 483 1
23 530 1
23 541 1
23 568 1
23 602 1
23 714 1
24 1 1
24 4 1
24 5 1
24 7 1
24 14 1
24 31 1
24 49 1
24 66 1
24 86 1
24 155 1
24 159 1
24 166 1
24 456 1
24 542 1
24 572 1
24 579 1
24 612 1
24 681 1
24 732 1
24 779 1
25 5 1
25 6 1
25 12 1
25 14 1
25 20 1
25 23 1
25 28 1
25 31 1
25 32 1
25 39 1
25 41 1
25 43 1
25 50 1
25 52 1
25 56 1
25 84 1
25 90 1
25 93 1
25 95 1
25 96 1
25 100 1
25 103 1
25 104 1
25 108 1
25 110 1
25 116 1
25 123 1
25 127 1
25 129 1
25 134 1
25 151 1
25 152 1
25 157 1
25 160 1
25 162 1
25 164 1
25 184 1
25 205 1
25 216 1
25 237 1
25 242 1
25 268 1
25 275 1
25 281 1
25 288 1
25 305 1
25 325 1
25 333 1
25 345 1
25 374 1
25 382 1
25 440 1
25 449 1
25 469 1
25 502 1
25 524 1
25 534 1
25 546 1
25 571 1
25 607 1
25 636 1
25 652 1
25 700 1
25 745 1
25 778 1
25 786 1
25 799 1
26 3 1
26 4 1
26 5 1
26 8 1
26 11 1
26 16 1
26 44 1
26 47 1
26 74 1
26 75 1
26 81 1
26 82 1
26 107 1
26 120 1
26 146 1
26 176 1
26 187 1
26 203 1
26 220 1
26 255 1
26 274 1
26 280 1
26 296 1
26 311 1
26 314 1
26 340 1
26 341 1
26 362 1
26 370 1
26 404 1
26 439 1
26 495 1
26 506 1
26 554 1
26 558 1
26 565 1
26 573 1
26 604 1
26 611 1
26 653 1
26 768 1
27 1 1
27 3 1
27 4 1
27 10 1
27 14 1
27 23 1
27 79 1
27 122 1
27 123 1
27 171 1
27 182 1
27 192 1
27 240 1
27 283 1
27 300 1
27 322 1
27 520 1
27 606 1
27 734 1
27 780 1
28 6 1
28 16 1
28 20 1
28 25 1
28 41 1
28 50 1
28 52 1
28 63 1
28 92 1
28 103 1
28 116 1
28 132 1
28 133 1
28 141 1
28 142 1
28 169 1
28 224 1
28 228 1
28 309 1
28 319 1
28 321 1
28 333 1
28 381 1
28 421 1
28 473 1
28 480 1
28 564 1
28 589 1
28 757 1
28 783 1
29 3 1
29 4 1
29 5 1
29 6 1
29 11 1
29 17 1
29 47 1
29 56 1
29 64 1
29 76 1
29 77 1
29 95 1
29 106 1
29 109 1
29 134 1
29 162 1
29 169 1
29 253 1
29 265 1
29 274 1
29 301 1
29 321 1
29 323 1
29 332 1
29 390 1
29 406 1
29 426 1
29 435 1
29 555 1
29 561 1
29 600 1
29 641 1
29 654 1
29 790 1
30 3 1
30 4 1
30 6 1
30 7 1
30 18 1
30 19 1
30 34 1
30 45 1
30 48 1
30 49 1
30 62 1
30 65 1
30 67 1
30 69 1
30 72 1
30 78 1
30 82 1
30 83 1
30 141 1
30 184 1
30 188 1
30 221 1
30 239 1
30 271 1
30 295 1
30 352 1
30 389 1
30 457 1
30 464 1
30 472 1
30 481 1
30 489 1
30 507 1
30 526 1
30 589 1
30 596 1
30 634 1
30 643 1
30 699 1
30 735 1
30 761 1
31 1 1
31 12 1
31 14 1
31 23 1
31 24 1
31 25 1
31 37 1
31 42 1
31 64 1
31 98 1
31 112 1
31 205 1
31 219 1
31 237 1
31 275 1
31 305 1
31 382 1
31 422 1
31 453 1
31 478 1
31 541 1
31 579 1
31 726 1
31 729 1
31 779 1
31 783 1
32 2 1
32 3 1
32 4 1
32 14 1
32 20 1
32 25 1
32 39 1
32 69 1
32 71 1
32 95 1
32 96 1
32 104 1
32 123 1
32 126 1
32 140 1
32 150 1
32 161 1
32 187 1
32 278 1
32 298 1
32 312 1
32 313 1
32 338 1
32 354 1
32 502 1
32 552 1
32 563 1
32 601 1
32 602 1
32 603 1
32 615 1
32 628 1
32 717 1
32 766 1
33 6 1
33 7 1
33 9 1
33 10 1
33 12 1
33 18 1
33 43 1
33 44 1
33 55 1
33 79 1
33 98 1
33 140 1
33 144 1
33 219 1
33 395 1
33 582 1
33 606 1
33 787 1
34 1 1
34 7 1
34 12 1
34 19 1
34 30 1
34 72 1
34 124 1
34 128 1
34 136 1
34 146 1
34 181 1
34 337 1
34 363 1
34 450 1
34 507 1
34 508 1
34 598 1
34 605 1
34 647 1
34 685 1
34 718 1
35 1 1
35 4 1
35 6 1
35 10 1
35 15 1
35 93 1
35 177 1
35 186 1
35 207 1
35 250 1
35 299 1
35 392 1
35 394 1
35 406 1
35 439 1
35 484 1
35 500 1
35 627 1
35 691 1
35 739 1
36 4 1
36 7 1
36 9 1
36 21 1
36 22 1
36 48 1
36 51 1
36 58 1
36 73 1
36 80 1
36 94 1
36 97 1
36 103 1
36 110 1
36 122 1
36 170 1
36 200 1
36 212 1
36 222 1
36 225 1
36 226 1
36 229 1
36 230 1
36 245 1
36 246 1
36 249 1
36 297 1
36 332 1
36 364 1
36 380 1
36 461 1
36 503 1
36 539 1
36 562 1
36 564 1
36 624 1
36 647 1
36 660 1
36 673 1
36 752 1
37 5 1
37 7 1
37 12 1
37 19 1
37 23 1
37 31 1
37 42 1
37 46 1
37 59 1
37 61 1
37 64 1
37 65 1
37 73 1
37 98 1
37 139 1
37 177 1
37 182 1
37 196 1
37 197 1
37 204 1
37 247 1
37 272 1
37 276 1
37 289 1
37 305 1
37 318 1
37 410 1
37 436 1
37 438 1
37 446 1
37 560 1
37 655 1
37 722 1
37 736 1
38 1 1
38 5 1
38 7 1
38 12 1
38 14 1
38 20 1
38 53 1
38 54 1
38 57 1
38 102 1
38 126 1
38 202 1
38 213 1
38 222 1
38 304 1
38 353 1
38 482 1
38 500 1
38 622 1
38 768 1
39 7 1
39 14 1
39 15 1
39 25 1
39 32 1
39 41 1
39 71 1
39 75 1
39 90 1
39 96 1
39 119 1
39 147 1
39 160 1
39 162 1
39 190 1
39 192 1
39 267 1
39 291 1
39 312 1
39 358 1
39 376 1
39 385 1
39 397 1
39 423 1
39 458 1
39 472 1
39 524 1
39 535 1
39 550 1
39 602 1
39 623 1
39 686 1
39 713 1
39 735 1
39 760 1
39 784 1
39 800 1
40 1 1
40 3 1
40 9 1
40 15 1
40 18 1
40 20 1
40 54 1
40 77 1
40 80 1
40 114 1
40 117 1
40 185 1
40 189 1
40 302 1
40 412 1
40 424 1
40 428 1
40 455 1
40 461 1
40 585 1
40 678 1
41 14 1
41 16 1
41 18 1
41 25 1
41 28 1
41 39 1
41 43 1
41 90 1
41 93 1
41 116 1
41 119 1
41 132 1
41 174 1
41 190 1
41 231 1
41 257 1
41 287 1
41 392 1
41 465 1
41 501 1
41 507 1
41 524 1
41 532 1
41 553 1
41 590 1
41 636 1
41 665 1
42 5 1
42 12 1
42 19 1
42 31 1
42 37 1
42 58 1
42 61 1
42 111 1
42 139 1
42 182 1
42 213 1
42 260 1
42 318 1
42 373 1
42 402 1
42 410 1
42 446 1
42 516 1
42 607 1
42 758 1
42 784 1
42 788 1
43 7 1
43 12 1
43 14 1
43 25 1
43 33 1
43 41 1
43 44 1
43 56 1
43 66 1
43 84 1
43 90 1
43 94 1
43 131 1
43 134 1
43 148 1
43 149 1
43 153 1
43 174 1
43 178 1
43 211 1
43 257 1
43 270 1
43 285 1
43 328 1
43 462 1
43 465 1
43 467 1
43 469 1
43 527 1
43 544 1
43 590 1
43 705 1
44 4 1
44 7 1
44 8 1
44 26 1
44 33 1
44 43 1
44 47 1
44 55 1
44 62 1
44 74 1
44 75 1
44 79 1
44 83 1
44 84 1
44 106 1
44 120 1
44 121 1
44 131 1
44 140 1
44 178 1
44 203 1
44 211 1
44 215 1
44 220 1
44 242 1
44 255 1
44 259 1
44 297 1
44 334 1
44 339 1
44 340 1
44 341 1
44 370 1
44 462 1
44 470 1
44 532 1
44 557 1
44 658 1
44 776 1
44 777 1
44 793 1
45 3 1
45 4 1
45 6 1
45 13 1
45 18 1
45 30 1
45 48 1
45 100 1
45 168 1
45 389 1
45 432 1
45 609 1
45 632 1
45 660 1
45 661 1
45 663 1
45 732 1
45 767 1
46 5 1
46 7 1
46 12 1
46 23 1
46 37 1
46 59 1
46 65 1
46 73 1
46 88 1
46 121 1
46 136 1
46 185 1
46 204 1
46 212 1
46 218 1
46 225 1
46 229 1
46 232 1
46 244 1
46 253 1
46 261 1
46 284 1
46 286 1
46 289 1
46 300 1
46 434 1
46 508 1
46 528 1
46 530 1
46 540 1
46 575 1
46 637 1
46 701 1
46 714 1
46 716 1
46 748 1
47 4 1
47 5 1
47 6 1
47 26 1
47 29 1
47 44 1
47 74 1
47 77 1
47 82 1
47 95 1
47 162 1
47 176 1
47 240 1
47 265 1
47 286 1
47 339 1
47 439 1
47 443 1
47 485 1
47 513 1
47 688 1
48 4 1
48 6 1
48 7 1
48 30 1
48 36 1
48 45 1
48 70 1
48 73 1
48 78 1
48 85 1
48 102 1
48 112 1
48 125 1
48 141 1
48 143 1
48 170 1
48 193 1
48 199 1
48 203 1
48 228 1
48 229 1
48 237 1
48 257 1
48 318 1
48 360 1
48 365 1
48 377 1
48 433 1
48 483 1
48 517 1
48 564 1
48 576 1
49 4 1
49 6 1
49 7 1
49 18 1
49 24 1
49 30 1
49 52 1
49 65 1
49 67 1
49 118 1
49 155 1
49 166 1
49 194 1
49 223 1
49 265 1
49 271 1
49 418 1
49 463 1
49 472 1
49 475 1
49 481 1
49 504 1
49 550 1
49 561 1
49 569 1
49 616 1
49 617 1
49 621 1
49 636 1
49 747 1
49 762 1
49 772 1
50 5 1
50 20 1
50 21 1
50 23 1
50 25 1
50 28 1
50 52 1
50 76 1
50 84 1
50 92 1
50 100 1
50 167 1
50 264 1
50 293 1
50 311 1
50 380 1
50 381 1
50 397 1
50 479 1
50 568 1
50 597 1
51 2 1
51 4 1
51 7 1
51 8 1
51 22 1
51 36 1
51 58 1
51 70 1
51 87 1
51 88 1
51 94 1
51 96 1
51 97 1
51 99 1
51 159 1
51 161 1
51 172 1
51 175 1
51 188 1
51 191 1
51 195 1
51 198 1
51 277 1
51 291 1
51 312 1
51 336 1
51 341 1
51 359 1
51 364 1
51 381 1
51 430 1
51 438 1
51 540 1
51 551 1
51 633 1
51 668 1
51 710 1
51 730 1
51 749 1
51 752 1
51 781 1
51 785 1
51 799 1
52 4 1
52 7 1
52 25 1
52 28 1
52 49 1
52 50 1
52 84 1
52 92 1
52 118 1
52 133 1
52 137 1
52 142 1
52 163 1
52 223 1
52 224 1
52 278 1
52 293 1
52 309 1
52 333 1
52 337 1
52 350 1
52 504 1
52 588 1
52 778 1
53 7 1
53 14 1
53 15 1
53 17 1
53 20 1
53 38 1
53 54 1
53 71 1
53 104 1
53 131 1
53 143 1
53 148 1
53 180 1
53 181 1
53 283 1
53 285 1
53 407 1
53 408 1
53 480 1
53 482 1
53 768 1
54 3 1
54 14 1
54 20 1
54 38 1
54 40 1
54 53 1
54 102 1
54 400 1
54 482 1
55 3 1
55 5 1
55 19 1
55 33 1
55 44 1
55 68 1
55 140 1
55 166 1
55 167 1
55 178 1
55 334 1
55 657 1
55 689 1
55 739 1
56 4 1
56 6 1
56 14 1
56 25 1
56 29 1
56 43 1
56 66 1
56 148 1
56 194 1
56 253 1
56 274 1
56 281 1
56 328 1
56 356 1
56 364 1
56 416 1
56 469 1
56 608 1
56 613 1
56 664 1
56 700 1
56 737 1
57 4 1
57 5 1
57 6 1
57 7 1
57 12 1
57 38 1
57 129 1
57 251 1
57 329 1
57 527 1
57 619 1
58 5 1
58 19 1
58 22 1
58 36 1
58 42 1
58 51 1
58 87 1
58 88 1
58 94 1
58 96 1
58 103 1
58 110 1
58 111 1
58 113 1
58 179 1
58 191 1
58 195 1
58 210 1
58 222 1
58 238 1
58 252 1
58 284 1
58 291 1
58 342 1
58 348 1
58 373 1
58 402 1
58 408 1
58 430 1
58 518 1
58 575 1
58 597 1
58 635 1
58 661 1
58 687 1
58 698 1
58 774 1
58 788 1
59 5 1
59 13 1
59 16 1
59 18 1
59 37 1
59 46 1
59 60 1
59 67 1
59 68 1
59 73 1
59 108 1
59 128 1
59 133 1
59 136 1
59 171 1
59 196 1
59 218 1
59 226 1
59 241 1
59 243 1
59 261 1
59 266 1
59 270 1
59 272 1
59 273 1
59 313 1
59 330 1
59 331 1
59 335 1
59 343 1
59 366 1
59 384 1
59 388 1
59 389 1
59 396 1
59 436 1
59 441 1
59 450 1
59 476 1
59 571 1
59 711 1
59 712 1
59 727 1
59 750 1
60 5 1
60 6 1
60 14 1
60 16 1
60 18 1
60 59 1
60 67 1
60 87 1
60 108 1
60 128 1
60 132 1
60 133 1
60 145 1
60 270 1
60 273 1
60 330 1
60 336 1
60 349 1
60 409 1
60 437 1
60 441 1
60 535 1
60 560 1
60 591 1
60 595 1
60 605 1
60 637 1
60 677 1
60 738 1
60 750 1
60 797 1
61 2 1
61 9 1
61 11 1
61 19 1
61 37 1
61 42 1
61 92 1
61 318 1
61 607 1
61 659 1
61 674 1
61 775 1
62 3 1
62 4 1
62 8 1
62 19 1
62 30 1
62 44 1
62 82 1
62 115 1
62 205 1
62 210 1
62 314 1
62 344 1
62 411 1
62 415 1
62 584 1
63 6 1
63 9 1
63 10 1
63 18 1
63 20 1
63 28 1
63 130 1
63 169 1
63 189 1
63 254 1
63 319 1
63 404 1
63 421 1
63 431 1
63 442 1
63 448 1
63 464 1
63 566 1
63 664 1
63 682 1
63 690 1
63 733 1
63 771 1
64 3 1
64 17 1
64 23 1
64 29 1
64 31 1
64 37 1
64 98 1
64 219 1
64 301 1
64 453 1
64 736 1
65 6 1
65 23 1
65 30 1
65 37 1
65 46 1
65 49 1
65 67 1
65 197 1
65 352 1
65 489 1
65 617 1
65 747 1
66 5 1
66 7 1
66 14 1
66 24 1
66 43 1
66 56 1
66 94 1
66 148 1
66 149 1
66 153 1
66 194 1
66 245 1
66 264 1
66 270 1
66 277 1
66 290 1
66 329 1
66 371 1
66 394 1
66 466 1
66 477 1
66 503 1
66 531 1
66 542 1
66 544 1
66 681 1
66 725 1
67 16 1
67 30 1
67 49 1
67 59 1
67 60 1
67 65 1
67 68 1
67 74 1
67 89 1
67 91 1
67 108 1
67 160 1
67 171 1
67 175 1
67 180 1
67 243 1
67 266 1
67 279 1
67 316 1
67 335 1
67 352 1
67 378 1
67 383 1
67 414 1
67 472 1
67 596 1
67 617 1
67 643 1
67 692 1
67 770 1
67 779 1
67 798 1
68 3 1
68 5 1
68 16 1
68 55 1
68 59 1
68 67 1
68 74 1
68 81 1
68 86 1
68 91 1
68 105 1
68 111 1
68 164 1
68 166 1
68 171 1
68 221 1
68 261 1
68 272 1
68 279 1
68 320 1
68 343 1
68 370 1
68 393 1
68 396 1
68 446 1
68 460 1
68 580 1
68 582 1
68 613 1
68 623 1
68 626 1
68 689 1
68 692 1
68 720 1
68 725 1
68 759 1
69 3 1
69 4 1
69 18 1
69 30 1
69 32 1
69 83 1
69 126 1
69 161 1
69 188 1
69 247 1
69 295 1
69 304 1
69 427 1
69 457 1
69 470 1
69 493 1
69 515 1
69 545 1
69 563 1
69 589 1
70 4 1
70 7 1
70 8 1
70 48 1
70 51 1
70 85 1
70 99 1
70 112 1
70 198 1
70 199 1
70 318 1
70 359 1
70 368 1
70 447 1
70 452 1
70 509 1
70 559 1
70 752 1
70 785 1
71 7 1
71 14 1
71 15 1
71 32 1
71 39 1
71 53 1
71 104 1
71 148 1
71 276 1
71 282 1
71 312 1
71 376 1
72 4 1
72 7 1
72 9 1
72 22 1
72 30 1
72 34 1
72 118 1
72 124 1
72 135 1
72 136 1
72 217 1
72 233 1
72 248 1
72 252 1
72 266 1
72 759 1
73 7 1
73 36 1
73 37 1
73 46 1
73 48 1
73 59 1
73 80 1
73 102 1
73 114 1
73 115 1
73 122 1
73 125 1
73 135 1
73 150 1
73 196 1
73 203 1
73 204 1
73 206 1
73 229 1
73 245 1
73 247 1
73 253 1
73 257 1
73 261 1
73 280 1
73 315 1
73 362 1
73 391 1
73 484 1
73 521 1
73 650 1
73 724 1
73 754 1
74 16 1
74 26 1
74 44 1
74 47 1
74 67 1
74 68 1
74 81 1
74 82 1
74 86 1
74 89 1
74 105 1
74 107 1
74 120 1
74 138 1
74 191 1
74 238 1
74 274 1
74 297 1
74 303 1
74 339 1
74 383 1
74 399 1
74 470 1
74 520 1
74 548 1
74 557 1
74 577 1
74 583 1
74 629 1
74 688 1
74 728 1
74 772 1
75 7 1
75 8 1
75 15 1
75 26 1
75 39 1
75 44 1
75 90 1
75 147 1
75 187 1
75 192 1
75 203 1
75 227 1
75 259 1
75 282 1
75 472 1
75 653 1
76 3 1
76 5 1
76 11 1
76 21 1
76 29 1
76 50 1
76 106 1
76 107 1
76 113 1
76 173 1
76 397 1
76 488 1
76 567 1
76 655 1
76 656 1
77 1 1
77 6 1
77 9 1
77 29 1
77 40 1
77 47 1
77 80 1
77 117 1
77 162 1
77 165 1
77 178 1
77 208 1
77 419 1
77 443 1
77 461 1
77 555 1
77 729 1
78 6 1
78 7 1
78 19 1
78 22 1
78 30 1
78 48 1
78 125 1
78 141 1
78 152 1
78 206 1
78 228 1
78 236 1
78 309 1
78 326 1
78 365 1
78 423 1
78 433 1
78 437 1
78 479 1
78 524 1
78 552 1
78 572 1
78 592 1
78 625 1
78 642 1
78 717 1
78 735 1
78 787 1
79 4 1
79 7 1
79 23 1
79 27 1
79 33 1
79 44 1
79 83 1
79 182 1
79 192 1
79 242 1
79 283 1
79 529 1
80 7 1
80 9 1
80 36 1
80 40 1
80 73 1
80 77 1
80 114 1
80 117 1
80 122 1
80 125 1
80 150 1
80 165 1
80 173 1
80 183 1
80 195 1
80 206 1
80 208 1
80 212 1
80 215 1
80 330 1
80 332 1
80 362 1
80 414 1
80 428 1
80 465 1
80 514 1
80 521 1
80 539 1
80 594 1
80 794 1
81 4 1
81 11 1
81 16 1
81 26 1
81 68 1
81 74 1
81 86 1
81 105 1
81 111 1
81 138 1
81 164 1
81 287 1
81 320 1
81 395 1
81 604 1
81 626 1
82 19 1
82 26 1
82 30 1
82 47 1
82 62 1
82 74 1
82 107 1
82 176 1
82 191 1
82 221 1
82 238 1
82 240 1
82 303 1
82 399 1
82 415 1
82 425 1
82 491 1
82 553 1
82 556 1
82 584 1
82 634 1
82 731 1
83 7 1
83 18 1
83 30 1
83 44 1
83 69 1
83 79 1
83 239 1
83 242 1
83 295 1
84 7 1
84 25 1
84 43 1
84 44 1
84 50 1
84 52 1
84 106 1
84 121 1
84 131 1
84 154 1
84 156 1
84 220 1
84 431 1
84 569 1
84 778 1
85 4 1
85 7 1
85 12 1
85 16 1
85 48 1
85 70 1
85 112 1
85 143 1
85 207 1
85 509 1
85 745 1
86 5 1
86 14 1
86 24 1
86 68 1
86 74 1
86 81 1
86 138 1
86 267 1
86 287 1
86 320 1
86 395 1
87 6 1
87 14 1
87 22 1
87 51 1
87 58 1
87 60 1
87 88 1
87 113 1
87 172 1
87 196 1
87 551 1
87 633 1
87 703 1
87 730 1
87 749 1
87 774 1
87 799 1
88 5 1
88 7 1
88 46 1
88 51 1
88 58 1
88 87 1
88 96 1
88 113 1
88 121 1
88 179 1
88 185 1
88 196 1
88 198 1
88 210 1
88 232 1
88 244 1
88 300 1
88 412 1
88 551 1
88 634 1
88 669 1
88 701 1
88 703 1
89 1 1
89 6 1
89 13 1
89 16 1
89 67 1
89 74 1
89 91 1
89 120 1
89 137 1
89 145 1
89 235 1
89 255 1
89 263 1
89 376 1
89 383 1
89 671 1
89 696 1
90 15 1
90 25 1
90 39 1
90 41 1
90 43 1
90 75 1
90 93 1
90 134 1
90 147 1
90 174 1
90 242 1
90 507 1
91 3 1
91 5 1
91 16 1
91 67 1
91 68 1
91 89 1
91 105 1
91 120 1
91 137 1
91 139 1
91 147 1
91 160 1
91 170 1
91 201 1
91 241 1
91 335 1
91 360 1
91 460 1
91 642 1
91 712 1
92 2 1
92 9 1
92 28 1
92 50 1
92 52 1
92 61 1
92 133 1
92 137 1
92 293 1
92 659 1
92 775 1
93 1 1
93 4 1
93 25 1
93 35 1
93 41 1
93 90 1
93 177 1
93 207 1
93 218 1
93 242 1
93 259 1
93 401 1
93 500 1
93 507 1
94 14 1
94 36 1
94 43 1
94 51 1
94 58 1
94 66 1
94 97 1
94 149 1
94 188 1
94 195 1
94 211 1
94 222 1
94 225 1
94 238 1
94 264 1
94 277 1
94 284 1
94 285 1
94 290 1
94 293 1
94 296 1
94 347 1
94 358 1
94 371 1
94 372 1
94 375 1
94 381 1
94 403 1
94 405 1
94 411 1
94 428 1
94 435 1
94 452 1
94 473 1
94 475 1
94 493 1
94 531 1
94 592 1
94 668 1
94 691 1
94 706 1
94 749 1
94 781 1
95 5 1
95 20 1
95 25 1
95 29 1
95 32 1
95 47 1
95 108 1
95 116 1
95 124 1
95 151 1
95 184 1
95 286 1
95 502 1
95 541 1
95 542 1
96 25 1
96 32 1
96 39 1
96 51 1
96 58 1
96 88 1
96 104 1
96 110 1
96 160 1
96 191 1
96 193 1
96 198 1
96 244 1
96 252 1
96 292 1
96 345 1
96 374 1
96 415 1
96 522 1
96 558 1
96 652 1
96 653 1
97 1 1
97 9 1
97 21 1
97 36 1
97 51 1
97 94 1
97 188 1
97 214 1
97 226 1
97 290 1
97 293 1
97 312 1
97 347 1
97 364 1
97 458 1
97 461 1
97 538 1
97 581 1
97 702 1
97 765 1
97 789 1
98 9 1
98 18 1
98 31 1
98 33 1
98 37 1
98 64 1
98 219 1
98 305 1
98 395 1
98 497 1
98 582 1
98 593 1
98 693 1
98 726 1
98 736 1
98 800 1
99 7 1
99 8 1
99 10 1
99 14 1
99 51 1
99 70 1
99 117 1
99 157 1
99 175 1
99 198 1
99 336 1
99 359 1
99 657 1
99 679 1
99 752 1
100 3 1
100 13 1
100 20 1
100 25 1
100 45 1
100 50 1
100 419 1
100 531 1
100 609 1
100 632 1
101 1 1
101 3 1
101 8 1
101 11 1
101 127 1
101 138 1
101 168 1
101 217 1
101 227 1
101 234 1
101 263 1
101 271 1
101 366 1
101 425 1
101 468 1
101 486 1
101 521 1
101 670 1
101 728 1
101 742 1
101 769 1
101 795 1
102 7 1
102 14 1
102 38 1
102 48 1
102 54 1
102 73 1
102 126 1
102 144 1
102 203 1
102 213 1
102 258 1
102 323 1
102 360 1
102 387 1
102 549 1
102 614 1
102 668 1
103 6 1
103 22 1
103 25 1
103 28 1
103 36 1
103 58 1
103 110 1
103 172 1
103 249 1
103 297 1
103 449 1
103 518 1
103 658 1
103 687 1
103 745 1
103 783 1
104 15 1
104 25 1
104 32 1
104 53 1
104 71 1
104 96 1
104 110 1
104 123 1
104 127 1
104 140 1
104 148 1
104 179 1
104 193 1
104 282 1
104 283 1
104 285 1
104 327 1
104 338 1
104 374 1
104 487 1
104 548 1
104 552 1
104 571 1
104 612 1
105 5 1
105 16 1
105 68 1
105 74 1
105 81 1
105 91 1
105 303 1
105 360 1
105 460 1
105 712 1
106 7 1
106 11 1
106 29 1
106 44 1
106 76 1
106 84 1
106 113 1
106 121 1
106 154 1
106 156 1
106 169 1
106 211 1
106 215 1
106 220 1
106 326 1
106 332 1
106 409 1
106 488 1
106 567 1
106 683 1
106 698 1
106 715 1
106 776 1
106 777 1
107 5 1
107 21 1
107 26 1
107 74 1
107 76 1
107 82 1
107 173 1
107 191 1
107 258 1
107 274 1
107 294 1
107 339 1
107 471 1
107 520 1
107 553 1
107 611 1
107 629 1
107 702 1
108 20 1
108 25 1
108 59 1
108 60 1
108 67 1
108 95 1
108 116 1
108 124 1
108 128 1
108 145 1
108 243 1
108 325 1
108 388 1
108 389 1
108 535 1
109 1 1
109 4 1
109 5 1
109 12 1
109 29 1
109 119 1
109 130 1
109 134 1
109 197 1
109 235 1
109 251 1
109 426 1
109 456 1
109 486 1
109 525 1
109 654 1
109 684 1
109 701 1
110 25 1
110 36 1
110 58 1
110 96 1
110 103 1
110 104 1
110 193 1
110 249 1
110 327 1
110 345 1
110 374 1
110 415 1
110 440 1
110 548 1
110 566 1
110 687 1
111 5 1
111 16 1
111 42 1
111 58 1
111 68 1
111 81 1
111 164 1
111 261 1
111 370 1
111 446 1
111 477 1
111 488 1
111 759 1
111 788 1
112 1 1
112 14 1
112 31 1
112 48 1
112 70 1
112 85 1
112 199 1
112 331 1
112 649 1
112 674 1
113 11 1
113 58 1
113 76 1
113 87 1
113 88 1
113 106 1
113 179 1
113 196 1
113 408 1
113 488 1
113 597 1
113 655 1
113 656 1
113 669 1
113 698 1
113 774 1
114 7 1
114 9 1
114 40 1
114 73 1
114 80 1
114 115 1
114 125 1
114 135 1
114 149 1
114 173 1
114 183 1
114 201 1
114 215 1
114 250 1
114 273 1
114 280 1
114 387 1
114 428 1
114 618 1
114 678 1
115 4 1
115 7 1
115 8 1
115 62 1
115 73 1
115 114 1
115 135 1
115 149 1
115 205 1
115 216 1
115 298 1
115 314 1
115 353 1
115 367 1
115 391 1
115 411 1
115 445 1
115 449 1
115 484 1
115 573 1
115 578 1
115 583 1
115 594 1
115 618 1
115 650 1
115 775 1
116 16 1
116 25 1
116 28 1
116 41 1
116 95 1
116 108 1
116 124 1
116 132 1
116 141 1
116 151 1
116 228 1
116 231 1
116 305 1
116 448 1
116 467 1
116 480 1
116 498 1
116 541 1
116 542 1
116 586 1
116 675 1
116 755 1
117 7 1
117 14 1
117 40 1
117 77 1
117 80 1
117 99 1
117 165 1
117 414 1
117 461 1
118 4 1
118 7 1
118 22 1
118 49 1
118 52 1
118 72 1
118 194 1
118 217 1
118 223 1
118 248 1
118 390 1
118 561 1
118 570 1
118 740 1
118 782 1
119 4 1
119 5 1
119 14 1
119 39 1
119 41 1
119 109 1
119 163 1
119 190 1
119 287 1
119 358 1
119 397 1
119 684 1
119 701 1
119 792 1
120 16 1
120 26 1
120 44 1
120 74 1
120 89 1
120 91 1
120 137 1
120 201 1
120 220 1
120 255 1
120 297 1
120 558 1
120 577 1
120 642 1
120 663 1
120 699 1
121 5 1
121 44 1
121 46 1
121 84 1
121 88 1
121 106 1
121 156 1
121 185 1
121 212 1
121 232 1
121 244 1
121 346 1
121 512 1
121 634 1
121 666 1
121 672 1
121 676 1
121 777 1
122 1 1
122 4 1
122 27 1
122 36 1
122 73 1
122 80 1
122 150 1
122 154 1
122 199 1
122 212 1
122 245 1
122 372 1
122 391 1
122 465 1
122 734 1
123 10 1
123 14 1
123 25 1
123 27 1
123 32 1
123 104 1
123 127 1
123 140 1
123 153 1
123 165 1
123 179 1
123 208 1
123 230 1
123 240 1
123 268 1
123 579 1
123 761 1
124 7 1
124 34 1
124 72 1
124 95 1
124 108 1
124 116 1
124 136 1
124 181 1
124 508 1
124 542 1
125 6 1
125 48 1
125 73 1
125 78 1
125 80 1
125 114 1
125 206 1
125 237 1
125 280 1
125 521 1
125 572 1
125 576 1
126 3 1
126 14 1
126 32 1
126 38 1
126 69 1
126 102 1
126 144 1
126 161 1
126 213 1
126 258 1
126 313 1
126 333 1
126 387 1
126 405 1
126 470 1
126 515 1
126 549 1
126 562 1
126 614 1
126 615 1
126 640 1
126 659 1
127 1 1
127 8 1
127 25 1
127 101 1
127 104 1
127 123 1
127 168 1
127 402 1
127 571 1
127 612 1
127 799 1
128 7 1
128 12 1
128 34 1
128 59 1
128 60 1
128 108 1
128 133 1
128 145 1
128 146 1
128 320 1
128 331 1
128 388 1
128 399 1
129 6 1
129 7 1
129 12 1
129 14 1
129 25 1
129 57 1
129 152 1
129 157 1
129 158 1
129 251 1
129 268 1
129 307 1
129 322 1
129 329 1
129 506 1
129 527 1
129 546 1
129 549 1
129 603 1
129 619 1
129 633 1
129 678 1
129 687 1
130 5 1
130 12 1
130 18 1
130 20 1
130 63 1
130 109 1
130 158 1
130 251 1
130 254 1
130 497 1
130 746 1
131 14 1
131 20 1
131 43 1
131 44 1
131 53 1
131 84 1
131 143 1
131 180 1
131 181 1
131 420 1
131 430 1
131 480 1
131 494 1
131 555 1
131 774 1
132 5 1
132 14 1
132 28 1
132 41 1
132 60 1
132 116 1
132 228 1
132 437 1
132 448 1
132 498 1
132 525 1
132 560 1
132 593 1
132 595 1
132 675 1
133 28 1
133 52 1
133 59 1
133 60 1
133 92 1
133 128 1
133 137 1
133 142 1
133 163 1
133 270 1
133 278 1
133 321 1
133 331 1
133 399 1
133 476 1
133 499 1
133 676 1
133 794 1
134 4 1
134 25 1
134 29 1
134 43 1
134 90 1
134 109 1
134 235 1
134 340 1
134 406 1
134 426 1
134 442 1
134 491 1
134 656 1
135 4 1
135 9 1
135 72 1
135 73 1
135 114 1
135 115 1
135 149 1
135 216 1
135 233 1
135 252 1
135 298 1
135 319 1
135 387 1
135 391 1
136 5 1
136 34 1
136 46 1
136 59 1
136 72 1
136 124 1
136 218 1
136 226 1
136 229 1
136 284 1
136 313 1
136 367 1
136 403 1
136 654 1
136 786 1
137 52 1
137 89 1
137 91 1
137 92 1
137 120 1
137 133 1
137 163 1
137 201 1
137 588 1
137 699 1
138 8 1
138 11 1
138 74 1
138 81 1
138 86 1
138 101 1
138 223 1
138 263 1
138 287 1
138 306 1
138 334 1
138 366 1
139 3 1
139 5 1
139 12 1
139 37 1
139 42 1
139 91 1
139 147 1
139 182 1
139 213 1
139 260 1
139 516 1
139 523 1
139 560 1
140 32 1
140 33 1
140 44 1
140 55 1
140 104 1
140 123 1
140 179 1
140 334 1
140 354 1
140 552 1
141 16 1
141 28 1
141 30 1
141 48 1
141 78 1
141 116 1
141 228 1
141 236 1
141 326 1
141 433 1
141 467 1
141 625 1
141 735 1
142 12 1
142 21 1
142 23 1
142 28 1
142 52 1
142 133 1
142 224 1
142 278 1
142 321 1
142 337 1
142 350 1
142 416 1
142 499 1
143 4 1
143 14 1
143 48 1
143 53 1
143 85 1
143 131 1
143 181 1
143 365 1
143 379 1
143 407 1
143 420 1
143 596 1
143 751 1
143 774 1
144 10 1
144 12 1
144 14 1
144 33 1
144 102 1
144 126 1
144 258 1
144 323 1
144 405 1
144 659 1
144 668 1
144 681 1
144 714 1
145 1 1
145 13 1
145 60 1
145 89 1
145 108 1
145 128 1
145 156 1
145 235 1
145 535 1
145 671 1
145 677 1
145 682 1
145 766 1
146 5 1
146 12 1
146 16 1
146 26 1
146 34 1
146 128 1
146 204 1
146 289 1
146 320 1
146 356 1
146 386 1
146 519 1
146 689 1
147 3 1
147 39 1
147 75 1
147 90 1
147 91 1
147 139 1
147 170 1
147 241 1
147 523 1
147 635 1
148 43 1
148 53 1
148 56 1
148 66 1
148 71 1
148 104 1
148 285 1
148 328 1
148 364 1
148 504 1
149 43 1
149 66 1
149 94 1
149 114 1
149 115 1
149 135 1
149 153 1
149 216 1
149 245 1
149 285 1
149 375 1
149 387 1
149 449 1
149 481 1
149 546 1
149 618 1
150 14 1
150 20 1
150 32 1
150 73 1
150 80 1
150 122 1
150 206 1
150 298 1
150 601 1
150 669 1
150 713 1
151 5 1
151 12 1
151 25 1
151 95 1
151 116 1
151 184 1
151 305 1
151 534 1
151 541 1
151 607 1
152 6 1
152 19 1
152 22 1
152 25 1
152 78 1
152 129 1
152 157 1
152 158 1
152 164 1
152 216 1
152 256 1
152 262 1
152 307 1
152 437 1
152 496 1
152 509 1
152 524 1
152 646 1
152 687 1
153 10 1
153 14 1
153 43 1
153 66 1
153 123 1
153 149 1
153 245 1
153 270 1
153 277 1
153 290 1
153 317 1
153 503 1
153 665 1
153 725 1
153 761 1
154 1 1
154 4 1
154 7 1
154 84 1
154 106 1
154 122 1
154 199 1
154 308 1
154 326 1
154 372 1
154 391 1
154 431 1
154 440 1
154 614 1
154 791 1
155 1 1
155 4 1
155 5 1
155 24 1
155 49 1
155 159 1
155 166 1
155 279 1
155 400 1
155 418 1
155 456 1
155 471 1
155 478 1
155 732 1
155 788 1
156 1 1
156 13 1
156 84 1
156 106 1
156 121 1
156 145 1
156 220 1
156 569 1
156 705 1
156 715 1
157 7 1
157 10 1
157 25 1
157 99 1
157 129 1
157 152 1
157 158 1
157 233 1
157 262 1
157 357 1
157 379 1
157 398 1
157 517 1
157 633 1
157 657 1
157 684 1
158 18 1
158 20 1
158 129 1
158 130 1
158 152 1
158 157 1
158 176 1
158 262 1
158 269 1
158 281 1
158 295 1
158 357 1
158 398 1
158 496 1
158 497 1
158 505 1
158 529 1
158 538 1
158 554 1
158 576 1
158 633 1
158 638 1
158 646 1
158 673 1
158 695 1
158 721 1
158 762 1
159 1 1
159 7 1
159 22 1
159 24 1
159 51 1
159 155 1
159 341 1
159 400 1
159 438 1
159 478 1
159 710 1
159 743 1
160 16 1
160 25 1
160 39 1
160 67 1
160 91 1
160 96 1
160 162 1
160 175 1
160 291 1
160 316 1
160 325 1
160 335 1
160 378 1
160 414 1
160 535 1
160 652 1
161 2 1
161 8 1
161 32 1
161 51 1
161 69 1
161 126 1
161 710 1
162 25 1
162 29 1
162 39 1
162 47 1
162 77 1
162 160 1
162 265 1
162 291 1
162 458 1
162 513 1
162 623 1
163 4 1
163 52 1
163 119 1
163 133 1
163 137 1
163 588 1
163 684 1
164 6 1
164 25 1
164 68 1
164 81 1
164 111 1
164 152 1
164 216 1
164 261 1
164 272 1
164 369 1
164 725 1
165 10 1
165 77 1
165 80 1
165 117 1
165 123 1
165 208 1
165 230 1
165 317 1
165 345 1
165 414 1
165 459 1
165 617 1
165 761 1
166 5 1
166 24 1
166 49 1
166 55 1
166 68 1
166 155 1
166 167 1
166 429 1
166 584 1
166 657 1
166 689 1
166 732 1
166 739 1
167 5 1
167 23 1
167 50 1
167 55 1
167 166 1
167 209 1
167 264 1
167 380 1
167 429 1
167 568 1
167 657 1
168 1 1
168 4 1
168 6 1
168 45 1
168 101 1
168 127 1
168 227 1
168 236 1
168 368 1
168 402 1
168 510 1
169 11 1
169 20 1
169 28 1
169 29 1
169 63 1
169 106 1
169 319 1
169 332 1
169 409 1
170 3 1
170 4 1
170 36 1
170 48 1
170 91 1
170 147 1
170 193 1
170 200 1
170 214 1
170 241 1
170 246 1
170 324 1
170 377 1
170 523 1
170 536 1
170 635 1
170 647 1
170 650 1
170 660 1
170 683 1
170 697 1
171 1 1
171 23 1
171 27 1
171 59 1
171 67 1
171 68 1
171 234 1
171 279 1
171 382 1
171 533 1
171 613 1
171 623 1
172 6 1
172 22 1
172 51 1
172 87 1
172 103 1
172 462 1
172 730 1
172 783 1
173 9 1
173 21 1
173 76 1
173 80 1
173 107 1
173 114 1
173 183 1
173 195 1
173 201 1
174 3 1
174 4 1
174 19 1
174 41 1
174 43 1
174 90 1
174 398 1
174 407 1
174 465 1
174 527 1
174 686 1
174 722 1
175 8 1
175 16 1
175 51 1
175 67 1
175 99 1
175 160 1
175 180 1
175 316 1
175 325 1
176 18 1
176 20 1
176 26 1
176 47 1
176 82 1
176 158 1
176 240 1
176 269 1
176 281 1
176 346 1
176 529 1
176 576 1
176 625 1
176 644 1
176 694 1
177 4 1
177 7 1
177 19 1
177 35 1
177 37 1
177 93 1
177 218 1
177 426 1
177 438 1
177 439 1
177 466 1
177 722 1
178 1 1
178 9 1
178 43 1
178 44 1
178 55 1
178 77 1
178 324 1
178 343 1
178 410 1
178 462 1
178 468 1
178 519 1
178 586 1
178 628 1
178 670 1
178 729 1
179 58 1
179 88 1
179 104 1
179 113 1
179 123 1
179 140 1
179 210 1
179 232 1
179 408 1
179 575 1
179 669 1
180 16 1
180 20 1
180 53 1
180 67 1
180 131 1
180 175 1
180 494 1
180 555 1
181 7 1
181 34 1
181 53 1
181 124 1
181 131 1
181 143 1
181 407 1
181 408 1
181 480 1
181 508 1
181 718 1
181 774 1
182 4 1
182 27 1
182 37 1
182 42 1
182 79 1
182 139 1
182 192 1
182 213 1
182 410 1
182 529 1
182 606 1
182 655 1
182 758 1
182 780 1
182 790 1
183 3 1
183 14 1
183 15 1
183 80 1
183 114 1
183 173 1
183 201 1
183 215 1
183 248 1
183 250 1
183 273 1
183 328 1
183 645 1
183 791 1
183 794 1
184 3 1
184 7 1
184 25 1
184 30 1
184 95 1
184 151 1
184 464 1
185 3 1
185 18 1
185 40 1
185 46 1
185 88 1
185 121 1
185 189 1
185 212 1
185 300 1
185 302 1
185 346 1
185 447 1
185 585 1
185 708 1
186 3 1
186 4 1
186 6 1
186 7 1
186 19 1
186 35 1
186 299 1
186 460 1
186 652 1
187 2 1
187 4 1
187 8 1
187 26 1
187 32 1
187 75 1
187 227 1
187 278 1
187 282 1
187 292 1
187 311 1
187 316 1
187 338 1
187 355 1
187 396 1
187 418 1
187 485 1
187 487 1
187 545 1
187 628 1
187 648 1
187 653 1
187 763 1
188 4 1
188 30 1
188 51 1
188 69 1
188 94 1
188 97 1
188 277 1
188 290 1
188 312 1
188 358 1
188 359 1
188 411 1
188 427 1
188 457 1
188 474 1
188 570 1
188 690 1
188 748 1
189 3 1
189 9 1
189 10 1
189 40 1
189 63 1
189 185 1
189 431 1
189 442 1
189 448 1
189 585 1
189 715 1
189 755 1
190 1 1
190 9 1
190 11 1
190 39 1
190 41 1
190 119 1
190 672 1
191 51 1
191 58 1
191 74 1
191 82 1
191 96 1
191 107 1
191 238 1
191 303 1
191 310 1
191 342 1
191 430 1
191 520 1
191 540 1
191 553 1
191 557 1
191 688 1
191 702 1
191 721 1
191 781 1
192 7 1
192 27 1
192 39 1
192 75 1
192 79 1
192 182 1
192 267 1
192 283 1
192 322 1
192 472 1
192 550 1
192 606 1
192 713 1
192 735 1
192 790 1
193 4 1
193 48 1
193 96 1
193 104 1
193 110 1
193 170 1
193 327 1
193 338 1
193 377 1
193 433 1
193 483 1
193 501 1
193 536 1
193 537 1
193 588 1
194 7 1
194 14 1
194 49 1
194 56 1
194 66 1
194 118 1
194 329 1
194 416 1
194 463 1
194 466 1
194 474 1
194 636 1
194 651 1
194 772 1
195 9 1
195 51 1
195 58 1
195 80 1
195 94 1
195 173 1
195 238 1
195 291 1
195 342 1
195 381 1
195 452 1
195 473 1
195 475 1
195 493 1
195 502 1
195 629 1
195 698 1
195 747 1
196 37 1
196 59 1
196 73 1
196 87 1
196 88 1
196 113 1
196 272 1
196 276 1
197 1 1
197 12 1
197 23 1
197 37 1
197 65 1
197 109 1
197 200 1
197 209 1
197 269 1
197 384 1
197 456 1
197 459 1
197 525 1
197 718 1
198 51 1
198 70 1
198 88 1
198 96 1
198 99 1
198 244 1
198 252 1
198 292 1
198 336 1
198 374 1
198 412 1
198 558 1
198 635 1
198 651 1
198 752 1
198 757 1
198 785 1
199 4 1
199 48 1
199 70 1
199 112 1
199 122 1
199 154 1
199 372 1
200 1 1
200 4 1
200 12 1
200 36 1
200 170 1
200 197 1
200 209 1
200 214 1
200 246 1
200 269 1
200 324 1
200 348 1
200 503 1
200 580 1
200 609 1
201 91 1
201 114 1
201 120 1
201 137 1
201 173 1
201 183 1
201 250 1
201 642 1
201 699 1
202 1 1
202 3 1
202 7 1
202 14 1
202 17 1
202 38 1
202 222 1
202 224 1
202 353 1
202 476 1
202 482 1
202 500 1
202 620 1
202 764 1
203 26 1
203 44 1
203 48 1
203 73 1
203 75 1
203 102 1
203 340 1
203 360 1
203 404 1
203 532 1
203 773 1
203 792 1
204 5 1
204 16 1
204 37 1
204 46 1
204 73 1
204 146 1
204 225 1
204 247 1
204 253 1
204 289 1
204 301 1
204 315 1
204 356 1
204 386 1
204 495 1
204 528 1
204 630 1
204 689 1
204 793 1
205 8 1
205 12 1
205 25 1
205 31 1
205 62 1
205 115 1
205 210 1
205 237 1
205 314 1
205 445 1
205 516 1
205 729 1
205 786 1
206 6 1
206 73 1
206 78 1
206 80 1
206 125 1
206 150 1
206 362 1
206 572 1
206 642 1
206 717 1
207 1 1
207 7 1
207 12 1
207 35 1
207 85 1
207 93 1
207 453 1
207 500 1
208 9 1
208 10 1
208 77 1
208 80 1
208 123 1
208 165 1
208 230 1
208 268 1
208 317 1
208 330 1
208 345 1
208 417 1
208 419 1
208 459 1
208 512 1
208 579 1
208 796 1
209 5 1
209 12 1
209 23 1
209 167 1
209 197 1
209 200 1
209 262 1
209 269 1
209 348 1
209 384 1
209 434 1
209 459 1
209 492 1
209 609 1
209 662 1
209 697 1
209 703 1
210 8 1
210 58 1
210 62 1
210 88 1
210 179 1
210 205 1
210 232 1
210 344 1
210 516 1
210 539 1
211 7 1
211 14 1
211 43 1
211 44 1
211 94 1
211 106 1
211 215 1
211 557 1
211 574 1
211 776 1
212 36 1
212 46 1
212 80 1
212 121 1
212 122 1
212 185 1
212 232 1
212 346 1
212 465 1
212 508 1
212 512 1
212 666 1
212 676 1
213 38 1
213 42 1
213 102 1
213 126 1
213 139 1
213 182 1
213 260 1
213 387 1
213 523 1
213 630 1
213 758 1
213 784 1
214 4 1
214 9 1
214 21 1
214 97 1
214 170 1
214 200 1
214 254 1
214 302 1
214 324 1
214 347 1
214 683 1
214 697 1
214 789 1
215 44 1
215 80 1
215 106 1
215 114 1
215 183 1
215 211 1
215 273 1
215 794 1
216 25 1
216 115 1
216 135 1
216 149 1
216 152 1
216 164 1
216 298 1
216 353 1
216 449 1
216 481 1
216 546 1
216 594 1
217 1 1
217 3 1
217 22 1
217 72 1
217 101 1
217 118 1
217 234 1
217 248 1
217 266 1
217 390 1
217 468 1
217 559 1
217 567 1
217 570 1
217 608 1
217 740 1
218 4 1
218 46 1
218 59 1
218 93 1
218 136 1
218 177 1
218 226 1
218 284 1
218 335 1
218 403 1
218 615 1
218 654 1
218 786 1
219 9 1
219 31 1
219 33 1
219 64 1
219 98 1
219 582 1
219 693 1
220 26 1
220 44 1
220 84 1
220 106 1
220 120 1
220 156 1
220 255 1
220 296 1
220 388 1
220 558 1
220 569 1
220 705 1
220 715 1
221 3 1
221 19 1
221 30 1
221 68 1
221 82 1
221 634 1
222 14 1
222 36 1
222 38 1
222 58 1
222 94 1
222 202 1
222 225 1
222 284 1
222 296 1
222 307 1
222 347 1
222 348 1
222 352 1
222 371 1
222 403 1
222 405 1
222 547 1
222 592 1
222 780 1
223 8 1
223 11 1
223 49 1
223 52 1
223 118 1
223 138 1
223 243 1
223 306 1
223 334 1
223 504 1
223 561 1
223 616 1
223 621 1
224 7 1
224 17 1
224 28 1
224 52 1
224 142 1
224 202 1
224 309 1
224 337 1
224 620 1
225 36 1
225 46 1
225 94 1
225 204 1
225 222 1
225 289 1
225 296 1
225 307 1
225 372 1
225 662 1
226 36 1
226 59 1
226 97 1
226 136 1
226 218 1
226 335 1
226 403 1
226 615 1
227 1 1
227 8 1
227 75 1
227 101 1
227 168 1
227 187 1
227 236 1
227 282 1
227 292 1
227 316 1
227 355 1
227 396 1
227 443 1
227 485 1
227 692 1
227 796 1
228 28 1
228 48 1
228 78 1
228 116 1
228 132 1
228 141 1
228 236 1
228 448 1
228 592 1
228 593 1
228 755 1
229 5 1
229 36 1
229 46 1
229 48 1
229 73 1
229 136 1
229 257 1
229 286 1
229 367 1
229 564 1
229 604 1
230 9 1
230 21 1
230 36 1
230 123 1
230 165 1
230 208 1
230 268 1
230 459 1
230 622 1
230 707 1
230 769 1
231 4 1
231 16 1
231 21 1
231 22 1
231 41 1
231 116 1
231 246 1
231 249 1
231 378 1
231 383 1
231 386 1
231 392 1
231 451 1
231 492 1
231 536 1
231 543 1
231 551 1
231 598 1
231 639 1
232 46 1
232 88 1
232 121 1
232 179 1
232 210 1
232 212 1
232 244 1
232 508 1
232 540 1
232 585 1
233 4 1
233 7 1
233 10 1
233 72 1
233 135 1
233 157 1
233 319 1
233 357 1
233 505 1
233 517 1
234 1 1
234 3 1
234 23 1
234 101 1
234 171 1
234 217 1
234 256 1
234 271 1
234 382 1
234 401 1
235 1 1
235 4 1
235 89 1
235 109 1
235 134 1
235 145 1
235 340 1
235 766 1
236 1 1
236 78 1
236 141 1
236 168 1
236 227 1
236 228 1
236 326 1
236 365 1
236 368 1
236 592 1
237 6 1
237 25 1
237 31 1
237 48 1
237 125 1
237 205 1
237 275 1
237 288 1
237 327 1
237 517 1
237 576 1
237 786 1
238 58 1
238 74 1
238 82 1
238 94 1
238 191 1
238 195 1
238 303 1
238 310 1
238 399 1
238 413 1
238 475 1
238 491 1
238 498 1
238 629 1
238 698 1
238 772 1
239 5 1
239 13 1
239 16 1
239 18 1
239 30 1
239 83 1
239 306 1
240 10 1
240 27 1
240 47 1
240 82 1
240 123 1
240 176 1
240 300 1
240 520 1
241 13 1
241 16 1
241 59 1
241 91 1
241 147 1
241 170 1
241 366 1
241 523 1
241 650 1
241 750 1
242 25 1
242 44 1
242 79 1
242 83 1
242 90 1
242 93 1
243 8 1
243 11 1
243 59 1
243 67 1
243 108 1
243 223 1
243 260 1
243 266 1
243 369 1
244 46 1
244 88 1
244 96 1
244 121 1
244 198 1
244 232 1
244 412 1
244 651 1
245 36 1
245 66 1
245 73 1
245 122 1
245 149 1
245 153 1
245 290 1
246 4 1
246 22 1
246 36 1
246 170 1
246 200 1
246 231 1
246 249 1
246 383 1
246 492 1
246 503 1
246 536 1
246 610 1
246 647 1
246 720 1
247 2 1
247 3 1
247 37 1
247 69 1
247 73 1
247 204 1
247 304 1
247 315 1
247 754 1
248 3 1
248 15 1
248 72 1
248 118 1
248 183 1
248 217 1
248 266 1
248 328 1
248 390 1
248 727 1
248 791 1
249 22 1
249 36 1
249 103 1
249 110 1
249 231 1
249 246 1
249 297 1
249 383 1
249 451 1
249 551 1
249 598 1
249 624 1
249 639 1
249 658 1
250 1 1
250 6 1
250 35 1
250 114 1
250 183 1
250 201 1
250 739 1
251 7 1
251 12 1
251 57 1
251 109 1
251 129 1
251 130 1
251 322 1
251 329 1
251 486 1
251 506 1
251 549 1
251 603 1
251 678 1
251 740 1
252 9 1
252 58 1
252 72 1
252 96 1
252 135 1
252 198 1
252 292 1
252 522 1
252 578 1
252 635 1
252 759 1
252 770 1
253 6 1
253 29 1
253 46 1
253 56 1
253 73 1
253 204 1
253 274 1
253 321 1
253 323 1
253 499 1
253 528 1
253 630 1
253 790 1
254 9 1
254 18 1
254 63 1
254 130 1
254 214 1
254 302 1
254 404 1
254 530 1
254 719 1
254 723 1
254 746 1
255 16 1
255 26 1
255 44 1
255 89 1
255 120 1
255 220 1
255 263 1
255 296 1
255 341 1
255 362 1
255 388 1
255 495 1
255 533 1
255 663 1
255 723 1
255 793 1
256 1 1
256 19 1
256 22 1
256 23 1
256 152 1
256 234 1
256 288 1
256 299 1
256 724 1
257 14 1
257 41 1
257 43 1
257 48 1
257 73 1
257 229 1
257 467 1
257 534 1
257 604 1
257 705 1
257 724 1
258 5 1
258 21 1
258 102 1
258 107 1
258 126 1
258 144 1
258 294 1
258 339 1
258 432 1
258 614 1
259 1 1
259 4 1
259 8 1
259 44 1
259 75 1
259 93 1
259 401 1
259 658 1
259 680 1
260 8 1
260 11 1
260 42 1
260 139 1
260 213 1
260 243 1
260 369 1
260 417 1
260 441 1
260 516 1
260 523 1
260 630 1
260 696 1
261 46 1
261 59 1
261 68 1
261 73 1
261 111 1
261 164 1
261 272 1
261 369 1
261 580 1
262 5 1
262 23 1
262 152 1
262 157 1
262 158 1
262 209 1
262 379 1
262 434 1
262 496 1
263 8 1
263 16 1
263 89 1
263 101 1
263 138 1
263 255 1
263 376 1
263 533 1
264 5 1
264 14 1
264 50 1
264 66 1
264 94 1
264 167 1
264 371 1
264 380 1
264 749 1
265 6 1
265 18 1
265 29 1
265 47 1
265 49 1
265 162 1
265 513 1
265 550 1
265 762 1
265 765 1
266 59 1
266 67 1
266 72 1
266 217 1
266 243 1
266 248 1
267 5 1
267 7 1
267 14 1
267 39 1
267 86 1
267 192 1
267 550 1
268 14 1
268 25 1
268 123 1
268 129 1
268 208 1
268 230 1
268 546 1
268 579 1
269 18 1
269 158 1
269 176 1
269 197 1
269 200 1
269 209 1
269 281 1
269 295 1
269 346 1
269 348 1
269 436 1
269 444 1
269 454 1
269 505 1
269 538 1
269 625 1
269 671 1
269 697 1
270 43 1
270 59 1
270 60 1
270 66 1
270 133 1
270 153 1
270 273 1
270 277 1
270 317 1
270 349 1
270 351 1
270 515 1
270 544 1
270 738 1
271 3 1
271 18 1
271 30 1
271 49 1
271 101 1
271 234 1
271 475 1
271 481 1
271 486 1
271 526 1
271 569 1
271 640 1
271 694 1
271 733 1
272 37 1
272 59 1
272 68 1
272 164 1
272 196 1
272 261 1
272 276 1
272 369 1
272 436 1
272 580 1
272 626 1
272 711 1
272 725 1
272 746 1
273 59 1
273 60 1
273 114 1
273 183 1
273 215 1
273 270 1
273 330 1
273 336 1
273 349 1
273 351 1
273 743 1
274 26 1
274 29 1
274 56 1
274 74 1
274 107 1
274 253 1
274 611 1
274 629 1
274 790 1
275 5 1
275 16 1
275 25 1
275 31 1
275 237 1
275 288 1
275 294 1
275 327 1
275 422 1
275 619 1
275 667 1
276 7 1
276 15 1
276 37 1
276 71 1
276 196 1
276 272 1
276 315 1
277 51 1
277 66 1
277 94 1
277 153 1
277 188 1
277 270 1
277 317 1
277 411 1
277 515 1
277 665 1
277 668 1
277 706 1
277 748 1
277 763 1
278 4 1
278 32 1
278 52 1
278 133 1
278 142 1
278 187 1
278 338 1
278 350 1
278 487 1
278 499 1
279 1 1
279 5 1
279 67 1
279 68 1
279 155 1
279 171 1
279 471 1
279 613 1
279 692 1
280 4 1
280 26 1
280 73 1
280 114 1
280 125 1
280 604 1
280 626 1
281 14 1
281 25 1
281 56 1
281 158 1
281 176 1
281 269 1
281 295 1
281 444 1
281 608 1
281 625 1
281 671 1
281 673 1
281 694 1
282 15 1
282 71 1
282 75 1
282 104 1
282 187 1
282 227 1
282 292 1
282 545 1
283 15 1
283 27 1
283 53 1
283 79 1
283 104 1
283 192 1
283 322 1
284 46 1
284 58 1
284 94 1
284 136 1
284 218 1
284 222 1
284 348 1
284 352 1
284 661 1
285 43 1
285 53 1
285 94 1
285 104 1
285 148 1
285 149 1
285 375 1
286 5 1
286 46 1
286 47 1
286 95 1
286 229 1
286 434 1
286 485 1
286 667 1
286 679 1
286 748 1
287 14 1
287 41 1
287 81 1
287 86 1
287 119 1
287 138 1
287 395 1
287 501 1
288 1 1
288 23 1
288 25 1
288 237 1
288 256 1
288 275 1
288 299 1
288 327 1
288 351 1
288 724 1
289 5 1
289 37 1
289 46 1
289 146 1
289 204 1
289 225 1
289 386 1
289 495 1
289 610 1
290 66 1
290 94 1
290 97 1
290 153 1
290 188 1
290 245 1
290 293 1
290 358 1
290 435 1
290 458 1
290 474 1
290 503 1
290 649 1
290 691 1
290 702 1
291 39 1
291 51 1
291 58 1
291 160 1
291 162 1
291 195 1
291 342 1
291 458 1
291 535 1
292 96 1
292 187 1
292 198 1
292 227 1
292 252 1
292 282 1
292 316 1
292 374 1
292 443 1
292 522 1
292 545 1
292 578 1
292 653 1
292 770 1
293 50 1
293 52 1
293 92 1
293 94 1
293 97 1
293 290 1
293 435 1
293 458 1
293 649 1
294 5 1
294 12 1
294 21 1
294 107 1
294 258 1
294 275 1
294 339 1
294 361 1
294 432 1
294 471 1
295 30 1
295 69 1
295 83 1
295 158 1
295 269 1
295 281 1
295 436 1
295 444 1
295 454 1
295 589 1
295 673 1
295 699 1
295 716 1
296 26 1
296 94 1
296 220 1
296 222 1
296 225 1
296 255 1
296 307 1
296 347 1
296 362 1
296 371 1
296 372 1
296 388 1
296 506 1
296 547 1
296 565 1
296 600 1
296 662 1
296 723 1
297 36 1
297 44 1
297 74 1
297 103 1
297 120 1
297 249 1
297 470 1
297 577 1
297 624 1
297 658 1
297 728 1
298 20 1
298 32 1
298 115 1
298 135 1
298 150 1
298 216 1
298 353 1
298 367 1
298 544 1
298 583 1
298 713 1
298 744 1
299 6 1
299 23 1
299 35 1
299 186 1
299 256 1
299 288 1
299 351 1
299 724 1
300 10 1
300 27 1
300 46 1
300 88 1
300 185 1
300 240 1
300 520 1
300 701 1
301 3 1
301 5 1
301 16 1
301 29 1
301 64 1
301 204 1
301 435 1
301 641 1
302 9 1
302 18 1
302 40 1
302 185 1
302 214 1
302 254 1
302 424 1
302 455 1
302 530 1
302 789 1
303 16 1
303 74 1
303 82 1
303 105 1
303 191 1
303 238 1
303 310 1
303 342 1
303 413 1
303 491 1
303 498 1
303 548 1
303 556 1
303 563 1
303 738 1
303 751 1
304 1 1
304 3 1
304 20 1
304 38 1
304 69 1
304 247 1
304 545 1
305 25 1
305 31 1
305 37 1
305 98 1
305 116 1
305 151 1
306 11 1
306 13 1
306 16 1
306 138 1
306 223 1
306 239 1
306 334 1
306 511 1
306 627 1
306 707 1
307 6 1
307 129 1
307 152 1
307 222 1
307 225 1
307 296 1
307 509 1
307 616 1
307 687 1
308 1 1
308 3 1
308 4 1
308 15 1
308 17 1
308 154 1
308 355 1
308 361 1
308 363 1
308 451 1
308 631 1
308 791 1
309 7 1
309 19 1
309 28 1
309 52 1
309 78 1
309 224 1
309 420 1
309 423 1
309 479 1
309 595 1
310 2 1
310 4 1
310 9 1
310 191 1
310 238 1
310 303 1
310 342 1
310 350 1
310 413 1
310 685 1
310 738 1
310 753 1
311 8 1
311 21 1
311 23 1
311 26 1
311 50 1
311 187 1
311 573 1
312 32 1
312 39 1
312 51 1
312 71 1
312 97 1
312 188 1
312 359 1
312 602 1
312 690 1
312 784 1
313 3 1
313 5 1
313 32 1
313 59 1
313 126 1
313 136 1
313 333 1
313 615 1
314 3 1
314 16 1
314 26 1
314 62 1
314 115 1
314 205 1
314 643 1
314 768 1
315 7 1
315 15 1
315 73 1
315 204 1
315 247 1
315 276 1
315 581 1
315 754 1
316 67 1
316 160 1
316 175 1
316 187 1
316 227 1
316 292 1
316 355 1
316 378 1
316 443 1
317 10 1
317 153 1
317 165 1
317 208 1
317 270 1
317 277 1
317 345 1
317 417 1
317 515 1
317 617 1
317 665 1
317 763 1
318 7 1
318 37 1
318 42 1
318 48 1
318 61 1
318 70 1
318 446 1
318 607 1
319 4 1
319 28 1
319 63 1
319 135 1
319 169 1
319 233 1
319 421 1
319 505 1
319 589 1
320 12 1
320 68 1
320 81 1
320 86 1
320 128 1
320 146 1
321 6 1
321 28 1
321 29 1
321 133 1
321 142 1
321 253 1
321 323 1
321 390 1
321 499 1
321 510 1
321 639 1
322 7 1
322 27 1
322 129 1
322 192 1
322 251 1
322 283 1
322 549 1
322 740 1
323 14 1
323 29 1
323 102 1
323 144 1
323 253 1
323 321 1
323 390 1
323 499 1
323 510 1
323 639 1
323 646 1
323 668 1
323 681 1
323 695 1
324 1 1
324 9 1
324 170 1
324 178 1
324 200 1
324 214 1
324 343 1
324 410 1
324 468 1
324 586 1
324 683 1
324 706 1
325 16 1
325 20 1
325 25 1
325 108 1
325 160 1
325 175 1
326 7 1
326 78 1
326 106 1
326 141 1
326 154 1
326 236 1
326 365 1
326 433 1
327 104 1
327 110 1
327 193 1
327 237 1
327 275 1
327 288 1
327 338 1
327 487 1
327 548 1
327 667 1
328 3 1
328 43 1
328 56 1
328 148 1
328 183 1
328 248 1
328 364 1
328 504 1
328 644 1
328 791 1
329 14 1
329 57 1
329 66 1
329 129 1
329 194 1
329 251 1
329 466 1
329 477 1
329 506 1
329 527 1
330 9 1
330 59 1
330 60 1
330 80 1
330 208 1
330 273 1
330 336 1
330 514 1
330 547 1
330 594 1
330 621 1
330 677 1
330 743 1
331 1 1
331 14 1
331 59 1
331 112 1
331 128 1
331 133 1
331 399 1
331 476 1
331 649 1
331 674 1
331 676 1
331 777 1
331 794 1
332 7 1
332 29 1
332 36 1
332 80 1
332 106 1
332 169 1
332 539 1
332 561 1
332 600 1
333 3 1
333 25 1
333 28 1
333 52 1
333 126 1
333 313 1
334 44 1
334 55 1
334 138 1
334 140 1
334 223 1
334 306 1
335 59 1
335 67 1
335 91 1
335 160 1
335 218 1
335 226 1
336 51 1
336 60 1
336 99 1
336 198 1
336 273 1
336 330 1
336 743 1
337 7 1
337 19 1
337 34 1
337 52 1
337 142 1
337 224 1
338 32 1
338 104 1
338 187 1
338 193 1
338 278 1
338 327 1
338 487 1
338 628 1
339 44 1
339 47 1
339 74 1
339 107 1
339 258 1
339 294 1
339 471 1
340 4 1
340 26 1
340 44 1
340 134 1
340 203 1
340 235 1
340 370 1
340 404 1
340 442 1
340 532 1
340 773 1
341 22 1
341 26 1
341 44 1
341 51 1
341 159 1
341 255 1
341 793 1
342 58 1
342 191 1
342 195 1
342 291 1
342 303 1
342 310 1
342 738 1
343 9 1
343 16 1
343 59 1
343 68 1
343 178 1
343 324 1
343 393 1
343 396 1
343 450 1
343 519 1
343 586 1
343 706 1
343 712 1
344 5 1
344 8 1
344 10 1
344 13 1
344 62 1
344 210 1
344 413 1
345 25 1
345 96 1
345 110 1
345 165 1
345 208 1
345 317 1
345 415 1
345 417 1
345 512 1
345 566 1
345 719 1
345 782 1
345 796 1
346 18 1
346 121 1
346 176 1
346 185 1
346 212 1
346 269 1
346 512 1
346 644 1
347 9 1
347 94 1
347 97 1
347 214 1
347 222 1
347 296 1
347 371 1
347 403 1
348 58 1
348 200 1
348 209 1
348 222 1
348 269 1
348 284 1
348 352 1
348 661 1
348 697 1
348 780 1
349 1 1
349 4 1
349 21 1
349 60 1
349 270 1
349 273 1
349 351 1
349 738 1
350 4 1
350 9 1
350 52 1
350 142 1
350 278 1
350 310 1
350 543 1
350 590 1
350 685 1
351 23 1
351 270 1
351 273 1
351 288 1
351 299 1
351 349 1
352 30 1
352 65 1
352 67 1
352 222 1
352 284 1
352 348 1
352 643 1
352 770 1
352 780 1
353 1 1
353 38 1
353 115 1
353 202 1
353 216 1
353 298 1
353 367 1
353 500 1
353 544 1
353 594 1
354 4 1
354 19 1
354 22 1
354 32 1
354 140 1
354 709 1
354 795 1
355 3 1
355 17 1
355 187 1
355 227 1
355 308 1
355 316 1
355 361 1
356 14 1
356 16 1
356 56 1
356 146 1
356 204 1
356 416 1
356 474 1
356 519 1
356 651 1
356 689 1
356 737 1
356 793 1
357 7 1
357 157 1
357 158 1
357 233 1
357 379 1
357 398 1
357 517 1
357 684 1
358 14 1
358 39 1
358 94 1
358 119 1
358 188 1
358 290 1
358 385 1
358 397 1
358 423 1
358 474 1
358 568 1
358 570 1
358 577 1
358 624 1
358 686 1
359 8 1
359 51 1
359 70 1
359 99 1
359 188 1
359 312 1
359 368 1
359 421 1
359 452 1
359 490 1
359 559 1
359 690 1
360 5 1
360 48 1
360 91 1
360 102 1
360 105 1
360 203 1
361 3 1
361 5 1
361 12 1
361 294 1
361 308 1
361 355 1
361 631 1
362 26 1
362 73 1
362 80 1
362 206 1
362 255 1
362 296 1
362 495 1
362 506 1
362 554 1
363 1 1
363 12 1
363 15 1
363 17 1
363 34 1
363 308 1
363 424 1
363 450 1
363 463 1
363 632 1
363 647 1
364 36 1
364 51 1
364 56 1
364 97 1
364 148 1
364 328 1
364 461 1
364 504 1
364 613 1
364 644 1
364 765 1
365 4 1
365 48 1
365 78 1
365 143 1
365 236 1
365 326 1
365 379 1
365 596 1
365 741 1
366 11 1
366 13 1
366 59 1
366 101 1
366 138 1
366 241 1
366 571 1
366 599 1
366 750 1
367 5 1
367 115 1
367 136 1
367 229 1
367 298 1
367 353 1
367 544 1
367 583 1
367 744 1
368 1 1
368 8 1
368 70 1
368 168 1
368 236 1
368 359 1
368 421 1
368 447 1
368 452 1
368 631 1
369 11 1
369 164 1
369 243 1
369 260 1
369 261 1
369 272 1
369 441 1
369 696 1
370 16 1
370 26 1
370 44 1
370 68 1
370 111 1
370 340 1
370 477 1
370 582 1
371 66 1
371 94 1
371 222 1
371 264 1
371 296 1
371 347 1
371 531 1
371 547 1
371 600 1
371 641 1
371 749 1
371 797 1
372 94 1
372 122 1
372 154 1
372 199 1
372 225 1
372 296 1
372 662 1
373 3 1
373 16 1
373 19 1
373 20 1
373 42 1
373 58 1
373 402 1
374 25 1
374 96 1
374 104 1
374 110 1
374 198 1
374 292 1
374 440 1
374 558 1
374 653 1
374 757 1
375 3 1
375 8 1
375 94 1
375 149 1
375 285 1
375 496 1
376 14 1
376 16 1
376 39 1
376 71 1
376 89 1
376 263 1
376 696 1
377 1 1
377 2 1
377 23 1
377 48 1
377 170 1
377 193 1
377 433 1
377 444 1
377 501 1
377 638 1
378 21 1
378 22 1
378 67 1
378 160 1
378 231 1
378 316 1
378 386 1
378 414 1
378 543 1
378 675 1
379 4 1
379 143 1
379 157 1
379 262 1
379 357 1
379 365 1
379 596 1
379 741 1
379 751 1
380 21 1
380 22 1
380 36 1
380 50 1
380 167 1
380 264 1
380 673 1
380 730 1
381 20 1
381 28 1
381 50 1
381 51 1
381 94 1
381 195 1
381 452 1
381 473 1
381 479 1
381 597 1
381 620 1
381 747 1
381 756 1
381 767 1
382 1 1
382 23 1
382 25 1
382 31 1
382 171 1
382 234 1
382 401 1
382 422 1
382 533 1
383 67 1
383 74 1
383 89 1
383 231 1
383 246 1
383 249 1
383 551 1
384 12 1
384 13 1
384 18 1
384 59 1
384 197 1
384 209 1
384 459 1
384 662 1
384 703 1
384 718 1
384 727 1
384 742 1
385 1 1
385 4 1
385 9 1
385 14 1
385 39 1
385 358 1
385 490 1
385 568 1
385 686 1
385 709 1
386 21 1
386 146 1
386 204 1
386 231 1
386 289 1
386 378 1
387 102 1
387 114 1
387 126 1
387 135 1
387 149 1
387 213 1
387 549 1
388 59 1
388 108 1
388 128 1
388 220 1
388 255 1
388 296 1
388 389 1
388 723 1
389 4 1
389 30 1
389 45 1
389 59 1
389 108 1
389 388 1
389 432 1
389 660 1
389 732 1
390 29 1
390 118 1
390 217 1
390 248 1
390 321 1
390 323 1
390 639 1
390 646 1
390 727 1
390 740 1
390 782 1
391 73 1
391 115 1
391 122 1
391 135 1
391 154 1
391 650 1
392 1 1
392 10 1
392 16 1
392 35 1
392 41 1
392 231 1
392 406 1
392 532 1
392 611 1
392 618 1
392 627 1
392 665 1
392 691 1
393 3 1
393 4 1
393 16 1
393 17 1
393 68 1
393 343 1
393 429 1
394 5 1
394 7 1
394 10 1
394 15 1
394 35 1
394 66 1
394 454 1
394 484 1
394 513 1
395 18 1
395 33 1
395 81 1
395 86 1
395 98 1
395 287 1
396 8 1
396 59 1
396 68 1
396 187 1
396 227 1
396 343 1
396 418 1
396 485 1
396 648 1
396 692 1
397 5 1
397 39 1
397 50 1
397 76 1
397 119 1
397 358 1
397 423 1
397 624 1
397 760 1
398 3 1
398 19 1
398 157 1
398 158 1
398 174 1
398 357 1
398 407 1
398 684 1
398 737 1
399 74 1
399 82 1
399 128 1
399 133 1
399 238 1
399 331 1
399 772 1
399 794 1
400 1 1
400 3 1
400 20 1
400 54 1
400 155 1
400 159 1
400 478 1
400 743 1
401 1 1
401 4 1
401 93 1
401 234 1
401 259 1
401 382 1
401 680 1
402 1 1
402 42 1
402 58 1
402 127 1
402 168 1
402 373 1
403 94 1
403 136 1
403 218 1
403 222 1
403 226 1
403 347 1
403 405 1
403 428 1
403 615 1
403 654 1
404 18 1
404 26 1
404 63 1
404 203 1
404 254 1
404 340 1
404 566 1
404 719 1
405 14 1
405 94 1
405 126 1
405 144 1
405 222 1
405 403 1
405 428 1
405 592 1
405 659 1
405 714 1
406 4 1
406 10 1
406 29 1
406 35 1
406 134 1
406 392 1
406 618 1
406 627 1
407 3 1
407 53 1
407 143 1
407 174 1
407 181 1
407 398 1
407 408 1
408 53 1
408 58 1
408 113 1
408 179 1
408 181 1
408 407 1
408 575 1
408 597 1
409 11 1
409 16 1
409 18 1
409 60 1
409 106 1
409 169 1
409 683 1
410 1 1
410 37 1
410 42 1
410 178 1
410 182 1
410 324 1
410 468 1
410 628 1
410 655 1
410 670 1
411 4 1
411 62 1
411 94 1
411 115 1
411 188 1
411 277 1
411 706 1
411 748 1
411 775 1
412 9 1
412 15 1
412 40 1
412 88 1
412 198 1
412 244 1
412 651 1
413 5 1
413 10 1
413 238 1
413 303 1
413 310 1
413 344 1
414 67 1
414 80 1
414 117 1
414 160 1
414 165 1
414 378 1
415 19 1
415 62 1
415 82 1
415 96 1
415 110 1
415 345 1
415 425 1
415 469 1
415 566 1
415 584 1
415 719 1
415 731 1
416 12 1
416 21 1
416 56 1
416 142 1
416 194 1
416 356 1
416 474 1
416 737 1
417 8 1
417 11 1
417 208 1
417 260 1
417 317 1
417 345 1
417 512 1
417 782 1
418 4 1
418 8 1
418 49 1
418 155 1
418 187 1
418 396 1
418 788 1
419 3 1
419 9 1
419 13 1
419 77 1
419 100 1
419 208 1
419 427 1
419 489 1
419 531 1
420 7 1
420 14 1
420 19 1
420 131 1
420 143 1
420 309 1
420 430 1
420 595 1
420 693 1
420 700 1
420 756 1
421 8 1
421 28 1
421 63 1
421 319 1
421 359 1
421 368 1
421 490 1
421 589 1
422 12 1
422 16 1
422 23 1
422 31 1
422 275 1
422 382 1
422 478 1
422 602 1
422 619 1
422 666 1
422 726 1
422 741 1
422 758 1
423 7 1
423 39 1
423 78 1
423 309 1
423 358 1
423 397 1
423 479 1
423 624 1
423 760 1
424 1 1
424 12 1
424 18 1
424 40 1
424 302 1
424 363 1
424 455 1
425 3 1
425 11 1
425 19 1
425 82 1
425 101 1
425 415 1
425 469 1
425 521 1
425 731 1
425 795 1
426 7 1
426 19 1
426 29 1
426 109 1
426 134 1
426 177 1
426 654 1
427 3 1
427 4 1
427 13 1
427 69 1
427 188 1
427 419 1
427 445 1
427 457 1
427 489 1
427 494 1
427 514 1
428 40 1
428 80 1
428 94 1
428 114 1
428 403 1
428 405 1
429 5 1
429 16 1
429 166 1
429 167 1
429 393 1
429 584 1
430 14 1
430 51 1
430 58 1
430 131 1
430 191 1
430 420 1
430 540 1
430 778 1
431 7 1
431 9 1
431 63 1
431 84 1
431 154 1
431 189 1
431 440 1
431 614 1
431 682 1
432 4 1
432 21 1
432 45 1
432 258 1
432 294 1
432 389 1
432 660 1
432 661 1
433 48 1
433 78 1
433 141 1
433 193 1
433 326 1
433 377 1
433 483 1
433 501 1
433 625 1
434 5 1
434 46 1
434 209 1
434 262 1
434 286 1
434 492 1
434 637 1
434 667 1
434 679 1
434 748 1
435 3 1
435 29 1
435 94 1
435 290 1
435 293 1
435 301 1
435 641 1
435 691 1
436 37 1
436 59 1
436 269 1
436 272 1
436 295 1
436 454 1
436 505 1
436 711 1
436 716 1
436 746 1
437 14 1
437 19 1
437 60 1
437 78 1
437 132 1
437 152 1
437 524 1
438 7 1
438 19 1
438 37 1
438 51 1
438 159 1
438 177 1
438 710 1
439 4 1
439 26 1
439 35 1
439 47 1
439 177 1
439 466 1
440 7 1
440 25 1
440 110 1
440 154 1
440 374 1
440 431 1
440 614 1
441 11 1
441 18 1
441 59 1
441 60 1
441 260 1
441 369 1
441 605 1
441 637 1
441 696 1
442 4 1
442 10 1
442 63 1
442 134 1
442 189 1
442 340 1
442 448 1
442 491 1
442 656 1
442 715 1
443 6 1
443 47 1
443 77 1
443 227 1
443 292 1
443 316 1
443 688 1
444 1 1
444 2 1
444 269 1
444 281 1
444 295 1
444 377 1
444 638 1
444 671 1
445 3 1
445 8 1
445 13 1
445 115 1
445 205 1
445 427 1
445 457 1
445 494 1
445 514 1
445 587 1
445 591 1
445 785 1
446 37 1
446 42 1
446 68 1
446 111 1
446 318 1
446 759 1
447 3 1
447 8 1
447 18 1
447 70 1
447 185 1
447 368 1
447 631 1
447 708 1
448 63 1
448 116 1
448 132 1
448 189 1
448 228 1
448 442 1
448 498 1
448 525 1
448 593 1
449 6 1
449 25 1
449 103 1
449 115 1
449 149 1
449 216 1
449 481 1
449 745 1
450 12 1
450 16 1
450 34 1
450 59 1
450 343 1
450 363 1
450 463 1
450 632 1
450 712 1
451 3 1
451 15 1
451 22 1
451 231 1
451 249 1
451 308 1
452 70 1
452 94 1
452 195 1
452 359 1
452 368 1
452 381 1
452 473 1
452 559 1
452 747 1
452 767 1
453 7 1
453 12 1
453 23 1
453 31 1
453 64 1
453 207 1
453 599 1
454 10 1
454 15 1
454 269 1
454 295 1
454 394 1
454 436 1
454 455 1
454 513 1
454 522 1
454 716 1
455 10 1
455 15 1
455 40 1
455 302 1
455 424 1
455 454 1
456 4 1
456 12 1
456 24 1
456 109 1
456 155 1
456 197 1
456 525 1
457 13 1
457 30 1
457 69 1
457 188 1
457 427 1
457 445 1
458 39 1
458 97 1
458 162 1
458 290 1
458 291 1
458 293 1
458 623 1
458 649 1
458 702 1
458 789 1
459 165 1
459 197 1
459 208 1
459 209 1
459 230 1
459 384 1
459 662 1
459 742 1
460 4 1
460 6 1
460 68 1
460 91 1
460 105 1
460 186 1
460 652 1
460 712 1
461 36 1
461 40 1
461 77 1
461 97 1
461 117 1
461 364 1
461 765 1
462 6 1
462 43 1
462 44 1
462 172 1
462 178 1
462 564 1
463 7 1
463 12 1
463 49 1
463 194 1
463 363 1
463 450 1
463 632 1
463 636 1
464 3 1
464 6 1
464 10 1
464 30 1
464 63 1
464 184 1
464 526 1
464 771 1
465 41 1
465 43 1
465 80 1
465 122 1
465 174 1
465 212 1
465 527 1
465 590 1
466 4 1
466 66 1
466 177 1
466 194 1
466 329 1
466 439 1
467 14 1
467 16 1
467 43 1
467 116 1
467 141 1
467 257 1
467 534 1
467 586 1
467 705 1
468 1 1
468 101 1
468 178 1
468 217 1
468 324 1
468 410 1
468 628 1
468 728 1
468 769 1
469 19 1
469 25 1
469 43 1
469 56 1
469 415 1
469 425 1
469 700 1
470 3 1
470 44 1
470 69 1
470 74 1
470 126 1
470 297 1
470 515 1
470 562 1
471 1 1
471 107 1
471 155 1
471 279 1
471 294 1
471 339 1
472 30 1
472 39 1
472 49 1
472 67 1
472 75 1
472 192 1
472 596 1
472 713 1
472 798 1
473 20 1
473 28 1
473 94 1
473 195 1
473 381 1
473 452 1
473 493 1
473 502 1
474 188 1
474 194 1
474 290 1
474 356 1
474 358 1
474 416 1
474 570 1
474 577 1
474 651 1
475 18 1
475 49 1
475 94 1
475 195 1
475 238 1
475 271 1
475 526 1
475 629 1
475 640 1
476 1 1
476 14 1
476 59 1
476 133 1
476 202 1
476 331 1
476 676 1
476 764 1
477 14 1
477 16 1
477 66 1
477 111 1
477 329 1
477 370 1
477 488 1
477 648 1
478 23 1
478 31 1
478 155 1
478 159 1
478 400 1
478 422 1
478 541 1
478 602 1
478 666 1
478 726 1
478 743 1
478 783 1
479 20 1
479 50 1
479 78 1
479 309 1
479 381 1
479 423 1
479 597 1
479 620 1
479 704 1
479 756 1
480 28 1
480 53 1
480 116 1
480 131 1
480 181 1
480 755 1
481 30 1
481 49 1
481 149 1
481 216 1
481 271 1
481 449 1
481 546 1
481 569 1
482 3 1
482 7 1
482 38 1
482 53 1
482 54 1
482 202 1
483 2 1
483 4 1
483 23 1
483 48 1
483 193 1
483 433 1
484 7 1
484 15 1
484 35 1
484 73 1
484 115 1
484 394 1
484 573 1
485 5 1
485 47 1
485 187 1
485 227 1
485 286 1
485 396 1
485 648 1
486 3 1
486 12 1
486 101 1
486 109 1
486 251 1
486 271 1
486 733 1
487 104 1
487 187 1
487 278 1
487 327 1
487 338 1
488 16 1
488 76 1
488 106 1
488 111 1
488 113 1
488 477 1
488 567 1
488 648 1
488 655 1
489 6 1
489 13 1
489 30 1
489 65 1
489 419 1
489 427 1
489 761 1
490 4 1
490 8 1
490 9 1
490 359 1
490 385 1
490 421 1
491 4 1
491 82 1
491 134 1
491 238 1
491 303 1
491 442 1
491 498 1
491 556 1
491 563 1
491 656 1
491 751 1
492 4 1
492 5 1
492 209 1
492 231 1
492 246 1
492 434 1
492 536 1
493 4 1
493 18 1
493 69 1
493 94 1
493 195 1
493 473 1
493 502 1
494 3 1
494 20 1
494 131 1
494 180 1
494 427 1
494 445 1
494 514 1
494 555 1
494 587 1
495 5 1
495 26 1
495 204 1
495 255 1
495 289 1
495 362 1
495 610 1
496 5 1
496 8 1
496 152 1
496 158 1
496 262 1
496 375 1
496 646 1
497 9 1
497 18 1
497 20 1
497 98 1
497 130 1
497 158 1
497 511 1
497 554 1
497 593 1
497 638 1
497 762 1
498 116 1
498 132 1
498 238 1
498 303 1
498 448 1
498 491 1
498 525 1
498 675 1
498 751 1
499 133 1
499 142 1
499 253 1
499 278 1
499 321 1
499 323 1
499 510 1
500 35 1
500 38 1
500 93 1
500 202 1
500 207 1
500 353 1
501 14 1
501 41 1
501 193 1
501 287 1
501 377 1
501 433 1
502 25 1
502 32 1
502 95 1
502 195 1
502 473 1
502 493 1
502 603 1
503 36 1
503 66 1
503 153 1
503 200 1
503 246 1
503 290 1
503 725 1
504 49 1
504 52 1
504 148 1
504 223 1
504 328 1
504 364 1
504 621 1
504 644 1
505 4 1
505 158 1
505 233 1
505 269 1
505 319 1
505 436 1
505 538 1
505 695 1
506 26 1
506 129 1
506 251 1
506 296 1
506 329 1
506 362 1
506 554 1
506 565 1
507 19 1
507 30 1
507 34 1
507 41 1
507 90 1
507 93 1
507 598 1
508 34 1
508 46 1
508 124 1
508 181 1
508 212 1
508 232 1
508 540 1
508 585 1
508 718 1
509 4 1
509 6 1
509 70 1
509 85 1
509 152 1
509 307 1
509 745 1
510 4 1
510 6 1
510 168 1
510 321 1
510 323 1
510 499 1
511 9 1
511 13 1
511 16 1
511 18 1
511 306 1
511 497 1
511 627 1
511 707 1
512 121 1
512 208 1
512 212 1
512 345 1
512 346 1
512 417 1
512 666 1
512 672 1
512 782 1
512 796 1
513 15 1
513 47 1
513 162 1
513 265 1
513 394 1
513 454 1
513 522 1
514 9 1
514 80 1
514 330 1
514 427 1
514 445 1
514 494 1
514 547 1
514 587 1
514 591 1
514 621 1
514 753 1
515 69 1
515 126 1
515 270 1
515 277 1
515 317 1
515 470 1
515 562 1
515 640 1
515 763 1
516 8 1
516 42 1
516 139 1
516 205 1
516 210 1
516 260 1
516 539 1
517 6 1
517 48 1
517 157 1
517 233 1
517 237 1
517 357 1
518 3 1
518 4 1
518 5 1
518 22 1
518 58 1
518 103 1
518 574 1
518 587 1
518 680 1
519 9 1
519 16 1
519 146 1
519 178 1
519 343 1
519 356 1
520 27 1
520 74 1
520 107 1
520 191 1
520 240 1
520 300 1
520 557 1
520 583 1
521 3 1
521 73 1
521 80 1
521 101 1
521 125 1
521 425 1
521 795 1
522 15 1
522 96 1
522 252 1
522 292 1
522 454 1
522 513 1
522 770 1
523 139 1
523 147 1
523 170 1
523 213 1
523 241 1
523 260 1
523 630 1
523 650 1
524 25 1
524 39 1
524 41 1
524 78 1
524 152 1
524 437 1
524 636 1
525 109 1
525 132 1
525 197 1
525 448 1
525 456 1
525 498 1
526 3 1
526 18 1
526 30 1
526 271 1
526 464 1
526 475 1
526 640 1
526 694 1
527 43 1
527 57 1
527 129 1
527 174 1
527 329 1
527 465 1
527 619 1
528 7 1
528 14 1
528 46 1
528 204 1
528 253 1
528 565 1
528 630 1
528 800 1
529 4 1
529 20 1
529 79 1
529 158 1
529 176 1
529 182 1
529 576 1
530 9 1
530 12 1
530 23 1
530 46 1
530 254 1
530 302 1
530 714 1
531 13 1
531 66 1
531 94 1
531 100 1
531 371 1
531 419 1
532 16 1
532 41 1
532 44 1
532 203 1
532 340 1
532 392 1
532 611 1
532 665 1
532 704 1
532 773 1
532 792 1
533 1 1
533 16 1
533 171 1
533 255 1
533 263 1
533 382 1
534 12 1
534 14 1
534 25 1
534 151 1
534 257 1
534 467 1
535 39 1
535 60 1
535 108 1
535 145 1
535 160 1
535 291 1
535 677 1
535 682 1
536 4 1
536 170 1
536 193 1
536 231 1
536 246 1
536 492 1
536 537 1
537 4 1
537 5 1
537 7 1
537 16 1
537 193 1
537 536 1
537 588 1
538 1 1
538 21 1
538 97 1
538 158 1
538 269 1
538 505 1
538 581 1
538 695 1
538 721 1
538 764 1
539 8 1
539 36 1
539 80 1
539 210 1
539 332 1
539 516 1
540 46 1
540 51 1
540 191 1
540 232 1
540 430 1
540 508 1
540 585 1
540 778 1
541 23 1
541 31 1
541 95 1
541 116 1
541 151 1
541 478 1
542 7 1
542 24 1
542 66 1
542 95 1
542 116 1
542 124 1
542 572 1
542 681 1
543 4 1
543 9 1
543 22 1
543 231 1
543 350 1
543 378 1
543 556 1
543 590 1
543 760 1
543 771 1
544 43 1
544 66 1
544 270 1
544 298 1
544 353 1
544 367 1
544 744 1
545 3 1
545 69 1
545 187 1
545 282 1
545 292 1
545 304 1
546 25 1
546 129 1
546 149 1
546 216 1
546 268 1
546 481 1
547 9 1
547 222 1
547 296 1
547 330 1
547 371 1
547 514 1
547 600 1
547 641 1
547 753 1
548 16 1
548 74 1
548 104 1
548 110 1
548 303 1
548 327 1
549 102 1
549 126 1
549 129 1
549 251 1
549 322 1
549 387 1
549 603 1
549 740 1
550 6 1
550 39 1
550 49 1
550 192 1
550 265 1
550 267 1
551 51 1
551 87 1
551 88 1
551 231 1
551 249 1
551 383 1
551 598 1
551 633 1
551 703 1
552 19 1
552 32 1
552 78 1
552 104 1
552 140 1
553 16 1
553 18 1
553 41 1
553 82 1
553 107 1
553 191 1
553 702 1
553 721 1
553 781 1
554 20 1
554 26 1
554 158 1
554 362 1
554 497 1
554 506 1
554 638 1
555 6 1
555 29 1
555 77 1
555 131 1
555 180 1
555 494 1
556 4 1
556 9 1
556 82 1
556 303 1
556 491 1
556 543 1
556 563 1
556 760 1
556 773 1
557 7 1
557 44 1
557 74 1
557 191 1
557 211 1
557 520 1
557 574 1
557 583 1
557 688 1
557 776 1
558 26 1
558 96 1
558 120 1
558 198 1
558 220 1
558 374 1
558 757 1
559 1 1
559 3 1
559 70 1
559 217 1
559 359 1
559 452 1
559 567 1
559 608 1
560 5 1
560 12 1
560 37 1
560 60 1
560 132 1
560 139 1
560 591 1
560 595 1
561 29 1
561 49 1
561 118 1
561 223 1
561 332 1
561 600 1
561 616 1
562 9 1
562 22 1
562 36 1
562 126 1
562 470 1
562 515 1
562 640 1
563 2 1
563 32 1
563 69 1
563 303 1
563 491 1
563 556 1
563 766 1
564 6 1
564 28 1
564 36 1
564 48 1
564 229 1
564 462 1
565 7 1
565 14 1
565 26 1
565 296 1
565 506 1
565 528 1
566 18 1
566 63 1
566 110 1
566 345 1
566 404 1
566 415 1
566 664 1
566 719 1
567 3 1
567 76 1
567 106 1
567 217 1
567 488 1
567 559 1
567 608 1
568 14 1
568 23 1
568 50 1
568 167 1
568 358 1
568 385 1
568 709 1
569 49 1
569 84 1
569 156 1
569 220 1
569 271 1
569 481 1
569 705 1
570 22 1
570 118 1
570 188 1
570 217 1
570 358 1
570 474 1
570 577 1
571 13 1
571 25 1
571 59 1
571 104 1
571 127 1
571 366 1
571 599 1
571 612 1
571 799 1
572 7 1
572 24 1
572 78 1
572 125 1
572 206 1
572 542 1
572 642 1
572 787 1
573 7 1
573 8 1
573 26 1
573 115 1
573 311 1
573 484 1
574 4 1
574 5 1
574 7 1
574 211 1
574 518 1
574 557 1
574 587 1
575 7 1
575 46 1
575 58 1
575 179 1
575 408 1
576 48 1
576 125 1
576 158 1
576 176 1
576 237 1
576 529 1
577 74 1
577 120 1
577 297 1
577 358 1
577 474 1
577 570 1
577 728 1
578 4 1
578 8 1
578 115 1
578 252 1
578 292 1
579 1 1
579 24 1
579 31 1
579 123 1
579 208 1
579 268 1
580 1 1
580 12 1
580 68 1
580 200 1
580 261 1
580 272 1
580 626 1
580 720 1
580 734 1
581 7 1
581 15 1
581 21 1
581 97 1
581 315 1
581 538 1
582 16 1
582 33 1
582 68 1
582 98 1
582 219 1
582 370 1
582 693 1
582 726 1
583 74 1
583 115 1
583 298 1
583 367 1
583 520 1
583 557 1
584 5 1
584 62 1
584 82 1
584 166 1
584 415 1
584 429 1
585 40 1
585 185 1
585 189 1
585 232 1
585 508 1
585 540 1
586 16 1
586 116 1
586 178 1
586 324 1
586 343 1
586 467 1
586 706 1
587 5 1
587 445 1
587 494 1
587 514 1
587 518 1
587 574 1
587 591 1
587 785 1
588 4 1
588 52 1
588 137 1
588 163 1
588 193 1
588 537 1
589 28 1
589 30 1
589 69 1
589 295 1
589 319 1
589 421 1
589 699 1
590 9 1
590 41 1
590 43 1
590 350 1
590 465 1
590 543 1
591 5 1
591 60 1
591 445 1
591 514 1
591 560 1
591 587 1
591 750 1
591 785 1
592 78 1
592 94 1
592 222 1
592 228 1
592 236 1
592 405 1
593 9 1
593 98 1
593 132 1
593 228 1
593 448 1
593 497 1
593 800 1
594 80 1
594 115 1
594 216 1
594 330 1
594 353 1
594 621 1
595 19 1
595 60 1
595 132 1
595 309 1
595 420 1
595 560 1
596 30 1
596 67 1
596 143 1
596 365 1
596 379 1
596 472 1
596 741 1
596 798 1
597 50 1
597 58 1
597 113 1
597 381 1
597 408 1
597 479 1
598 19 1
598 34 1
598 231 1
598 249 1
598 507 1
598 551 1
598 639 1
599 7 1
599 12 1
599 13 1
599 366 1
599 453 1
599 571 1
599 645 1
599 708 1
600 29 1
600 296 1
600 332 1
600 371 1
600 547 1
600 561 1
600 641 1
600 797 1
601 3 1
601 10 1
601 13 1
601 14 1
601 32 1
601 150 1
602 23 1
602 32 1
602 39 1
602 312 1
602 422 1
602 478 1
602 666 1
602 784 1
603 32 1
603 129 1
603 251 1
603 502 1
603 549 1
603 678 1
604 26 1
604 81 1
604 229 1
604 257 1
604 280 1
604 626 1
604 724 1
605 1 1
605 7 1
605 18 1
605 34 1
605 60 1
605 441 1
605 637 1
605 731 1
606 7 1
606 10 1
606 27 1
606 33 1
606 182 1
606 192 1
606 787 1
606 790 1
607 5 1
607 25 1
607 42 1
607 61 1
607 151 1
607 318 1
608 14 1
608 56 1
608 217 1
608 281 1
608 559 1
608 567 1
608 664 1
608 736 1
608 744 1
609 3 1
609 12 1
609 45 1
609 100 1
609 200 1
609 209 1
609 632 1
610 4 1
610 5 1
610 22 1
610 246 1
610 289 1
610 495 1
610 720 1
611 16 1
611 26 1
611 107 1
611 274 1
611 392 1
611 532 1
611 704 1
612 4 1
612 5 1
612 24 1
612 104 1
612 127 1
612 571 1
613 56 1
613 68 1
613 171 1
613 279 1
613 364 1
613 623 1
614 102 1
614 126 1
614 154 1
614 258 1
614 431 1
614 440 1
615 32 1
615 126 1
615 218 1
615 226 1
615 313 1
615 403 1
616 6 1
616 49 1
616 223 1
616 307 1
616 561 1
617 10 1
617 49 1
617 65 1
617 67 1
617 165 1
617 317 1
618 10 1
618 114 1
618 115 1
618 149 1
618 392 1
618 406 1
619 16 1
619 57 1
619 129 1
619 275 1
619 422 1
619 527 1
619 741 1
620 7 1
620 20 1
620 202 1
620 224 1
620 381 1
620 479 1
620 704 1
620 756 1
621 49 1
621 223 1
621 330 1
621 504 1
621 514 1
621 594 1
621 677 1
622 5 1
622 9 1
622 12 1
622 21 1
622 38 1
622 230 1
622 707 1
623 39 1
623 68 1
623 162 1
623 171 1
623 458 1
623 613 1
624 36 1
624 249 1
624 297 1
624 358 1
624 397 1
624 423 1
625 78 1
625 141 1
625 176 1
625 269 1
625 281 1
625 433 1
625 694 1
626 68 1
626 81 1
626 272 1
626 280 1
626 580 1
626 604 1
626 720 1
626 734 1
627 13 1
627 35 1
627 306 1
627 392 1
627 406 1
627 511 1
627 691 1
627 707 1
628 32 1
628 178 1
628 187 1
628 338 1
628 410 1
628 468 1
629 74 1
629 107 1
629 195 1
629 238 1
629 274 1
629 475 1
630 204 1
630 213 1
630 253 1
630 260 1
630 523 1
630 528 1
631 3 1
631 8 1
631 308 1
631 361 1
631 368 1
631 447 1
632 45 1
632 100 1
632 363 1
632 450 1
632 463 1
632 609 1
633 51 1
633 87 1
633 129 1
633 157 1
633 158 1
633 551 1
633 799 1
634 5 1
634 30 1
634 82 1
634 88 1
634 121 1
634 221 1
635 3 1
635 58 1
635 147 1
635 170 1
635 198 1
635 252 1
636 25 1
636 41 1
636 49 1
636 194 1
636 463 1
636 524 1
636 772 1
637 5 1
637 46 1
637 60 1
637 434 1
637 441 1
637 605 1
637 716 1
638 2 1
638 158 1
638 377 1
638 444 1
638 497 1
638 554 1
638 762 1
639 231 1
639 249 1
639 321 1
639 323 1
639 390 1
639 598 1
639 646 1
640 126 1
640 271 1
640 475 1
640 515 1
640 526 1
640 562 1
641 29 1
641 301 1
641 371 1
641 435 1
641 547 1
641 600 1
641 797 1
642 78 1
642 91 1
642 120 1
642 201 1
642 206 1
642 572 1
642 717 1
642 787 1
643 3 1
643 16 1
643 30 1
643 67 1
643 314 1
643 352 1
643 770 1
644 18 1
644 176 1
644 328 1
644 346 1
644 364 1
644 504 1
645 3 1
645 7 1
645 12 1
645 14 1
645 183 1
645 599 1
645 708 1
646 152 1
646 158 1
646 323 1
646 390 1
646 496 1
646 639 1
647 1 1
647 34 1
647 36 1
647 170 1
647 246 1
647 363 1
647 660 1
647 685 1
648 16 1
648 187 1
648 396 1
648 477 1
648 485 1
648 488 1
649 14 1
649 112 1
649 290 1
649 293 1
649 331 1
649 458 1
649 674 1
649 777 1
650 73 1
650 115 1
650 170 1
650 241 1
650 391 1
650 523 1
651 194 1
651 198 1
651 244 1
651 356 1
651 412 1
651 474 1
652 6 1
652 25 1
652 96 1
652 160 1
652 186 1
652 460 1
653 26 1
653 75 1
653 96 1
653 187 1
653 292 1
653 374 1
654 29 1
654 109 1
654 136 1
654 218 1
654 403 1
654 426 1
654 786 1
655 37 1
655 76 1
655 113 1
655 182 1
655 410 1
655 488 1
656 11 1
656 76 1
656 113 1
656 134 1
656 442 1
656 491 1
657 55 1
657 99 1
657 157 1
657 166 1
657 167 1
657 679 1
657 739 1
658 8 1
658 44 1
658 103 1
658 249 1
658 259 1
658 297 1
659 9 1
659 61 1
659 92 1
659 126 1
659 144 1
659 405 1
659 714 1
659 775 1
660 36 1
660 45 1
660 170 1
660 389 1
660 432 1
660 647 1
660 732 1
661 4 1
661 45 1
661 58 1
661 284 1
661 348 1
661 432 1
661 767 1
662 209 1
662 225 1
662 296 1
662 372 1
662 384 1
662 459 1
662 742 1
663 4 1
663 16 1
663 45 1
663 120 1
663 255 1
663 767 1
664 14 1
664 18 1
664 56 1
664 63 1
664 566 1
664 608 1
664 736 1
664 744 1
665 41 1
665 153 1
665 277 1
665 317 1
665 392 1
665 532 1
666 121 1
666 212 1
666 422 1
666 478 1
666 512 1
666 602 1
666 672 1
666 676 1
667 5 1
667 275 1
667 286 1
667 327 1
667 434 1
667 679 1
668 51 1
668 94 1
668 102 1
668 144 1
668 277 1
668 323 1
668 681 1
668 695 1
668 781 1
669 14 1
669 20 1
669 88 1
669 113 1
669 150 1
669 179 1
670 1 1
670 3 1
670 8 1
670 101 1
670 178 1
670 410 1
670 742 1
671 13 1
671 89 1
671 145 1
671 269 1
671 281 1
671 444 1
672 9 1
672 11 1
672 121 1
672 190 1
672 512 1
672 666 1
673 22 1
673 36 1
673 158 1
673 281 1
673 295 1
673 380 1
673 730 1
674 9 1
674 11 1
674 61 1
674 112 1
674 331 1
674 649 1
674 777 1
675 21 1
675 22 1
675 116 1
675 132 1
675 378 1
675 498 1
676 121 1
676 133 1
676 212 1
676 331 1
676 476 1
676 666 1
677 60 1
677 145 1
677 330 1
677 535 1
677 621 1
677 682 1
678 40 1
678 114 1
678 129 1
678 251 1
678 603 1
679 7 1
679 99 1
679 286 1
679 434 1
679 657 1
679 667 1
680 3 1
680 4 1
680 5 1
680 259 1
680 401 1
680 518 1
681 24 1
681 66 1
681 144 1
681 323 1
681 542 1
681 668 1
681 695 1
682 9 1
682 63 1
682 145 1
682 431 1
682 535 1
682 677 1
682 690 1
683 11 1
683 106 1
683 170 1
683 214 1
683 324 1
683 409 1
684 109 1
684 119 1
684 157 1
684 163 1
684 357 1
684 398 1
685 1 1
685 4 1
685 34 1
685 310 1
685 350 1
685 647 1
685 753 1
686 4 1
686 19 1
686 39 1
686 174 1
686 358 1
686 385 1
687 58 1
687 103 1
687 110 1
687 129 1
687 152 1
687 307 1
688 6 1
688 47 1
688 74 1
688 191 1
688 443 1
688 557 1
689 55 1
689 68 1
689 146 1
689 166 1
689 204 1
689 356 1
690 63 1
690 188 1
690 312 1
690 359 1
690 682 1
691 35 1
691 94 1
691 290 1
691 392 1
691 435 1
691 627 1
692 8 1
692 67 1
692 68 1
692 227 1
692 279 1
692 396 1
692 796 1
693 7 1
693 19 1
693 98 1
693 219 1
693 420 1
693 582 1
693 700 1
693 726 1
693 756 1
694 18 1
694 176 1
694 271 1
694 281 1
694 526 1
694 625 1
695 158 1
695 323 1
695 505 1
695 538 1
695 668 1
695 681 1
695 721 1
695 764 1
696 16 1
696 89 1
696 260 1
696 369 1
696 376 1
696 441 1
697 4 1
697 170 1
697 209 1
697 214 1
697 269 1
697 348 1
698 11 1
698 58 1
698 106 1
698 113 1
698 195 1
698 238 1
698 776 1
699 30 1
699 120 1
699 137 1
699 201 1
699 295 1
699 589 1
700 19 1
700 25 1
700 56 1
700 420 1
700 469 1
700 693 1
701 5 1
701 46 1
701 88 1
701 109 1
701 119 1
701 300 1
701 792 1
702 97 1
702 107 1
702 191 1
702 290 1
702 458 1
702 553 1
702 721 1
703 12 1
703 87 1
703 88 1
703 209 1
703 384 1
703 551 1
704 16 1
704 20 1
704 479 1
704 532 1
704 611 1
704 620 1
705 43 1
705 156 1
705 220 1
705 257 1
705 467 1
705 569 1
706 94 1
706 277 1
706 324 1
706 343 1
706 411 1
706 586 1
707 9 1
707 230 1
707 306 1
707 511 1
707 622 1
707 627 1
707 769 1
708 7 1
708 18 1
708 185 1
708 447 1
708 599 1
708 645 1
709 4 1
709 14 1
709 19 1
709 354 1
709 385 1
709 568 1
709 795 1
710 2 1
710 51 1
710 159 1
710 161 1
710 438 1
711 1 1
711 2 1
711 11 1
711 59 1
711 272 1
711 436 1
711 746 1
712 59 1
712 91 1
712 105 1
712 343 1
712 450 1
712 460 1
713 20 1
713 39 1
713 150 1
713 192 1
713 298 1
713 472 1
713 735 1
714 23 1
714 46 1
714 144 1
714 405 1
714 530 1
714 659 1
715 10 1
715 106 1
715 156 1
715 189 1
715 220 1
715 442 1
715 755 1
716 5 1
716 46 1
716 295 1
716 436 1
716 454 1
716 637 1
717 3 1
717 4 1
717 32 1
717 78 1
717 206 1
717 642 1
718 12 1
718 34 1
718 181 1
718 197 1
718 384 1
718 508 1
719 18 1
719 254 1
719 345 1
719 404 1
719 415 1
719 566 1
719 723 1
720 4 1
720 68 1
720 246 1
720 580 1
720 610 1
720 626 1
720 734 1
721 158 1
721 191 1
721 538 1
721 553 1
721 695 1
721 702 1
721 764 1
721 781 1
722 3 1
722 4 1
722 7 1
722 37 1
722 174 1
722 177 1
723 18 1
723 254 1
723 255 1
723 296 1
723 388 1
723 719 1
724 73 1
724 256 1
724 257 1
724 288 1
724 299 1
724 604 1
725 66 1
725 68 1
725 153 1
725 164 1
725 272 1
725 503 1
726 31 1
726 98 1
726 422 1
726 478 1
726 582 1
726 693 1
726 783 1
727 13 1
727 59 1
727 248 1
727 384 1
727 390 1
727 782 1
728 1 1
728 74 1
728 101 1
728 297 1
728 468 1
728 577 1
728 769 1
729 9 1
729 12 1
729 31 1
729 77 1
729 178 1
729 205 1
730 22 1
730 51 1
730 87 1
730 172 1
730 380 1
730 673 1
730 749 1
731 1 1
731 7 1
731 82 1
731 415 1
731 425 1
731 605 1
732 24 1
732 45 1
732 155 1
732 166 1
732 389 1
732 660 1
733 3 1
733 6 1
733 9 1
733 63 1
733 271 1
733 486 1
734 4 1
734 27 1
734 122 1
734 580 1
734 626 1
734 720 1
735 30 1
735 39 1
735 78 1
735 141 1
735 192 1
735 713 1
736 14 1
736 37 1
736 64 1
736 98 1
736 608 1
736 664 1
736 744 1
737 3 1
737 56 1
737 356 1
737 398 1
737 416 1
738 60 1
738 270 1
738 303 1
738 310 1
738 342 1
738 349 1
739 1 1
739 35 1
739 55 1
739 166 1
739 250 1
739 657 1
740 118 1
740 217 1
740 251 1
740 322 1
740 390 1
740 549 1
741 16 1
741 365 1
741 379 1
741 422 1
741 596 1
741 619 1
741 758 1
742 3 1
742 101 1
742 384 1
742 459 1
742 662 1
742 670 1
743 159 1
743 273 1
743 330 1
743 336 1
743 400 1
743 478 1
744 298 1
744 367 1
744 544 1
744 608 1
744 664 1
744 736 1
745 4 1
745 25 1
745 85 1
745 103 1
745 449 1
745 509 1
746 18 1
746 130 1
746 254 1
746 272 1
746 436 1
746 711 1
747 6 1
747 49 1
747 65 1
747 195 1
747 381 1
747 452 1
747 767 1
748 46 1
748 188 1
748 277 1
748 286 1
748 411 1
748 434 1
749 51 1
749 87 1
749 94 1
749 264 1
749 371 1
749 730 1
750 5 1
750 59 1
750 60 1
750 241 1
750 366 1
750 591 1
750 797 1
751 4 1
751 143 1
751 303 1
751 379 1
751 491 1
751 498 1
752 7 1
752 36 1
752 51 1
752 70 1
752 99 1
752 198 1
753 4 1
753 9 1
753 310 1
753 514 1
753 547 1
753 685 1
754 1 1
754 5 1
754 8 1
754 73 1
754 247 1
754 315 1
755 10 1
755 116 1
755 189 1
755 228 1
755 480 1
755 715 1
756 7 1
756 381 1
756 420 1
756 479 1
756 620 1
756 693 1
757 6 1
757 20 1
757 28 1
757 198 1
757 374 1
757 558 1
758 16 1
758 42 1
758 182 1
758 213 1
758 422 1
758 741 1
758 784 1
759 9 1
759 68 1
759 72 1
759 111 1
759 252 1
759 446 1
760 9 1
760 39 1
760 397 1
760 423 1
760 543 1
760 556 1
760 771 1
761 6 1
761 30 1
761 123 1
761 153 1
761 165 1
761 489 1
762 18 1
762 49 1
762 158 1
762 265 1
762 497 1
762 638 1
762 765 1
763 2 1
763 4 1
763 187 1
763 277 1
763 317 1
763 515 1
764 14 1
764 202 1
764 476 1
764 538 1
764 695 1
764 721 1
765 18 1
765 97 1
765 265 1
765 364 1
765 461 1
765 762 1
766 1 1
766 2 1
766 32 1
766 145 1
766 235 1
766 563 1
767 45 1
767 381 1
767 452 1
767 661 1
767 663 1
767 747 1
768 3 1
768 20 1
768 26 1
768 38 1
768 53 1
768 314 1
769 9 1
769 101 1
769 230 1
769 468 1
769 707 1
769 728 1
770 67 1
770 252 1
770 292 1
770 352 1
770 522 1
770 643 1
771 6 1
771 9 1
771 63 1
771 464 1
771 543 1
771 760 1
772 49 1
772 74 1
772 194 1
772 238 1
772 399 1
772 636 1
773 4 1
773 9 1
773 203 1
773 340 1
773 532 1
773 556 1
773 792 1
774 58 1
774 87 1
774 113 1
774 131 1
774 143 1
774 181 1
775 4 1
775 61 1
775 92 1
775 115 1
775 411 1
775 659 1
776 11 1
776 44 1
776 106 1
776 211 1
776 557 1
776 698 1
777 44 1
777 106 1
777 121 1
777 331 1
777 649 1
777 674 1
778 25 1
778 52 1
778 84 1
778 430 1
778 540 1
779 14 1
779 16 1
779 24 1
779 31 1
779 67 1
780 4 1
780 27 1
780 182 1
780 222 1
780 348 1
780 352 1
781 51 1
781 94 1
781 191 1
781 553 1
781 668 1
781 721 1
782 118 1
782 345 1
782 390 1
782 417 1
782 512 1
782 727 1
783 28 1
783 31 1
783 103 1
783 172 1
783 478 1
783 726 1
784 39 1
784 42 1
784 213 1
784 312 1
784 602 1
784 758 1
785 51 1
785 70 1
785 198 1
785 445 1
785 587 1
785 591 1
786 25 1
786 136 1
786 205 1
786 218 1
786 237 1
786 654 1
787 10 1
787 33 1
787 78 1
787 572 1
787 606 1
787 642 1
788 4 1
788 42 1
788 58 1
788 111 1
788 155 1
788 418 1
789 9 1
789 97 1
789 214 1
789 302 1
789 458 1
790 29 1
790 182 1
790 192 1
790 253 1
790 274 1
790 606 1
791 4 1
791 154 1
791 183 1
791 248 1
791 308 1
791 328 1
792 5 1
792 119 1
792 203 1
792 532 1
792 701 1
792 773 1
793 16 1
793 44 1
793 204 1
793 255 1
793 341 1
793 356 1
794 80 1
794 133 1
794 183 1
794 215 1
794 331 1
794 399 1
795 19 1
795 101 1
795 354 1
795 425 1
795 521 1
795 709 1
796 8 1
796 208 1
796 227 1
796 345 1
796 512 1
796 692 1
797 5 1
797 60 1
797 371 1
797 600 1
797 641 1
797 750 1
798 10 1
798 12 1
798 21 1
798 67 1
798 472 1
798 596 1
799 25 1
799 51 1
799 87 1
799 127 1
799 571 1
799 633 1
800 7 1
800 9 1
800 39 1
800 98 1
800 528 1
800 593 1
