%%MatrixMarket matrix coordinate real general
%
800 800 9322
1 2 1
1 3 1
1 4 1
1 5 1
1 7 1
1 13 1
1 15 1
1 19 1
1 22 1
1 25 1
1 26 1
1 32 1
1 33 1
1 34 1
1 45 1
1 47 1
1 49 1
1 51 1
1 53 1
1 57 1
1 65 1
1 72 1
1 73 1
1 78 1
1 91 1
1 97 1
1 105 1
1 106 1
1 115 1
1 119 1
1 133 1
1 147 1
1 166 1
1 168 1
1 179 1
1 184 1
1 188 1
1 194 1
1 205 1
1 219 1
1 234 1
1 237 1
1 289 1
1 295 1
1 314 1
1 318 1
1 322 1
1 334 1
1 344 1
1 345 1
1 353 1
1 370 1
1 374 1
1 400 1
1 413 1
1 440 1
1 463 1
1 477 1
1 487 1
1 488 1
1 508 1
1 518 1
1 543 1
1 548 1
1 554 1
1 558 1
1 576 1
1 642 1
1 673 1
1 688 1
1 708 1
1 715 1
1 723 1
1 735 1
1 742 1
1 770 1
1 783 1
1 799 1
2 1 1
2 3 1
2 4 1
2 5 1
2 6 1
2 7 1
2 8 1
2 11 1
2 14 1
2 16 1
2 23 1
2 24 1
2 26 1
2 28 1
2 32 1
2 35 1
2 36 1
2 38 1
2 40 1
2 47 1
2 48 1
2 58 1
2 63 1
2 64 1
2 67 1
2 74 1
2 76 1
2 83 1
2 86 1
2 94 1
2 101 1
2 114 1
2 125 1
2 128 1
2 148 1
2 152 1
2 165 1
2 174 1
2 196 1
2 203 1
2 219 1
2 220 1
2 223 1
2 239 1
2 244 1
2 290 1
2 298 1
2 305 1
2 306 1
2 314 1
2 326 1
2 350 1
2 356 1
2 368 1
2 369 1
2 384 1
2 403 1
2 417 1
2 427 1
2 433 1
2 454 1
2 481 1
2 493 1
2 525 1
2 548 1
2 550 1
2 555 1
2 576 1
2 584 1
2 588 1
2 591 1
2 600 1
2 611 1
2 636 1
2 690 1
2 709 1
2 721 1
2 726 1
2 729 1
2 733 1
2 736 1
2 757 1
2 768 1
2 783 1
2 793 1
2 796 1
3 1 1
3 2 1
3 4 1
3 5 1
3 6 1
3 9 1
3 10 1
3 14 1
3 17 1
3 19 1
3 20 1
3 23 1
3 24 1
3 26 1
3 32 1
3 33 1
3 38 1
3 41 1
3 43 1
3 45 1
3 49 1
3 50 1
3 55 1
3 60 1
3 62 1
3 63 1
3 65 1
3 80 1
3 86 1
3 92 1
3 95 1
3 101 1
3 109 1
3 111 1
3 126 1
3 141 1
3 147 1
3 149 1
3 158 1
3 165 1
3 167 1
3 168 1
3 171 1
3 172 1
3 185 1
3 194 1
3 198 1
3 206 1
3 210 1
3 226 1
3 227 1
3 259 1
3 261 1
3 266 1
3 277 1
3 298 1
3 301 1
3 325 1
3 349 1
3 371 1
3 391 1
3 395 1
3 406 1
3 413 1
3 432 1
3 433 1
3 440 1
3 462 1
3 479 1
3 517 1
3 527 1
3 529 1
3 555 1
3 561 1
3 608 1
3 610 1
3 633 1
3 641 1
3 656 1
3 668 1
3 669 1
3 674 1
3 686 1
3 687 1
3 700 1
3 703 1
3 721 1
3 732 1
3 742 1
4 1 1
4 2 1
4 3 1
4 5 1
4 6 1
4 7 1
4 8 1
4 9 1
4 10 1
4 12 1
4 15 1
4 17 1
4 18 1
4 21 1
4 22 1
4 23 1
4 24 1
4 27 1
4 28 1
4 29 1
4 32 1
4 33 1
4 38 1
4 47 1
4 48 1
4 51 1
4 54 1
4 85 1
4 86 1
4 92 1
4 99 1
4 100 1
4 106 1
4 119 1
4 123 1
4 125 1
4 127 1
4 139 1
4 140 1
4 146 1
4 147 1
4 149 1
4 152 1
4 156 1
4 163 1
4 170 1
4 174 1
4 175 1
4 176 1
4 177 1
4 179 1
4 189 1
4 191 1
4 196 1
4 199 1
4 212 1
4 214 1
4 237 1
4 241 1
4 247 1
4 260 1
4 261 1
4 268 1
4 275 1
4 281 1
4 284 1
4 288 1
4 314 1
4 326 1
4 356 1
4 360 1
4 362 1
4 373 1
4 375 1
4 377 1
4 378 1
4 389 1
4 399 1
4 402 1
4 403 1
4 407 1
4 408 1
4 409 1
4 412 1
4 434 1
4 442 1
4 446 1
4 449 1
4 455 1
4 463 1
4 477 1
4 497 1
4 505 1
4 507 1
4 511 1
4 512 1
4 525 1
4 541 1
4 552 1
4 557 1
4 564 1
4 577 1
4 582 1
4 595 1
4 608 1
4 616 1
4 621 1
4 637 1
4 643 1
4 669 1
4 674 1
4 676 1
4 680 1
4 681 1
4 700 1
4 728 1
4 729 1
4 734 1
4 764 1
4 774 1
4 797 1
5 1 1
5 2 1
5 3 1
5 4 1
5 6 1
5 7 1
5 8 1
5 9 1
5 11 1
5 13 1
5 14 1
5 15 1
5 16 1
5 17 1
5 19 1
5 20 1
5 21 1
5 22 1
5 25 1
5 27 1
5 31 1
5 35 1
5 37 1
5 40 1
5 42 1
5 43 1
5 44 1
5 45 1
5 47 1
5 48 1
5 50 1
5 52 1
5 55 1
5 58 1
5 61 1
5 69 1
5 72 1
5 73 1
5 76 1
5 77 1
5 83 1
5 85 1
5 91 1
5 92 1
5 98 1
5 104 1
5 107 1
5 112 1
5 115 1
5 127 1
5 152 1
5 155 1
5 160 1
5 162 1
5 170 1
5 172 1
5 184 1
5 187 1
5 200 1
5 210 1
5 213 1
5 215 1
5 228 1
5 243 1
5 251 1
5 264 1
5 267 1
5 270 1
5 278 1
5 291 1
5 293 1
5 309 1
5 342 1
5 349 1
5 353 1
5 355 1
5 356 1
5 366 1
5 367 1
5 370 1
5 383 1
5 404 1
5 422 1
5 430 1
5 435 1
5 440 1
5 452 1
5 453 1
5 462 1
5 463 1
5 465 1
5 478 1
5 482 1
5 484 1
5 494 1
5 496 1
5 514 1
5 526 1
5 531 1
5 533 1
5 583 1
5 592 1
5 622 1
5 626 1
5 627 1
5 640 1
5 648 1
5 649 1
5 659 1
5 674 1
5 680 1
5 696 1
5 702 1
5 706 1
5 712 1
5 739 1
5 746 1
5 762 1
5 765 1
5 775 1
6 2 1
6 3 1
6 4 1
6 5 1
6 7 1
6 8 1
6 9 1
6 10 1
6 11 1
6 14 1
6 16 1
6 17 1
6 18 1
6 20 1
6 23 1
6 24 1
6 27 1
6 28 1
6 29 1
6 30 1
6 35 1
6 36 1
6 39 1
6 42 1
6 44 1
6 46 1
6 50 1
6 51 1
6 54 1
6 57 1
6 58 1
6 59 1
6 62 1
6 63 1
6 64 1
6 69 1
6 70 1
6 71 1
6 84 1
6 88 1
6 89 1
6 90 1
6 92 1
6 93 1
6 99 1
6 103 1
6 106 1
6 107 1
6 108 1
6 110 1
6 111 1
6 113 1
6 121 1
6 122 1
6 127 1
6 128 1
6 129 1
6 130 1
6 131 1
6 138 1
6 140 1
6 150 1
6 153 1
6 178 1
6 187 1
6 188 1
6 190 1
6 193 1
6 195 1
6 207 1
6 214 1
6 216 1
6 220 1
6 222 1
6 223 1
6 224 1
6 229 1
6 231 1
6 240 1
6 243 1
6 244 1
6 247 1
6 249 1
6 252 1
6 257 1
6 267 1
6 268 1
6 273 1
6 275 1
6 277 1
6 281 1
6 287 1
6 289 1
6 301 1
6 326 1
6 334 1
6 340 1
6 341 1
6 343 1
6 351 1
6 352 1
6 357 1
6 360 1
6 369 1
6 373 1
6 382 1
6 392 1
6 396 1
6 408 1
6 415 1
6 422 1
6 427 1
6 429 1
6 432 1
6 437 1
6 472 1
6 492 1
6 499 1
6 516 1
6 522 1
6 546 1
6 550 1
6 552 1
6 559 1
6 567 1
6 581 1
6 584 1
6 587 1
6 591 1
6 597 1
6 606 1
6 608 1
6 613 1
6 615 1
6 629 1
6 637 1
6 644 1
6 645 1
6 652 1
6 654 1
6 662 1
6 672 1
6 693 1
6 695 1
6 703 1
6 713 1
6 717 1
6 728 1
6 733 1
6 739 1
6 759 1
6 769 1
6 794 1
7 1 1
7 2 1
7 4 1
7 5 1
7 6 1
7 8 1
7 11 1
7 12 1
7 13 1
7 18 1
7 20 1
7 21 1
7 25 1
7 30 1
7 37 1
7 44 1
7 50 1
7 64 1
7 98 1
7 99 1
7 121 1
7 130 1
7 133 1
7 148 1
7 154 1
7 219 1
7 220 1
7 230 1
7 234 1
7 333 1
7 338 1
7 355 1
7 430 1
7 442 1
7 504 1
7 527 1
7 530 1
7 575 1
7 631 1
7 670 1
7 695 1
7 733 1
7 765 1
8 2 1
8 4 1
8 5 1
8 6 1
8 7 1
8 11 1
8 12 1
8 14 1
8 16 1
8 18 1
8 25 1
8 28 1
8 31 1
8 36 1
8 37 1
8 38 1
8 41 1
8 55 1
8 68 1
8 70 1
8 71 1
8 72 1
8 80 1
8 97 1
8 108 1
8 117 1
8 131 1
8 135 1
8 138 1
8 142 1
8 145 1
8 153 1
8 159 1
8 174 1
8 177 1
8 200 1
8 206 1
8 218 1
8 222 1
8 226 1
8 244 1
8 246 1
8 252 1
8 264 1
8 269 1
8 280 1
8 284 1
8 300 1
8 304 1
8 310 1
8 372 1
8 387 1
8 392 1
8 403 1
8 405 1
8 423 1
8 448 1
8 486 1
8 490 1
8 494 1
8 496 1
8 503 1
8 504 1
8 507 1
8 575 1
8 600 1
8 603 1
8 634 1
8 635 1
8 637 1
8 659 1
8 665 1
8 709 1
8 715 1
8 716 1
8 737 1
8 740 1
8 751 1
8 752 1
8 754 1
8 779 1
8 786 1
8 796 1
9 3 1
9 4 1
9 5 1
9 6 1
9 10 1
9 15 1
9 16 1
9 17 1
9 21 1
9 35 1
9 41 1
9 52 1
9 64 1
9 66 1
9 69 1
9 71 1
9 76 1
9 78 1
9 83 1
9 87 1
9 95 1
9 99 1
9 102 1
9 118 1
9 123 1
9 137 1
9 154 1
9 161 1
9 199 1
9 213 1
9 215 1
9 221 1
9 257 1
9 258 1
9 264 1
9 287 1
9 293 1
9 294 1
9 309 1
9 326 1
9 336 1
9 354 1
9 369 1
9 397 1
9 435 1
9 482 1
9 513 1
9 526 1
9 568 1
9 571 1
9 586 1
9 588 1
9 621 1
9 627 1
9 700 1
9 726 1
9 748 1
10 3 1
10 4 1
10 6 1
10 9 1
10 14 1
10 17 1
10 46 1
10 52 1
10 54 1
10 57 1
10 71 1
10 79 1
10 82 1
10 86 1
10 87 1
10 95 1
10 99 1
10 126 1
10 134 1
10 136 1
10 161 1
10 176 1
10 181 1
10 190 1
10 193 1
10 212 1
10 223 1
10 228 1
10 254 1
10 257 1
10 270 1
10 292 1
10 306 1
10 333 1
10 337 1
10 340 1
10 351 1
10 411 1
10 497 1
10 540 1
10 574 1
10 578 1
10 588 1
10 595 1
10 696 1
10 714 1
10 719 1
10 722 1
10 737 1
10 745 1
10 790 1
11 2 1
11 5 1
11 6 1
11 7 1
11 8 1
11 12 1
11 36 1
11 37 1
11 38 1
11 61 1
11 64 1
11 70 1
11 93 1
11 99 1
11 121 1
11 135 1
11 171 1
11 203 1
11 220 1
11 230 1
11 242 1
11 247 1
11 253 1
11 291 1
11 299 1
11 306 1
11 333 1
11 338 1
11 347 1
11 348 1
11 356 1
11 421 1
11 441 1
11 509 1
11 537 1
11 544 1
11 553 1
11 614 1
11 631 1
11 666 1
11 755 1
11 765 1
11 782 1
11 783 1
12 4 1
12 7 1
12 8 1
12 11 1
12 13 1
12 68 1
12 93 1
12 121 1
12 153 1
12 280 1
12 325 1
12 504 1
12 575 1
12 614 1
12 666 1
13 1 1
13 5 1
13 7 1
13 12 1
13 19 1
13 20 1
13 53 1
13 77 1
13 133 1
13 156 1
13 205 1
13 285 1
13 420 1
13 442 1
13 488 1
13 531 1
13 622 1
13 642 1
14 2 1
14 3 1
14 5 1
14 6 1
14 8 1
14 10 1
14 16 1
14 20 1
14 23 1
14 26 1
14 27 1
14 34 1
14 39 1
14 40 1
14 46 1
14 48 1
14 58 1
14 70 1
14 100 1
14 101 1
14 103 1
14 107 1
14 110 1
14 112 1
14 120 1
14 131 1
14 145 1
14 147 1
14 157 1
14 165 1
14 169 1
14 197 1
14 200 1
14 213 1
14 221 1
14 224 1
14 246 1
14 268 1
14 286 1
14 293 1
14 304 1
14 305 1
14 313 1
14 340 1
14 343 1
14 352 1
14 355 1
14 364 1
14 378 1
14 384 1
14 398 1
14 436 1
14 442 1
14 450 1
14 452 1
14 453 1
14 467 1
14 480 1
14 522 1
14 532 1
14 549 1
14 611 1
14 634 1
14 667 1
14 675 1
14 701 1
14 725 1
14 727 1
14 747 1
14 753 1
14 766 1
14 778 1
14 792 1
15 1 1
15 4 1
15 5 1
15 9 1
15 21 1
15 22 1
15 25 1
15 31 1
15 34 1
15 43 1
15 49 1
15 66 1
15 79 1
15 81 1
15 91 1
15 114 1
15 123 1
15 160 1
15 170 1
15 172 1
15 175 1
15 183 1
15 200 1
15 232 1
15 241 1
15 253 1
15 261 1
15 262 1
15 288 1
15 309 1
15 318 1
15 322 1
15 329 1
15 357 1
15 375 1
15 385 1
15 390 1
15 400 1
15 408 1
15 415 1
15 424 1
15 447 1
15 451 1
15 463 1
15 468 1
15 496 1
15 497 1
15 515 1
15 521 1
15 539 1
15 569 1
15 574 1
15 580 1
15 583 1
15 593 1
15 619 1
15 653 1
15 746 1
15 795 1
16 2 1
16 5 1
16 6 1
16 8 1
16 9 1
16 14 1
16 26 1
16 34 1
16 35 1
16 44 1
16 58 1
16 59 1
16 66 1
16 69 1
16 87 1
16 93 1
16 94 1
16 96 1
16 100 1
16 102 1
16 131 1
16 150 1
16 154 1
16 160 1
16 176 1
16 195 1
16 215 1
16 271 1
16 290 1
16 294 1
16 297 1
16 303 1
16 310 1
16 323 1
16 324 1
16 328 1
16 377 1
16 389 1
16 392 1
16 413 1
16 428 1
16 456 1
16 465 1
16 550 1
16 562 1
16 607 1
16 614 1
16 636 1
16 650 1
16 660 1
16 661 1
16 709 1
16 725 1
16 730 1
16 770 1
17 3 1
17 4 1
17 5 1
17 6 1
17 9 1
17 10 1
17 18 1
17 30 1
17 41 1
17 43 1
17 45 1
17 46 1
17 52 1
17 69 1
17 75 1
17 84 1
17 86 1
17 104 1
17 108 1
17 109 1
17 123 1
17 134 1
17 136 1
17 140 1
17 141 1
17 146 1
17 162 1
17 206 1
17 216 1
17 221 1
17 222 1
17 229 1
17 288 1
17 301 1
17 319 1
17 320 1
17 327 1
17 328 1
17 352 1
17 401 1
17 404 1
17 431 1
17 435 1
17 448 1
17 540 1
17 556 1
17 571 1
17 578 1
17 594 1
17 667 1
17 737 1
17 739 1
17 771 1
17 786 1
17 790 1
17 798 1
18 4 1
18 6 1
18 7 1
18 8 1
18 17 1
18 28 1
18 29 1
18 30 1
18 51 1
18 56 1
18 59 1
18 60 1
18 74 1
18 75 1
18 84 1
18 96 1
18 106 1
18 111 1
18 113 1
18 119 1
18 120 1
18 129 1
18 140 1
18 145 1
18 162 1
18 163 1
18 173 1
18 177 1
18 190 1
18 194 1
18 250 1
18 265 1
18 307 1
18 315 1
18 317 1
18 364 1
18 388 1
18 416 1
18 417 1
18 425 1
18 433 1
18 446 1
18 459 1
18 460 1
18 466 1
18 499 1
18 500 1
18 502 1
18 542 1
18 577 1
18 606 1
18 620 1
18 663 1
18 673 1
18 710 1
18 717 1
18 751 1
18 764 1
18 789 1
18 791 1
18 800 1
19 1 1
19 3 1
19 5 1
19 13 1
19 26 1
19 32 1
19 45 1
19 53 1
19 65 1
19 68 1
19 72 1
19 77 1
19 78 1
19 85 1
19 92 1
19 104 1
19 105 1
19 106 1
19 132 1
19 136 1
19 143 1
19 156 1
19 158 1
19 161 1
19 187 1
19 188 1
19 240 1
19 251 1
19 263 1
19 278 1
19 285 1
19 310 1
19 327 1
19 335 1
19 354 1
19 382 1
19 400 1
19 405 1
19 414 1
19 420 1
19 440 1
19 445 1
19 472 1
19 475 1
19 491 1
19 512 1
19 554 1
19 560 1
19 569 1
19 594 1
19 631 1
19 652 1
19 670 1
19 688 1
19 703 1
19 711 1
19 744 1
19 748 1
19 773 1
19 784 1
20 3 1
20 5 1
20 6 1
20 7 1
20 13 1
20 14 1
20 23 1
20 24 1
20 27 1
20 88 1
20 110 1
20 111 1
20 112 1
20 227 1
20 296 1
20 346 1
20 355 1
20 598 1
20 610 1
20 675 1
21 4 1
21 5 1
21 7 1
21 9 1
21 15 1
21 43 1
21 48 1
21 79 1
21 98 1
21 125 1
21 183 1
21 215 1
21 234 1
21 248 1
21 260 1
21 298 1
21 339 1
21 357 1
21 470 1
21 477 1
21 509 1
21 527 1
21 627 1
21 743 1
21 791 1
22 1 1
22 4 1
22 5 1
22 15 1
22 25 1
22 27 1
22 31 1
22 33 1
22 57 1
22 73 1
22 85 1
22 114 1
22 116 1
22 119 1
22 128 1
22 151 1
22 155 1
22 172 1
22 175 1
22 178 1
22 193 1
22 200 1
22 209 1
22 232 1
22 241 1
22 249 1
22 256 1
22 290 1
22 304 1
22 309 1
22 313 1
22 323 1
22 361 1
22 363 1
22 389 1
22 400 1
22 407 1
22 409 1
22 420 1
22 422 1
22 425 1
22 453 1
22 473 1
22 493 1
22 506 1
22 539 1
22 582 1
22 630 1
22 679 1
22 685 1
22 689 1
22 709 1
22 749 1
23 2 1
23 3 1
23 4 1
23 6 1
23 14 1
23 20 1
23 24 1
23 29 1
23 39 1
23 63 1
23 88 1
23 110 1
23 111 1
23 114 1
23 116 1
23 128 1
23 165 1
23 177 1
23 188 1
23 191 1
23 195 1
23 196 1
23 227 1
23 238 1
23 277 1
23 330 1
23 346 1
23 360 1
23 369 1
23 376 1
23 390 1
23 398 1
23 446 1
23 476 1
23 559 1
23 598 1
23 629 1
23 651 1
23 668 1
23 686 1
23 706 1
23 718 1
23 781 1
23 782 1
24 2 1
24 3 1
24 4 1
24 6 1
24 20 1
24 23 1
24 28 1
24 50 1
24 54 1
24 62 1
24 88 1
24 107 1
24 114 1
24 116 1
24 125 1
24 144 1
24 177 1
24 180 1
24 199 1
24 209 1
24 210 1
24 214 1
24 233 1
24 250 1
24 260 1
24 276 1
24 474 1
24 476 1
24 479 1
24 505 1
24 601 1
24 610 1
24 682 1
24 684 1
24 705 1
25 1 1
25 5 1
25 7 1
25 8 1
25 15 1
25 22 1
25 31 1
25 33 1
25 34 1
25 37 1
25 44 1
25 71 1
25 72 1
25 95 1
25 114 1
25 116 1
25 128 1
25 142 1
25 206 1
25 210 1
25 237 1
25 249 1
25 252 1
25 282 1
25 288 1
25 334 1
25 385 1
25 410 1
25 420 1
25 460 1
25 548 1
25 573 1
25 585 1
25 665 1
25 681 1
25 745 1
25 776 1
25 799 1
26 1 1
26 2 1
26 3 1
26 14 1
26 16 1
26 19 1
26 32 1
26 34 1
26 48 1
26 65 1
26 68 1
26 103 1
26 117 1
26 126 1
26 132 1
26 136 1
26 143 1
26 186 1
26 221 1
26 225 1
26 235 1
26 273 1
26 290 1
26 292 1
26 303 1
26 324 1
26 405 1
26 413 1
26 414 1
26 543 1
26 664 1
26 741 1
27 4 1
27 5 1
27 6 1
27 14 1
27 20 1
27 22 1
27 39 1
27 40 1
27 56 1
27 146 1
27 182 1
27 268 1
27 286 1
27 389 1
27 461 1
27 560 1
27 567 1
27 643 1
27 689 1
28 2 1
28 4 1
28 6 1
28 8 1
28 18 1
28 24 1
28 29 1
28 36 1
28 42 1
28 54 1
28 75 1
28 103 1
28 122 1
28 125 1
28 144 1
28 177 1
28 209 1
28 218 1
28 223 1
28 314 1
28 464 1
28 502 1
28 546 1
28 734 1
28 737 1
29 4 1
29 6 1
29 18 1
29 23 1
29 28 1
29 39 1
29 42 1
29 75 1
29 84 1
29 140 1
29 148 1
29 194 1
29 217 1
29 251 1
29 307 1
29 373 1
29 464 1
29 468 1
29 683 1
30 6 1
30 7 1
30 17 1
30 18 1
30 51 1
30 56 1
30 60 1
30 69 1
30 75 1
30 84 1
30 98 1
30 110 1
30 120 1
30 137 1
30 201 1
30 334 1
30 401 1
30 498 1
30 589 1
30 733 1
31 5 1
31 8 1
31 15 1
31 22 1
31 25 1
31 71 1
31 81 1
31 132 1
31 155 1
31 160 1
31 210 1
31 237 1
31 241 1
31 256 1
31 290 1
31 331 1
31 383 1
31 403 1
31 424 1
31 483 1
31 517 1
32 1 1
32 2 1
32 3 1
32 4 1
32 19 1
32 26 1
32 33 1
32 49 1
32 67 1
32 68 1
32 106 1
32 117 1
32 161 1
32 163 1
32 168 1
32 232 1
32 236 1
32 247 1
32 248 1
32 273 1
32 282 1
32 298 1
32 300 1
32 383 1
32 402 1
32 479 1
32 492 1
32 518 1
32 694 1
32 768 1
33 1 1
33 3 1
33 4 1
33 22 1
33 25 1
33 32 1
33 49 1
33 57 1
33 67 1
33 82 1
33 90 1
33 143 1
33 149 1
33 155 1
33 192 1
33 202 1
33 209 1
33 247 1
33 294 1
33 334 1
33 359 1
33 475 1
33 492 1
33 530 1
33 535 1
33 556 1
33 628 1
33 641 1
33 656 1
33 674 1
33 681 1
33 700 1
33 738 1
34 1 1
34 14 1
34 15 1
34 16 1
34 25 1
34 26 1
34 49 1
34 81 1
34 100 1
34 103 1
34 288 1
34 543 1
34 548 1
34 558 1
34 574 1
34 648 1
34 792 1
35 2 1
35 5 1
35 6 1
35 9 1
35 16 1
35 40 1
35 42 1
35 44 1
35 47 1
35 59 1
35 64 1
35 66 1
35 78 1
35 109 1
35 121 1
35 133 1
35 137 1
35 153 1
35 154 1
35 157 1
35 164 1
35 165 1
35 191 1
35 201 1
35 244 1
35 269 1
35 278 1
35 332 1
35 367 1
35 503 1
35 513 1
35 526 1
35 558 1
35 566 1
35 579 1
35 623 1
35 665 1
35 718 1
35 743 1
35 787 1
36 2 1
36 6 1
36 8 1
36 11 1
36 28 1
36 38 1
36 41 1
36 55 1
36 61 1
36 97 1
36 108 1
36 113 1
36 122 1
36 207 1
36 220 1
36 246 1
36 255 1
36 348 1
36 360 1
36 398 1
36 421 1
36 430 1
36 520 1
36 532 1
36 542 1
36 580 1
36 603 1
36 613 1
36 621 1
36 639 1
36 650 1
36 686 1
36 737 1
37 5 1
37 7 1
37 8 1
37 11 1
37 25 1
37 142 1
37 226 1
37 291 1
37 333 1
37 347 1
37 410 1
37 553 1
37 694 1
37 715 1
38 2 1
38 3 1
38 4 1
38 8 1
38 11 1
38 36 1
38 41 1
38 61 1
38 63 1
38 67 1
38 70 1
38 74 1
38 77 1
38 80 1
38 100 1
38 117 1
38 118 1
38 138 1
38 149 1
38 239 1
38 275 1
38 277 1
38 350 1
38 368 1
38 439 1
38 449 1
38 470 1
38 481 1
38 509 1
38 545 1
38 612 1
38 666 1
38 699 1
38 717 1
38 758 1
38 780 1
39 6 1
39 14 1
39 23 1
39 27 1
39 29 1
39 40 1
39 56 1
39 63 1
39 70 1
39 120 1
39 159 1
39 181 1
39 182 1
39 211 1
39 212 1
39 214 1
39 255 1
39 343 1
39 374 1
39 437 1
39 458 1
39 499 1
39 538 1
39 540 1
39 541 1
39 560 1
39 639 1
39 735 1
40 2 1
40 5 1
40 14 1
40 27 1
40 35 1
40 39 1
40 47 1
40 56 1
40 76 1
40 109 1
40 146 1
40 165 1
40 181 1
40 189 1
40 217 1
40 236 1
40 268 1
40 355 1
40 452 1
40 458 1
40 504 1
40 558 1
40 564 1
40 702 1
40 760 1
41 3 1
41 8 1
41 9 1
41 17 1
41 36 1
41 38 1
41 45 1
41 55 1
41 80 1
41 113 1
41 171 1
41 255 1
41 269 1
41 300 1
41 387 1
41 435 1
41 444 1
41 507 1
41 528 1
41 594 1
41 700 1
41 710 1
42 5 1
42 6 1
42 28 1
42 29 1
42 35 1
42 75 1
42 103 1
42 140 1
42 148 1
42 278 1
42 683 1
42 739 1
42 750 1
42 794 1
43 3 1
43 5 1
43 15 1
43 17 1
43 21 1
43 55 1
43 60 1
43 61 1
43 79 1
43 91 1
43 104 1
43 141 1
43 274 1
43 328 1
43 362 1
43 448 1
43 521 1
43 556 1
43 596 1
43 604 1
43 657 1
43 743 1
43 752 1
43 772 1
44 5 1
44 6 1
44 7 1
44 16 1
44 25 1
44 35 1
44 50 1
44 59 1
44 94 1
44 112 1
44 135 1
44 150 1
44 153 1
44 154 1
44 164 1
44 242 1
44 297 1
44 349 1
44 368 1
44 381 1
44 516 1
44 546 1
44 557 1
44 562 1
44 587 1
44 638 1
44 648 1
44 650 1
44 670 1
44 731 1
44 759 1
44 763 1
45 1 1
45 3 1
45 5 1
45 17 1
45 19 1
45 41 1
45 78 1
45 104 1
45 109 1
45 123 1
45 130 1
45 171 1
45 184 1
45 225 1
45 230 1
45 251 1
45 344 1
45 399 1
45 406 1
45 444 1
45 589 1
45 592 1
45 594 1
45 635 1
45 671 1
46 6 1
46 10 1
46 14 1
46 17 1
46 52 1
46 54 1
46 57 1
46 62 1
46 79 1
46 82 1
46 87 1
46 89 1
46 90 1
46 105 1
46 124 1
46 131 1
46 147 1
46 150 1
46 173 1
46 219 1
46 229 1
46 246 1
46 281 1
46 287 1
46 292 1
46 331 1
46 333 1
46 337 1
46 382 1
46 415 1
46 450 1
46 465 1
46 467 1
46 501 1
46 574 1
46 577 1
46 638 1
46 662 1
46 701 1
46 725 1
46 769 1
46 788 1
46 800 1
47 1 1
47 2 1
47 4 1
47 5 1
47 35 1
47 40 1
47 51 1
47 53 1
47 91 1
47 109 1
47 156 1
47 164 1
47 168 1
47 174 1
47 189 1
47 202 1
47 204 1
47 208 1
47 258 1
47 314 1
47 337 1
47 359 1
47 443 1
47 452 1
47 677 1
47 753 1
47 778 1
47 779 1
47 783 1
48 2 1
48 4 1
48 5 1
48 14 1
48 21 1
48 26 1
48 58 1
48 83 1
48 94 1
48 124 1
48 125 1
48 158 1
48 182 1
48 224 1
48 238 1
48 254 1
48 265 1
48 318 1
48 356 1
48 457 1
48 471 1
48 507 1
48 510 1
48 522 1
48 555 1
48 595 1
48 604 1
48 643 1
48 693 1
48 696 1
48 750 1
49 1 1
49 3 1
49 15 1
49 32 1
49 33 1
49 34 1
49 67 1
49 81 1
49 82 1
49 90 1
49 149 1
49 155 1
49 168 1
49 170 1
49 185 1
49 202 1
49 227 1
49 245 1
49 262 1
49 282 1
49 286 1
49 302 1
49 312 1
49 318 1
49 338 1
49 479 1
49 489 1
49 558 1
49 617 1
49 620 1
49 628 1
49 633 1
49 707 1
49 715 1
50 3 1
50 5 1
50 6 1
50 7 1
50 24 1
50 44 1
50 62 1
50 112 1
50 152 1
50 154 1
50 270 1
50 368 1
50 430 1
50 517 1
50 546 1
50 562 1
50 669 1
51 1 1
51 4 1
51 6 1
51 18 1
51 30 1
51 47 1
51 53 1
51 56 1
51 59 1
51 74 1
51 110 1
51 115 1
51 156 1
51 162 1
51 166 1
51 201 1
51 237 1
51 250 1
51 359 1
51 402 1
51 466 1
51 485 1
51 498 1
51 572 1
51 613 1
51 779 1
52 5 1
52 9 1
52 10 1
52 17 1
52 46 1
52 76 1
52 134 1
52 162 1
52 221 1
52 258 1
52 287 1
52 312 1
52 327 1
52 337 1
52 380 1
52 568 1
52 696 1
52 747 1
52 786 1
53 1 1
53 13 1
53 19 1
53 47 1
53 51 1
53 65 1
53 73 1
53 91 1
53 97 1
53 166 1
53 202 1
53 205 1
53 285 1
53 319 1
53 386 1
53 456 1
53 508 1
53 531 1
53 554 1
53 677 1
53 779 1
54 4 1
54 6 1
54 10 1
54 24 1
54 28 1
54 46 1
54 79 1
54 90 1
54 124 1
54 139 1
54 144 1
54 179 1
54 260 1
54 306 1
54 498 1
54 682 1
55 3 1
55 5 1
55 8 1
55 36 1
55 41 1
55 43 1
55 60 1
55 61 1
55 97 1
55 113 1
55 167 1
55 172 1
55 228 1
55 269 1
55 274 1
55 362 1
55 419 1
55 503 1
55 626 1
55 639 1
56 18 1
56 27 1
56 30 1
56 39 1
56 40 1
56 51 1
56 60 1
56 96 1
56 98 1
56 102 1
56 146 1
56 162 1
56 167 1
56 181 1
56 211 1
56 283 1
56 381 1
56 396 1
56 461 1
56 498 1
56 564 1
56 610 1
56 663 1
56 721 1
56 730 1
56 763 1
56 780 1
57 1 1
57 6 1
57 10 1
57 22 1
57 33 1
57 46 1
57 62 1
57 87 1
57 105 1
57 126 1
57 173 1
57 190 1
57 209 1
57 233 1
57 249 1
57 332 1
57 422 1
57 535 1
57 652 1
57 657 1
57 703 1
58 2 1
58 5 1
58 6 1
58 14 1
58 16 1
58 48 1
58 83 1
58 93 1
58 96 1
58 101 1
58 124 1
58 127 1
58 134 1
58 138 1
58 157 1
58 158 1
58 185 1
58 192 1
58 224 1
58 231 1
58 254 1
58 315 1
58 340 1
58 353 1
58 408 1
58 457 1
58 522 1
58 567 1
58 576 1
58 579 1
58 584 1
58 600 1
58 614 1
58 727 1
58 750 1
59 6 1
59 16 1
59 18 1
59 35 1
59 44 1
59 51 1
59 66 1
59 74 1
59 94 1
59 111 1
59 115 1
59 133 1
59 135 1
59 164 1
59 176 1
59 201 1
59 274 1
59 296 1
59 302 1
59 307 1
59 321 1
59 332 1
59 361 1
59 375 1
59 401 1
59 418 1
59 441 1
59 476 1
59 503 1
59 544 1
59 557 1
59 572 1
59 609 1
59 616 1
59 624 1
59 644 1
59 645 1
59 684 1
59 738 1
59 740 1
59 774 1
59 789 1
60 3 1
60 18 1
60 30 1
60 43 1
60 55 1
60 56 1
60 96 1
60 98 1
60 102 1
60 120 1
60 129 1
60 137 1
60 167 1
60 226 1
60 266 1
60 271 1
60 299 1
60 311 1
60 351 1
60 388 1
60 391 1
60 396 1
60 500 1
60 589 1
60 612 1
60 647 1
60 687 1
60 730 1
61 5 1
61 11 1
61 36 1
61 38 1
61 43 1
61 55 1
61 274 1
61 421 1
61 509 1
61 699 1
61 755 1
61 783 1
62 3 1
62 6 1
62 24 1
62 46 1
62 50 1
62 57 1
62 173 1
62 180 1
62 233 1
62 249 1
62 250 1
62 281 1
62 287 1
62 450 1
62 517 1
63 2 1
63 3 1
63 6 1
63 23 1
63 38 1
63 39 1
63 67 1
63 80 1
63 86 1
63 88 1
63 89 1
63 349 1
63 350 1
63 373 1
63 500 1
63 611 1
63 691 1
64 2 1
64 6 1
64 7 1
64 9 1
64 11 1
64 35 1
64 78 1
64 118 1
64 121 1
64 144 1
64 148 1
64 183 1
64 191 1
64 203 1
64 230 1
64 239 1
64 326 1
64 336 1
64 342 1
64 354 1
64 429 1
64 436 1
64 544 1
64 565 1
64 592 1
64 623 1
64 698 1
64 722 1
64 736 1
64 743 1
64 754 1
64 762 1
64 787 1
65 1 1
65 3 1
65 19 1
65 26 1
65 53 1
65 73 1
65 126 1
65 136 1
65 158 1
65 325 1
65 374 1
65 386 1
65 395 1
65 491 1
65 534 1
65 640 1
65 664 1
66 9 1
66 15 1
66 16 1
66 35 1
66 59 1
66 133 1
66 302 1
66 321 1
66 357 1
66 515 1
67 2 1
67 32 1
67 33 1
67 38 1
67 49 1
67 63 1
67 74 1
67 82 1
67 143 1
67 170 1
67 282 1
67 449 1
67 489 1
67 492 1
67 545 1
67 556 1
67 611 1
67 612 1
67 677 1
67 707 1
67 758 1
68 8 1
68 12 1
68 19 1
68 26 1
68 32 1
68 93 1
68 117 1
68 132 1
68 135 1
68 153 1
68 161 1
68 163 1
68 171 1
68 242 1
68 325 1
68 365 1
68 383 1
68 441 1
68 448 1
68 514 1
68 752 1
68 784 1
69 5 1
69 6 1
69 9 1
69 16 1
69 17 1
69 30 1
69 83 1
69 84 1
69 87 1
69 108 1
69 141 1
69 186 1
69 235 1
69 240 1
69 264 1
69 272 1
69 279 1
69 341 1
69 352 1
69 414 1
69 432 1
69 458 1
69 465 1
69 469 1
69 501 1
69 526 1
69 573 1
69 790 1
70 6 1
70 8 1
70 11 1
70 14 1
70 38 1
70 39 1
70 120 1
70 159 1
70 197 1
70 212 1
70 329 1
70 343 1
70 352 1
70 639 1
70 663 1
70 735 1
71 6 1
71 8 1
71 9 1
71 10 1
71 25 1
71 31 1
71 72 1
71 81 1
71 95 1
71 122 1
71 132 1
71 151 1
71 159 1
71 180 1
71 193 1
71 291 1
71 297 1
71 308 1
71 336 1
71 379 1
71 403 1
71 405 1
71 483 1
71 486 1
71 538 1
71 570 1
71 584 1
71 585 1
71 716 1
71 745 1
71 761 1
71 776 1
72 1 1
72 5 1
72 8 1
72 19 1
72 25 1
72 71 1
72 85 1
72 105 1
72 159 1
72 184 1
72 206 1
72 240 1
72 276 1
72 310 1
72 365 1
72 370 1
72 379 1
72 393 1
72 475 1
72 478 1
72 489 1
72 495 1
72 524 1
72 536 1
72 585 1
72 602 1
72 773 1
72 775 1
73 1 1
73 5 1
73 22 1
73 53 1
73 65 1
73 115 1
73 119 1
73 151 1
73 280 1
73 316 1
73 366 1
73 374 1
73 386 1
73 422 1
73 491 1
73 533 1
73 581 1
73 582 1
73 708 1
73 709 1
74 2 1
74 18 1
74 38 1
74 51 1
74 59 1
74 67 1
74 77 1
74 115 1
74 239 1
74 250 1
74 274 1
74 296 1
74 368 1
74 370 1
74 485 1
74 613 1
74 780 1
74 789 1
75 17 1
75 18 1
75 28 1
75 29 1
75 30 1
75 42 1
75 464 1
76 2 1
76 5 1
76 9 1
76 40 1
76 52 1
76 258 1
76 397 1
76 702 1
76 747 1
76 775 1
77 5 1
77 13 1
77 19 1
77 38 1
77 74 1
77 92 1
77 156 1
77 239 1
77 382 1
77 435 1
77 473 1
77 531 1
77 545 1
77 568 1
77 712 1
78 1 1
78 9 1
78 19 1
78 35 1
78 45 1
78 64 1
78 104 1
78 118 1
78 130 1
78 137 1
78 144 1
78 157 1
78 184 1
78 207 1
78 213 1
78 245 1
78 289 1
78 295 1
78 309 1
78 339 1
78 400 1
78 436 1
78 440 1
78 445 1
78 454 1
78 524 1
78 537 1
78 547 1
78 631 1
78 692 1
78 722 1
78 748 1
78 755 1
79 10 1
79 15 1
79 21 1
79 43 1
79 46 1
79 54 1
79 82 1
79 89 1
79 183 1
79 219 1
79 248 1
79 254 1
79 262 1
79 270 1
79 306 1
79 344 1
79 411 1
79 415 1
79 455 1
79 498 1
79 501 1
79 521 1
79 539 1
79 577 1
79 597 1
79 743 1
79 789 1
80 3 1
80 8 1
80 38 1
80 41 1
80 63 1
80 117 1
80 118 1
80 174 1
80 277 1
80 300 1
80 349 1
80 350 1
80 373 1
80 439 1
80 494 1
80 500 1
80 529 1
80 658 1
80 710 1
81 15 1
81 31 1
81 34 1
81 49 1
81 71 1
81 95 1
81 122 1
81 132 1
81 218 1
81 237 1
81 262 1
81 297 1
81 331 1
81 390 1
81 463 1
81 618 1
82 10 1
82 33 1
82 46 1
82 49 1
82 67 1
82 79 1
82 89 1
82 90 1
82 143 1
82 170 1
82 254 1
82 302 1
82 344 1
82 348 1
82 359 1
82 449 1
82 523 1
82 620 1
82 662 1
82 677 1
83 2 1
83 5 1
83 9 1
83 48 1
83 58 1
83 69 1
83 94 1
83 124 1
83 182 1
83 208 1
83 238 1
83 264 1
83 366 1
83 427 1
83 461 1
83 513 1
83 516 1
83 584 1
83 627 1
83 727 1
84 6 1
84 17 1
84 18 1
84 29 1
84 30 1
84 69 1
84 113 1
84 145 1
84 173 1
84 187 1
84 217 1
84 265 1
84 283 1
84 371 1
84 401 1
84 425 1
84 433 1
84 472 1
84 486 1
84 570 1
84 620 1
84 622 1
84 685 1
84 710 1
84 714 1
84 797 1
85 4 1
85 5 1
85 19 1
85 22 1
85 72 1
85 172 1
85 178 1
85 184 1
85 261 1
85 310 1
85 329 1
85 361 1
85 365 1
85 409 1
85 425 1
85 455 1
85 575 1
85 580 1
85 583 1
85 609 1
85 659 1
85 685 1
85 688 1
85 765 1
85 787 1
86 2 1
86 3 1
86 4 1
86 10 1
86 17 1
86 63 1
86 136 1
86 146 1
86 222 1
86 412 1
86 497 1
86 557 1
86 571 1
86 649 1
86 651 1
86 721 1
87 9 1
87 10 1
87 16 1
87 46 1
87 57 1
87 69 1
87 102 1
87 105 1
87 126 1
87 150 1
87 166 1
87 195 1
87 228 1
87 292 1
87 316 1
87 358 1
87 426 1
87 465 1
87 467 1
87 526 1
87 529 1
87 533 1
87 654 1
87 657 1
87 697 1
87 777 1
88 6 1
88 20 1
88 23 1
88 24 1
88 63 1
88 89 1
88 107 1
88 178 1
88 188 1
88 199 1
88 231 1
88 308 1
88 317 1
88 330 1
88 376 1
88 390 1
88 391 1
88 393 1
88 412 1
88 511 1
88 590 1
88 705 1
88 707 1
88 732 1
88 760 1
88 772 1
89 6 1
89 46 1
89 63 1
89 79 1
89 82 1
89 88 1
89 219 1
89 344 1
89 348 1
89 662 1
89 789 1
90 6 1
90 33 1
90 46 1
90 49 1
90 54 1
90 82 1
90 124 1
90 139 1
90 155 1
90 192 1
90 229 1
90 279 1
90 359 1
90 379 1
90 523 1
90 620 1
90 641 1
91 1 1
91 5 1
91 15 1
91 43 1
91 47 1
91 53 1
91 97 1
91 168 1
91 202 1
91 204 1
91 337 1
91 443 1
91 457 1
91 531 1
91 599 1
91 746 1
92 3 1
92 4 1
92 5 1
92 6 1
92 19 1
92 77 1
92 101 1
92 187 1
92 243 1
92 259 1
92 263 1
92 281 1
92 354 1
92 382 1
92 435 1
92 445 1
92 472 1
92 473 1
92 512 1
92 668 1
93 6 1
93 11 1
93 12 1
93 16 1
93 58 1
93 68 1
93 96 1
93 134 1
93 142 1
93 271 1
93 305 1
93 325 1
93 365 1
93 550 1
93 576 1
93 636 1
93 660 1
94 2 1
94 16 1
94 44 1
94 48 1
94 59 1
94 83 1
94 135 1
94 176 1
94 182 1
94 208 1
94 211 1
94 215 1
94 242 1
94 335 1
94 361 1
94 375 1
94 381 1
94 409 1
94 427 1
94 447 1
94 513 1
94 544 1
94 555 1
94 562 1
94 587 1
94 617 1
94 661 1
94 678 1
94 719 1
94 730 1
94 734 1
95 3 1
95 9 1
95 10 1
95 25 1
95 71 1
95 81 1
95 122 1
95 180 1
95 197 1
95 291 1
95 380 1
95 385 1
95 406 1
95 438 1
95 464 1
95 588 1
95 599 1
95 748 1
96 16 1
96 18 1
96 56 1
96 58 1
96 60 1
96 93 1
96 102 1
96 134 1
96 142 1
96 167 1
96 185 1
96 192 1
96 271 1
96 283 1
96 305 1
96 323 1
96 345 1
96 388 1
96 416 1
96 607 1
96 614 1
96 636 1
96 663 1
96 780 1
97 1 1
97 8 1
97 36 1
97 53 1
97 55 1
97 91 1
97 205 1
97 246 1
97 319 1
97 384 1
97 398 1
97 456 1
97 503 1
97 520 1
97 542 1
97 559 1
97 639 1
97 751 1
98 5 1
98 7 1
98 21 1
98 30 1
98 56 1
98 60 1
98 234 1
98 260 1
98 509 1
98 589 1
99 4 1
99 6 1
99 7 1
99 9 1
99 10 1
99 11 1
99 130 1
99 161 1
99 176 1
99 181 1
99 199 1
99 247 1
99 253 1
99 289 1
99 338 1
99 341 1
99 421 1
99 438 1
99 444 1
99 487 1
99 541 1
99 549 1
99 646 1
99 713 1
99 764 1
100 4 1
100 14 1
100 16 1
100 34 1
100 38 1
100 152 1
100 160 1
100 175 1
100 189 1
100 203 1
100 275 1
100 295 1
100 343 1
100 434 1
100 470 1
100 481 1
100 505 1
100 521 1
100 547 1
100 655 1
100 666 1
100 785 1
100 793 1
101 2 1
101 3 1
101 14 1
101 58 1
101 92 1
101 157 1
101 259 1
101 305 1
101 432 1
101 442 1
101 567 1
101 600 1
101 641 1
102 9 1
102 16 1
102 56 1
102 60 1
102 87 1
102 96 1
102 167 1
102 195 1
102 294 1
102 377 1
102 389 1
102 396 1
103 6 1
103 14 1
103 26 1
103 28 1
103 34 1
103 42 1
103 221 1
103 225 1
103 313 1
103 484 1
103 543 1
103 792 1
104 5 1
104 17 1
104 19 1
104 43 1
104 45 1
104 78 1
104 130 1
104 207 1
104 328 1
104 404 1
104 482 1
104 631 1
104 712 1
105 1 1
105 19 1
105 46 1
105 57 1
105 72 1
105 87 1
105 150 1
105 166 1
105 240 1
105 276 1
105 316 1
105 332 1
105 467 1
105 777 1
106 1 1
106 4 1
106 6 1
106 18 1
106 19 1
106 32 1
106 119 1
106 127 1
106 169 1
106 188 1
106 204 1
106 268 1
106 346 1
106 364 1
106 397 1
106 399 1
106 434 1
106 499 1
106 518 1
106 625 1
106 713 1
107 5 1
107 6 1
107 14 1
107 24 1
107 88 1
107 178 1
107 199 1
107 213 1
107 257 1
107 267 1
107 342 1
107 654 1
107 672 1
107 761 1
108 6 1
108 8 1
108 17 1
108 36 1
108 69 1
108 141 1
108 186 1
108 216 1
108 240 1
108 284 1
108 459 1
108 573 1
108 581 1
108 600 1
108 603 1
109 3 1
109 17 1
109 35 1
109 40 1
109 45 1
109 47 1
109 123 1
109 164 1
109 189 1
109 217 1
109 225 1
109 230 1
109 301 1
109 363 1
109 406 1
109 431 1
109 515 1
109 585 1
109 589 1
110 6 1
110 14 1
110 20 1
110 23 1
110 30 1
110 51 1
110 112 1
110 201 1
110 334 1
111 3 1
111 6 1
111 18 1
111 20 1
111 23 1
111 59 1
111 227 1
111 238 1
111 296 1
111 307 1
111 618 1
111 668 1
111 732 1
112 5 1
112 14 1
112 20 1
112 44 1
112 50 1
112 110 1
112 152 1
112 349 1
112 546 1
112 562 1
112 638 1
112 731 1
113 6 1
113 18 1
113 36 1
113 41 1
113 55 1
113 84 1
113 129 1
113 145 1
113 187 1
113 190 1
113 255 1
113 283 1
113 315 1
113 357 1
113 371 1
113 446 1
113 486 1
113 622 1
113 685 1
114 2 1
114 15 1
114 22 1
114 23 1
114 24 1
114 25 1
114 116 1
114 200 1
114 369 1
114 473 1
114 630 1
115 1 1
115 5 1
115 51 1
115 59 1
115 73 1
115 74 1
115 274 1
115 366 1
115 572 1
115 674 1
115 708 1
116 22 1
116 23 1
116 24 1
116 25 1
116 114 1
116 128 1
116 573 1
116 630 1
117 8 1
117 26 1
117 32 1
117 38 1
117 68 1
117 80 1
117 118 1
117 138 1
117 163 1
117 174 1
117 232 1
117 248 1
117 273 1
117 292 1
117 490 1
117 545 1
117 741 1
118 9 1
118 38 1
118 64 1
118 78 1
118 80 1
118 117 1
118 144 1
118 183 1
118 213 1
118 245 1
118 311 1
118 354 1
118 416 1
118 454 1
118 545 1
118 658 1
118 690 1
119 1 1
119 4 1
119 18 1
119 22 1
119 73 1
119 106 1
119 127 1
119 139 1
119 151 1
119 163 1
119 169 1
119 241 1
119 259 1
119 280 1
119 364 1
119 460 1
119 506 1
119 601 1
119 679 1
119 689 1
119 699 1
119 708 1
119 749 1
119 767 1
119 791 1
119 800 1
120 14 1
120 18 1
120 30 1
120 39 1
120 60 1
120 70 1
120 129 1
120 137 1
120 159 1
120 197 1
120 255 1
120 271 1
120 317 1
120 320 1
120 351 1
120 374 1
120 586 1
120 727 1
120 753 1
120 778 1
120 785 1
121 6 1
121 7 1
121 11 1
121 12 1
121 35 1
121 64 1
121 191 1
121 269 1
121 342 1
121 358 1
121 614 1
122 6 1
122 28 1
122 36 1
122 71 1
122 81 1
122 95 1
122 151 1
122 197 1
122 207 1
122 297 1
122 508 1
122 546 1
122 580 1
122 642 1
123 4 1
123 9 1
123 15 1
123 17 1
123 45 1
123 109 1
123 225 1
123 408 1
123 585 1
123 635 1
124 46 1
124 48 1
124 54 1
124 58 1
124 83 1
124 90 1
124 139 1
124 158 1
124 179 1
124 231 1
124 265 1
124 279 1
124 318 1
124 322 1
124 407 1
124 502 1
124 535 1
124 590 1
124 727 1
124 728 1
125 2 1
125 4 1
125 21 1
125 24 1
125 28 1
125 48 1
125 223 1
125 595 1
125 643 1
126 3 1
126 10 1
126 26 1
126 57 1
126 65 1
126 87 1
126 228 1
126 358 1
126 395 1
126 640 1
126 722 1
127 4 1
127 5 1
127 6 1
127 58 1
127 106 1
127 119 1
127 138 1
127 139 1
127 169 1
127 204 1
127 284 1
127 346 1
127 353 1
127 397 1
127 399 1
127 506 1
127 518 1
127 519 1
127 679 1
127 680 1
127 687 1
127 731 1
127 788 1
128 2 1
128 6 1
128 22 1
128 23 1
128 25 1
128 116 1
128 195 1
128 249 1
128 273 1
128 282 1
128 304 1
128 469 1
128 506 1
128 550 1
128 573 1
128 615 1
129 6 1
129 18 1
129 60 1
129 113 1
129 120 1
129 190 1
129 317 1
129 351 1
129 647 1
130 6 1
130 7 1
130 45 1
130 78 1
130 99 1
130 104 1
130 207 1
130 220 1
130 289 1
130 421 1
130 530 1
131 6 1
131 8 1
131 14 1
131 16 1
131 46 1
131 145 1
131 147 1
131 169 1
131 198 1
131 224 1
131 310 1
131 364 1
131 415 1
131 450 1
131 452 1
131 606 1
131 800 1
132 19 1
132 26 1
132 31 1
132 68 1
132 71 1
132 81 1
132 218 1
132 405 1
132 784 1
133 1 1
133 7 1
133 13 1
133 35 1
133 59 1
133 66 1
133 302 1
133 401 1
133 488 1
133 503 1
133 566 1
133 616 1
133 624 1
133 644 1
133 702 1
133 718 1
134 10 1
134 17 1
134 52 1
134 58 1
134 93 1
134 96 1
134 142 1
134 185 1
134 540 1
134 576 1
134 696 1
134 714 1
134 719 1
135 8 1
135 11 1
135 44 1
135 59 1
135 68 1
135 94 1
135 171 1
135 242 1
135 361 1
135 448 1
135 551 1
135 609 1
135 625 1
135 719 1
136 10 1
136 17 1
136 19 1
136 26 1
136 65 1
136 86 1
136 143 1
136 186 1
136 278 1
136 335 1
136 388 1
136 664 1
136 737 1
136 768 1
137 9 1
137 30 1
137 35 1
137 60 1
137 78 1
137 120 1
137 157 1
137 271 1
137 311 1
137 320 1
137 347 1
137 623 1
138 6 1
138 8 1
138 38 1
138 58 1
138 117 1
138 127 1
138 408 1
138 490 1
139 4 1
139 54 1
139 90 1
139 119 1
139 124 1
139 127 1
139 179 1
139 241 1
139 259 1
139 279 1
139 284 1
139 362 1
139 377 1
139 379 1
139 394 1
139 407 1
139 424 1
139 431 1
139 437 1
139 519 1
139 679 1
139 687 1
139 756 1
140 4 1
140 6 1
140 17 1
140 18 1
140 29 1
140 42 1
140 148 1
140 288 1
140 307 1
140 319 1
140 468 1
140 561 1
140 577 1
140 655 1
140 750 1
140 794 1
141 3 1
141 17 1
141 43 1
141 69 1
141 108 1
141 186 1
141 206 1
141 216 1
141 235 1
141 272 1
141 320 1
141 324 1
141 352 1
141 387 1
141 414 1
141 459 1
141 501 1
141 556 1
141 596 1
141 657 1
141 660 1
142 8 1
142 25 1
142 37 1
142 93 1
142 96 1
142 134 1
142 226 1
142 305 1
142 410 1
142 716 1
142 786 1
143 19 1
143 26 1
143 33 1
143 67 1
143 82 1
143 136 1
143 186 1
143 235 1
143 278 1
143 388 1
143 556 1
143 652 1
143 677 1
143 768 1
144 24 1
144 28 1
144 54 1
144 64 1
144 78 1
144 118 1
144 183 1
144 209 1
144 245 1
144 276 1
144 311 1
144 339 1
144 372 1
144 416 1
144 436 1
144 466 1
144 690 1
144 798 1
145 8 1
145 14 1
145 18 1
145 84 1
145 113 1
145 131 1
145 173 1
145 283 1
145 304 1
145 315 1
145 372 1
145 436 1
145 459 1
145 523 1
145 528 1
145 549 1
145 697 1
146 4 1
146 17 1
146 27 1
146 40 1
146 56 1
146 86 1
146 222 1
146 229 1
146 412 1
146 461 1
146 582 1
146 649 1
146 651 1
146 773 1
147 1 1
147 3 1
147 4 1
147 14 1
147 46 1
147 131 1
147 169 1
147 179 1
147 194 1
147 198 1
147 234 1
147 246 1
147 331 1
147 608 1
147 688 1
147 723 1
147 800 1
148 2 1
148 7 1
148 29 1
148 42 1
148 64 1
148 140 1
148 307 1
148 683 1
148 736 1
148 750 1
149 3 1
149 4 1
149 33 1
149 38 1
149 49 1
149 185 1
149 198 1
149 202 1
149 245 1
149 286 1
149 338 1
149 404 1
149 527 1
149 530 1
149 656 1
149 738 1
149 742 1
149 766 1
150 6 1
150 16 1
150 44 1
150 46 1
150 87 1
150 105 1
150 166 1
150 297 1
150 303 1
150 697 1
150 759 1
151 22 1
151 71 1
151 73 1
151 119 1
151 122 1
151 180 1
151 197 1
151 280 1
151 308 1
151 316 1
151 380 1
151 464 1
151 508 1
151 582 1
151 676 1
151 689 1
151 699 1
151 701 1
151 776 1
152 2 1
152 4 1
152 5 1
152 50 1
152 100 1
152 112 1
152 175 1
152 196 1
152 203 1
152 270 1
152 295 1
152 428 1
152 451 1
152 493 1
152 525 1
152 640 1
153 6 1
153 8 1
153 12 1
153 35 1
153 44 1
153 68 1
153 280 1
153 516 1
153 752 1
154 7 1
154 9 1
154 16 1
154 35 1
154 44 1
154 50 1
154 368 1
154 513 1
154 670 1
155 5 1
155 22 1
155 31 1
155 33 1
155 49 1
155 90 1
155 192 1
155 256 1
155 294 1
155 313 1
155 429 1
155 475 1
155 593 1
156 4 1
156 13 1
156 19 1
156 47 1
156 51 1
156 77 1
156 359 1
156 402 1
157 14 1
157 35 1
157 58 1
157 78 1
157 101 1
157 137 1
157 567 1
157 623 1
157 665 1
158 3 1
158 19 1
158 48 1
158 58 1
158 65 1
158 124 1
158 231 1
158 254 1
158 265 1
158 315 1
158 322 1
158 325 1
158 395 1
158 491 1
158 502 1
158 510 1
158 670 1
158 728 1
159 8 1
159 39 1
159 70 1
159 71 1
159 72 1
159 120 1
159 212 1
159 255 1
159 329 1
159 379 1
159 393 1
159 405 1
159 538 1
159 540 1
159 570 1
159 628 1
159 659 1
159 663 1
159 672 1
160 5 1
160 15 1
160 16 1
160 31 1
160 100 1
160 343 1
160 496 1
160 655 1
161 9 1
161 10 1
161 19 1
161 32 1
161 68 1
161 99 1
161 257 1
161 482 1
162 5 1
162 17 1
162 18 1
162 51 1
162 52 1
162 56 1
162 786 1
163 4 1
163 18 1
163 32 1
163 68 1
163 117 1
163 119 1
163 232 1
163 236 1
163 383 1
163 800 1
164 35 1
164 44 1
164 47 1
164 59 1
164 109 1
164 201 1
164 367 1
164 557 1
164 738 1
165 2 1
165 3 1
165 14 1
165 23 1
165 35 1
165 40 1
165 398 1
165 558 1
165 651 1
165 760 1
166 1 1
166 51 1
166 53 1
166 87 1
166 105 1
166 150 1
166 316 1
166 508 1
166 697 1
166 799 1
167 3 1
167 55 1
167 56 1
167 60 1
167 96 1
167 102 1
167 226 1
167 261 1
167 283 1
167 299 1
167 381 1
168 1 1
168 3 1
168 32 1
168 47 1
168 49 1
168 91 1
168 204 1
168 208 1
168 227 1
168 314 1
168 419 1
168 479 1
168 694 1
169 14 1
169 106 1
169 119 1
169 127 1
169 131 1
169 147 1
169 198 1
169 204 1
169 364 1
169 378 1
169 506 1
169 708 1
170 4 1
170 5 1
170 15 1
170 49 1
170 67 1
170 82 1
170 302 1
170 449 1
170 583 1
170 617 1
171 3 1
171 11 1
171 41 1
171 45 1
171 68 1
171 135 1
171 242 1
171 299 1
171 444 1
171 514 1
171 551 1
171 671 1
172 3 1
172 5 1
172 15 1
172 22 1
172 55 1
172 85 1
172 175 1
172 178 1
172 193 1
172 228 1
172 253 1
172 329 1
172 363 1
172 447 1
172 451 1
172 462 1
172 514 1
172 575 1
172 609 1
172 632 1
172 691 1
172 705 1
173 18 1
173 46 1
173 57 1
173 62 1
173 84 1
173 145 1
173 233 1
173 281 1
173 433 1
173 570 1
174 2 1
174 4 1
174 8 1
174 47 1
174 80 1
174 117 1
174 403 1
174 494 1
175 4 1
175 15 1
175 22 1
175 100 1
175 152 1
175 172 1
175 189 1
175 193 1
175 203 1
175 232 1
175 253 1
175 256 1
175 451 1
175 468 1
175 493 1
175 521 1
176 4 1
176 10 1
176 16 1
176 59 1
176 94 1
176 99 1
176 181 1
176 212 1
176 215 1
176 375 1
176 409 1
176 418 1
176 444 1
176 447 1
176 476 1
176 520 1
176 541 1
176 564 1
176 617 1
176 678 1
177 4 1
177 8 1
177 18 1
177 23 1
177 24 1
177 28 1
177 191 1
177 214 1
177 218 1
177 476 1
177 502 1
177 505 1
177 511 1
178 6 1
178 22 1
178 85 1
178 88 1
178 107 1
178 172 1
178 231 1
178 257 1
178 308 1
178 317 1
178 361 1
178 396 1
178 488 1
178 609 1
178 632 1
179 1 1
179 4 1
179 54 1
179 124 1
179 139 1
179 147 1
179 688 1
180 24 1
180 62 1
180 71 1
180 95 1
180 151 1
180 210 1
180 233 1
180 291 1
180 308 1
180 336 1
180 380 1
180 385 1
180 406 1
180 411 1
180 438 1
180 474 1
180 601 1
180 671 1
180 698 1
180 701 1
181 10 1
181 39 1
181 40 1
181 56 1
181 99 1
181 176 1
181 211 1
181 444 1
181 458 1
181 499 1
181 538 1
181 564 1
182 27 1
182 39 1
182 48 1
182 83 1
182 94 1
182 208 1
182 211 1
182 214 1
182 238 1
182 266 1
182 335 1
182 366 1
182 461 1
182 462 1
182 474 1
182 516 1
182 541 1
182 552 1
182 560 1
182 567 1
182 591 1
182 626 1
182 630 1
182 653 1
182 682 1
182 729 1
182 794 1
183 15 1
183 21 1
183 64 1
183 79 1
183 118 1
183 144 1
183 248 1
183 262 1
183 415 1
183 416 1
183 466 1
183 470 1
183 637 1
184 1 1
184 5 1
184 45 1
184 72 1
184 78 1
184 85 1
184 289 1
184 344 1
184 345 1
184 659 1
185 3 1
185 49 1
185 58 1
185 96 1
185 134 1
185 149 1
185 192 1
185 198 1
185 245 1
185 404 1
185 633 1
185 742 1
186 26 1
186 69 1
186 108 1
186 136 1
186 141 1
186 143 1
186 235 1
186 279 1
186 459 1
186 469 1
186 481 1
186 573 1
186 660 1
187 5 1
187 6 1
187 19 1
187 84 1
187 92 1
187 113 1
187 243 1
187 263 1
187 327 1
187 357 1
187 371 1
187 472 1
187 594 1
188 1 1
188 6 1
188 19 1
188 23 1
188 88 1
188 106 1
188 277 1
188 330 1
188 597 1
188 732 1
189 4 1
189 40 1
189 47 1
189 100 1
189 109 1
189 175 1
189 217 1
189 236 1
189 258 1
189 443 1
189 505 1
189 753 1
190 6 1
190 10 1
190 18 1
190 57 1
190 113 1
190 129 1
190 652 1
191 4 1
191 23 1
191 35 1
191 64 1
191 121 1
191 177 1
191 196 1
191 269 1
191 342 1
191 358 1
191 592 1
191 698 1
191 706 1
191 743 1
191 744 1
191 754 1
191 795 1
192 33 1
192 58 1
192 90 1
192 96 1
192 155 1
192 185 1
192 294 1
192 429 1
192 593 1
192 720 1
193 6 1
193 10 1
193 22 1
193 71 1
193 172 1
193 175 1
193 223 1
193 243 1
193 252 1
193 330 1
193 363 1
193 426 1
193 584 1
193 716 1
193 745 1
194 1 1
194 3 1
194 18 1
194 29 1
194 147 1
194 217 1
194 234 1
194 251 1
194 263 1
194 265 1
194 417 1
194 619 1
195 6 1
195 16 1
195 23 1
195 87 1
195 102 1
195 128 1
195 273 1
195 301 1
195 695 1
196 2 1
196 4 1
196 23 1
196 152 1
196 191 1
196 360 1
196 493 1
196 706 1
196 718 1
196 781 1
196 795 1
197 14 1
197 70 1
197 95 1
197 120 1
197 122 1
197 151 1
197 508 1
197 727 1
198 3 1
198 131 1
198 147 1
198 149 1
198 169 1
198 185 1
198 527 1
199 4 1
199 9 1
199 24 1
199 88 1
199 99 1
199 107 1
199 621 1
199 705 1
199 764 1
200 5 1
200 8 1
200 14 1
200 15 1
200 22 1
200 114 1
200 264 1
200 400 1
200 423 1
200 473 1
200 593 1
200 603 1
200 634 1
200 740 1
201 30 1
201 35 1
201 51 1
201 59 1
201 110 1
201 164 1
201 332 1
201 367 1
201 441 1
201 563 1
201 738 1
202 33 1
202 47 1
202 49 1
202 53 1
202 91 1
202 149 1
202 337 1
202 338 1
202 530 1
202 531 1
202 554 1
202 628 1
202 677 1
203 2 1
203 11 1
203 64 1
203 100 1
203 152 1
203 175 1
203 239 1
203 295 1
203 428 1
203 434 1
203 451 1
203 521 1
203 547 1
203 623 1
203 733 1
204 47 1
204 91 1
204 106 1
204 127 1
204 168 1
204 169 1
204 208 1
204 346 1
204 443 1
204 457 1
204 518 1
204 599 1
204 625 1
205 1 1
205 13 1
205 53 1
205 97 1
205 319 1
205 384 1
205 559 1
205 767 1
206 3 1
206 8 1
206 17 1
206 25 1
206 72 1
206 141 1
206 216 1
206 252 1
206 272 1
206 387 1
206 799 1
207 6 1
207 36 1
207 78 1
207 104 1
207 122 1
207 130 1
207 360 1
207 430 1
207 580 1
207 621 1
207 642 1
208 47 1
208 83 1
208 94 1
208 168 1
208 182 1
208 204 1
208 211 1
208 266 1
208 516 1
208 587 1
208 630 1
208 653 1
209 22 1
209 24 1
209 28 1
209 33 1
209 57 1
209 144 1
209 276 1
209 535 1
209 684 1
209 798 1
210 3 1
210 5 1
210 24 1
210 25 1
210 31 1
210 180 1
210 383 1
210 474 1
210 479 1
210 561 1
211 39 1
211 56 1
211 94 1
211 181 1
211 182 1
211 208 1
211 266 1
211 335 1
211 462 1
211 587 1
211 626 1
211 729 1
211 793 1
212 4 1
212 10 1
212 39 1
212 70 1
212 159 1
212 176 1
212 329 1
212 540 1
212 628 1
212 639 1
213 5 1
213 9 1
213 14 1
213 78 1
213 107 1
213 118 1
213 267 1
213 293 1
213 309 1
213 367 1
213 445 1
213 571 1
214 4 1
214 6 1
214 24 1
214 39 1
214 177 1
214 182 1
214 437 1
214 505 1
214 511 1
214 541 1
214 552 1
214 693 1
215 5 1
215 9 1
215 16 1
215 21 1
215 94 1
215 176 1
215 339 1
215 477 1
215 617 1
216 6 1
216 17 1
216 108 1
216 141 1
216 206 1
216 272 1
216 320 1
216 324 1
216 376 1
216 798 1
217 29 1
217 40 1
217 84 1
217 109 1
217 189 1
217 194 1
217 251 1
217 263 1
217 386 1
217 410 1
217 471 1
217 619 1
217 634 1
218 8 1
218 28 1
218 81 1
218 132 1
218 177 1
219 1 1
219 2 1
219 7 1
219 46 1
219 79 1
219 89 1
219 501 1
219 576 1
219 638 1
219 788 1
219 789 1
220 2 1
220 6 1
220 7 1
220 11 1
220 36 1
220 130 1
220 306 1
220 348 1
220 350 1
220 530 1
220 695 1
221 9 1
221 14 1
221 17 1
221 26 1
221 52 1
221 103 1
221 225 1
221 287 1
221 293 1
221 312 1
221 313 1
221 327 1
221 380 1
221 423 1
221 484 1
221 510 1
221 532 1
221 656 1
221 667 1
221 781 1
222 6 1
222 8 1
222 17 1
222 86 1
222 146 1
222 229 1
222 244 1
222 267 1
222 284 1
222 571 1
222 649 1
223 2 1
223 6 1
223 10 1
223 28 1
223 125 1
223 193 1
223 243 1
223 330 1
223 340 1
223 426 1
223 519 1
223 658 1
223 745 1
223 790 1
224 6 1
224 14 1
224 48 1
224 58 1
224 131 1
224 452 1
224 606 1
224 611 1
224 675 1
224 750 1
225 26 1
225 45 1
225 103 1
225 109 1
225 123 1
225 221 1
225 230 1
225 363 1
225 399 1
225 585 1
225 635 1
226 3 1
226 8 1
226 37 1
226 60 1
226 142 1
226 167 1
226 261 1
226 266 1
226 299 1
226 555 1
226 715 1
226 716 1
226 779 1
227 3 1
227 20 1
227 23 1
227 49 1
227 111 1
227 168 1
227 238 1
227 296 1
227 346 1
227 371 1
227 419 1
227 618 1
227 675 1
228 5 1
228 10 1
228 55 1
228 87 1
228 126 1
228 172 1
228 358 1
228 426 1
228 514 1
228 626 1
228 649 1
228 654 1
228 722 1
229 6 1
229 17 1
229 46 1
229 90 1
229 146 1
229 222 1
229 382 1
230 7 1
230 11 1
230 45 1
230 64 1
230 109 1
230 225 1
230 363 1
230 399 1
230 544 1
230 565 1
230 589 1
230 724 1
230 765 1
231 6 1
231 58 1
231 88 1
231 124 1
231 158 1
231 178 1
231 308 1
231 315 1
231 322 1
231 395 1
231 488 1
231 578 1
231 590 1
232 15 1
232 22 1
232 32 1
232 117 1
232 163 1
232 175 1
232 236 1
232 248 1
232 256 1
232 285 1
232 323 1
232 468 1
232 490 1
233 24 1
233 57 1
233 62 1
233 173 1
233 180 1
233 250 1
234 1 1
234 7 1
234 21 1
234 98 1
234 147 1
234 194 1
234 260 1
234 298 1
234 527 1
234 723 1
234 770 1
234 791 1
235 26 1
235 69 1
235 141 1
235 143 1
235 186 1
235 272 1
235 279 1
235 481 1
235 660 1
236 32 1
236 40 1
236 163 1
236 189 1
236 232 1
236 258 1
236 285 1
236 300 1
236 778 1
237 1 1
237 4 1
237 25 1
237 31 1
237 51 1
237 81 1
237 331 1
237 477 1
237 512 1
237 517 1
237 618 1
238 23 1
238 48 1
238 83 1
238 111 1
238 182 1
238 227 1
238 366 1
239 2 1
239 38 1
239 64 1
239 74 1
239 77 1
239 203 1
239 623 1
239 733 1
239 780 1
240 6 1
240 19 1
240 69 1
240 72 1
240 105 1
240 108 1
240 276 1
240 341 1
240 432 1
240 581 1
240 605 1
241 4 1
241 15 1
241 22 1
241 31 1
241 119 1
241 139 1
241 259 1
241 290 1
241 377 1
241 378 1
241 394 1
241 424 1
241 497 1
241 756 1
242 11 1
242 44 1
242 68 1
242 94 1
242 135 1
242 171 1
242 381 1
242 441 1
242 514 1
242 734 1
242 763 1
243 5 1
243 6 1
243 92 1
243 187 1
243 193 1
243 223 1
243 252 1
243 330 1
243 492 1
243 658 1
243 704 1
244 2 1
244 6 1
244 8 1
244 35 1
244 222 1
244 267 1
244 392 1
245 49 1
245 78 1
245 118 1
245 144 1
245 149 1
245 185 1
245 286 1
245 311 1
245 312 1
245 321 1
245 339 1
245 372 1
245 404 1
245 454 1
245 495 1
246 8 1
246 14 1
246 36 1
246 46 1
246 97 1
246 147 1
246 331 1
246 398 1
246 467 1
246 751 1
246 769 1
247 4 1
247 6 1
247 11 1
247 32 1
247 33 1
247 99 1
247 253 1
247 341 1
247 402 1
247 427 1
247 485 1
247 487 1
247 549 1
247 629 1
247 646 1
247 746 1
248 21 1
248 32 1
248 79 1
248 117 1
248 183 1
248 232 1
248 262 1
248 470 1
248 490 1
248 637 1
249 6 1
249 22 1
249 25 1
249 57 1
249 62 1
249 128 1
249 282 1
249 304 1
249 420 1
249 422 1
249 460 1
249 469 1
249 539 1
250 18 1
250 24 1
250 51 1
250 62 1
250 74 1
250 233 1
250 466 1
250 485 1
251 5 1
251 19 1
251 29 1
251 45 1
251 194 1
251 217 1
251 263 1
251 386 1
251 410 1
251 592 1
251 634 1
252 6 1
252 8 1
252 25 1
252 193 1
252 206 1
252 243 1
252 492 1
252 665 1
252 704 1
252 799 1
253 11 1
253 15 1
253 99 1
253 172 1
253 175 1
253 247 1
253 447 1
253 487 1
253 619 1
254 10 1
254 48 1
254 58 1
254 79 1
254 82 1
254 158 1
254 270 1
254 455 1
254 457 1
254 565 1
254 693 1
254 736 1
255 36 1
255 39 1
255 41 1
255 113 1
255 120 1
255 159 1
256 22 1
256 31 1
256 155 1
256 175 1
256 232 1
256 313 1
256 323 1
256 493 1
257 6 1
257 9 1
257 10 1
257 107 1
257 161 1
257 178 1
257 396 1
257 482 1
257 654 1
258 9 1
258 47 1
258 52 1
258 76 1
258 189 1
258 236 1
258 397 1
258 443 1
258 568 1
258 747 1
258 778 1
259 3 1
259 92 1
259 101 1
259 119 1
259 139 1
259 241 1
259 394 1
259 431 1
259 641 1
260 4 1
260 21 1
260 24 1
260 54 1
260 98 1
260 234 1
260 298 1
260 509 1
260 682 1
261 3 1
261 4 1
261 15 1
261 85 1
261 167 1
261 226 1
261 375 1
261 797 1
262 15 1
262 49 1
262 79 1
262 81 1
262 183 1
262 248 1
262 390 1
263 19 1
263 92 1
263 187 1
263 194 1
263 217 1
263 251 1
263 327 1
263 354 1
263 386 1
263 471 1
263 560 1
263 619 1
264 5 1
264 8 1
264 9 1
264 69 1
264 83 1
264 200 1
264 423 1
264 603 1
264 758 1
265 18 1
265 48 1
265 84 1
265 124 1
265 158 1
265 194 1
265 318 1
265 417 1
265 425 1
265 471 1
265 510 1
265 566 1
265 604 1
265 728 1
265 797 1
266 3 1
266 60 1
266 182 1
266 208 1
266 211 1
266 226 1
266 391 1
266 462 1
266 474 1
266 555 1
266 653 1
266 793 1
267 5 1
267 6 1
267 107 1
267 213 1
267 222 1
267 244 1
267 342 1
267 367 1
268 4 1
268 6 1
268 14 1
268 27 1
268 40 1
268 106 1
268 275 1
268 286 1
268 355 1
268 434 1
268 480 1
268 483 1
268 504 1
268 616 1
268 680 1
268 759 1
269 8 1
269 35 1
269 41 1
269 55 1
269 121 1
269 191 1
269 358 1
269 387 1
269 528 1
270 5 1
270 10 1
270 50 1
270 79 1
270 152 1
270 254 1
270 411 1
270 455 1
270 565 1
270 640 1
270 736 1
271 16 1
271 60 1
271 93 1
271 96 1
271 120 1
271 137 1
271 311 1
271 320 1
271 323 1
271 345 1
271 347 1
271 534 1
271 586 1
271 636 1
271 660 1
272 69 1
272 141 1
272 206 1
272 216 1
272 235 1
272 387 1
272 414 1
273 6 1
273 26 1
273 32 1
273 117 1
273 128 1
273 195 1
273 292 1
273 301 1
273 615 1
273 662 1
274 43 1
274 55 1
274 59 1
274 61 1
274 74 1
274 115 1
274 296 1
274 362 1
274 370 1
274 419 1
275 4 1
275 6 1
275 38 1
275 100 1
275 268 1
275 449 1
275 470 1
275 552 1
275 645 1
275 680 1
275 759 1
275 769 1
275 785 1
275 792 1
276 24 1
276 72 1
276 105 1
276 144 1
276 209 1
276 240 1
276 684 1
276 798 1
277 3 1
277 6 1
277 23 1
277 38 1
277 80 1
277 188 1
277 439 1
277 559 1
277 597 1
277 629 1
278 5 1
278 19 1
278 35 1
278 42 1
278 136 1
278 143 1
278 335 1
278 388 1
278 526 1
278 652 1
279 69 1
279 90 1
279 124 1
279 139 1
279 186 1
279 235 1
279 379 1
279 407 1
279 469 1
279 481 1
280 8 1
280 12 1
280 73 1
280 119 1
280 151 1
280 153 1
280 316 1
280 699 1
281 4 1
281 6 1
281 46 1
281 62 1
281 92 1
281 173 1
281 450 1
282 25 1
282 32 1
282 49 1
282 67 1
282 128 1
282 249 1
282 469 1
282 489 1
283 56 1
283 84 1
283 96 1
283 113 1
283 145 1
283 167 1
283 381 1
283 610 1
283 685 1
283 721 1
284 4 1
284 8 1
284 108 1
284 127 1
284 139 1
284 222 1
284 362 1
284 519 1
284 600 1
285 13 1
285 19 1
285 53 1
285 232 1
285 236 1
285 300 1
285 420 1
285 744 1
286 14 1
286 27 1
286 49 1
286 149 1
286 245 1
286 268 1
286 312 1
286 321 1
286 480 1
286 495 1
287 6 1
287 9 1
287 46 1
287 52 1
287 62 1
287 221 1
287 293 1
287 312 1
287 423 1
287 510 1
287 711 1
287 781 1
288 4 1
288 15 1
288 17 1
288 25 1
288 34 1
288 140 1
288 319 1
288 385 1
288 561 1
288 569 1
288 574 1
288 648 1
288 653 1
288 720 1
289 1 1
289 6 1
289 78 1
289 99 1
289 130 1
289 184 1
289 295 1
289 353 1
289 421 1
289 438 1
289 439 1
289 524 1
289 547 1
289 551 1
290 2 1
290 16 1
290 22 1
290 26 1
290 31 1
290 241 1
290 303 1
290 392 1
290 636 1
290 784 1
291 5 1
291 11 1
291 37 1
291 71 1
291 95 1
291 180 1
291 336 1
291 553 1
291 694 1
291 782 1
292 10 1
292 26 1
292 46 1
292 87 1
292 117 1
292 273 1
292 333 1
292 465 1
292 741 1
293 5 1
293 9 1
293 14 1
293 213 1
293 221 1
293 287 1
294 9 1
294 16 1
294 33 1
294 102 1
294 155 1
294 192 1
294 377 1
294 429 1
294 475 1
295 1 1
295 78 1
295 100 1
295 152 1
295 203 1
295 289 1
295 353 1
295 428 1
295 434 1
295 439 1
295 524 1
295 525 1
295 735 1
296 20 1
296 59 1
296 74 1
296 111 1
296 227 1
296 274 1
296 370 1
296 618 1
296 675 1
297 16 1
297 44 1
297 71 1
297 81 1
297 122 1
297 150 1
297 303 1
297 650 1
297 759 1
298 2 1
298 3 1
298 21 1
298 32 1
298 234 1
298 260 1
298 433 1
298 757 1
298 768 1
298 791 1
299 11 1
299 60 1
299 167 1
299 171 1
299 226 1
299 551 1
300 8 1
300 32 1
300 41 1
300 80 1
300 236 1
300 285 1
300 507 1
300 635 1
300 710 1
301 3 1
301 6 1
301 17 1
301 109 1
301 195 1
301 273 1
301 431 1
301 515 1
301 662 1
301 695 1
302 49 1
302 59 1
302 66 1
302 82 1
302 133 1
302 170 1
302 321 1
302 401 1
302 572 1
302 617 1
302 702 1
303 16 1
303 26 1
303 150 1
303 290 1
303 297 1
303 324 1
303 328 1
303 392 1
303 428 1
303 725 1
303 749 1
303 784 1
304 8 1
304 14 1
304 22 1
304 128 1
304 145 1
304 249 1
304 372 1
304 436 1
304 453 1
304 496 1
304 506 1
304 539 1
305 2 1
305 14 1
305 93 1
305 96 1
305 101 1
305 142 1
305 384 1
305 417 1
305 442 1
305 454 1
305 548 1
305 596 1
305 598 1
305 624 1
305 667 1
305 683 1
305 747 1
306 2 1
306 10 1
306 11 1
306 54 1
306 79 1
306 220 1
306 350 1
306 356 1
306 498 1
306 537 1
306 690 1
307 18 1
307 29 1
307 59 1
307 111 1
307 140 1
307 148 1
307 468 1
307 655 1
308 71 1
308 88 1
308 151 1
308 178 1
308 180 1
308 231 1
308 317 1
308 393 1
308 412 1
308 488 1
308 578 1
308 590 1
308 707 1
308 776 1
309 5 1
309 9 1
309 15 1
309 22 1
309 78 1
309 213 1
309 445 1
309 537 1
309 571 1
309 586 1
310 8 1
310 16 1
310 19 1
310 72 1
310 85 1
310 131 1
310 365 1
310 475 1
310 489 1
310 536 1
310 632 1
310 688 1
311 60 1
311 118 1
311 137 1
311 144 1
311 245 1
311 271 1
311 347 1
311 372 1
312 49 1
312 52 1
312 221 1
312 245 1
312 286 1
312 287 1
312 321 1
312 480 1
312 510 1
312 656 1
312 711 1
313 14 1
313 22 1
313 103 1
313 155 1
313 221 1
313 256 1
313 484 1
313 532 1
314 1 1
314 2 1
314 4 1
314 28 1
314 47 1
314 168 1
314 326 1
314 734 1
315 18 1
315 58 1
315 113 1
315 145 1
315 158 1
315 231 1
315 395 1
315 446 1
315 459 1
315 523 1
315 528 1
315 542 1
315 605 1
315 697 1
315 757 1
316 73 1
316 87 1
316 105 1
316 151 1
316 166 1
316 280 1
317 18 1
317 88 1
317 120 1
317 129 1
317 178 1
317 308 1
317 393 1
317 511 1
318 1 1
318 15 1
318 48 1
318 49 1
318 124 1
318 265 1
318 322 1
318 471 1
318 543 1
318 566 1
318 715 1
319 17 1
319 53 1
319 97 1
319 140 1
319 205 1
319 288 1
319 384 1
319 456 1
319 561 1
320 17 1
320 120 1
320 137 1
320 141 1
320 216 1
320 271 1
320 324 1
320 376 1
320 394 1
320 586 1
320 785 1
320 798 1
321 59 1
321 66 1
321 245 1
321 286 1
321 302 1
321 312 1
321 480 1
321 495 1
322 1 1
322 15 1
322 124 1
322 158 1
322 231 1
322 318 1
322 502 1
322 535 1
322 543 1
322 590 1
322 646 1
323 16 1
323 22 1
323 96 1
323 232 1
323 256 1
323 271 1
323 345 1
323 534 1
323 607 1
324 16 1
324 26 1
324 141 1
324 216 1
324 303 1
324 320 1
324 328 1
324 376 1
324 394 1
324 413 1
324 749 1
325 3 1
325 12 1
325 65 1
325 68 1
325 93 1
325 158 1
325 365 1
326 2 1
326 4 1
326 6 1
326 9 1
326 64 1
326 314 1
326 336 1
326 369 1
326 429 1
326 525 1
326 591 1
326 676 1
326 726 1
326 774 1
327 17 1
327 19 1
327 52 1
327 187 1
327 221 1
327 263 1
327 380 1
327 560 1
327 594 1
327 667 1
327 711 1
327 771 1
328 16 1
328 17 1
328 43 1
328 104 1
328 303 1
328 324 1
328 413 1
328 428 1
328 448 1
328 456 1
328 749 1
329 15 1
329 70 1
329 85 1
329 159 1
329 172 1
329 212 1
329 575 1
329 580 1
329 628 1
329 663 1
330 23 1
330 88 1
330 188 1
330 193 1
330 223 1
330 243 1
330 376 1
330 426 1
330 519 1
330 658 1
330 732 1
331 31 1
331 46 1
331 81 1
331 147 1
331 237 1
331 246 1
331 517 1
331 618 1
332 35 1
332 57 1
332 59 1
332 105 1
332 201 1
332 441 1
332 467 1
332 529 1
332 563 1
332 657 1
333 7 1
333 10 1
333 11 1
333 37 1
333 46 1
333 292 1
333 347 1
334 1 1
334 6 1
334 25 1
334 30 1
334 33 1
334 110 1
334 681 1
334 776 1
335 19 1
335 94 1
335 136 1
335 182 1
335 211 1
335 278 1
335 729 1
336 9 1
336 64 1
336 71 1
336 180 1
336 291 1
336 326 1
336 726 1
337 10 1
337 46 1
337 47 1
337 52 1
337 91 1
337 202 1
337 574 1
337 595 1
337 607 1
338 7 1
338 11 1
338 49 1
338 99 1
338 149 1
338 202 1
338 631 1
339 21 1
339 78 1
339 144 1
339 215 1
339 245 1
339 477 1
339 627 1
340 6 1
340 10 1
340 14 1
340 58 1
340 223 1
340 351 1
340 611 1
340 790 1
341 6 1
341 69 1
341 99 1
341 240 1
341 247 1
341 427 1
341 432 1
341 458 1
341 485 1
341 605 1
341 615 1
341 741 1
342 5 1
342 64 1
342 107 1
342 121 1
342 191 1
342 267 1
342 592 1
343 6 1
343 14 1
343 39 1
343 70 1
343 100 1
343 160 1
343 655 1
344 1 1
344 45 1
344 79 1
344 82 1
344 89 1
344 184 1
344 345 1
344 348 1
345 1 1
345 96 1
345 184 1
345 271 1
345 323 1
345 344 1
345 534 1
346 20 1
346 23 1
346 106 1
346 127 1
346 204 1
346 227 1
346 397 1
346 518 1
346 598 1
346 625 1
347 11 1
347 37 1
347 137 1
347 271 1
347 311 1
347 333 1
348 11 1
348 36 1
348 82 1
348 89 1
348 220 1
348 344 1
349 3 1
349 5 1
349 44 1
349 63 1
349 80 1
349 112 1
349 500 1
349 529 1
349 638 1
349 648 1
350 2 1
350 38 1
350 63 1
350 80 1
350 220 1
350 306 1
350 373 1
350 691 1
351 6 1
351 10 1
351 60 1
351 120 1
351 129 1
351 340 1
351 647 1
352 6 1
352 14 1
352 17 1
352 69 1
352 70 1
352 141 1
352 501 1
352 522 1
352 790 1
353 1 1
353 5 1
353 58 1
353 127 1
353 289 1
353 295 1
353 439 1
353 680 1
353 731 1
353 735 1
354 9 1
354 19 1
354 64 1
354 92 1
354 118 1
354 263 1
354 472 1
355 5 1
355 7 1
355 14 1
355 20 1
355 40 1
355 268 1
355 480 1
355 483 1
355 504 1
356 2 1
356 4 1
356 5 1
356 11 1
356 48 1
356 306 1
356 507 1
356 537 1
356 690 1
356 696 1
357 6 1
357 15 1
357 21 1
357 66 1
357 113 1
357 187 1
357 515 1
358 87 1
358 121 1
358 126 1
358 191 1
358 228 1
358 269 1
358 426 1
358 533 1
359 33 1
359 47 1
359 51 1
359 82 1
359 90 1
359 156 1
359 402 1
359 523 1
359 641 1
360 4 1
360 6 1
360 23 1
360 36 1
360 196 1
360 207 1
360 430 1
360 446 1
360 532 1
360 613 1
360 781 1
361 22 1
361 59 1
361 85 1
361 94 1
361 135 1
361 178 1
361 544 1
361 609 1
361 625 1
361 719 1
362 4 1
362 43 1
362 55 1
362 139 1
362 274 1
362 284 1
362 419 1
363 22 1
363 109 1
363 172 1
363 193 1
363 225 1
363 230 1
364 14 1
364 18 1
364 106 1
364 119 1
364 131 1
364 169 1
364 378 1
364 450 1
364 460 1
364 601 1
364 602 1
365 68 1
365 72 1
365 85 1
365 93 1
365 310 1
365 325 1
366 5 1
366 73 1
366 83 1
366 115 1
366 182 1
366 238 1
366 461 1
366 674 1
366 762 1
367 5 1
367 35 1
367 164 1
367 201 1
367 213 1
367 267 1
368 2 1
368 38 1
368 44 1
368 50 1
368 74 1
368 154 1
369 2 1
369 6 1
369 9 1
369 23 1
369 114 1
369 326 1
369 782 1
370 1 1
370 5 1
370 72 1
370 74 1
370 274 1
370 296 1
370 478 1
370 484 1
371 3 1
371 84 1
371 113 1
371 187 1
371 227 1
371 419 1
371 486 1
372 8 1
372 144 1
372 145 1
372 245 1
372 304 1
372 311 1
372 496 1
373 4 1
373 6 1
373 29 1
373 63 1
373 80 1
373 350 1
373 691 1
374 1 1
374 39 1
374 65 1
374 73 1
374 120 1
374 491 1
374 534 1
374 753 1
375 4 1
375 15 1
375 59 1
375 94 1
375 176 1
375 261 1
375 409 1
375 418 1
375 520 1
375 797 1
376 23 1
376 88 1
376 216 1
376 320 1
376 324 1
376 330 1
376 390 1
376 391 1
376 394 1
376 553 1
376 704 1
376 772 1
377 4 1
377 16 1
377 102 1
377 139 1
377 241 1
377 294 1
377 378 1
377 389 1
377 424 1
377 437 1
377 681 1
377 770 1
378 4 1
378 14 1
378 169 1
378 241 1
378 364 1
378 377 1
378 681 1
379 71 1
379 72 1
379 90 1
379 139 1
379 159 1
379 279 1
379 393 1
380 52 1
380 95 1
380 151 1
380 180 1
380 221 1
380 327 1
380 385 1
380 411 1
380 418 1
380 464 1
380 478 1
380 563 1
380 599 1
380 661 1
380 701 1
381 44 1
381 56 1
381 94 1
381 167 1
381 242 1
381 283 1
381 734 1
381 763 1
382 6 1
382 19 1
382 46 1
382 77 1
382 92 1
382 229 1
382 445 1
382 608 1
383 5 1
383 31 1
383 32 1
383 68 1
383 163 1
383 210 1
384 2 1
384 14 1
384 97 1
384 205 1
384 305 1
384 319 1
384 417 1
384 559 1
384 588 1
384 598 1
384 667 1
384 767 1
385 15 1
385 25 1
385 95 1
385 180 1
385 288 1
385 380 1
385 406 1
385 411 1
385 418 1
385 536 1
385 569 1
385 671 1
385 678 1
386 53 1
386 65 1
386 73 1
386 217 1
386 251 1
386 263 1
386 410 1
386 471 1
387 8 1
387 41 1
387 141 1
387 206 1
387 269 1
387 272 1
387 528 1
388 18 1
388 60 1
388 96 1
388 136 1
388 143 1
388 278 1
388 416 1
388 500 1
388 768 1
389 4 1
389 16 1
389 22 1
389 27 1
389 102 1
389 377 1
389 407 1
389 643 1
389 689 1
389 770 1
390 15 1
390 23 1
390 81 1
390 88 1
390 262 1
390 376 1
390 391 1
390 463 1
390 553 1
391 3 1
391 60 1
391 88 1
391 266 1
391 376 1
391 390 1
391 553 1
391 687 1
391 772 1
392 6 1
392 8 1
392 16 1
392 244 1
392 290 1
392 303 1
392 784 1
393 72 1
393 88 1
393 159 1
393 308 1
393 317 1
393 379 1
393 412 1
393 511 1
393 760 1
394 139 1
394 241 1
394 259 1
394 320 1
394 324 1
394 376 1
394 431 1
394 756 1
395 3 1
395 65 1
395 126 1
395 158 1
395 231 1
395 315 1
395 640 1
396 6 1
396 56 1
396 60 1
396 102 1
396 178 1
396 257 1
396 730 1
397 9 1
397 76 1
397 106 1
397 127 1
397 258 1
397 346 1
398 14 1
398 23 1
398 36 1
398 97 1
398 165 1
398 246 1
398 520 1
398 650 1
399 4 1
399 45 1
399 106 1
399 127 1
399 225 1
399 230 1
400 1 1
400 15 1
400 19 1
400 22 1
400 78 1
400 200 1
400 440 1
400 487 1
400 554 1
400 593 1
400 673 1
400 748 1
401 17 1
401 30 1
401 59 1
401 84 1
401 133 1
401 302 1
401 572 1
401 624 1
401 702 1
401 740 1
402 4 1
402 32 1
402 51 1
402 156 1
402 247 1
402 359 1
403 2 1
403 4 1
403 8 1
403 31 1
403 71 1
403 174 1
403 483 1
403 729 1
404 5 1
404 17 1
404 104 1
404 149 1
404 185 1
404 245 1
404 482 1
404 494 1
404 724 1
404 739 1
404 742 1
405 8 1
405 19 1
405 26 1
405 71 1
405 132 1
405 159 1
405 414 1
405 486 1
405 538 1
405 659 1
405 672 1
405 761 1
406 3 1
406 45 1
406 95 1
406 109 1
406 180 1
406 385 1
406 438 1
406 671 1
406 698 1
407 4 1
407 22 1
407 124 1
407 139 1
407 279 1
407 389 1
408 4 1
408 6 1
408 15 1
408 58 1
408 123 1
408 138 1
409 4 1
409 22 1
409 85 1
409 94 1
409 176 1
409 375 1
409 425 1
409 447 1
409 455 1
409 520 1
410 25 1
410 37 1
410 142 1
410 217 1
410 251 1
410 386 1
410 634 1
411 10 1
411 79 1
411 180 1
411 270 1
411 380 1
411 385 1
411 418 1
411 478 1
411 536 1
411 664 1
411 692 1
412 4 1
412 86 1
412 88 1
412 146 1
412 308 1
412 393 1
412 582 1
412 773 1
413 1 1
413 3 1
413 16 1
413 26 1
413 324 1
413 328 1
413 742 1
414 19 1
414 26 1
414 69 1
414 141 1
414 272 1
414 405 1
415 6 1
415 15 1
415 46 1
415 79 1
415 131 1
415 183 1
416 18 1
416 96 1
416 118 1
416 144 1
416 183 1
416 388 1
416 690 1
417 2 1
417 18 1
417 194 1
417 265 1
417 305 1
417 384 1
417 454 1
417 588 1
417 596 1
417 598 1
417 624 1
417 683 1
418 59 1
418 176 1
418 375 1
418 380 1
418 385 1
418 411 1
418 476 1
418 478 1
418 536 1
418 563 1
418 664 1
418 678 1
418 692 1
419 55 1
419 168 1
419 227 1
419 274 1
419 362 1
419 371 1
420 13 1
420 19 1
420 22 1
420 25 1
420 249 1
420 285 1
420 460 1
420 744 1
421 11 1
421 36 1
421 61 1
421 99 1
421 130 1
421 289 1
421 438 1
421 551 1
422 5 1
422 6 1
422 22 1
422 57 1
422 73 1
422 249 1
422 453 1
422 533 1
422 581 1
422 703 1
422 706 1
423 8 1
423 200 1
423 221 1
423 264 1
423 287 1
423 603 1
423 740 1
423 758 1
423 781 1
424 15 1
424 31 1
424 139 1
424 241 1
424 377 1
424 437 1
424 497 1
424 795 1
425 18 1
425 22 1
425 84 1
425 85 1
425 265 1
425 409 1
425 620 1
425 673 1
425 685 1
425 751 1
425 764 1
425 787 1
425 797 1
426 87 1
426 193 1
426 223 1
426 228 1
426 330 1
426 358 1
426 519 1
426 533 1
426 654 1
427 2 1
427 6 1
427 83 1
427 94 1
427 247 1
427 341 1
427 485 1
427 513 1
427 615 1
427 629 1
428 16 1
428 152 1
428 203 1
428 295 1
428 303 1
428 328 1
428 456 1
428 525 1
428 725 1
429 6 1
429 64 1
429 155 1
429 192 1
429 294 1
429 326 1
429 593 1
429 720 1
430 5 1
430 7 1
430 36 1
430 50 1
430 207 1
430 360 1
430 532 1
430 621 1
431 17 1
431 109 1
431 139 1
431 259 1
431 301 1
431 394 1
431 515 1
432 3 1
432 6 1
432 69 1
432 101 1
432 240 1
432 341 1
432 458 1
432 741 1
433 2 1
433 3 1
433 18 1
433 84 1
433 173 1
433 298 1
433 570 1
433 710 1
433 714 1
433 757 1
434 4 1
434 100 1
434 106 1
434 203 1
434 268 1
434 295 1
434 547 1
434 616 1
435 5 1
435 9 1
435 17 1
435 41 1
435 77 1
435 92 1
435 473 1
435 568 1
435 668 1
435 712 1
436 14 1
436 64 1
436 78 1
436 144 1
436 145 1
436 304 1
436 453 1
436 549 1
436 722 1
437 6 1
437 39 1
437 139 1
437 214 1
437 377 1
437 424 1
437 693 1
438 95 1
438 99 1
438 180 1
438 289 1
438 406 1
438 421 1
438 551 1
439 38 1
439 80 1
439 277 1
439 289 1
439 295 1
439 353 1
440 1 1
440 3 1
440 5 1
440 19 1
440 78 1
440 400 1
440 487 1
440 703 1
441 11 1
441 59 1
441 68 1
441 201 1
441 242 1
441 332 1
441 563 1
442 4 1
442 7 1
442 13 1
442 14 1
442 101 1
442 305 1
442 747 1
443 47 1
443 91 1
443 189 1
443 204 1
443 258 1
443 457 1
443 753 1
444 41 1
444 45 1
444 99 1
444 171 1
444 176 1
444 181 1
444 671 1
445 19 1
445 78 1
445 92 1
445 213 1
445 309 1
445 382 1
445 512 1
445 537 1
445 692 1
445 755 1
446 4 1
446 18 1
446 23 1
446 113 1
446 315 1
446 360 1
446 542 1
447 15 1
447 94 1
447 172 1
447 176 1
447 253 1
447 409 1
447 451 1
447 619 1
447 678 1
447 705 1
448 8 1
448 17 1
448 43 1
448 68 1
448 135 1
448 328 1
448 604 1
448 752 1
449 4 1
449 38 1
449 67 1
449 82 1
449 170 1
449 275 1
450 14 1
450 46 1
450 62 1
450 131 1
450 281 1
450 364 1
451 15 1
451 152 1
451 172 1
451 175 1
451 203 1
451 447 1
451 705 1
452 5 1
452 14 1
452 40 1
452 47 1
452 131 1
452 224 1
452 606 1
453 5 1
453 14 1
453 22 1
453 304 1
453 422 1
453 436 1
454 2 1
454 78 1
454 118 1
454 245 1
454 305 1
454 417 1
454 548 1
454 596 1
454 726 1
455 4 1
455 79 1
455 85 1
455 254 1
455 270 1
455 409 1
455 565 1
456 16 1
456 53 1
456 97 1
456 319 1
456 328 1
456 428 1
457 48 1
457 58 1
457 91 1
457 204 1
457 254 1
457 443 1
457 522 1
457 579 1
457 693 1
458 39 1
458 40 1
458 69 1
458 181 1
458 341 1
458 432 1
458 499 1
459 18 1
459 108 1
459 141 1
459 145 1
459 186 1
459 315 1
459 523 1
459 605 1
460 18 1
460 25 1
460 119 1
460 249 1
460 364 1
460 420 1
460 601 1
460 602 1
460 791 1
461 27 1
461 56 1
461 83 1
461 146 1
461 182 1
461 366 1
462 3 1
462 5 1
462 172 1
462 182 1
462 211 1
462 266 1
462 474 1
462 626 1
462 793 1
462 794 1
463 1 1
463 4 1
463 5 1
463 15 1
463 81 1
463 390 1
464 28 1
464 29 1
464 75 1
464 95 1
464 151 1
464 380 1
464 599 1
465 5 1
465 16 1
465 46 1
465 69 1
465 87 1
465 292 1
466 18 1
466 51 1
466 144 1
466 183 1
466 250 1
467 14 1
467 46 1
467 87 1
467 105 1
467 246 1
467 332 1
467 529 1
467 701 1
467 769 1
467 777 1
468 15 1
468 29 1
468 140 1
468 175 1
468 232 1
468 307 1
468 655 1
469 69 1
469 128 1
469 186 1
469 249 1
469 279 1
469 282 1
470 21 1
470 38 1
470 100 1
470 183 1
470 248 1
470 275 1
470 637 1
470 785 1
470 792 1
471 48 1
471 217 1
471 263 1
471 265 1
471 318 1
471 386 1
471 566 1
471 604 1
472 6 1
472 19 1
472 84 1
472 92 1
472 187 1
472 354 1
473 22 1
473 77 1
473 92 1
473 114 1
473 200 1
473 435 1
473 568 1
473 668 1
474 24 1
474 180 1
474 182 1
474 210 1
474 266 1
474 462 1
474 601 1
475 19 1
475 33 1
475 72 1
475 155 1
475 294 1
475 310 1
475 489 1
475 495 1
475 524 1
475 756 1
475 773 1
475 775 1
475 777 1
476 23 1
476 24 1
476 59 1
476 176 1
476 177 1
476 418 1
477 1 1
477 4 1
477 21 1
477 215 1
477 237 1
477 339 1
477 512 1
478 5 1
478 72 1
478 370 1
478 380 1
478 411 1
478 418 1
478 484 1
478 563 1
478 661 1
478 664 1
479 3 1
479 24 1
479 32 1
479 49 1
479 168 1
479 210 1
479 561 1
479 694 1
480 14 1
480 268 1
480 286 1
480 312 1
480 321 1
480 355 1
480 483 1
481 2 1
481 38 1
481 100 1
481 186 1
481 235 1
481 279 1
481 666 1
481 793 1
481 796 1
482 5 1
482 9 1
482 104 1
482 161 1
482 257 1
482 404 1
482 494 1
482 712 1
482 724 1
483 31 1
483 71 1
483 268 1
483 355 1
483 403 1
483 480 1
484 5 1
484 103 1
484 221 1
484 313 1
484 370 1
484 478 1
485 51 1
485 74 1
485 247 1
485 250 1
485 341 1
485 427 1
485 613 1
485 615 1
486 8 1
486 71 1
486 84 1
486 113 1
486 371 1
486 405 1
486 622 1
487 1 1
487 99 1
487 247 1
487 253 1
487 400 1
487 440 1
487 549 1
487 713 1
487 746 1
488 1 1
488 13 1
488 133 1
488 178 1
488 231 1
488 308 1
488 578 1
488 642 1
489 49 1
489 67 1
489 72 1
489 282 1
489 310 1
489 475 1
489 495 1
489 536 1
489 602 1
489 632 1
489 707 1
489 756 1
489 777 1
490 8 1
490 117 1
490 138 1
490 232 1
490 248 1
491 19 1
491 65 1
491 73 1
491 158 1
491 374 1
491 534 1
491 670 1
492 6 1
492 32 1
492 33 1
492 67 1
492 243 1
492 252 1
492 704 1
493 2 1
493 22 1
493 152 1
493 175 1
493 196 1
493 256 1
494 5 1
494 8 1
494 80 1
494 174 1
494 404 1
494 482 1
494 724 1
495 72 1
495 245 1
495 286 1
495 321 1
495 475 1
495 489 1
495 524 1
495 602 1
495 756 1
496 5 1
496 8 1
496 15 1
496 160 1
496 304 1
496 372 1
497 4 1
497 10 1
497 15 1
497 86 1
497 241 1
497 424 1
497 557 1
497 669 1
497 795 1
498 30 1
498 51 1
498 54 1
498 56 1
498 79 1
498 306 1
499 6 1
499 18 1
499 39 1
499 106 1
499 181 1
499 458 1
499 538 1
499 606 1
499 644 1
499 713 1
500 18 1
500 60 1
500 63 1
500 80 1
500 349 1
500 388 1
501 46 1
501 69 1
501 79 1
501 141 1
501 219 1
501 352 1
501 577 1
501 597 1
501 638 1
502 18 1
502 28 1
502 124 1
502 158 1
502 177 1
502 322 1
502 535 1
502 646 1
503 8 1
503 35 1
503 55 1
503 59 1
503 97 1
503 133 1
503 566 1
503 579 1
503 616 1
504 7 1
504 8 1
504 12 1
504 40 1
504 268 1
504 355 1
505 4 1
505 24 1
505 100 1
505 177 1
505 189 1
505 214 1
506 22 1
506 119 1
506 127 1
506 128 1
506 169 1
506 304 1
506 708 1
507 4 1
507 8 1
507 41 1
507 48 1
507 300 1
507 356 1
507 635 1
507 754 1
508 1 1
508 53 1
508 122 1
508 151 1
508 166 1
508 197 1
508 799 1
509 11 1
509 21 1
509 38 1
509 61 1
509 98 1
509 260 1
509 699 1
509 755 1
510 48 1
510 158 1
510 221 1
510 265 1
510 287 1
510 312 1
510 656 1
510 711 1
511 4 1
511 88 1
511 177 1
511 214 1
511 317 1
511 393 1
511 760 1
512 4 1
512 19 1
512 92 1
512 237 1
512 445 1
512 477 1
513 9 1
513 35 1
513 83 1
513 94 1
513 154 1
513 427 1
514 5 1
514 68 1
514 171 1
514 172 1
514 228 1
514 242 1
515 15 1
515 66 1
515 109 1
515 301 1
515 357 1
515 431 1
516 6 1
516 44 1
516 83 1
516 153 1
516 182 1
516 208 1
516 587 1
516 630 1
516 633 1
517 3 1
517 31 1
517 50 1
517 62 1
517 237 1
517 331 1
517 669 1
518 1 1
518 32 1
518 106 1
518 127 1
518 204 1
518 346 1
519 127 1
519 139 1
519 223 1
519 284 1
519 330 1
519 426 1
520 36 1
520 97 1
520 176 1
520 375 1
520 398 1
520 409 1
520 650 1
520 686 1
521 15 1
521 43 1
521 79 1
521 100 1
521 175 1
521 203 1
521 539 1
522 6 1
522 14 1
522 48 1
522 58 1
522 352 1
522 457 1
522 579 1
523 82 1
523 90 1
523 145 1
523 315 1
523 359 1
523 459 1
523 528 1
523 605 1
523 757 1
524 72 1
524 78 1
524 289 1
524 295 1
524 475 1
524 495 1
524 547 1
524 775 1
525 2 1
525 4 1
525 152 1
525 295 1
525 326 1
525 428 1
525 591 1
525 676 1
526 5 1
526 9 1
526 35 1
526 69 1
526 87 1
526 278 1
527 3 1
527 7 1
527 21 1
527 149 1
527 198 1
527 234 1
528 41 1
528 145 1
528 269 1
528 315 1
528 387 1
528 523 1
528 697 1
529 3 1
529 80 1
529 87 1
529 332 1
529 349 1
529 467 1
530 7 1
530 33 1
530 130 1
530 149 1
530 202 1
530 220 1
530 738 1
530 766 1
531 5 1
531 13 1
531 53 1
531 77 1
531 91 1
531 202 1
531 554 1
531 622 1
532 14 1
532 36 1
532 221 1
532 313 1
532 360 1
532 430 1
533 5 1
533 73 1
533 87 1
533 358 1
533 422 1
533 426 1
533 581 1
533 706 1
534 65 1
534 271 1
534 323 1
534 345 1
534 374 1
534 491 1
535 33 1
535 57 1
535 124 1
535 209 1
535 322 1
535 502 1
535 646 1
536 72 1
536 310 1
536 385 1
536 411 1
536 418 1
536 489 1
536 632 1
536 678 1
536 692 1
537 11 1
537 78 1
537 306 1
537 309 1
537 356 1
537 445 1
537 692 1
538 39 1
538 71 1
538 159 1
538 181 1
538 405 1
538 499 1
538 570 1
538 761 1
539 15 1
539 22 1
539 79 1
539 249 1
539 304 1
539 521 1
540 10 1
540 17 1
540 39 1
540 134 1
540 159 1
540 212 1
540 578 1
540 714 1
541 4 1
541 39 1
541 99 1
541 176 1
541 182 1
541 214 1
541 564 1
542 18 1
542 36 1
542 97 1
542 315 1
542 446 1
542 686 1
543 1 1
543 26 1
543 34 1
543 103 1
543 318 1
543 322 1
544 11 1
544 59 1
544 64 1
544 94 1
544 230 1
544 361 1
544 565 1
544 724 1
544 762 1
545 38 1
545 67 1
545 77 1
545 117 1
545 118 1
545 612 1
545 717 1
546 6 1
546 28 1
546 44 1
546 50 1
546 112 1
546 122 1
546 562 1
547 78 1
547 100 1
547 203 1
547 289 1
547 434 1
547 524 1
548 1 1
548 2 1
548 25 1
548 34 1
548 305 1
548 454 1
548 726 1
549 14 1
549 99 1
549 145 1
549 247 1
549 436 1
549 487 1
549 646 1
549 713 1
549 746 1
550 2 1
550 6 1
550 16 1
550 93 1
550 128 1
551 135 1
551 171 1
551 289 1
551 299 1
551 421 1
551 438 1
552 4 1
552 6 1
552 182 1
552 214 1
552 275 1
552 645 1
553 11 1
553 37 1
553 291 1
553 376 1
553 390 1
553 391 1
553 694 1
553 704 1
553 782 1
554 1 1
554 19 1
554 53 1
554 202 1
554 400 1
554 531 1
554 673 1
555 2 1
555 3 1
555 48 1
555 94 1
555 226 1
555 266 1
556 17 1
556 33 1
556 43 1
556 67 1
556 141 1
556 143 1
556 596 1
557 4 1
557 44 1
557 59 1
557 86 1
557 164 1
557 497 1
557 669 1
558 1 1
558 34 1
558 35 1
558 40 1
558 49 1
558 165 1
558 760 1
559 6 1
559 23 1
559 97 1
559 205 1
559 277 1
559 384 1
559 629 1
559 767 1
560 19 1
560 27 1
560 39 1
560 182 1
560 263 1
560 327 1
560 569 1
560 682 1
561 3 1
561 140 1
561 210 1
561 288 1
561 319 1
561 479 1
562 16 1
562 44 1
562 50 1
562 94 1
562 112 1
562 546 1
562 661 1
563 201 1
563 332 1
563 380 1
563 418 1
563 441 1
563 478 1
563 661 1
564 4 1
564 40 1
564 56 1
564 176 1
564 181 1
564 541 1
565 64 1
565 230 1
565 254 1
565 270 1
565 455 1
565 544 1
565 724 1
565 736 1
565 762 1
566 35 1
566 133 1
566 265 1
566 318 1
566 471 1
566 503 1
566 579 1
566 718 1
567 6 1
567 27 1
567 58 1
567 101 1
567 157 1
567 182 1
567 591 1
568 9 1
568 52 1
568 77 1
568 258 1
568 435 1
568 473 1
568 712 1
569 15 1
569 19 1
569 288 1
569 385 1
569 560 1
569 653 1
569 720 1
570 71 1
570 84 1
570 159 1
570 173 1
570 433 1
570 538 1
571 9 1
571 17 1
571 86 1
571 213 1
571 222 1
571 309 1
571 586 1
572 51 1
572 59 1
572 115 1
572 302 1
572 401 1
573 25 1
573 69 1
573 108 1
573 116 1
573 128 1
573 186 1
574 10 1
574 15 1
574 34 1
574 46 1
574 288 1
574 337 1
574 595 1
574 607 1
574 648 1
575 7 1
575 8 1
575 12 1
575 85 1
575 172 1
575 329 1
576 1 1
576 2 1
576 58 1
576 93 1
576 134 1
576 219 1
577 4 1
577 18 1
577 46 1
577 79 1
577 140 1
577 501 1
577 597 1
578 10 1
578 17 1
578 231 1
578 308 1
578 488 1
578 540 1
579 35 1
579 58 1
579 457 1
579 503 1
579 522 1
579 566 1
580 15 1
580 36 1
580 85 1
580 122 1
580 207 1
580 329 1
580 583 1
580 642 1
581 6 1
581 73 1
581 108 1
581 240 1
581 422 1
581 533 1
582 4 1
582 22 1
582 73 1
582 146 1
582 151 1
582 412 1
582 676 1
582 679 1
582 709 1
582 773 1
583 5 1
583 15 1
583 85 1
583 170 1
583 580 1
584 2 1
584 6 1
584 58 1
584 71 1
584 83 1
584 193 1
584 716 1
585 25 1
585 71 1
585 72 1
585 109 1
585 123 1
585 225 1
585 745 1
586 9 1
586 120 1
586 271 1
586 309 1
586 320 1
586 571 1
586 785 1
587 6 1
587 44 1
587 94 1
587 208 1
587 211 1
587 516 1
588 2 1
588 9 1
588 10 1
588 95 1
588 384 1
588 417 1
588 748 1
589 30 1
589 45 1
589 60 1
589 98 1
589 109 1
589 230 1
589 612 1
590 88 1
590 124 1
590 231 1
590 308 1
590 322 1
590 707 1
591 2 1
591 6 1
591 182 1
591 326 1
591 525 1
591 567 1
592 5 1
592 45 1
592 64 1
592 191 1
592 251 1
592 342 1
592 698 1
592 744 1
593 15 1
593 155 1
593 192 1
593 200 1
593 400 1
593 429 1
593 720 1
594 17 1
594 19 1
594 41 1
594 45 1
594 187 1
594 327 1
594 711 1
595 4 1
595 10 1
595 48 1
595 125 1
595 337 1
595 574 1
595 607 1
595 643 1
596 43 1
596 141 1
596 305 1
596 417 1
596 454 1
596 556 1
596 624 1
596 657 1
597 6 1
597 79 1
597 188 1
597 277 1
597 501 1
597 577 1
598 20 1
598 23 1
598 305 1
598 346 1
598 384 1
598 417 1
599 91 1
599 95 1
599 204 1
599 380 1
599 464 1
600 2 1
600 8 1
600 58 1
600 101 1
600 108 1
600 284 1
601 24 1
601 119 1
601 180 1
601 364 1
601 460 1
601 474 1
601 602 1
602 72 1
602 364 1
602 460 1
602 489 1
602 495 1
602 601 1
603 8 1
603 36 1
603 108 1
603 200 1
603 264 1
603 423 1
603 758 1
604 43 1
604 48 1
604 265 1
604 448 1
604 471 1
604 772 1
605 240 1
605 315 1
605 341 1
605 459 1
605 523 1
605 741 1
605 757 1
606 6 1
606 18 1
606 131 1
606 224 1
606 452 1
606 499 1
606 644 1
606 717 1
607 16 1
607 96 1
607 323 1
607 337 1
607 574 1
607 595 1
608 3 1
608 4 1
608 6 1
608 147 1
608 382 1
609 59 1
609 85 1
609 135 1
609 172 1
609 178 1
609 361 1
609 625 1
609 632 1
609 691 1
610 3 1
610 20 1
610 24 1
610 56 1
610 283 1
610 721 1
610 763 1
610 771 1
610 780 1
611 2 1
611 14 1
611 63 1
611 67 1
611 224 1
611 340 1
611 675 1
612 38 1
612 60 1
612 67 1
612 545 1
612 589 1
612 717 1
612 758 1
613 6 1
613 36 1
613 51 1
613 74 1
613 360 1
613 485 1
614 11 1
614 12 1
614 16 1
614 58 1
614 96 1
614 121 1
614 666 1
615 6 1
615 128 1
615 273 1
615 341 1
615 427 1
615 485 1
616 4 1
616 59 1
616 133 1
616 268 1
616 434 1
616 503 1
616 644 1
616 645 1
616 647 1
616 723 1
616 774 1
617 49 1
617 94 1
617 170 1
617 176 1
617 215 1
617 302 1
618 81 1
618 111 1
618 227 1
618 237 1
618 296 1
618 331 1
619 15 1
619 194 1
619 217 1
619 253 1
619 263 1
619 447 1
620 18 1
620 49 1
620 82 1
620 84 1
620 90 1
620 425 1
620 673 1
621 4 1
621 9 1
621 36 1
621 199 1
621 207 1
621 430 1
622 5 1
622 13 1
622 84 1
622 113 1
622 486 1
622 531 1
623 35 1
623 64 1
623 137 1
623 157 1
623 203 1
623 239 1
623 665 1
624 59 1
624 133 1
624 305 1
624 401 1
624 417 1
624 596 1
624 683 1
624 740 1
625 106 1
625 135 1
625 204 1
625 346 1
625 361 1
625 609 1
626 5 1
626 55 1
626 182 1
626 211 1
626 228 1
626 462 1
626 649 1
626 794 1
627 5 1
627 9 1
627 21 1
627 83 1
627 339 1
628 33 1
628 49 1
628 159 1
628 202 1
628 212 1
628 329 1
629 6 1
629 23 1
629 247 1
629 277 1
629 427 1
629 559 1
630 22 1
630 114 1
630 116 1
630 182 1
630 208 1
630 516 1
631 7 1
631 11 1
631 19 1
631 78 1
631 104 1
631 338 1
632 172 1
632 178 1
632 310 1
632 489 1
632 536 1
632 609 1
632 691 1
633 3 1
633 49 1
633 185 1
633 516 1
634 8 1
634 14 1
634 200 1
634 217 1
634 251 1
634 410 1
635 8 1
635 45 1
635 123 1
635 225 1
635 300 1
635 507 1
635 754 1
636 2 1
636 16 1
636 93 1
636 96 1
636 271 1
636 290 1
637 4 1
637 6 1
637 8 1
637 183 1
637 248 1
637 470 1
637 728 1
638 44 1
638 46 1
638 112 1
638 219 1
638 349 1
638 501 1
638 731 1
638 788 1
639 36 1
639 39 1
639 55 1
639 70 1
639 97 1
639 212 1
639 735 1
640 5 1
640 65 1
640 126 1
640 152 1
640 270 1
640 395 1
641 3 1
641 33 1
641 90 1
641 101 1
641 259 1
641 359 1
642 1 1
642 13 1
642 122 1
642 207 1
642 488 1
642 580 1
643 4 1
643 27 1
643 48 1
643 125 1
643 389 1
643 595 1
644 6 1
644 59 1
644 133 1
644 499 1
644 606 1
644 616 1
644 645 1
644 647 1
644 684 1
644 723 1
645 6 1
645 59 1
645 275 1
645 552 1
645 616 1
645 644 1
645 647 1
645 684 1
645 769 1
645 774 1
646 99 1
646 247 1
646 322 1
646 502 1
646 535 1
646 549 1
647 60 1
647 129 1
647 351 1
647 616 1
647 644 1
647 645 1
647 723 1
648 5 1
648 34 1
648 44 1
648 288 1
648 349 1
648 574 1
649 5 1
649 86 1
649 146 1
649 222 1
649 228 1
649 626 1
649 651 1
650 16 1
650 36 1
650 44 1
650 297 1
650 398 1
650 520 1
651 23 1
651 86 1
651 146 1
651 165 1
651 649 1
652 6 1
652 19 1
652 57 1
652 143 1
652 190 1
652 278 1
653 15 1
653 182 1
653 208 1
653 266 1
653 288 1
653 569 1
653 720 1
654 6 1
654 87 1
654 107 1
654 228 1
654 257 1
654 426 1
654 672 1
654 761 1
655 100 1
655 140 1
655 160 1
655 307 1
655 343 1
655 468 1
656 3 1
656 33 1
656 149 1
656 221 1
656 312 1
656 510 1
657 43 1
657 57 1
657 87 1
657 141 1
657 332 1
657 596 1
658 80 1
658 118 1
658 223 1
658 243 1
658 330 1
659 5 1
659 8 1
659 85 1
659 159 1
659 184 1
659 405 1
659 672 1
659 765 1
660 16 1
660 93 1
660 141 1
660 186 1
660 235 1
660 271 1
661 16 1
661 94 1
661 380 1
661 478 1
661 562 1
661 563 1
661 730 1
662 6 1
662 46 1
662 82 1
662 89 1
662 273 1
662 301 1
663 18 1
663 56 1
663 70 1
663 96 1
663 159 1
663 329 1
664 26 1
664 65 1
664 136 1
664 411 1
664 418 1
664 478 1
665 8 1
665 25 1
665 35 1
665 157 1
665 252 1
665 623 1
666 11 1
666 12 1
666 38 1
666 100 1
666 481 1
666 614 1
667 14 1
667 17 1
667 221 1
667 305 1
667 327 1
667 384 1
667 771 1
668 3 1
668 23 1
668 92 1
668 111 1
668 435 1
668 473 1
668 686 1
668 732 1
669 3 1
669 4 1
669 50 1
669 497 1
669 517 1
669 557 1
670 7 1
670 19 1
670 44 1
670 154 1
670 158 1
670 491 1
671 45 1
671 171 1
671 180 1
671 385 1
671 406 1
671 444 1
672 6 1
672 107 1
672 159 1
672 405 1
672 654 1
672 659 1
672 761 1
673 1 1
673 18 1
673 400 1
673 425 1
673 554 1
673 620 1
673 751 1
674 3 1
674 4 1
674 5 1
674 33 1
674 115 1
674 366 1
674 700 1
674 762 1
675 14 1
675 20 1
675 224 1
675 227 1
675 296 1
675 611 1
676 4 1
676 151 1
676 326 1
676 525 1
676 582 1
676 679 1
676 774 1
677 47 1
677 53 1
677 67 1
677 82 1
677 143 1
677 202 1
678 94 1
678 176 1
678 385 1
678 418 1
678 447 1
678 536 1
679 22 1
679 119 1
679 127 1
679 139 1
679 582 1
679 676 1
679 687 1
679 788 1
680 4 1
680 5 1
680 127 1
680 268 1
680 275 1
680 353 1
680 731 1
681 4 1
681 25 1
681 33 1
681 334 1
681 377 1
681 378 1
681 776 1
682 24 1
682 54 1
682 182 1
682 260 1
682 560 1
683 29 1
683 42 1
683 148 1
683 305 1
683 417 1
683 624 1
684 24 1
684 59 1
684 209 1
684 276 1
684 644 1
684 645 1
685 22 1
685 84 1
685 85 1
685 113 1
685 283 1
685 425 1
685 787 1
686 3 1
686 23 1
686 36 1
686 520 1
686 542 1
686 668 1
687 3 1
687 60 1
687 127 1
687 139 1
687 391 1
687 679 1
687 788 1
688 1 1
688 19 1
688 85 1
688 147 1
688 179 1
688 310 1
689 22 1
689 27 1
689 119 1
689 151 1
689 389 1
689 749 1
690 2 1
690 118 1
690 144 1
690 306 1
690 356 1
690 416 1
691 63 1
691 172 1
691 350 1
691 373 1
691 609 1
691 632 1
692 78 1
692 411 1
692 418 1
692 445 1
692 536 1
692 537 1
692 755 1
693 6 1
693 48 1
693 214 1
693 254 1
693 437 1
693 457 1
694 32 1
694 37 1
694 168 1
694 291 1
694 479 1
694 553 1
695 6 1
695 7 1
695 195 1
695 220 1
695 301 1
696 5 1
696 10 1
696 48 1
696 52 1
696 134 1
696 356 1
696 719 1
697 87 1
697 145 1
697 150 1
697 166 1
697 315 1
697 528 1
698 64 1
698 180 1
698 191 1
698 406 1
698 592 1
698 744 1
698 754 1
699 38 1
699 61 1
699 119 1
699 151 1
699 280 1
699 509 1
700 3 1
700 4 1
700 9 1
700 33 1
700 41 1
700 674 1
701 14 1
701 46 1
701 151 1
701 180 1
701 380 1
701 467 1
701 725 1
701 766 1
702 5 1
702 40 1
702 76 1
702 133 1
702 302 1
702 401 1
702 775 1
703 3 1
703 6 1
703 19 1
703 57 1
703 422 1
703 440 1
704 243 1
704 252 1
704 376 1
704 492 1
704 553 1
705 24 1
705 88 1
705 172 1
705 199 1
705 447 1
705 451 1
706 5 1
706 23 1
706 191 1
706 196 1
706 422 1
706 533 1
706 718 1
706 795 1
707 49 1
707 67 1
707 88 1
707 308 1
707 489 1
707 590 1
708 1 1
708 73 1
708 115 1
708 119 1
708 169 1
708 506 1
708 767 1
709 2 1
709 8 1
709 16 1
709 22 1
709 73 1
709 582 1
710 18 1
710 41 1
710 80 1
710 84 1
710 300 1
710 433 1
710 714 1
711 19 1
711 287 1
711 312 1
711 327 1
711 510 1
711 594 1
712 5 1
712 77 1
712 104 1
712 435 1
712 482 1
712 568 1
713 6 1
713 99 1
713 106 1
713 487 1
713 499 1
713 549 1
714 10 1
714 84 1
714 134 1
714 433 1
714 540 1
714 710 1
715 1 1
715 8 1
715 37 1
715 49 1
715 226 1
715 318 1
716 8 1
716 71 1
716 142 1
716 193 1
716 226 1
716 584 1
716 779 1
716 786 1
716 796 1
717 6 1
717 18 1
717 38 1
717 545 1
717 606 1
717 612 1
718 23 1
718 35 1
718 133 1
718 196 1
718 566 1
718 706 1
719 10 1
719 94 1
719 134 1
719 135 1
719 361 1
719 696 1
720 192 1
720 288 1
720 429 1
720 569 1
720 593 1
720 653 1
721 2 1
721 3 1
721 56 1
721 86 1
721 283 1
721 610 1
721 763 1
721 771 1
722 10 1
722 64 1
722 78 1
722 126 1
722 228 1
722 436 1
723 1 1
723 147 1
723 234 1
723 616 1
723 644 1
723 647 1
723 770 1
724 230 1
724 404 1
724 482 1
724 494 1
724 544 1
724 565 1
725 14 1
725 16 1
725 46 1
725 303 1
725 428 1
725 701 1
726 2 1
726 9 1
726 326 1
726 336 1
726 454 1
726 548 1
727 14 1
727 58 1
727 83 1
727 120 1
727 124 1
727 197 1
727 778 1
728 4 1
728 6 1
728 124 1
728 158 1
728 265 1
728 637 1
729 2 1
729 4 1
729 182 1
729 211 1
729 335 1
729 403 1
730 16 1
730 56 1
730 60 1
730 94 1
730 396 1
730 661 1
731 44 1
731 112 1
731 127 1
731 353 1
731 638 1
731 680 1
732 3 1
732 88 1
732 111 1
732 188 1
732 330 1
732 668 1
733 2 1
733 6 1
733 7 1
733 30 1
733 203 1
733 239 1
734 4 1
734 28 1
734 94 1
734 242 1
734 314 1
734 381 1
735 1 1
735 39 1
735 70 1
735 295 1
735 353 1
735 639 1
736 2 1
736 64 1
736 148 1
736 254 1
736 270 1
736 565 1
737 8 1
737 10 1
737 17 1
737 28 1
737 36 1
737 136 1
738 33 1
738 59 1
738 149 1
738 164 1
738 201 1
738 530 1
738 766 1
739 5 1
739 6 1
739 17 1
739 42 1
739 404 1
740 8 1
740 59 1
740 200 1
740 401 1
740 423 1
740 624 1
741 26 1
741 117 1
741 292 1
741 341 1
741 432 1
741 605 1
742 1 1
742 3 1
742 149 1
742 185 1
742 404 1
742 413 1
743 21 1
743 35 1
743 43 1
743 64 1
743 79 1
743 191 1
743 787 1
744 19 1
744 191 1
744 285 1
744 420 1
744 592 1
744 698 1
745 10 1
745 25 1
745 71 1
745 193 1
745 223 1
745 585 1
746 5 1
746 15 1
746 91 1
746 247 1
746 487 1
746 549 1
747 14 1
747 52 1
747 76 1
747 258 1
747 305 1
747 442 1
748 9 1
748 19 1
748 78 1
748 95 1
748 400 1
748 588 1
749 22 1
749 119 1
749 303 1
749 324 1
749 328 1
749 689 1
750 42 1
750 48 1
750 58 1
750 140 1
750 148 1
750 224 1
751 8 1
751 18 1
751 97 1
751 246 1
751 425 1
751 673 1
751 764 1
752 8 1
752 43 1
752 68 1
752 153 1
752 448 1
752 772 1
753 14 1
753 47 1
753 120 1
753 189 1
753 374 1
753 443 1
754 8 1
754 64 1
754 191 1
754 507 1
754 635 1
754 698 1
755 11 1
755 61 1
755 78 1
755 445 1
755 509 1
755 692 1
755 783 1
756 139 1
756 241 1
756 394 1
756 475 1
756 489 1
756 495 1
756 777 1
757 2 1
757 298 1
757 315 1
757 433 1
757 523 1
757 605 1
758 38 1
758 67 1
758 264 1
758 423 1
758 603 1
758 612 1
759 6 1
759 44 1
759 150 1
759 268 1
759 275 1
759 297 1
760 40 1
760 88 1
760 165 1
760 393 1
760 511 1
760 558 1
761 71 1
761 107 1
761 405 1
761 538 1
761 654 1
761 672 1
762 5 1
762 64 1
762 366 1
762 544 1
762 565 1
762 674 1
763 44 1
763 56 1
763 242 1
763 381 1
763 610 1
763 721 1
763 771 1
764 4 1
764 18 1
764 99 1
764 199 1
764 425 1
764 751 1
765 5 1
765 7 1
765 11 1
765 85 1
765 230 1
765 659 1
766 14 1
766 149 1
766 530 1
766 701 1
766 738 1
767 119 1
767 205 1
767 384 1
767 559 1
767 708 1
768 2 1
768 32 1
768 136 1
768 143 1
768 298 1
768 388 1
769 6 1
769 46 1
769 246 1
769 275 1
769 467 1
769 645 1
770 1 1
770 16 1
770 234 1
770 377 1
770 389 1
770 723 1
771 17 1
771 327 1
771 610 1
771 667 1
771 721 1
771 763 1
772 43 1
772 88 1
772 376 1
772 391 1
772 604 1
772 752 1
773 19 1
773 72 1
773 146 1
773 412 1
773 475 1
773 582 1
774 4 1
774 59 1
774 326 1
774 616 1
774 645 1
774 676 1
775 5 1
775 72 1
775 76 1
775 475 1
775 524 1
775 702 1
776 25 1
776 71 1
776 151 1
776 308 1
776 334 1
776 681 1
777 87 1
777 105 1
777 467 1
777 475 1
777 489 1
777 756 1
778 14 1
778 47 1
778 120 1
778 236 1
778 258 1
778 727 1
779 8 1
779 47 1
779 51 1
779 53 1
779 226 1
779 716 1
780 38 1
780 56 1
780 74 1
780 96 1
780 239 1
780 610 1
781 23 1
781 196 1
781 221 1
781 287 1
781 360 1
781 423 1
782 11 1
782 23 1
782 291 1
782 369 1
782 553 1
783 1 1
783 2 1
783 11 1
783 47 1
783 61 1
783 755 1
784 19 1
784 68 1
784 132 1
784 290 1
784 303 1
784 392 1
785 100 1
785 120 1
785 275 1
785 320 1
785 470 1
785 586 1
785 792 1
786 8 1
786 17 1
786 52 1
786 142 1
786 162 1
786 716 1
786 796 1
787 35 1
787 64 1
787 85 1
787 425 1
787 685 1
787 743 1
788 46 1
788 127 1
788 219 1
788 638 1
788 679 1
788 687 1
789 18 1
789 59 1
789 74 1
789 79 1
789 89 1
789 219 1
790 10 1
790 17 1
790 69 1
790 223 1
790 340 1
790 352 1
791 18 1
791 21 1
791 119 1
791 234 1
791 298 1
791 460 1
792 14 1
792 34 1
792 103 1
792 275 1
792 470 1
792 785 1
793 2 1
793 100 1
793 211 1
793 266 1
793 462 1
793 481 1
793 796 1
794 6 1
794 42 1
794 140 1
794 182 1
794 462 1
794 626 1
795 15 1
795 191 1
795 196 1
795 424 1
795 497 1
795 706 1
796 2 1
796 8 1
796 481 1
796 716 1
796 786 1
796 793 1
797 4 1
797 84 1
797 261 1
797 265 1
797 375 1
797 425 1
798 17 1
798 144 1
798 209 1
798 216 1
798 276 1
798 320 1
799 1 1
799 25 1
799 166 1
799 206 1
799 252 1
799 508 1
800 18 1
800 46 1
800 119 1
800 131 1
800 147 1
800 163 1
