%%MatrixMarket matrix coordinate real general
%
800 800 9344
1 2 1
1 3 1
1 4 1
1 5 1
1 6 1
1 7 1
1 8 1
1 9 1
1 11 1
1 12 1
1 13 1
1 15 1
1 16 1
1 17 1
1 18 1
1 19 1
1 24 1
1 26 1
1 27 1
1 30 1
1 32 1
1 34 1
1 44 1
1 45 1
1 53 1
1 57 1
1 62 1
1 75 1
1 89 1
1 91 1
1 94 1
1 118 1
1 119 1
1 132 1
1 133 1
1 134 1
1 140 1
1 142 1
1 147 1
1 155 1
1 162 1
1 164 1
1 177 1
1 199 1
1 204 1
1 216 1
1 221 1
1 224 1
1 234 1
1 241 1
1 245 1
1 256 1
1 259 1
1 264 1
1 265 1
1 271 1
1 286 1
1 288 1
1 303 1
1 304 1
1 306 1
1 311 1
1 316 1
1 319 1
1 329 1
1 332 1
1 342 1
1 367 1
1 377 1
1 385 1
1 394 1
1 395 1
1 433 1
1 446 1
1 451 1
1 459 1
1 499 1
1 501 1
1 506 1
1 512 1
1 515 1
1 525 1
1 526 1
1 527 1
1 561 1
1 562 1
1 563 1
1 587 1
1 588 1
1 602 1
1 604 1
1 605 1
1 613 1
1 614 1
1 615 1
1 628 1
1 635 1
1 681 1
1 687 1
1 723 1
1 739 1
1 743 1
1 754 1
1 756 1
1 767 1
1 778 1
1 786 1
2 1 1
2 3 1
2 4 1
2 5 1
2 6 1
2 7 1
2 8 1
2 9 1
2 10 1
2 11 1
2 14 1
2 18 1
2 19 1
2 20 1
2 21 1
2 23 1
2 25 1
2 28 1
2 36 1
2 52 1
2 57 1
2 61 1
2 63 1
2 69 1
2 73 1
2 76 1
2 83 1
2 89 1
2 94 1
2 99 1
2 100 1
2 101 1
2 115 1
2 116 1
2 126 1
2 130 1
2 132 1
2 147 1
2 151 1
2 152 1
2 159 1
2 194 1
2 215 1
2 218 1
2 235 1
2 239 1
2 243 1
2 253 1
2 258 1
2 274 1
2 284 1
2 286 1
2 287 1
2 298 1
2 308 1
2 317 1
2 324 1
2 326 1
2 332 1
2 334 1
2 350 1
2 382 1
2 396 1
2 402 1
2 408 1
2 416 1
2 424 1
2 436 1
2 447 1
2 462 1
2 475 1
2 491 1
2 495 1
2 496 1
2 518 1
2 540 1
2 543 1
2 553 1
2 676 1
2 714 1
2 715 1
2 733 1
2 762 1
2 780 1
3 1 1
3 2 1
3 4 1
3 7 1
3 10 1
3 11 1
3 12 1
3 16 1
3 23 1
3 38 1
3 47 1
3 53 1
3 54 1
3 56 1
3 57 1
3 59 1
3 68 1
3 69 1
3 72 1
3 80 1
3 81 1
3 83 1
3 84 1
3 91 1
3 93 1
3 106 1
3 114 1
3 117 1
3 136 1
3 142 1
3 156 1
3 166 1
3 184 1
3 186 1
3 193 1
3 206 1
3 217 1
3 230 1
3 250 1
3 259 1
3 261 1
3 264 1
3 279 1
3 281 1
3 296 1
3 321 1
3 322 1
3 331 1
3 338 1
3 346 1
3 376 1
3 382 1
3 409 1
3 418 1
3 435 1
3 437 1
3 444 1
3 477 1
3 480 1
3 500 1
3 529 1
3 531 1
3 594 1
3 619 1
3 623 1
3 635 1
3 638 1
3 653 1
3 673 1
3 689 1
3 757 1
3 761 1
3 769 1
4 1 1
4 2 1
4 3 1
4 5 1
4 7 1
4 8 1
4 9 1
4 10 1
4 12 1
4 13 1
4 14 1
4 15 1
4 16 1
4 18 1
4 19 1
4 20 1
4 22 1
4 24 1
4 25 1
4 26 1
4 29 1
4 31 1
4 32 1
4 33 1
4 35 1
4 37 1
4 39 1
4 49 1
4 52 1
4 56 1
4 63 1
4 64 1
4 66 1
4 67 1
4 69 1
4 72 1
4 73 1
4 74 1
4 78 1
4 85 1
4 88 1
4 90 1
4 95 1
4 99 1
4 103 1
4 107 1
4 115 1
4 122 1
4 123 1
4 131 1
4 139 1
4 140 1
4 142 1
4 149 1
4 155 1
4 156 1
4 162 1
4 169 1
4 186 1
4 189 1
4 194 1
4 197 1
4 198 1
4 201 1
4 208 1
4 212 1
4 220 1
4 225 1
4 226 1
4 231 1
4 243 1
4 267 1
4 269 1
4 271 1
4 277 1
4 281 1
4 284 1
4 300 1
4 307 1
4 308 1
4 310 1
4 330 1
4 357 1
4 358 1
4 364 1
4 367 1
4 371 1
4 376 1
4 379 1
4 383 1
4 391 1
4 392 1
4 407 1
4 409 1
4 432 1
4 435 1
4 436 1
4 461 1
4 475 1
4 477 1
4 488 1
4 511 1
4 512 1
4 523 1
4 537 1
4 562 1
4 572 1
4 574 1
4 579 1
4 592 1
4 596 1
4 598 1
4 625 1
4 626 1
4 665 1
4 687 1
4 705 1
4 775 1
5 1 1
5 2 1
5 4 1
5 6 1
5 7 1
5 8 1
5 9 1
5 11 1
5 13 1
5 14 1
5 18 1
5 20 1
5 22 1
5 23 1
5 24 1
5 28 1
5 33 1
5 34 1
5 35 1
5 36 1
5 38 1
5 39 1
5 40 1
5 41 1
5 43 1
5 46 1
5 49 1
5 50 1
5 51 1
5 52 1
5 55 1
5 56 1
5 60 1
5 71 1
5 72 1
5 74 1
5 76 1
5 85 1
5 86 1
5 88 1
5 92 1
5 95 1
5 96 1
5 101 1
5 107 1
5 108 1
5 116 1
5 120 1
5 130 1
5 140 1
5 145 1
5 146 1
5 149 1
5 156 1
5 157 1
5 158 1
5 161 1
5 165 1
5 174 1
5 188 1
5 212 1
5 213 1
5 220 1
5 221 1
5 232 1
5 234 1
5 235 1
5 238 1
5 241 1
5 305 1
5 307 1
5 341 1
5 344 1
5 345 1
5 370 1
5 374 1
5 387 1
5 398 1
5 401 1
5 408 1
5 423 1
5 429 1
5 447 1
5 454 1
5 456 1
5 472 1
5 473 1
5 475 1
5 476 1
5 480 1
5 485 1
5 490 1
5 492 1
5 506 1
5 517 1
5 523 1
5 538 1
5 541 1
5 546 1
5 549 1
5 552 1
5 559 1
5 564 1
5 565 1
5 599 1
5 634 1
5 656 1
5 657 1
5 666 1
5 671 1
5 679 1
5 684 1
5 689 1
5 691 1
5 696 1
5 705 1
5 709 1
5 716 1
5 724 1
5 736 1
5 769 1
5 775 1
5 787 1
6 1 1
6 2 1
6 5 1
6 8 1
6 9 1
6 12 1
6 13 1
6 19 1
6 25 1
6 30 1
6 33 1
6 34 1
6 36 1
6 40 1
6 41 1
6 43 1
6 44 1
6 47 1
6 50 1
6 55 1
6 57 1
6 65 1
6 66 1
6 67 1
6 87 1
6 88 1
6 94 1
6 100 1
6 101 1
6 108 1
6 115 1
6 120 1
6 121 1
6 124 1
6 125 1
6 138 1
6 144 1
6 146 1
6 148 1
6 159 1
6 162 1
6 168 1
6 170 1
6 175 1
6 176 1
6 178 1
6 185 1
6 188 1
6 192 1
6 212 1
6 223 1
6 232 1
6 245 1
6 283 1
6 319 1
6 334 1
6 345 1
6 358 1
6 400 1
6 402 1
6 420 1
6 442 1
6 443 1
6 446 1
6 447 1
6 453 1
6 471 1
6 481 1
6 485 1
6 517 1
6 541 1
6 570 1
6 577 1
6 579 1
6 585 1
6 610 1
6 634 1
6 649 1
6 664 1
6 678 1
6 681 1
6 714 1
6 749 1
6 782 1
6 790 1
7 1 1
7 2 1
7 3 1
7 4 1
7 5 1
7 9 1
7 10 1
7 11 1
7 14 1
7 21 1
7 29 1
7 32 1
7 38 1
7 44 1
7 47 1
7 48 1
7 52 1
7 56 1
7 64 1
7 67 1
7 77 1
7 156 1
7 165 1
7 169 1
7 183 1
7 197 1
7 222 1
7 252 1
7 257 1
7 269 1
7 314 1
7 333 1
7 336 1
7 337 1
7 355 1
7 368 1
7 386 1
7 396 1
7 412 1
7 418 1
7 457 1
7 471 1
7 487 1
7 495 1
7 538 1
7 545 1
7 562 1
7 578 1
7 594 1
7 602 1
7 624 1
7 625 1
7 628 1
7 656 1
7 668 1
7 687 1
7 688 1
7 722 1
7 793 1
8 1 1
8 2 1
8 4 1
8 5 1
8 6 1
8 13 1
8 15 1
8 17 1
8 18 1
8 20 1
8 22 1
8 24 1
8 26 1
8 27 1
8 33 1
8 41 1
8 43 1
8 46 1
8 60 1
8 62 1
8 66 1
8 69 1
8 71 1
8 72 1
8 78 1
8 85 1
8 98 1
8 119 1
8 127 1
8 136 1
8 172 1
8 190 1
8 213 1
8 215 1
8 220 1
8 221 1
8 243 1
8 249 1
8 252 1
8 265 1
8 266 1
8 290 1
8 292 1
8 297 1
8 313 1
8 340 1
8 375 1
8 385 1
8 399 1
8 411 1
8 415 1
8 422 1
8 423 1
8 483 1
8 488 1
8 490 1
8 510 1
8 542 1
8 547 1
8 560 1
8 565 1
8 641 1
8 649 1
8 652 1
8 662 1
8 663 1
8 666 1
8 667 1
8 691 1
8 709 1
8 715 1
8 717 1
8 750 1
8 771 1
8 784 1
8 800 1
9 1 1
9 2 1
9 4 1
9 5 1
9 6 1
9 7 1
9 10 1
9 12 1
9 13 1
9 14 1
9 15 1
9 16 1
9 17 1
9 21 1
9 25 1
9 27 1
9 28 1
9 37 1
9 40 1
9 42 1
9 51 1
9 52 1
9 55 1
9 58 1
9 61 1
9 77 1
9 79 1
9 80 1
9 87 1
9 97 1
9 101 1
9 102 1
9 107 1
9 126 1
9 127 1
9 130 1
9 133 1
9 146 1
9 152 1
9 189 1
9 192 1
9 205 1
9 208 1
9 211 1
9 216 1
9 232 1
9 237 1
9 240 1
9 244 1
9 262 1
9 288 1
9 290 1
9 316 1
9 320 1
9 322 1
9 330 1
9 360 1
9 366 1
9 370 1
9 392 1
9 405 1
9 449 1
9 462 1
9 513 1
9 554 1
9 633 1
9 644 1
9 685 1
9 799 1
10 2 1
10 3 1
10 4 1
10 7 1
10 9 1
10 11 1
10 14 1
10 16 1
10 17 1
10 21 1
10 29 1
10 30 1
10 38 1
10 92 1
10 97 1
10 102 1
10 143 1
10 153 1
10 165 1
10 183 1
10 222 1
10 231 1
10 268 1
10 337 1
10 339 1
10 346 1
10 352 1
10 391 1
10 412 1
10 418 1
10 428 1
10 452 1
10 483 1
10 495 1
10 535 1
10 542 1
10 567 1
10 585 1
10 600 1
10 637 1
10 653 1
10 659 1
10 665 1
10 673 1
10 706 1
10 720 1
11 1 1
11 2 1
11 3 1
11 5 1
11 7 1
11 10 1
11 23 1
11 152 1
11 317 1
11 331 1
11 338 1
11 346 1
11 508 1
11 562 1
11 635 1
11 647 1
11 672 1
11 745 1
11 747 1
12 1 1
12 3 1
12 4 1
12 6 1
12 9 1
12 26 1
12 118 1
12 133 1
12 142 1
12 177 1
12 194 1
12 237 1
12 318 1
12 319 1
12 329 1
12 409 1
12 420 1
12 449 1
12 515 1
12 516 1
12 563 1
12 604 1
12 653 1
12 655 1
12 688 1
13 1 1
13 4 1
13 5 1
13 6 1
13 8 1
13 9 1
13 15 1
13 30 1
13 33 1
13 39 1
13 43 1
13 44 1
13 46 1
13 52 1
13 65 1
13 99 1
13 120 1
13 126 1
13 162 1
13 172 1
13 182 1
13 183 1
13 251 1
13 254 1
13 320 1
13 344 1
13 374 1
13 396 1
13 400 1
13 426 1
13 441 1
13 469 1
13 493 1
13 533 1
13 547 1
13 549 1
13 558 1
13 583 1
13 789 1
13 791 1
14 2 1
14 4 1
14 5 1
14 7 1
14 9 1
14 10 1
14 17 1
14 19 1
14 21 1
14 27 1
14 29 1
14 30 1
14 37 1
14 39 1
14 48 1
14 65 1
14 70 1
14 77 1
14 82 1
14 96 1
14 143 1
14 148 1
14 153 1
14 154 1
14 171 1
14 183 1
14 207 1
14 237 1
14 260 1
14 268 1
14 273 1
14 277 1
14 283 1
14 292 1
14 297 1
14 361 1
14 410 1
14 413 1
14 475 1
14 492 1
14 496 1
14 523 1
14 535 1
14 539 1
14 544 1
14 567 1
14 596 1
14 615 1
14 618 1
14 621 1
14 652 1
14 659 1
14 676 1
14 697 1
14 704 1
14 726 1
14 733 1
14 773 1
14 788 1
14 800 1
15 1 1
15 4 1
15 8 1
15 9 1
15 13 1
15 17 1
15 78 1
15 89 1
15 94 1
15 98 1
15 189 1
15 295 1
15 320 1
15 399 1
15 442 1
15 493 1
15 641 1
15 662 1
15 663 1
15 717 1
15 799 1
16 1 1
16 3 1
16 4 1
16 9 1
16 10 1
16 18 1
16 25 1
16 34 1
16 35 1
16 53 1
16 54 1
16 68 1
16 72 1
16 84 1
16 106 1
16 107 1
16 142 1
16 173 1
16 179 1
16 187 1
16 242 1
16 288 1
16 300 1
16 304 1
16 321 1
16 360 1
16 405 1
16 531 1
16 561 1
16 580 1
16 775 1
17 1 1
17 8 1
17 9 1
17 10 1
17 14 1
17 15 1
17 21 1
17 26 1
17 30 1
17 32 1
17 48 1
17 65 1
17 69 1
17 73 1
17 78 1
17 89 1
17 92 1
17 93 1
17 96 1
17 97 1
17 98 1
17 101 1
17 102 1
17 110 1
17 123 1
17 124 1
17 135 1
17 140 1
17 150 1
17 152 1
17 158 1
17 167 1
17 227 1
17 234 1
17 235 1
17 291 1
17 292 1
17 295 1
17 303 1
17 306 1
17 316 1
17 327 1
17 347 1
17 353 1
17 403 1
17 413 1
17 417 1
17 438 1
17 439 1
17 442 1
17 460 1
17 464 1
17 472 1
17 483 1
17 492 1
17 503 1
17 506 1
17 510 1
17 515 1
17 519 1
17 524 1
17 526 1
17 542 1
17 544 1
17 581 1
17 613 1
17 678 1
17 680 1
17 776 1
18 1 1
18 2 1
18 4 1
18 5 1
18 8 1
18 16 1
18 22 1
18 23 1
18 31 1
18 34 1
18 35 1
18 63 1
18 75 1
18 82 1
18 100 1
18 103 1
18 109 1
18 116 1
18 119 1
18 125 1
18 128 1
18 134 1
18 138 1
18 155 1
18 159 1
18 161 1
18 174 1
18 181 1
18 185 1
18 215 1
18 255 1
18 259 1
18 266 1
18 290 1
18 311 1
18 314 1
18 320 1
18 326 1
18 349 1
18 380 1
18 391 1
18 416 1
18 433 1
18 446 1
18 466 1
18 473 1
18 498 1
18 597 1
18 598 1
18 656 1
18 677 1
18 712 1
18 730 1
18 731 1
18 755 1
18 762 1
19 1 1
19 2 1
19 4 1
19 6 1
19 14 1
19 20 1
19 22 1
19 29 1
19 74 1
19 83 1
19 94 1
19 208 1
19 268 1
19 453 1
19 456 1
19 461 1
19 496 1
19 651 1
19 659 1
19 724 1
20 2 1
20 4 1
20 5 1
20 8 1
20 19 1
20 22 1
20 24 1
20 31 1
20 49 1
20 63 1
20 72 1
20 90 1
20 112 1
20 131 1
20 198 1
20 222 1
20 238 1
20 240 1
20 281 1
20 302 1
20 351 1
20 362 1
20 397 1
20 404 1
20 419 1
20 430 1
20 453 1
20 494 1
20 508 1
20 509 1
20 530 1
20 598 1
20 618 1
20 679 1
21 2 1
21 7 1
21 9 1
21 10 1
21 14 1
21 17 1
21 27 1
21 48 1
21 80 1
21 82 1
21 98 1
21 104 1
21 114 1
21 117 1
21 133 1
21 151 1
21 152 1
21 195 1
21 204 1
21 207 1
21 222 1
21 237 1
21 254 1
21 273 1
21 292 1
21 298 1
21 396 1
21 421 1
21 459 1
21 467 1
21 495 1
21 611 1
21 630 1
21 653 1
21 719 1
22 4 1
22 5 1
22 8 1
22 18 1
22 19 1
22 20 1
22 23 1
22 28 1
22 31 1
22 41 1
22 42 1
22 49 1
22 51 1
22 53 1
22 59 1
22 61 1
22 62 1
22 63 1
22 68 1
22 74 1
22 83 1
22 103 1
22 106 1
22 109 1
22 119 1
22 125 1
22 134 1
22 137 1
22 139 1
22 144 1
22 155 1
22 170 1
22 173 1
22 177 1
22 178 1
22 206 1
22 209 1
22 252 1
22 255 1
22 263 1
22 266 1
22 287 1
22 299 1
22 309 1
22 313 1
22 335 1
22 346 1
22 354 1
22 376 1
22 415 1
22 417 1
22 432 1
22 453 1
22 479 1
22 490 1
22 499 1
22 584 1
22 609 1
22 667 1
22 729 1
22 738 1
22 741 1
22 753 1
22 758 1
22 771 1
22 779 1
23 2 1
23 3 1
23 5 1
23 11 1
23 18 1
23 22 1
23 28 1
23 31 1
23 42 1
23 53 1
23 59 1
23 62 1
23 113 1
23 152 1
23 219 1
23 233 1
23 236 1
23 278 1
23 313 1
23 325 1
23 331 1
23 415 1
23 429 1
23 454 1
23 502 1
23 647 1
23 656 1
24 1 1
24 4 1
24 5 1
24 8 1
24 20 1
24 49 1
24 71 1
24 86 1
24 92 1
24 111 1
24 112 1
24 131 1
24 149 1
24 157 1
24 188 1
24 221 1
24 222 1
24 227 1
24 234 1
24 257 1
24 302 1
24 332 1
24 362 1
24 369 1
24 394 1
24 398 1
24 488 1
24 508 1
24 524 1
24 552 1
24 590 1
24 696 1
24 700 1
24 767 1
25 2 1
25 4 1
25 6 1
25 9 1
25 16 1
25 28 1
25 36 1
25 40 1
25 42 1
25 50 1
25 51 1
25 58 1
25 66 1
25 87 1
25 104 1
25 126 1
25 180 1
25 191 1
25 194 1
25 239 1
25 270 1
25 288 1
25 296 1
25 335 1
25 347 1
25 348 1
25 366 1
25 378 1
25 511 1
25 513 1
25 535 1
25 678 1
25 683 1
25 690 1
25 715 1
25 725 1
25 760 1
25 782 1
26 1 1
26 4 1
26 8 1
26 12 1
26 17 1
26 27 1
26 32 1
26 45 1
26 46 1
26 69 1
26 77 1
26 93 1
26 118 1
26 123 1
26 127 1
26 132 1
26 136 1
26 162 1
26 169 1
26 189 1
26 194 1
26 195 1
26 197 1
26 199 1
26 224 1
26 255 1
26 286 1
26 293 1
26 299 1
26 302 1
26 306 1
26 309 1
26 312 1
26 318 1
26 331 1
26 390 1
26 449 1
26 452 1
26 455 1
26 458 1
26 468 1
26 483 1
26 496 1
26 527 1
26 557 1
26 560 1
26 573 1
26 622 1
26 648 1
26 684 1
26 695 1
26 703 1
26 743 1
26 772 1
26 780 1
26 786 1
27 1 1
27 8 1
27 9 1
27 14 1
27 21 1
27 26 1
27 37 1
27 46 1
27 62 1
27 77 1
27 80 1
27 110 1
27 128 1
27 143 1
27 145 1
27 154 1
27 223 1
27 224 1
27 233 1
27 237 1
27 240 1
27 243 1
27 247 1
27 288 1
27 354 1
27 362 1
27 520 1
27 576 1
27 652 1
27 713 1
27 733 1
27 756 1
28 2 1
28 5 1
28 9 1
28 22 1
28 23 1
28 25 1
28 41 1
28 42 1
28 61 1
28 68 1
28 74 1
28 109 1
28 113 1
28 145 1
28 160 1
28 179 1
28 187 1
28 229 1
28 239 1
28 263 1
28 278 1
28 369 1
28 397 1
28 422 1
28 425 1
28 429 1
28 454 1
28 464 1
28 528 1
28 620 1
28 715 1
28 783 1
29 4 1
29 7 1
29 10 1
29 14 1
29 19 1
29 37 1
29 70 1
29 88 1
29 97 1
29 105 1
29 207 1
29 208 1
29 209 1
29 263 1
29 337 1
29 358 1
29 364 1
29 438 1
29 486 1
29 564 1
29 651 1
29 665 1
29 676 1
29 722 1
29 730 1
30 1 1
30 6 1
30 10 1
30 13 1
30 14 1
30 17 1
30 65 1
30 73 1
30 92 1
30 110 1
30 143 1
30 162 1
30 164 1
30 203 1
30 214 1
30 227 1
30 245 1
30 254 1
30 283 1
30 339 1
30 352 1
30 359 1
30 411 1
30 428 1
30 434 1
30 468 1
30 473 1
30 616 1
30 706 1
30 773 1
30 776 1
31 4 1
31 18 1
31 20 1
31 22 1
31 23 1
31 49 1
31 53 1
31 63 1
31 90 1
31 134 1
31 141 1
31 178 1
31 240 1
31 311 1
31 376 1
31 380 1
31 562 1
31 581 1
31 598 1
31 616 1
31 691 1
31 753 1
31 756 1
32 1 1
32 4 1
32 7 1
32 17 1
32 26 1
32 44 1
32 45 1
32 93 1
32 102 1
32 118 1
32 147 1
32 169 1
32 267 1
32 303 1
32 333 1
32 347 1
32 395 1
32 417 1
32 512 1
32 557 1
32 573 1
32 591 1
32 613 1
32 681 1
32 686 1
32 722 1
32 776 1
33 4 1
33 5 1
33 6 1
33 8 1
33 13 1
33 35 1
33 38 1
33 39 1
33 40 1
33 43 1
33 44 1
33 45 1
33 54 1
33 60 1
33 70 1
33 75 1
33 148 1
33 176 1
33 180 1
33 181 1
33 191 1
33 198 1
33 213 1
33 246 1
33 256 1
33 328 1
33 426 1
33 443 1
33 445 1
33 474 1
33 476 1
33 488 1
33 543 1
33 547 1
33 554 1
33 586 1
33 601 1
33 620 1
33 631 1
33 632 1
33 641 1
33 663 1
33 682 1
33 713 1
33 716 1
33 748 1
33 789 1
33 791 1
34 1 1
34 5 1
34 6 1
34 16 1
34 18 1
34 43 1
34 47 1
34 58 1
34 75 1
34 82 1
34 100 1
34 108 1
34 116 1
34 122 1
34 214 1
34 244 1
34 304 1
34 320 1
34 342 1
34 350 1
34 357 1
34 372 1
34 453 1
34 529 1
34 576 1
34 592 1
35 4 1
35 5 1
35 16 1
35 18 1
35 33 1
35 38 1
35 45 1
35 56 1
35 64 1
35 84 1
35 91 1
35 181 1
35 191 1
35 321 1
35 341 1
35 391 1
35 400 1
35 407 1
35 440 1
35 441 1
35 480 1
35 481 1
35 488 1
35 506 1
35 527 1
35 566 1
35 584 1
35 599 1
35 614 1
35 626 1
35 646 1
35 650 1
35 671 1
35 694 1
35 717 1
35 791 1
36 2 1
36 5 1
36 6 1
36 25 1
36 55 1
36 57 1
36 76 1
36 89 1
36 115 1
36 120 1
36 124 1
36 126 1
36 132 1
36 146 1
36 147 1
36 176 1
36 270 1
36 286 1
36 298 1
36 381 1
36 382 1
36 424 1
36 479 1
36 530 1
36 565 1
36 570 1
36 604 1
36 678 1
36 743 1
36 777 1
37 4 1
37 9 1
37 14 1
37 27 1
37 29 1
37 70 1
37 88 1
37 97 1
37 154 1
37 209 1
37 225 1
37 240 1
37 263 1
37 357 1
37 363 1
37 370 1
37 402 1
37 532 1
37 564 1
37 599 1
37 603 1
37 660 1
37 739 1
37 773 1
38 3 1
38 5 1
38 7 1
38 10 1
38 33 1
38 35 1
38 40 1
38 45 1
38 47 1
38 54 1
38 64 1
38 70 1
38 71 1
38 75 1
38 79 1
38 81 1
38 84 1
38 137 1
38 156 1
38 165 1
38 166 1
38 180 1
38 182 1
38 184 1
38 196 1
38 201 1
38 203 1
38 205 1
38 218 1
38 228 1
38 251 1
38 262 1
38 271 1
38 272 1
38 279 1
38 291 1
38 307 1
38 336 1
38 386 1
38 431 1
38 434 1
38 440 1
38 445 1
38 465 1
38 520 1
38 528 1
38 537 1
38 563 1
38 671 1
38 713 1
38 716 1
38 724 1
38 737 1
38 770 1
39 4 1
39 5 1
39 13 1
39 14 1
39 33 1
39 46 1
39 99 1
39 270 1
39 475 1
39 492 1
39 539 1
39 547 1
39 552 1
39 583 1
39 586 1
39 618 1
39 643 1
39 716 1
39 736 1
39 763 1
40 5 1
40 6 1
40 9 1
40 25 1
40 33 1
40 38 1
40 50 1
40 51 1
40 54 1
40 55 1
40 60 1
40 87 1
40 104 1
40 113 1
40 121 1
40 130 1
40 149 1
40 154 1
40 156 1
40 170 1
40 182 1
40 184 1
40 198 1
40 244 1
40 280 1
40 289 1
40 366 1
40 447 1
40 465 1
40 476 1
40 494 1
40 533 1
40 535 1
40 553 1
40 622 1
40 632 1
40 633 1
40 643 1
40 650 1
40 703 1
40 728 1
40 758 1
40 795 1
41 5 1
41 6 1
41 8 1
41 22 1
41 28 1
41 51 1
41 61 1
41 66 1
41 68 1
41 74 1
41 108 1
41 137 1
41 165 1
41 168 1
41 174 1
41 217 1
41 220 1
41 224 1
41 230 1
41 232 1
41 249 1
41 261 1
41 280 1
41 293 1
41 303 1
41 319 1
41 346 1
41 397 1
41 472 1
41 491 1
41 499 1
41 510 1
41 536 1
41 585 1
41 667 1
41 668 1
41 711 1
41 719 1
41 735 1
41 771 1
41 774 1
42 9 1
42 22 1
42 23 1
42 25 1
42 28 1
42 58 1
42 59 1
42 113 1
42 155 1
42 191 1
42 215 1
42 219 1
42 229 1
42 236 1
42 264 1
42 340 1
42 498 1
42 754 1
42 758 1
43 5 1
43 6 1
43 8 1
43 13 1
43 33 1
43 34 1
43 47 1
43 50 1
43 58 1
43 60 1
43 67 1
43 144 1
43 172 1
43 178 1
43 182 1
43 183 1
43 328 1
43 340 1
43 357 1
43 363 1
43 372 1
43 387 1
43 408 1
43 422 1
43 523 1
43 550 1
43 578 1
43 591 1
43 601 1
43 620 1
43 714 1
44 1 1
44 6 1
44 7 1
44 13 1
44 32 1
44 33 1
44 65 1
44 148 1
44 333 1
44 426 1
44 469 1
44 602 1
44 613 1
44 624 1
45 1 1
45 26 1
45 32 1
45 33 1
45 35 1
45 38 1
45 70 1
45 71 1
45 79 1
45 84 1
45 86 1
45 118 1
45 147 1
45 176 1
45 199 1
45 204 1
45 245 1
45 246 1
45 267 1
45 274 1
45 302 1
45 308 1
45 309 1
45 365 1
45 395 1
45 419 1
45 427 1
45 526 1
45 539 1
45 540 1
45 554 1
45 570 1
45 572 1
45 591 1
45 596 1
45 617 1
45 645 1
45 692 1
45 746 1
46 5 1
46 8 1
46 13 1
46 26 1
46 27 1
46 39 1
46 77 1
46 99 1
46 110 1
46 127 1
46 141 1
46 143 1
46 189 1
46 223 1
46 270 1
46 312 1
46 337 1
46 344 1
46 374 1
46 390 1
46 441 1
46 533 1
46 548 1
46 552 1
46 580 1
46 627 1
46 684 1
46 689 1
46 736 1
46 762 1
46 764 1
47 3 1
47 6 1
47 7 1
47 34 1
47 38 1
47 43 1
47 48 1
47 56 1
47 59 1
47 67 1
47 80 1
47 81 1
47 108 1
47 122 1
47 138 1
47 218 1
47 219 1
47 238 1
47 244 1
47 250 1
47 252 1
47 257 1
47 260 1
47 334 1
47 336 1
47 350 1
47 353 1
47 355 1
47 358 1
47 372 1
47 383 1
47 398 1
47 412 1
47 446 1
47 481 1
47 500 1
47 529 1
47 538 1
47 551 1
47 576 1
47 591 1
47 595 1
47 690 1
47 710 1
47 749 1
47 769 1
47 794 1
48 7 1
48 14 1
48 17 1
48 21 1
48 47 1
48 64 1
48 82 1
48 96 1
48 98 1
48 104 1
48 114 1
48 117 1
48 137 1
48 148 1
48 150 1
48 160 1
48 218 1
48 238 1
48 257 1
48 277 1
48 291 1
48 297 1
48 371 1
48 406 1
48 410 1
48 434 1
48 503 1
48 516 1
48 636 1
48 638 1
48 672 1
48 693 1
49 4 1
49 5 1
49 20 1
49 22 1
49 24 1
49 31 1
49 112 1
49 178 1
49 234 1
49 257 1
49 384 1
49 581 1
49 609 1
49 631 1
49 679 1
49 712 1
49 729 1
50 5 1
50 6 1
50 25 1
50 40 1
50 43 1
50 88 1
50 95 1
50 113 1
50 170 1
50 175 1
50 180 1
50 275 1
50 443 1
50 681 1
50 782 1
51 5 1
51 9 1
51 22 1
51 25 1
51 40 1
51 41 1
51 55 1
51 61 1
51 79 1
51 106 1
51 111 1
51 168 1
51 192 1
51 232 1
51 262 1
51 293 1
51 449 1
51 510 1
51 533 1
51 535 1
51 538 1
51 645 1
51 650 1
51 685 1
51 728 1
51 738 1
51 768 1
52 2 1
52 4 1
52 5 1
52 7 1
52 9 1
52 13 1
52 67 1
52 73 1
52 76 1
52 95 1
52 107 1
52 126 1
52 151 1
52 158 1
52 186 1
52 193 1
52 199 1
52 211 1
52 344 1
52 371 1
52 377 1
52 379 1
52 396 1
52 420 1
52 445 1
52 549 1
52 656 1
52 728 1
52 786 1
53 1 1
53 3 1
53 16 1
53 22 1
53 23 1
53 31 1
53 54 1
53 57 1
53 62 1
53 119 1
53 134 1
53 141 1
53 173 1
53 177 1
53 242 1
53 256 1
53 276 1
53 295 1
53 311 1
53 328 1
53 417 1
53 426 1
53 444 1
53 551 1
53 557 1
53 642 1
53 661 1
53 683 1
53 727 1
53 756 1
54 3 1
54 16 1
54 33 1
54 38 1
54 40 1
54 53 1
54 68 1
54 75 1
54 173 1
54 182 1
54 196 1
54 202 1
54 256 1
54 272 1
54 349 1
54 480 1
54 632 1
54 643 1
54 682 1
54 702 1
54 708 1
55 5 1
55 6 1
55 9 1
55 36 1
55 40 1
55 51 1
55 79 1
55 205 1
55 290 1
55 323 1
55 467 1
55 533 1
55 554 1
55 570 1
55 634 1
56 3 1
56 4 1
56 5 1
56 7 1
56 35 1
56 47 1
56 59 1
56 64 1
56 78 1
56 81 1
56 91 1
56 219 1
56 225 1
56 241 1
56 252 1
56 305 1
56 307 1
56 314 1
56 341 1
56 375 1
56 386 1
56 394 1
56 437 1
56 482 1
56 497 1
56 519 1
56 521 1
56 527 1
56 594 1
56 597 1
56 601 1
56 609 1
56 619 1
56 657 1
56 661 1
56 791 1
57 1 1
57 2 1
57 3 1
57 6 1
57 36 1
57 53 1
57 91 1
57 100 1
57 119 1
57 124 1
57 147 1
57 164 1
57 332 1
57 442 1
57 444 1
57 462 1
57 571 1
57 661 1
57 780 1
58 9 1
58 25 1
58 34 1
58 42 1
58 43 1
58 191 1
58 215 1
58 264 1
58 335 1
58 348 1
58 357 1
58 378 1
58 387 1
58 401 1
58 456 1
58 513 1
58 532 1
58 536 1
58 559 1
58 592 1
58 675 1
58 789 1
59 3 1
59 22 1
59 23 1
59 42 1
59 47 1
59 56 1
59 80 1
59 114 1
59 117 1
59 155 1
59 219 1
59 233 1
59 236 1
59 260 1
59 325 1
59 340 1
59 412 1
59 415 1
59 482 1
59 498 1
59 525 1
59 611 1
59 629 1
59 742 1
59 753 1
59 790 1
60 5 1
60 8 1
60 33 1
60 40 1
60 43 1
60 198 1
60 213 1
60 221 1
60 328 1
60 340 1
60 443 1
60 476 1
61 2 1
61 9 1
61 22 1
61 28 1
61 41 1
61 51 1
61 106 1
61 111 1
61 137 1
61 168 1
61 192 1
61 224 1
61 303 1
61 309 1
61 338 1
61 433 1
61 455 1
61 477 1
61 548 1
62 1 1
62 8 1
62 22 1
62 23 1
62 27 1
62 53 1
62 173 1
62 243 1
62 265 1
62 288 1
62 313 1
62 354 1
62 479 1
62 502 1
62 547 1
62 741 1
62 771 1
63 2 1
63 4 1
63 18 1
63 20 1
63 22 1
63 31 1
63 103 1
63 128 1
63 198 1
63 206 1
63 253 1
63 284 1
63 311 1
63 315 1
63 351 1
63 517 1
63 753 1
64 4 1
64 7 1
64 35 1
64 38 1
64 48 1
64 56 1
64 78 1
64 81 1
64 85 1
64 90 1
64 91 1
64 115 1
64 135 1
64 137 1
64 160 1
64 166 1
64 201 1
64 203 1
64 226 1
64 323 1
64 378 1
64 379 1
64 383 1
64 386 1
64 427 1
64 430 1
64 437 1
64 457 1
64 471 1
64 497 1
64 521 1
64 582 1
64 661 1
64 759 1
64 792 1
65 6 1
65 13 1
65 14 1
65 17 1
65 30 1
65 44 1
65 73 1
65 120 1
65 140 1
65 164 1
65 283 1
65 285 1
65 434 1
65 469 1
65 544 1
65 556 1
65 568 1
66 4 1
66 6 1
66 8 1
66 25 1
66 41 1
66 87 1
66 185 1
66 249 1
66 296 1
66 347 1
66 423 1
66 511 1
67 4 1
67 6 1
67 7 1
67 43 1
67 47 1
67 52 1
67 138 1
67 144 1
67 186 1
67 578 1
67 595 1
67 625 1
68 3 1
68 16 1
68 22 1
68 28 1
68 41 1
68 54 1
68 84 1
68 109 1
68 160 1
68 173 1
68 179 1
68 202 1
68 211 1
68 229 1
68 261 1
68 299 1
68 346 1
68 374 1
68 397 1
68 480 1
68 484 1
68 584 1
68 635 1
68 708 1
68 792 1
69 2 1
69 3 1
69 4 1
69 8 1
69 17 1
69 26 1
69 83 1
69 93 1
69 123 1
69 135 1
69 158 1
69 163 1
69 186 1
69 243 1
69 255 1
69 275 1
69 300 1
69 317 1
69 376 1
69 388 1
69 406 1
69 416 1
69 421 1
69 431 1
69 432 1
69 553 1
70 14 1
70 29 1
70 33 1
70 37 1
70 38 1
70 45 1
70 71 1
70 97 1
70 105 1
70 131 1
70 176 1
70 207 1
70 225 1
70 245 1
70 274 1
70 294 1
70 438 1
70 445 1
70 526 1
70 532 1
70 561 1
70 577 1
70 599 1
70 660 1
70 718 1
70 734 1
70 748 1
71 5 1
71 8 1
71 24 1
71 38 1
71 45 1
71 70 1
71 79 1
71 85 1
71 86 1
71 105 1
71 111 1
71 157 1
71 163 1
71 228 1
71 305 1
71 333 1
71 369 1
71 431 1
71 488 1
71 561 1
71 590 1
71 649 1
71 654 1
71 709 1
72 3 1
72 4 1
72 5 1
72 8 1
72 16 1
72 20 1
72 107 1
72 238 1
72 321 1
72 322 1
72 419 1
72 477 1
72 564 1
72 580 1
72 673 1
72 674 1
72 709 1
72 761 1
73 2 1
73 4 1
73 17 1
73 30 1
73 52 1
73 65 1
73 76 1
73 95 1
73 99 1
73 103 1
73 140 1
73 164 1
73 171 1
73 193 1
73 203 1
73 285 1
73 324 1
73 325 1
73 342 1
73 350 1
73 389 1
73 512 1
73 568 1
73 640 1
74 4 1
74 5 1
74 19 1
74 22 1
74 28 1
74 41 1
74 83 1
74 139 1
74 144 1
74 145 1
74 165 1
74 179 1
74 187 1
74 190 1
74 230 1
74 268 1
74 280 1
74 287 1
74 301 1
74 324 1
74 369 1
74 432 1
74 456 1
74 460 1
74 461 1
74 534 1
74 567 1
74 655 1
74 727 1
74 787 1
75 1 1
75 18 1
75 33 1
75 34 1
75 38 1
75 54 1
75 82 1
75 109 1
75 129 1
75 134 1
75 138 1
75 161 1
75 180 1
75 251 1
75 256 1
75 259 1
75 336 1
75 352 1
75 474 1
75 498 1
75 543 1
75 597 1
75 630 1
75 738 1
76 2 1
76 5 1
76 36 1
76 52 1
76 73 1
76 89 1
76 120 1
76 130 1
76 151 1
76 193 1
76 218 1
76 258 1
76 324 1
76 389 1
76 543 1
76 676 1
76 777 1
76 786 1
77 7 1
77 9 1
77 14 1
77 26 1
77 27 1
77 46 1
77 110 1
77 128 1
77 189 1
77 196 1
77 233 1
77 272 1
77 273 1
77 278 1
77 299 1
77 327 1
77 435 1
77 704 1
77 751 1
78 4 1
78 8 1
78 15 1
78 17 1
78 56 1
78 64 1
78 81 1
78 85 1
78 98 1
78 123 1
78 135 1
78 225 1
78 241 1
78 292 1
78 295 1
78 305 1
78 313 1
78 323 1
78 375 1
78 379 1
78 394 1
78 399 1
78 403 1
78 415 1
78 460 1
78 466 1
78 504 1
78 579 1
78 589 1
78 662 1
78 766 1
79 9 1
79 38 1
79 45 1
79 51 1
79 55 1
79 71 1
79 86 1
79 105 1
79 121 1
79 157 1
79 163 1
79 202 1
79 205 1
79 262 1
79 323 1
79 390 1
79 392 1
79 431 1
79 504 1
79 625 1
79 644 1
79 685 1
79 701 1
79 768 1
80 3 1
80 9 1
80 21 1
80 27 1
80 47 1
80 59 1
80 114 1
80 184 1
80 236 1
80 250 1
80 260 1
80 474 1
80 529 1
80 556 1
80 680 1
80 702 1
80 753 1
81 3 1
81 38 1
81 47 1
81 56 1
81 64 1
81 78 1
81 166 1
81 217 1
81 228 1
81 307 1
81 323 1
81 375 1
81 427 1
81 437 1
81 466 1
81 589 1
81 597 1
81 759 1
82 14 1
82 18 1
82 21 1
82 34 1
82 48 1
82 75 1
82 100 1
82 104 1
82 109 1
82 129 1
82 148 1
82 214 1
82 273 1
82 428 1
82 463 1
82 571 1
82 630 1
82 639 1
83 2 1
83 3 1
83 19 1
83 22 1
83 69 1
83 74 1
83 93 1
83 136 1
83 250 1
83 268 1
83 275 1
83 279 1
83 301 1
83 317 1
83 345 1
83 500 1
84 3 1
84 16 1
84 35 1
84 38 1
84 45 1
84 68 1
84 106 1
84 206 1
84 261 1
84 308 1
84 321 1
84 374 1
84 400 1
84 440 1
84 737 1
85 4 1
85 5 1
85 8 1
85 64 1
85 71 1
85 78 1
85 90 1
85 123 1
85 135 1
85 166 1
85 226 1
85 269 1
85 378 1
85 626 1
85 649 1
85 691 1
85 705 1
86 5 1
86 24 1
86 45 1
86 71 1
86 79 1
86 92 1
86 96 1
86 105 1
86 111 1
86 112 1
86 121 1
86 139 1
86 305 1
86 333 1
86 401 1
86 409 1
86 454 1
86 607 1
86 625 1
86 640 1
86 682 1
86 709 1
86 740 1
87 6 1
87 9 1
87 25 1
87 40 1
87 66 1
87 121 1
87 130 1
87 154 1
87 188 1
87 192 1
87 200 1
87 248 1
87 280 1
87 285 1
87 289 1
87 296 1
87 315 1
87 366 1
87 405 1
87 425 1
87 534 1
87 629 1
87 718 1
87 747 1
88 4 1
88 5 1
88 6 1
88 29 1
88 37 1
88 50 1
88 95 1
88 212 1
88 263 1
88 357 1
88 363 1
88 443 1
88 610 1
88 649 1
88 773 1
89 1 1
89 2 1
89 15 1
89 17 1
89 36 1
89 76 1
89 94 1
89 218 1
89 234 1
89 253 1
89 575 1
89 777 1
90 4 1
90 20 1
90 31 1
90 64 1
90 85 1
90 115 1
90 220 1
90 226 1
90 240 1
90 281 1
90 404 1
90 430 1
90 537 1
90 562 1
90 792 1
91 1 1
91 3 1
91 35 1
91 56 1
91 57 1
91 64 1
91 164 1
91 497 1
91 791 1
92 5 1
92 10 1
92 17 1
92 24 1
92 30 1
92 86 1
92 96 1
92 110 1
92 112 1
92 157 1
92 227 1
92 483 1
92 678 1
92 680 1
93 3 1
93 17 1
93 26 1
93 32 1
93 69 1
93 83 1
93 102 1
93 124 1
93 136 1
93 186 1
93 193 1
93 250 1
93 275 1
93 306 1
93 312 1
93 345 1
93 382 1
93 388 1
93 439 1
93 582 1
93 707 1
93 764 1
94 1 1
94 2 1
94 6 1
94 15 1
94 19 1
94 89 1
94 159 1
94 223 1
94 287 1
94 489 1
95 4 1
95 5 1
95 50 1
95 52 1
95 73 1
95 88 1
95 379 1
96 5 1
96 14 1
96 17 1
96 48 1
96 86 1
96 92 1
96 112 1
96 277 1
96 401 1
96 406 1
96 413 1
96 438 1
96 454 1
96 503 1
96 507 1
96 607 1
96 615 1
96 619 1
96 654 1
96 682 1
96 697 1
96 704 1
96 737 1
97 9 1
97 10 1
97 17 1
97 29 1
97 37 1
97 70 1
97 101 1
97 102 1
97 105 1
97 127 1
97 129 1
97 131 1
97 200 1
97 208 1
97 209 1
97 225 1
97 248 1
97 402 1
97 486 1
97 531 1
97 577 1
97 603 1
97 642 1
97 749 1
97 750 1
97 765 1
98 8 1
98 15 1
98 17 1
98 21 1
98 48 1
98 78 1
98 117 1
98 133 1
98 195 1
98 265 1
98 304 1
98 313 1
98 399 1
98 459 1
98 461 1
98 469 1
98 566 1
98 732 1
98 782 1
99 2 1
99 4 1
99 13 1
99 39 1
99 46 1
99 73 1
99 103 1
99 122 1
99 171 1
99 270 1
99 308 1
99 387 1
99 441 1
99 580 1
99 583 1
99 640 1
100 2 1
100 6 1
100 18 1
100 34 1
100 57 1
100 82 1
100 116 1
100 214 1
100 332 1
100 428 1
100 463 1
100 571 1
100 589 1
100 707 1
100 777 1
101 2 1
101 5 1
101 6 1
101 9 1
101 17 1
101 97 1
101 235 1
101 316 1
101 322 1
101 485 1
101 492 1
101 549 1
101 607 1
102 9 1
102 10 1
102 17 1
102 32 1
102 93 1
102 97 1
102 124 1
102 127 1
102 129 1
102 150 1
102 153 1
102 200 1
102 347 1
102 353 1
102 393 1
102 451 1
102 505 1
102 513 1
102 524 1
102 574 1
102 657 1
103 4 1
103 18 1
103 22 1
103 63 1
103 73 1
103 99 1
103 122 1
103 128 1
103 171 1
103 206 1
103 212 1
103 282 1
103 315 1
103 341 1
103 373 1
103 387 1
103 505 1
103 512 1
103 522 1
103 583 1
103 587 1
103 658 1
103 660 1
103 665 1
103 720 1
103 759 1
104 21 1
104 25 1
104 40 1
104 48 1
104 82 1
104 113 1
104 114 1
104 149 1
104 150 1
104 172 1
104 180 1
104 204 1
104 207 1
104 210 1
104 231 1
104 247 1
104 298 1
104 364 1
104 366 1
104 368 1
104 393 1
104 407 1
104 440 1
104 482 1
104 484 1
104 553 1
104 630 1
104 646 1
104 651 1
104 664 1
104 670 1
104 690 1
104 729 1
104 781 1
104 794 1
105 29 1
105 70 1
105 71 1
105 79 1
105 86 1
105 97 1
105 121 1
105 131 1
105 139 1
105 157 1
105 167 1
105 228 1
105 249 1
105 351 1
105 504 1
105 648 1
106 3 1
106 16 1
106 22 1
106 51 1
106 61 1
106 84 1
106 111 1
106 206 1
106 230 1
106 309 1
106 338 1
106 457 1
106 531 1
106 738 1
106 775 1
106 779 1
107 4 1
107 5 1
107 9 1
107 16 1
107 52 1
107 72 1
107 142 1
107 146 1
107 158 1
107 199 1
107 377 1
107 436 1
107 560 1
107 580 1
108 5 1
108 6 1
108 34 1
108 41 1
108 47 1
108 122 1
108 168 1
108 334 1
108 345 1
108 353 1
108 453 1
108 472 1
108 536 1
108 559 1
108 632 1
108 664 1
108 766 1
109 18 1
109 22 1
109 28 1
109 68 1
109 75 1
109 82 1
109 129 1
109 138 1
109 159 1
109 160 1
109 263 1
109 276 1
109 299 1
109 352 1
109 425 1
109 464 1
109 569 1
109 797 1
110 17 1
110 27 1
110 30 1
110 46 1
110 77 1
110 92 1
110 128 1
110 141 1
110 143 1
110 145 1
110 196 1
110 227 1
110 235 1
110 247 1
110 272 1
110 520 1
110 576 1
110 680 1
111 24 1
111 51 1
111 61 1
111 71 1
111 86 1
111 106 1
111 192 1
111 333 1
111 369 1
111 455 1
111 477 1
111 685 1
112 20 1
112 24 1
112 49 1
112 86 1
112 92 1
112 96 1
112 302 1
112 401 1
112 409 1
112 507 1
112 654 1
113 23 1
113 28 1
113 40 1
113 42 1
113 50 1
113 104 1
113 149 1
113 229 1
113 231 1
113 236 1
113 278 1
113 422 1
113 440 1
113 465 1
113 546 1
113 646 1
113 783 1
113 785 1
114 3 1
114 21 1
114 48 1
114 59 1
114 80 1
114 104 1
114 117 1
114 150 1
114 172 1
114 184 1
114 204 1
114 236 1
114 296 1
114 371 1
114 407 1
114 450 1
114 474 1
114 516 1
114 623 1
114 651 1
114 689 1
114 702 1
114 729 1
115 2 1
115 4 1
115 6 1
115 36 1
115 64 1
115 90 1
115 125 1
115 220 1
115 298 1
115 383 1
115 491 1
115 714 1
115 792 1
116 2 1
116 5 1
116 18 1
116 34 1
116 100 1
116 161 1
116 185 1
116 314 1
116 320 1
116 326 1
116 423 1
116 436 1
116 447 1
116 518 1
116 603 1
117 3 1
117 21 1
117 48 1
117 59 1
117 98 1
117 114 1
117 133 1
117 151 1
117 265 1
117 296 1
117 439 1
117 450 1
117 611 1
117 638 1
118 1 1
118 12 1
118 26 1
118 32 1
118 45 1
118 132 1
118 169 1
118 267 1
118 302 1
118 318 1
118 331 1
118 419 1
118 451 1
118 496 1
118 622 1
118 692 1
118 755 1
119 1 1
119 8 1
119 18 1
119 22 1
119 53 1
119 57 1
119 125 1
119 170 1
119 209 1
119 216 1
119 252 1
119 256 1
119 290 1
119 310 1
119 335 1
119 349 1
119 354 1
119 365 1
119 404 1
119 444 1
119 551 1
119 588 1
119 661 1
119 727 1
119 731 1
119 745 1
119 761 1
120 5 1
120 6 1
120 13 1
120 36 1
120 65 1
120 76 1
120 530 1
120 565 1
121 6 1
121 40 1
121 79 1
121 86 1
121 87 1
121 105 1
121 139 1
121 167 1
121 175 1
121 188 1
121 200 1
121 248 1
121 280 1
121 285 1
121 315 1
121 405 1
121 425 1
121 447 1
121 625 1
121 628 1
121 640 1
121 648 1
121 697 1
121 718 1
121 726 1
121 744 1
121 787 1
122 4 1
122 34 1
122 47 1
122 99 1
122 103 1
122 108 1
122 212 1
122 226 1
122 244 1
122 282 1
122 387 1
122 497 1
122 621 1
123 4 1
123 17 1
123 26 1
123 69 1
123 78 1
123 85 1
123 135 1
123 255 1
123 269 1
123 416 1
123 431 1
123 452 1
123 455 1
123 468 1
123 572 1
123 579 1
124 6 1
124 17 1
124 36 1
124 57 1
124 93 1
124 102 1
124 150 1
124 153 1
124 306 1
124 330 1
124 442 1
124 658 1
124 679 1
124 772 1
125 6 1
125 18 1
125 22 1
125 115 1
125 119 1
125 146 1
125 170 1
125 255 1
125 349 1
125 381 1
125 404 1
125 444 1
125 588 1
125 675 1
126 2 1
126 9 1
126 13 1
126 25 1
126 36 1
126 52 1
126 132 1
126 194 1
126 211 1
126 270 1
126 274 1
126 360 1
126 396 1
126 424 1
126 479 1
126 683 1
126 725 1
126 757 1
127 8 1
127 9 1
127 26 1
127 46 1
127 97 1
127 102 1
127 129 1
127 136 1
127 190 1
127 195 1
127 208 1
127 248 1
127 293 1
127 294 1
127 297 1
127 326 1
127 356 1
127 373 1
127 390 1
127 414 1
127 486 1
127 502 1
127 513 1
127 531 1
127 608 1
127 648 1
127 741 1
127 750 1
127 770 1
127 788 1
128 18 1
128 27 1
128 63 1
128 77 1
128 103 1
128 110 1
128 233 1
128 247 1
128 315 1
128 373 1
128 385 1
128 505 1
128 517 1
129 75 1
129 82 1
129 97 1
129 102 1
129 109 1
129 127 1
129 200 1
129 248 1
129 352 1
129 608 1
129 738 1
129 765 1
130 2 1
130 5 1
130 9 1
130 40 1
130 76 1
130 87 1
130 154 1
130 244 1
130 258 1
130 284 1
130 475 1
130 494 1
130 534 1
131 4 1
131 20 1
131 24 1
131 70 1
131 97 1
131 105 1
131 222 1
131 524 1
131 618 1
131 700 1
132 1 1
132 2 1
132 26 1
132 36 1
132 118 1
132 126 1
132 286 1
132 306 1
132 331 1
132 408 1
132 424 1
132 451 1
132 687 1
132 723 1
133 1 1
133 9 1
133 12 1
133 21 1
133 98 1
133 117 1
133 151 1
133 177 1
133 195 1
133 216 1
133 237 1
133 254 1
133 265 1
133 282 1
133 289 1
133 304 1
133 439 1
133 462 1
133 516 1
133 558 1
133 566 1
133 782 1
134 1 1
134 18 1
134 22 1
134 31 1
134 53 1
134 75 1
134 141 1
134 161 1
134 177 1
134 181 1
134 242 1
134 276 1
134 389 1
134 426 1
134 463 1
134 557 1
134 612 1
134 642 1
134 670 1
134 785 1
135 17 1
135 64 1
135 69 1
135 78 1
135 85 1
135 123 1
135 158 1
135 163 1
135 166 1
135 167 1
135 416 1
135 421 1
135 478 1
135 521 1
135 586 1
135 796 1
136 3 1
136 8 1
136 26 1
136 83 1
136 93 1
136 127 1
136 190 1
136 193 1
136 195 1
136 250 1
136 279 1
136 301 1
136 312 1
136 326 1
136 356 1
136 359 1
136 375 1
136 411 1
136 414 1
136 458 1
136 483 1
136 493 1
136 707 1
136 741 1
136 751 1
137 22 1
137 38 1
137 41 1
137 48 1
137 61 1
137 64 1
137 160 1
137 201 1
137 217 1
137 224 1
137 291 1
137 548 1
137 563 1
137 693 1
137 735 1
137 774 1
138 6 1
138 18 1
138 47 1
138 67 1
138 75 1
138 109 1
138 159 1
138 174 1
138 210 1
138 259 1
138 266 1
138 276 1
138 358 1
138 410 1
138 555 1
138 569 1
138 577 1
138 595 1
138 610 1
138 797 1
139 4 1
139 22 1
139 74 1
139 86 1
139 105 1
139 121 1
139 144 1
139 167 1
139 175 1
139 640 1
139 740 1
140 1 1
140 4 1
140 5 1
140 17 1
140 65 1
140 73 1
140 241 1
140 285 1
140 342 1
140 370 1
140 499 1
140 507 1
140 544 1
140 546 1
140 556 1
140 568 1
140 605 1
140 606 1
140 644 1
141 31 1
141 46 1
141 53 1
141 110 1
141 134 1
141 196 1
141 273 1
141 327 1
141 426 1
141 683 1
141 710 1
141 756 1
142 1 1
142 3 1
142 4 1
142 12 1
142 16 1
142 107 1
142 259 1
142 281 1
142 436 1
142 485 1
142 563 1
142 573 1
142 739 1
142 757 1
142 778 1
143 10 1
143 14 1
143 27 1
143 30 1
143 46 1
143 110 1
143 145 1
143 153 1
143 171 1
143 223 1
143 260 1
143 337 1
143 339 1
143 344 1
143 362 1
143 585 1
143 773 1
144 6 1
144 22 1
144 43 1
144 67 1
144 74 1
144 139 1
144 178 1
144 287 1
144 301 1
144 363 1
144 699 1
145 5 1
145 27 1
145 28 1
145 74 1
145 110 1
145 143 1
145 179 1
145 190 1
145 329 1
145 356 1
145 460 1
145 520 1
146 5 1
146 6 1
146 9 1
146 36 1
146 107 1
146 125 1
146 176 1
146 283 1
146 318 1
146 381 1
146 604 1
146 731 1
146 742 1
147 1 1
147 2 1
147 32 1
147 36 1
147 45 1
147 57 1
147 204 1
147 316 1
147 365 1
148 6 1
148 14 1
148 33 1
148 44 1
148 48 1
148 82 1
148 297 1
148 621 1
148 726 1
149 4 1
149 5 1
149 24 1
149 40 1
149 104 1
149 113 1
149 188 1
149 231 1
149 366 1
149 465 1
149 484 1
149 758 1
149 775 1
149 785 1
149 794 1
150 17 1
150 48 1
150 102 1
150 104 1
150 114 1
150 124 1
150 153 1
150 172 1
150 210 1
150 239 1
150 247 1
150 330 1
150 353 1
150 367 1
150 371 1
150 393 1
150 489 1
150 505 1
150 522 1
150 541 1
150 574 1
150 575 1
150 606 1
150 637 1
150 711 1
150 721 1
150 725 1
150 744 1
151 2 1
151 21 1
151 52 1
151 76 1
151 117 1
151 133 1
151 439 1
151 611 1
151 786 1
152 2 1
152 9 1
152 11 1
152 17 1
152 21 1
152 23 1
152 317 1
153 10 1
153 14 1
153 102 1
153 124 1
153 143 1
153 150 1
153 171 1
153 330 1
153 489 1
153 522 1
153 535 1
153 658 1
153 679 1
154 14 1
154 27 1
154 37 1
154 40 1
154 87 1
154 130 1
154 289 1
154 494 1
154 534 1
154 652 1
154 795 1
155 1 1
155 4 1
155 18 1
155 22 1
155 42 1
155 59 1
155 271 1
155 433 1
155 459 1
155 587 1
155 624 1
155 758 1
155 793 1
156 3 1
156 4 1
156 5 1
156 7 1
156 38 1
156 40 1
156 197 1
156 310 1
156 361 1
156 688 1
156 724 1
156 763 1
156 774 1
157 5 1
157 24 1
157 71 1
157 79 1
157 92 1
157 105 1
157 163 1
157 202 1
157 227 1
157 228 1
157 249 1
157 504 1
157 552 1
157 654 1
157 767 1
158 5 1
158 17 1
158 52 1
158 69 1
158 107 1
158 135 1
158 163 1
158 167 1
158 199 1
158 420 1
158 521 1
158 586 1
158 752 1
159 2 1
159 6 1
159 18 1
159 94 1
159 109 1
159 138 1
159 174 1
159 210 1
159 223 1
159 276 1
159 287 1
159 372 1
159 384 1
159 489 1
159 509 1
159 540 1
159 555 1
160 28 1
160 48 1
160 64 1
160 68 1
160 109 1
160 137 1
160 425 1
160 693 1
160 735 1
161 5 1
161 18 1
161 75 1
161 116 1
161 134 1
161 181 1
161 185 1
161 423 1
161 473 1
161 498 1
161 630 1
162 1 1
162 4 1
162 6 1
162 13 1
162 26 1
162 30 1
162 197 1
162 201 1
162 254 1
162 286 1
162 400 1
162 458 1
162 473 1
162 593 1
162 669 1
162 708 1
163 69 1
163 71 1
163 79 1
163 135 1
163 157 1
163 158 1
163 202 1
163 390 1
163 406 1
163 478 1
163 654 1
163 686 1
163 701 1
163 796 1
164 1 1
164 30 1
164 57 1
164 65 1
164 73 1
164 91 1
164 203 1
164 214 1
164 434 1
164 468 1
164 568 1
165 5 1
165 7 1
165 10 1
165 38 1
165 41 1
165 74 1
165 174 1
165 230 1
165 261 1
165 448 1
165 491 1
165 787 1
166 3 1
166 38 1
166 64 1
166 81 1
166 85 1
166 135 1
166 217 1
166 228 1
166 378 1
166 418 1
166 612 1
167 17 1
167 105 1
167 121 1
167 135 1
167 139 1
167 158 1
167 175 1
167 521 1
167 648 1
167 744 1
168 6 1
168 41 1
168 51 1
168 61 1
168 108 1
168 303 1
168 433 1
168 510 1
168 536 1
168 585 1
168 632 1
169 4 1
169 7 1
169 26 1
169 32 1
169 118 1
169 267 1
169 622 1
169 686 1
169 722 1
169 780 1
170 6 1
170 22 1
170 40 1
170 50 1
170 119 1
170 125 1
170 175 1
170 209 1
170 216 1
170 275 1
170 310 1
170 790 1
171 14 1
171 73 1
171 99 1
171 103 1
171 143 1
171 153 1
171 260 1
171 583 1
171 640 1
172 8 1
172 13 1
172 43 1
172 104 1
172 114 1
172 150 1
172 182 1
172 210 1
172 239 1
172 251 1
172 258 1
172 343 1
172 422 1
172 725 1
172 732 1
173 16 1
173 22 1
173 53 1
173 54 1
173 62 1
173 68 1
173 179 1
173 202 1
173 211 1
173 229 1
173 246 1
173 349 1
173 380 1
173 518 1
173 593 1
173 741 1
174 5 1
174 18 1
174 41 1
174 138 1
174 159 1
174 165 1
174 210 1
174 261 1
174 319 1
174 372 1
174 448 1
174 509 1
174 668 1
174 797 1
175 6 1
175 50 1
175 121 1
175 139 1
175 167 1
175 170 1
175 275 1
175 681 1
175 744 1
175 790 1
176 6 1
176 33 1
176 36 1
176 45 1
176 70 1
176 146 1
176 245 1
176 283 1
176 294 1
176 318 1
176 343 1
176 413 1
176 478 1
176 539 1
176 554 1
176 579 1
176 590 1
176 695 1
176 706 1
176 734 1
176 748 1
176 768 1
177 1 1
177 12 1
177 22 1
177 53 1
177 133 1
177 134 1
177 242 1
177 328 1
177 329 1
177 417 1
177 516 1
177 558 1
178 6 1
178 22 1
178 31 1
178 43 1
178 49 1
178 144 1
178 363 1
178 376 1
178 550 1
178 581 1
178 616 1
178 712 1
178 729 1
179 16 1
179 28 1
179 68 1
179 74 1
179 145 1
179 173 1
179 187 1
179 190 1
179 211 1
179 242 1
179 246 1
179 329 1
179 380 1
179 388 1
179 448 1
179 634 1
179 792 1
180 25 1
180 33 1
180 38 1
180 50 1
180 75 1
180 104 1
180 251 1
180 690 1
180 713 1
181 18 1
181 33 1
181 35 1
181 134 1
181 161 1
181 191 1
181 246 1
181 641 1
181 717 1
182 13 1
182 38 1
182 40 1
182 43 1
182 54 1
182 172 1
182 183 1
182 184 1
182 196 1
182 205 1
182 251 1
182 258 1
182 271 1
182 339 1
182 343 1
182 414 1
182 622 1
182 740 1
183 7 1
183 10 1
183 13 1
183 14 1
183 43 1
183 182 1
183 268 1
183 412 1
183 452 1
183 627 1
184 3 1
184 38 1
184 40 1
184 80 1
184 114 1
184 182 1
184 271 1
184 465 1
184 474 1
184 529 1
184 537 1
184 556 1
184 622 1
184 689 1
184 778 1
184 781 1
185 6 1
185 18 1
185 66 1
185 116 1
185 161 1
185 314 1
185 677 1
185 692 1
186 3 1
186 4 1
186 52 1
186 67 1
186 69 1
186 93 1
186 371 1
186 445 1
187 16 1
187 28 1
187 74 1
187 179 1
187 242 1
187 300 1
187 369 1
187 534 1
187 634 1
187 792 1
188 5 1
188 6 1
188 24 1
188 87 1
188 121 1
188 149 1
188 200 1
188 398 1
188 628 1
188 769 1
188 787 1
189 4 1
189 9 1
189 15 1
189 26 1
189 46 1
189 77 1
189 299 1
189 312 1
189 330 1
189 799 1
190 8 1
190 74 1
190 127 1
190 136 1
190 145 1
190 179 1
190 297 1
190 326 1
190 329 1
190 356 1
190 375 1
190 460 1
190 542 1
190 698 1
190 770 1
191 25 1
191 33 1
191 35 1
191 42 1
191 58 1
191 181 1
191 215 1
191 335 1
191 717 1
192 6 1
192 9 1
192 51 1
192 61 1
192 87 1
192 111 1
192 232 1
192 455 1
192 685 1
193 3 1
193 52 1
193 73 1
193 76 1
193 93 1
193 136 1
193 312 1
193 325 1
193 382 1
193 389 1
193 582 1
194 2 1
194 4 1
194 12 1
194 25 1
194 26 1
194 126 1
194 274 1
194 334 1
194 449 1
194 725 1
195 21 1
195 26 1
195 98 1
195 127 1
195 133 1
195 136 1
195 254 1
195 282 1
195 289 1
195 293 1
195 294 1
195 304 1
195 414 1
195 421 1
195 458 1
195 459 1
195 461 1
195 493 1
195 502 1
195 623 1
195 693 1
196 38 1
196 54 1
196 77 1
196 110 1
196 141 1
196 182 1
196 205 1
196 262 1
196 272 1
196 273 1
196 278 1
196 414 1
196 435 1
196 514 1
196 704 1
196 710 1
196 723 1
196 770 1
196 798 1
197 4 1
197 7 1
197 26 1
197 156 1
197 162 1
197 201 1
197 269 1
197 277 1
197 310 1
197 361 1
197 429 1
197 458 1
197 688 1
197 763 1
197 774 1
198 4 1
198 20 1
198 33 1
198 40 1
198 60 1
198 63 1
198 351 1
198 397 1
198 470 1
199 1 1
199 26 1
199 45 1
199 52 1
199 107 1
199 158 1
199 377 1
199 420 1
199 527 1
199 560 1
199 728 1
199 752 1
200 87 1
200 97 1
200 102 1
200 121 1
200 129 1
200 188 1
200 248 1
200 628 1
200 747 1
201 4 1
201 38 1
201 64 1
201 137 1
201 162 1
201 197 1
201 203 1
201 279 1
202 54 1
202 68 1
202 79 1
202 157 1
202 163 1
202 173 1
202 229 1
202 349 1
202 390 1
202 518 1
202 701 1
202 708 1
202 796 1
203 30 1
203 38 1
203 64 1
203 73 1
203 164 1
203 201 1
203 214 1
203 279 1
203 359 1
204 1 1
204 21 1
204 45 1
204 104 1
204 114 1
204 147 1
204 207 1
204 316 1
204 365 1
204 368 1
204 407 1
204 467 1
204 540 1
204 570 1
204 572 1
204 746 1
205 9 1
205 38 1
205 55 1
205 79 1
205 182 1
205 196 1
205 262 1
205 290 1
205 323 1
205 392 1
205 414 1
205 467 1
205 514 1
205 701 1
205 779 1
206 3 1
206 22 1
206 63 1
206 84 1
206 103 1
206 106 1
206 230 1
207 14 1
207 21 1
207 29 1
207 70 1
207 104 1
207 204 1
207 298 1
207 364 1
207 368 1
207 393 1
207 438 1
207 467 1
207 676 1
207 722 1
208 4 1
208 9 1
208 19 1
208 29 1
208 97 1
208 127 1
208 358 1
208 486 1
208 514 1
208 531 1
208 651 1
209 22 1
209 29 1
209 37 1
209 97 1
209 119 1
209 170 1
209 216 1
209 335 1
209 603 1
210 104 1
210 138 1
210 150 1
210 159 1
210 172 1
210 174 1
210 239 1
210 247 1
210 367 1
210 372 1
210 541 1
211 9 1
211 52 1
211 68 1
211 126 1
211 173 1
211 179 1
211 246 1
211 360 1
211 388 1
211 593 1
212 4 1
212 5 1
212 6 1
212 88 1
212 103 1
212 122 1
212 226 1
212 282 1
212 341 1
212 497 1
212 610 1
212 665 1
212 759 1
213 5 1
213 8 1
213 33 1
213 60 1
213 221 1
214 30 1
214 34 1
214 82 1
214 100 1
214 164 1
214 203 1
214 359 1
214 428 1
215 2 1
215 8 1
215 18 1
215 42 1
215 58 1
215 191 1
215 264 1
215 416 1
215 712 1
215 715 1
216 1 1
216 9 1
216 119 1
216 133 1
216 170 1
216 209 1
216 310 1
216 365 1
216 462 1
217 3 1
217 41 1
217 81 1
217 137 1
217 166 1
217 418 1
217 499 1
217 612 1
217 774 1
218 2 1
218 38 1
218 47 1
218 48 1
218 76 1
218 89 1
218 238 1
218 253 1
218 383 1
218 398 1
218 434 1
218 500 1
218 575 1
218 676 1
219 23 1
219 42 1
219 47 1
219 56 1
219 59 1
219 233 1
219 340 1
219 412 1
219 629 1
219 721 1
220 4 1
220 5 1
220 8 1
220 41 1
220 90 1
220 115 1
220 771 1
221 1 1
221 5 1
221 8 1
221 24 1
221 60 1
221 213 1
221 332 1
221 385 1
221 614 1
221 652 1
222 7 1
222 10 1
222 20 1
222 21 1
222 24 1
222 131 1
222 508 1
222 524 1
222 618 1
222 653 1
222 719 1
223 6 1
223 27 1
223 46 1
223 94 1
223 143 1
223 159 1
223 337 1
223 362 1
223 489 1
223 548 1
223 764 1
223 765 1
224 1 1
224 26 1
224 27 1
224 41 1
224 61 1
224 137 1
224 548 1
225 4 1
225 37 1
225 56 1
225 70 1
225 78 1
225 97 1
225 241 1
225 399 1
225 402 1
225 532 1
225 577 1
225 642 1
225 748 1
226 4 1
226 64 1
226 85 1
226 90 1
226 122 1
226 212 1
226 430 1
227 17 1
227 24 1
227 30 1
227 92 1
227 110 1
227 157 1
227 235 1
227 291 1
227 381 1
227 403 1
227 450 1
227 470 1
227 472 1
227 545 1
227 555 1
227 581 1
227 617 1
227 694 1
227 698 1
227 767 1
228 38 1
228 71 1
228 81 1
228 105 1
228 157 1
228 166 1
228 249 1
228 307 1
228 351 1
228 528 1
228 716 1
229 28 1
229 42 1
229 68 1
229 113 1
229 173 1
229 202 1
230 3 1
230 41 1
230 74 1
230 106 1
230 165 1
230 206 1
230 280 1
230 324 1
230 491 1
230 719 1
231 4 1
231 10 1
231 104 1
231 113 1
231 149 1
231 391 1
231 392 1
231 440 1
231 484 1
231 664 1
231 670 1
231 673 1
232 5 1
232 6 1
232 9 1
232 41 1
232 51 1
232 192 1
232 293 1
232 538 1
232 645 1
232 735 1
233 23 1
233 27 1
233 59 1
233 77 1
233 128 1
233 219 1
233 325 1
233 629 1
233 721 1
233 742 1
233 790 1
234 1 1
234 5 1
234 17 1
234 24 1
234 49 1
234 89 1
234 257 1
234 384 1
234 506 1
234 519 1
234 594 1
234 696 1
235 2 1
235 5 1
235 17 1
235 101 1
235 110 1
235 227 1
235 291 1
235 327 1
235 381 1
235 403 1
235 501 1
235 545 1
235 549 1
235 698 1
236 23 1
236 42 1
236 59 1
236 80 1
236 113 1
236 114 1
237 9 1
237 12 1
237 14 1
237 21 1
237 27 1
237 133 1
237 733 1
238 5 1
238 20 1
238 47 1
238 48 1
238 72 1
238 218 1
238 383 1
238 419 1
238 494 1
238 564 1
238 674 1
239 2 1
239 25 1
239 28 1
239 150 1
239 172 1
239 210 1
239 367 1
239 606 1
239 715 1
239 725 1
240 9 1
240 20 1
240 27 1
240 31 1
240 37 1
240 90 1
240 370 1
241 1 1
241 5 1
241 56 1
241 78 1
241 140 1
241 225 1
241 305 1
241 370 1
241 399 1
241 499 1
241 501 1
242 16 1
242 53 1
242 134 1
242 177 1
242 179 1
242 187 1
242 276 1
242 295 1
242 300 1
242 328 1
242 348 1
242 360 1
242 389 1
242 463 1
242 550 1
242 569 1
242 634 1
242 785 1
243 2 1
243 4 1
243 8 1
243 27 1
243 62 1
243 69 1
243 300 1
243 354 1
243 547 1
243 784 1
244 9 1
244 34 1
244 40 1
244 47 1
244 122 1
244 130 1
244 350 1
244 355 1
244 487 1
244 690 1
245 1 1
245 6 1
245 30 1
245 45 1
245 70 1
245 176 1
245 274 1
245 294 1
245 343 1
245 395 1
245 478 1
245 695 1
245 718 1
246 33 1
246 45 1
246 173 1
246 179 1
246 181 1
246 211 1
246 380 1
246 388 1
246 448 1
246 593 1
246 641 1
247 27 1
247 104 1
247 110 1
247 128 1
247 150 1
247 210 1
248 87 1
248 97 1
248 121 1
248 127 1
248 129 1
248 200 1
248 285 1
248 486 1
248 608 1
248 747 1
248 765 1
249 8 1
249 41 1
249 66 1
249 105 1
249 157 1
249 228 1
249 351 1
249 423 1
249 565 1
249 667 1
249 674 1
250 3 1
250 47 1
250 80 1
250 83 1
250 93 1
250 136 1
250 301 1
250 345 1
250 707 1
250 751 1
250 769 1
251 13 1
251 38 1
251 75 1
251 172 1
251 180 1
251 182 1
251 258 1
251 336 1
251 339 1
251 732 1
252 7 1
252 8 1
252 22 1
252 47 1
252 56 1
252 119 1
252 266 1
252 314 1
253 2 1
253 63 1
253 89 1
253 218 1
253 284 1
253 575 1
254 13 1
254 21 1
254 30 1
254 133 1
254 162 1
254 195 1
254 282 1
254 421 1
254 473 1
255 18 1
255 22 1
255 26 1
255 69 1
255 123 1
255 125 1
255 431 1
255 452 1
255 695 1
256 1 1
256 33 1
256 53 1
256 54 1
256 75 1
256 119 1
256 311 1
256 474 1
256 551 1
257 7 1
257 24 1
257 47 1
257 48 1
257 49 1
257 234 1
257 336 1
257 355 1
257 384 1
257 545 1
257 594 1
257 631 1
258 2 1
258 76 1
258 130 1
258 172 1
258 182 1
258 251 1
258 284 1
258 339 1
258 343 1
258 424 1
258 732 1
258 740 1
259 1 1
259 3 1
259 18 1
259 75 1
259 138 1
259 142 1
259 264 1
259 266 1
259 281 1
259 410 1
259 466 1
259 485 1
259 597 1
259 636 1
260 14 1
260 47 1
260 59 1
260 80 1
260 143 1
260 171 1
260 753 1
261 3 1
261 41 1
261 68 1
261 84 1
261 165 1
261 174 1
261 319 1
261 374 1
262 9 1
262 38 1
262 51 1
262 79 1
262 196 1
262 205 1
262 449 1
262 514 1
262 644 1
262 768 1
262 770 1
263 22 1
263 28 1
263 29 1
263 37 1
263 88 1
263 109 1
263 363 1
263 564 1
263 739 1
264 1 1
264 3 1
264 42 1
264 58 1
264 215 1
264 259 1
264 754 1
265 1 1
265 8 1
265 62 1
265 98 1
265 117 1
265 133 1
266 8 1
266 18 1
266 22 1
266 138 1
266 252 1
266 259 1
266 410 1
266 466 1
266 636 1
267 4 1
267 32 1
267 45 1
267 118 1
267 169 1
267 591 1
267 686 1
268 10 1
268 14 1
268 19 1
268 74 1
268 83 1
268 183 1
268 452 1
268 456 1
268 567 1
268 627 1
268 724 1
269 4 1
269 7 1
269 85 1
269 123 1
269 197 1
269 277 1
269 429 1
269 572 1
269 626 1
270 25 1
270 36 1
270 39 1
270 46 1
270 99 1
270 126 1
270 479 1
270 552 1
270 580 1
270 683 1
270 757 1
271 1 1
271 4 1
271 38 1
271 155 1
271 182 1
271 184 1
271 367 1
271 459 1
271 465 1
271 511 1
271 520 1
271 615 1
271 624 1
272 38 1
272 54 1
272 77 1
272 110 1
272 196 1
272 278 1
272 595 1
272 798 1
273 14 1
273 21 1
273 77 1
273 82 1
273 141 1
273 196 1
273 292 1
273 327 1
273 361 1
273 704 1
273 710 1
273 788 1
274 2 1
274 45 1
274 70 1
274 126 1
274 194 1
274 245 1
274 334 1
274 526 1
275 50 1
275 69 1
275 83 1
275 93 1
275 170 1
275 175 1
275 388 1
276 53 1
276 109 1
276 134 1
276 138 1
276 159 1
276 242 1
276 295 1
276 348 1
276 384 1
276 389 1
276 569 1
277 4 1
277 14 1
277 48 1
277 96 1
277 197 1
277 269 1
277 406 1
277 429 1
277 615 1
277 636 1
277 638 1
278 23 1
278 28 1
278 77 1
278 113 1
278 196 1
278 272 1
278 422 1
278 435 1
278 454 1
278 546 1
278 595 1
278 620 1
278 723 1
278 751 1
279 3 1
279 38 1
279 83 1
279 136 1
279 201 1
279 203 1
279 500 1
280 40 1
280 41 1
280 74 1
280 87 1
280 121 1
280 230 1
280 315 1
280 324 1
280 655 1
281 3 1
281 4 1
281 20 1
281 90 1
281 142 1
281 259 1
281 404 1
281 485 1
281 537 1
281 573 1
281 598 1
281 757 1
282 103 1
282 122 1
282 133 1
282 195 1
282 212 1
282 254 1
282 289 1
282 341 1
282 497 1
282 693 1
283 6 1
283 14 1
283 30 1
283 65 1
283 146 1
283 176 1
283 318 1
283 413 1
283 579 1
283 706 1
283 742 1
283 752 1
284 2 1
284 4 1
284 63 1
284 130 1
284 253 1
284 258 1
284 424 1
285 65 1
285 73 1
285 87 1
285 121 1
285 140 1
285 248 1
285 342 1
285 425 1
285 507 1
285 556 1
285 605 1
285 629 1
285 633 1
285 697 1
286 1 1
286 2 1
286 26 1
286 36 1
286 132 1
286 162 1
286 408 1
286 786 1
287 2 1
287 22 1
287 74 1
287 94 1
287 144 1
287 159 1
287 301 1
287 432 1
287 540 1
287 567 1
287 699 1
288 1 1
288 9 1
288 16 1
288 25 1
288 27 1
288 62 1
288 405 1
288 756 1
289 40 1
289 87 1
289 133 1
289 154 1
289 195 1
289 282 1
289 693 1
290 8 1
290 9 1
290 18 1
290 55 1
290 119 1
290 205 1
290 554 1
290 731 1
290 745 1
290 755 1
291 17 1
291 38 1
291 48 1
291 137 1
291 227 1
291 235 1
291 327 1
291 381 1
291 472 1
291 501 1
291 515 1
291 555 1
291 563 1
291 694 1
292 8 1
292 14 1
292 17 1
292 21 1
292 78 1
292 273 1
292 361 1
292 403 1
292 415 1
292 504 1
292 510 1
292 783 1
293 26 1
293 41 1
293 51 1
293 127 1
293 195 1
293 232 1
293 294 1
293 648 1
293 735 1
294 70 1
294 127 1
294 176 1
294 195 1
294 245 1
294 293 1
294 695 1
294 718 1
294 734 1
295 15 1
295 17 1
295 53 1
295 78 1
295 242 1
295 276 1
295 348 1
295 442 1
296 3 1
296 25 1
296 66 1
296 87 1
296 114 1
296 117 1
296 347 1
296 450 1
296 623 1
296 638 1
297 8 1
297 14 1
297 48 1
297 127 1
297 148 1
297 190 1
297 410 1
297 621 1
298 2 1
298 21 1
298 36 1
298 104 1
298 115 1
298 207 1
298 364 1
298 382 1
298 491 1
299 22 1
299 26 1
299 68 1
299 77 1
299 109 1
299 189 1
299 584 1
300 4 1
300 16 1
300 69 1
300 187 1
300 242 1
300 243 1
300 360 1
300 550 1
301 74 1
301 83 1
301 136 1
301 144 1
301 250 1
301 287 1
301 567 1
301 699 1
301 751 1
302 20 1
302 24 1
302 26 1
302 45 1
302 112 1
302 118 1
302 309 1
302 362 1
302 419 1
302 427 1
302 617 1
303 1 1
303 17 1
303 32 1
303 41 1
303 61 1
303 168 1
303 395 1
303 417 1
303 433 1
303 503 1
304 1 1
304 16 1
304 34 1
304 98 1
304 133 1
304 195 1
304 342 1
304 377 1
304 461 1
304 469 1
304 561 1
304 566 1
304 588 1
304 623 1
304 732 1
305 5 1
305 56 1
305 71 1
305 78 1
305 86 1
305 241 1
305 394 1
306 1 1
306 17 1
306 26 1
306 93 1
306 124 1
306 132 1
306 439 1
306 687 1
306 703 1
307 4 1
307 5 1
307 38 1
307 56 1
307 81 1
307 228 1
307 528 1
308 2 1
308 4 1
308 45 1
308 84 1
308 99 1
308 321 1
309 22 1
309 26 1
309 45 1
309 61 1
309 106 1
309 302 1
309 338 1
309 457 1
309 617 1
310 4 1
310 119 1
310 156 1
310 170 1
310 197 1
310 216 1
310 361 1
310 365 1
311 1 1
311 18 1
311 31 1
311 53 1
311 63 1
311 256 1
311 380 1
312 26 1
312 46 1
312 93 1
312 136 1
312 189 1
312 193 1
312 582 1
312 684 1
312 762 1
312 764 1
313 8 1
313 22 1
313 23 1
313 62 1
313 78 1
313 98 1
313 479 1
313 502 1
314 7 1
314 18 1
314 56 1
314 116 1
314 185 1
314 252 1
314 677 1
314 692 1
315 63 1
315 87 1
315 103 1
315 121 1
315 128 1
315 280 1
315 373 1
315 385 1
315 405 1
315 517 1
315 587 1
315 658 1
315 726 1
316 1 1
316 9 1
316 17 1
316 101 1
316 147 1
316 204 1
316 322 1
316 492 1
316 607 1
317 2 1
317 11 1
317 69 1
317 83 1
317 152 1
317 553 1
317 647 1
317 672 1
317 799 1
318 12 1
318 26 1
318 118 1
318 146 1
318 176 1
318 283 1
318 413 1
318 742 1
319 1 1
319 6 1
319 12 1
319 41 1
319 174 1
319 261 1
319 420 1
319 515 1
319 605 1
319 655 1
319 668 1
319 669 1
319 711 1
319 797 1
320 9 1
320 13 1
320 15 1
320 18 1
320 34 1
320 116 1
320 493 1
321 3 1
321 16 1
321 35 1
321 72 1
321 84 1
321 308 1
321 322 1
321 400 1
322 3 1
322 9 1
322 72 1
322 101 1
322 316 1
322 321 1
322 761 1
323 55 1
323 64 1
323 78 1
323 79 1
323 81 1
323 205 1
323 379 1
323 427 1
323 467 1
323 589 1
323 662 1
324 2 1
324 73 1
324 74 1
324 76 1
324 230 1
324 280 1
324 350 1
324 543 1
324 655 1
324 727 1
325 23 1
325 59 1
325 73 1
325 193 1
325 233 1
325 742 1
326 2 1
326 18 1
326 116 1
326 127 1
326 136 1
326 190 1
326 356 1
326 359 1
326 373 1
326 436 1
326 603 1
326 677 1
326 770 1
326 788 1
327 17 1
327 77 1
327 141 1
327 235 1
327 273 1
327 291 1
327 501 1
328 33 1
328 43 1
328 53 1
328 60 1
328 177 1
328 242 1
328 443 1
328 476 1
328 601 1
329 1 1
329 12 1
329 145 1
329 177 1
329 179 1
329 190 1
329 356 1
330 4 1
330 9 1
330 124 1
330 150 1
330 153 1
330 189 1
330 489 1
331 3 1
331 11 1
331 23 1
331 26 1
331 118 1
331 132 1
331 338 1
331 496 1
331 508 1
332 1 1
332 2 1
332 24 1
332 57 1
332 100 1
332 221 1
332 394 1
332 462 1
332 571 1
333 7 1
333 32 1
333 44 1
333 71 1
333 86 1
333 111 1
333 602 1
333 709 1
333 793 1
334 2 1
334 6 1
334 47 1
334 108 1
334 194 1
334 274 1
334 353 1
334 446 1
334 471 1
334 664 1
335 22 1
335 25 1
335 58 1
335 119 1
335 191 1
335 209 1
335 348 1
336 7 1
336 38 1
336 47 1
336 75 1
336 251 1
336 257 1
336 355 1
336 368 1
336 487 1
336 490 1
336 538 1
337 7 1
337 10 1
337 29 1
337 46 1
337 143 1
337 223 1
337 344 1
337 418 1
337 548 1
337 627 1
337 637 1
337 665 1
337 765 1
338 3 1
338 11 1
338 61 1
338 106 1
338 309 1
338 331 1
338 457 1
338 508 1
339 10 1
339 30 1
339 143 1
339 182 1
339 251 1
339 258 1
339 352 1
339 411 1
339 585 1
339 740 1
340 8 1
340 42 1
340 43 1
340 59 1
340 60 1
340 219 1
340 498 1
340 525 1
341 5 1
341 35 1
341 56 1
341 103 1
341 212 1
341 282 1
341 386 1
341 519 1
341 657 1
342 1 1
342 34 1
342 73 1
342 140 1
342 285 1
342 304 1
342 377 1
342 507 1
342 525 1
342 633 1
342 647 1
343 172 1
343 176 1
343 182 1
343 245 1
343 258 1
343 395 1
343 478 1
343 539 1
343 590 1
343 596 1
343 768 1
344 5 1
344 13 1
344 46 1
344 52 1
344 143 1
344 337 1
344 549 1
344 558 1
344 627 1
345 5 1
345 6 1
345 83 1
345 93 1
345 108 1
345 250 1
345 517 1
345 559 1
346 3 1
346 10 1
346 11 1
346 22 1
346 41 1
346 68 1
347 17 1
347 25 1
347 32 1
347 66 1
347 102 1
347 296 1
347 524 1
347 613 1
348 25 1
348 58 1
348 242 1
348 276 1
348 295 1
348 335 1
348 378 1
348 789 1
349 18 1
349 54 1
349 119 1
349 125 1
349 173 1
349 202 1
349 404 1
349 518 1
349 675 1
349 761 1
350 2 1
350 34 1
350 47 1
350 73 1
350 244 1
350 324 1
350 355 1
350 487 1
350 529 1
350 551 1
351 20 1
351 63 1
351 105 1
351 198 1
351 228 1
351 249 1
351 397 1
351 470 1
351 530 1
352 10 1
352 30 1
352 75 1
352 109 1
352 129 1
352 339 1
352 411 1
352 428 1
352 600 1
352 616 1
352 738 1
353 17 1
353 47 1
353 102 1
353 108 1
353 150 1
353 334 1
353 393 1
353 451 1
353 711 1
354 22 1
354 27 1
354 62 1
354 119 1
354 243 1
355 7 1
355 47 1
355 244 1
355 257 1
355 336 1
355 350 1
355 368 1
355 487 1
355 545 1
355 551 1
355 690 1
355 710 1
355 794 1
355 798 1
356 127 1
356 136 1
356 145 1
356 190 1
356 326 1
356 329 1
356 359 1
356 373 1
356 677 1
357 4 1
357 34 1
357 37 1
357 43 1
357 58 1
357 88 1
357 592 1
357 773 1
358 4 1
358 6 1
358 29 1
358 47 1
358 138 1
358 208 1
358 364 1
358 486 1
358 514 1
358 577 1
358 730 1
359 30 1
359 136 1
359 203 1
359 214 1
359 326 1
359 356 1
360 9 1
360 16 1
360 126 1
360 211 1
360 242 1
360 300 1
360 550 1
361 14 1
361 156 1
361 197 1
361 273 1
361 292 1
361 310 1
361 763 1
361 788 1
362 20 1
362 24 1
362 27 1
362 143 1
362 223 1
362 302 1
363 37 1
363 43 1
363 88 1
363 144 1
363 178 1
363 263 1
363 550 1
364 4 1
364 29 1
364 104 1
364 207 1
364 298 1
364 358 1
364 393 1
364 482 1
365 45 1
365 119 1
365 147 1
365 204 1
365 216 1
365 310 1
365 540 1
365 645 1
366 9 1
366 25 1
366 40 1
366 87 1
366 104 1
366 149 1
366 553 1
366 794 1
367 1 1
367 4 1
367 150 1
367 210 1
367 239 1
367 271 1
367 511 1
367 541 1
367 606 1
367 615 1
368 7 1
368 104 1
368 204 1
368 207 1
368 336 1
368 355 1
368 487 1
368 490 1
368 668 1
369 24 1
369 28 1
369 71 1
369 74 1
369 111 1
369 187 1
369 534 1
369 590 1
370 5 1
370 9 1
370 37 1
370 140 1
370 240 1
370 241 1
370 546 1
370 568 1
370 606 1
371 4 1
371 48 1
371 52 1
371 114 1
371 150 1
371 186 1
371 445 1
371 516 1
372 34 1
372 43 1
372 47 1
372 159 1
372 174 1
372 210 1
372 509 1
372 591 1
372 714 1
373 103 1
373 127 1
373 128 1
373 315 1
373 326 1
373 356 1
373 385 1
373 505 1
373 522 1
373 587 1
373 677 1
374 5 1
374 13 1
374 46 1
374 68 1
374 84 1
374 261 1
374 689 1
375 8 1
375 56 1
375 78 1
375 81 1
375 136 1
375 190 1
375 411 1
375 466 1
375 542 1
375 597 1
375 698 1
375 766 1
376 3 1
376 4 1
376 22 1
376 31 1
376 69 1
376 178 1
376 432 1
376 435 1
376 616 1
377 1 1
377 52 1
377 107 1
377 199 1
377 304 1
377 342 1
377 525 1
377 560 1
377 602 1
378 25 1
378 58 1
378 64 1
378 85 1
378 166 1
378 348 1
378 513 1
378 675 1
378 760 1
378 789 1
379 4 1
379 52 1
379 64 1
379 78 1
379 95 1
379 323 1
380 18 1
380 31 1
380 173 1
380 179 1
380 246 1
380 311 1
380 598 1
380 691 1
381 36 1
381 125 1
381 146 1
381 227 1
381 235 1
381 291 1
381 403 1
381 450 1
381 470 1
381 555 1
381 604 1
381 639 1
381 731 1
381 743 1
382 2 1
382 3 1
382 36 1
382 93 1
382 193 1
382 298 1
383 4 1
383 47 1
383 64 1
383 115 1
383 218 1
383 238 1
383 398 1
384 49 1
384 159 1
384 234 1
384 257 1
384 276 1
384 555 1
384 594 1
384 610 1
384 631 1
385 1 1
385 8 1
385 128 1
385 221 1
385 315 1
385 373 1
385 614 1
385 652 1
386 7 1
386 38 1
386 56 1
386 64 1
386 341 1
386 457 1
386 519 1
386 527 1
386 582 1
386 609 1
386 646 1
386 699 1
386 760 1
387 5 1
387 43 1
387 58 1
387 99 1
387 103 1
387 122 1
387 401 1
387 408 1
387 532 1
387 536 1
387 621 1
387 720 1
388 69 1
388 93 1
388 179 1
388 211 1
388 246 1
388 275 1
388 448 1
389 73 1
389 76 1
389 134 1
389 193 1
389 242 1
389 276 1
389 463 1
389 569 1
389 612 1
390 26 1
390 46 1
390 79 1
390 127 1
390 163 1
390 202 1
390 701 1
391 4 1
391 10 1
391 18 1
391 35 1
391 231 1
391 392 1
391 407 1
391 441 1
391 481 1
391 574 1
391 600 1
391 694 1
391 700 1
392 4 1
392 9 1
392 79 1
392 205 1
392 231 1
392 391 1
392 574 1
392 685 1
392 701 1
392 779 1
393 102 1
393 104 1
393 150 1
393 207 1
393 353 1
393 364 1
393 451 1
393 482 1
393 505 1
393 575 1
393 637 1
393 657 1
393 711 1
394 1 1
394 24 1
394 56 1
394 78 1
394 305 1
394 332 1
395 1 1
395 32 1
395 45 1
395 245 1
395 303 1
395 343 1
396 2 1
396 7 1
396 13 1
396 21 1
396 52 1
396 126 1
397 20 1
397 28 1
397 41 1
397 68 1
397 198 1
397 351 1
397 470 1
397 484 1
397 528 1
397 530 1
398 5 1
398 24 1
398 47 1
398 188 1
398 218 1
398 383 1
398 500 1
398 769 1
399 8 1
399 15 1
399 78 1
399 98 1
399 225 1
399 241 1
399 641 1
399 750 1
400 6 1
400 13 1
400 35 1
400 84 1
400 162 1
400 321 1
401 5 1
401 58 1
401 86 1
401 96 1
401 112 1
401 387 1
401 409 1
401 507 1
401 532 1
401 607 1
402 2 1
402 6 1
402 37 1
402 97 1
402 225 1
403 17 1
403 78 1
403 227 1
403 235 1
403 292 1
403 381 1
403 450 1
403 460 1
403 464 1
403 504 1
403 545 1
403 617 1
403 783 1
404 20 1
404 90 1
404 119 1
404 125 1
404 281 1
404 349 1
404 430 1
404 444 1
404 675 1
404 761 1
405 9 1
405 16 1
405 87 1
405 121 1
405 288 1
405 315 1
405 726 1
406 48 1
406 69 1
406 96 1
406 163 1
406 277 1
406 421 1
406 478 1
406 503 1
406 619 1
406 636 1
406 686 1
407 4 1
407 35 1
407 104 1
407 114 1
407 204 1
407 391 1
407 441 1
407 584 1
407 600 1
407 651 1
407 696 1
408 2 1
408 5 1
408 43 1
408 132 1
408 286 1
408 387 1
408 523 1
408 578 1
408 684 1
409 3 1
409 4 1
409 12 1
409 86 1
409 112 1
409 401 1
409 653 1
409 688 1
410 14 1
410 48 1
410 138 1
410 259 1
410 266 1
410 297 1
411 8 1
411 30 1
411 136 1
411 339 1
411 352 1
411 375 1
412 7 1
412 10 1
412 47 1
412 59 1
412 183 1
412 219 1
412 495 1
413 14 1
413 17 1
413 96 1
413 176 1
413 283 1
413 318 1
413 438 1
413 706 1
413 734 1
413 752 1
414 127 1
414 136 1
414 182 1
414 195 1
414 196 1
414 205 1
414 502 1
414 741 1
415 8 1
415 22 1
415 23 1
415 59 1
415 78 1
415 292 1
416 2 1
416 18 1
416 69 1
416 123 1
416 135 1
416 215 1
416 712 1
416 730 1
416 762 1
417 17 1
417 22 1
417 32 1
417 53 1
417 177 1
417 303 1
417 503 1
417 776 1
418 3 1
418 7 1
418 10 1
418 166 1
418 217 1
418 337 1
418 612 1
418 637 1
418 720 1
419 20 1
419 45 1
419 72 1
419 118 1
419 238 1
419 302 1
419 427 1
419 494 1
419 509 1
419 674 1
419 692 1
419 755 1
420 6 1
420 12 1
420 52 1
420 158 1
420 199 1
420 319 1
420 728 1
420 752 1
421 21 1
421 69 1
421 135 1
421 195 1
421 254 1
421 406 1
422 8 1
422 28 1
422 43 1
422 113 1
422 172 1
422 278 1
422 546 1
422 620 1
422 783 1
423 5 1
423 8 1
423 66 1
423 116 1
423 161 1
423 249 1
423 565 1
423 674 1
424 2 1
424 36 1
424 126 1
424 132 1
424 258 1
424 284 1
425 28 1
425 87 1
425 109 1
425 121 1
425 160 1
425 285 1
425 464 1
425 629 1
425 697 1
425 718 1
426 13 1
426 33 1
426 44 1
426 53 1
426 134 1
426 141 1
426 557 1
426 670 1
426 683 1
426 791 1
427 45 1
427 64 1
427 81 1
427 302 1
427 323 1
427 419 1
428 10 1
428 30 1
428 82 1
428 100 1
428 214 1
428 352 1
428 463 1
428 600 1
428 616 1
428 639 1
428 706 1
428 776 1
429 5 1
429 23 1
429 28 1
429 197 1
429 269 1
429 277 1
430 20 1
430 64 1
430 90 1
430 226 1
430 404 1
431 38 1
431 69 1
431 71 1
431 79 1
431 123 1
431 255 1
432 4 1
432 22 1
432 69 1
432 74 1
432 287 1
432 376 1
433 1 1
433 18 1
433 61 1
433 155 1
433 168 1
433 303 1
433 446 1
433 587 1
433 793 1
434 30 1
434 38 1
434 48 1
434 65 1
434 164 1
434 218 1
434 468 1
435 3 1
435 4 1
435 77 1
435 196 1
435 278 1
435 376 1
435 723 1
435 751 1
436 2 1
436 4 1
436 107 1
436 116 1
436 142 1
436 326 1
436 603 1
437 3 1
437 56 1
437 64 1
437 81 1
437 482 1
437 521 1
437 601 1
437 611 1
437 619 1
437 736 1
437 746 1
437 759 1
438 17 1
438 29 1
438 70 1
438 96 1
438 207 1
438 413 1
439 17 1
439 93 1
439 117 1
439 133 1
439 151 1
439 306 1
440 35 1
440 38 1
440 84 1
440 104 1
440 113 1
440 231 1
440 646 1
440 670 1
440 737 1
441 13 1
441 35 1
441 46 1
441 99 1
441 391 1
441 407 1
441 481 1
441 533 1
441 566 1
441 584 1
441 600 1
441 608 1
441 626 1
441 671 1
441 696 1
442 6 1
442 15 1
442 17 1
442 57 1
442 124 1
442 295 1
443 6 1
443 33 1
443 50 1
443 60 1
443 88 1
443 328 1
443 476 1
443 631 1
444 3 1
444 53 1
444 57 1
444 119 1
444 125 1
444 404 1
444 588 1
445 33 1
445 38 1
445 52 1
445 70 1
445 186 1
445 371 1
446 1 1
446 6 1
446 18 1
446 47 1
446 334 1
446 433 1
446 471 1
446 481 1
447 2 1
447 5 1
447 6 1
447 40 1
447 116 1
447 121 1
447 518 1
448 165 1
448 174 1
448 179 1
448 246 1
448 388 1
449 9 1
449 12 1
449 26 1
449 51 1
449 194 1
449 262 1
450 114 1
450 117 1
450 227 1
450 296 1
450 381 1
450 403 1
450 470 1
450 617 1
450 639 1
451 1 1
451 102 1
451 118 1
451 132 1
451 353 1
451 393 1
451 723 1
452 10 1
452 26 1
452 123 1
452 183 1
452 255 1
452 268 1
452 455 1
452 627 1
452 695 1
453 6 1
453 19 1
453 20 1
453 22 1
453 34 1
453 108 1
454 5 1
454 23 1
454 28 1
454 86 1
454 96 1
454 278 1
455 26 1
455 61 1
455 111 1
455 123 1
455 192 1
455 452 1
455 468 1
455 477 1
456 5 1
456 19 1
456 58 1
456 74 1
456 268 1
456 724 1
457 7 1
457 64 1
457 106 1
457 309 1
457 338 1
457 386 1
457 471 1
457 582 1
458 26 1
458 136 1
458 162 1
458 195 1
458 197 1
458 493 1
458 593 1
458 669 1
459 1 1
459 21 1
459 98 1
459 155 1
459 195 1
459 271 1
459 624 1
460 17 1
460 74 1
460 78 1
460 145 1
460 190 1
460 403 1
460 464 1
461 4 1
461 19 1
461 74 1
461 98 1
461 195 1
461 304 1
461 469 1
461 623 1
462 2 1
462 9 1
462 57 1
462 133 1
462 216 1
462 332 1
462 780 1
463 82 1
463 100 1
463 134 1
463 242 1
463 389 1
463 428 1
463 569 1
463 571 1
463 589 1
463 612 1
463 639 1
463 707 1
463 785 1
464 17 1
464 28 1
464 109 1
464 403 1
464 425 1
464 460 1
465 38 1
465 40 1
465 113 1
465 149 1
465 184 1
465 271 1
465 520 1
465 537 1
465 758 1
465 785 1
466 18 1
466 78 1
466 81 1
466 259 1
466 266 1
466 375 1
466 636 1
466 766 1
467 21 1
467 55 1
467 204 1
467 205 1
467 207 1
467 323 1
468 26 1
468 30 1
468 123 1
468 164 1
468 434 1
468 455 1
469 13 1
469 44 1
469 65 1
469 98 1
469 304 1
469 461 1
470 198 1
470 227 1
470 351 1
470 381 1
470 397 1
470 450 1
470 639 1
471 6 1
471 7 1
471 64 1
471 334 1
471 446 1
471 457 1
472 5 1
472 17 1
472 41 1
472 108 1
472 227 1
472 291 1
472 515 1
472 581 1
473 5 1
473 18 1
473 30 1
473 161 1
473 162 1
473 254 1
474 33 1
474 75 1
474 80 1
474 114 1
474 184 1
474 256 1
474 543 1
474 663 1
474 702 1
475 2 1
475 4 1
475 5 1
475 14 1
475 39 1
475 130 1
475 523 1
476 5 1
476 33 1
476 40 1
476 60 1
476 328 1
476 443 1
476 631 1
477 3 1
477 4 1
477 61 1
477 72 1
477 111 1
477 455 1
477 673 1
478 135 1
478 163 1
478 176 1
478 245 1
478 343 1
478 406 1
478 686 1
478 768 1
479 22 1
479 36 1
479 62 1
479 126 1
479 270 1
479 313 1
479 757 1
479 771 1
480 3 1
480 5 1
480 35 1
480 54 1
480 68 1
480 506 1
480 635 1
480 650 1
480 666 1
481 6 1
481 35 1
481 47 1
481 391 1
481 441 1
481 446 1
481 566 1
481 608 1
481 671 1
481 694 1
481 700 1
481 749 1
482 56 1
482 59 1
482 104 1
482 364 1
482 393 1
482 437 1
482 736 1
483 8 1
483 10 1
483 17 1
483 26 1
483 92 1
483 136 1
483 542 1
483 560 1
483 678 1
484 68 1
484 104 1
484 149 1
484 231 1
484 397 1
484 528 1
484 664 1
485 5 1
485 6 1
485 101 1
485 142 1
485 259 1
485 281 1
485 573 1
486 29 1
486 97 1
486 127 1
486 208 1
486 248 1
486 358 1
486 514 1
486 730 1
486 750 1
487 7 1
487 244 1
487 336 1
487 350 1
487 355 1
487 368 1
487 490 1
487 668 1
488 4 1
488 8 1
488 24 1
488 33 1
488 35 1
488 71 1
489 94 1
489 150 1
489 153 1
489 159 1
489 223 1
489 330 1
489 522 1
490 5 1
490 8 1
490 22 1
490 336 1
490 368 1
490 487 1
491 2 1
491 41 1
491 115 1
491 165 1
491 230 1
491 298 1
491 719 1
492 5 1
492 14 1
492 17 1
492 39 1
492 101 1
492 316 1
492 539 1
492 544 1
492 607 1
492 643 1
493 13 1
493 15 1
493 136 1
493 195 1
493 320 1
493 458 1
494 20 1
494 40 1
494 130 1
494 154 1
494 238 1
494 419 1
494 509 1
494 795 1
495 2 1
495 7 1
495 10 1
495 21 1
495 412 1
496 2 1
496 14 1
496 19 1
496 26 1
496 118 1
496 331 1
496 659 1
496 733 1
497 56 1
497 64 1
497 91 1
497 122 1
497 212 1
497 282 1
498 18 1
498 42 1
498 59 1
498 75 1
498 161 1
498 340 1
498 525 1
498 630 1
499 1 1
499 22 1
499 41 1
499 140 1
499 217 1
499 241 1
499 501 1
499 667 1
500 3 1
500 47 1
500 83 1
500 218 1
500 279 1
500 398 1
501 1 1
501 235 1
501 241 1
501 291 1
501 327 1
501 499 1
502 23 1
502 62 1
502 127 1
502 195 1
502 313 1
502 414 1
503 17 1
503 48 1
503 96 1
503 303 1
503 406 1
503 417 1
503 619 1
504 78 1
504 79 1
504 105 1
504 157 1
504 292 1
504 403 1
504 783 1
505 102 1
505 103 1
505 128 1
505 150 1
505 373 1
505 393 1
505 522 1
505 574 1
505 575 1
505 657 1
505 660 1
505 744 1
506 1 1
506 5 1
506 17 1
506 35 1
506 234 1
506 480 1
506 519 1
506 526 1
506 599 1
506 614 1
506 650 1
506 666 1
507 96 1
507 112 1
507 140 1
507 285 1
507 342 1
507 401 1
507 605 1
507 633 1
507 644 1
507 647 1
507 654 1
508 11 1
508 20 1
508 24 1
508 222 1
508 331 1
508 338 1
509 20 1
509 159 1
509 174 1
509 372 1
509 419 1
509 494 1
510 8 1
510 17 1
510 41 1
510 51 1
510 168 1
510 292 1
511 4 1
511 25 1
511 66 1
511 271 1
511 367 1
511 592 1
512 1 1
512 4 1
512 32 1
512 73 1
512 103 1
513 9 1
513 25 1
513 58 1
513 102 1
513 127 1
513 378 1
513 675 1
513 760 1
514 196 1
514 205 1
514 208 1
514 262 1
514 358 1
514 486 1
515 1 1
515 12 1
515 17 1
515 291 1
515 319 1
515 472 1
515 605 1
515 655 1
515 669 1
516 12 1
516 48 1
516 114 1
516 133 1
516 177 1
516 371 1
516 558 1
517 5 1
517 6 1
517 63 1
517 128 1
517 315 1
517 345 1
517 541 1
518 2 1
518 116 1
518 173 1
518 202 1
518 349 1
518 447 1
519 17 1
519 56 1
519 234 1
519 341 1
519 386 1
519 506 1
520 27 1
520 38 1
520 110 1
520 145 1
520 271 1
520 465 1
520 576 1
520 713 1
521 56 1
521 64 1
521 135 1
521 158 1
521 167 1
521 437 1
521 586 1
521 601 1
521 661 1
521 746 1
521 796 1
522 103 1
522 150 1
522 153 1
522 373 1
522 489 1
522 505 1
522 660 1
523 4 1
523 5 1
523 14 1
523 43 1
523 408 1
523 475 1
523 578 1
523 596 1
523 684 1
524 17 1
524 24 1
524 102 1
524 131 1
524 222 1
524 347 1
525 1 1
525 59 1
525 340 1
525 342 1
525 377 1
525 498 1
525 602 1
526 1 1
526 17 1
526 45 1
526 70 1
526 274 1
526 506 1
527 1 1
527 26 1
527 35 1
527 56 1
527 199 1
527 386 1
527 609 1
527 646 1
527 699 1
527 760 1
528 28 1
528 38 1
528 228 1
528 307 1
528 397 1
528 484 1
528 716 1
529 3 1
529 34 1
529 47 1
529 80 1
529 184 1
529 350 1
529 556 1
529 576 1
529 680 1
529 781 1
530 20 1
530 36 1
530 120 1
530 351 1
530 397 1
531 3 1
531 16 1
531 97 1
531 106 1
531 127 1
531 208 1
531 775 1
532 37 1
532 58 1
532 70 1
532 225 1
532 387 1
532 401 1
532 536 1
532 559 1
532 599 1
533 13 1
533 40 1
533 46 1
533 51 1
533 55 1
533 441 1
533 728 1
534 74 1
534 87 1
534 130 1
534 154 1
534 187 1
534 369 1
535 10 1
535 14 1
535 25 1
535 40 1
535 51 1
535 153 1
535 650 1
535 703 1
536 41 1
536 58 1
536 108 1
536 168 1
536 387 1
536 532 1
536 559 1
536 632 1
536 766 1
537 4 1
537 38 1
537 90 1
537 184 1
537 281 1
537 465 1
538 5 1
538 7 1
538 47 1
538 51 1
538 232 1
538 336 1
538 645 1
539 14 1
539 39 1
539 45 1
539 176 1
539 343 1
539 492 1
539 544 1
539 590 1
539 596 1
539 618 1
539 643 1
540 2 1
540 45 1
540 159 1
540 204 1
540 287 1
540 365 1
540 570 1
540 645 1
541 5 1
541 6 1
541 150 1
541 210 1
541 367 1
541 517 1
542 8 1
542 10 1
542 17 1
542 190 1
542 375 1
542 483 1
542 698 1
543 2 1
543 33 1
543 75 1
543 76 1
543 324 1
543 474 1
543 663 1
544 14 1
544 17 1
544 65 1
544 140 1
544 492 1
544 539 1
545 7 1
545 227 1
545 235 1
545 257 1
545 355 1
545 403 1
545 698 1
546 5 1
546 113 1
546 140 1
546 278 1
546 370 1
546 422 1
546 568 1
547 8 1
547 13 1
547 33 1
547 39 1
547 62 1
547 243 1
547 583 1
547 586 1
547 763 1
547 784 1
547 789 1
548 46 1
548 61 1
548 137 1
548 223 1
548 224 1
548 337 1
548 764 1
548 765 1
549 5 1
549 13 1
549 52 1
549 101 1
549 235 1
549 344 1
549 558 1
550 43 1
550 178 1
550 242 1
550 300 1
550 360 1
550 363 1
551 47 1
551 53 1
551 119 1
551 256 1
551 350 1
551 355 1
551 710 1
552 5 1
552 24 1
552 39 1
552 46 1
552 157 1
552 270 1
553 2 1
553 40 1
553 69 1
553 104 1
553 317 1
553 366 1
554 9 1
554 33 1
554 45 1
554 55 1
554 176 1
554 290 1
554 748 1
555 138 1
555 159 1
555 227 1
555 291 1
555 381 1
555 384 1
555 610 1
555 694 1
556 65 1
556 80 1
556 140 1
556 184 1
556 285 1
556 529 1
556 680 1
556 781 1
557 26 1
557 32 1
557 53 1
557 134 1
557 426 1
557 573 1
557 642 1
557 670 1
557 780 1
558 13 1
558 133 1
558 177 1
558 344 1
558 516 1
558 549 1
559 5 1
559 58 1
559 108 1
559 345 1
559 532 1
559 536 1
560 8 1
560 26 1
560 107 1
560 199 1
560 377 1
560 483 1
561 1 1
561 16 1
561 70 1
561 71 1
561 304 1
561 588 1
562 1 1
562 4 1
562 7 1
562 11 1
562 31 1
562 90 1
562 628 1
562 635 1
562 747 1
562 754 1
563 1 1
563 12 1
563 38 1
563 137 1
563 142 1
563 291 1
563 604 1
563 739 1
563 767 1
564 5 1
564 29 1
564 37 1
564 72 1
564 238 1
564 263 1
564 739 1
565 5 1
565 8 1
565 36 1
565 120 1
565 249 1
565 423 1
565 667 1
565 674 1
566 35 1
566 98 1
566 133 1
566 304 1
566 441 1
566 481 1
566 608 1
566 626 1
566 732 1
566 782 1
567 10 1
567 14 1
567 74 1
567 268 1
567 287 1
567 301 1
567 659 1
568 65 1
568 73 1
568 140 1
568 164 1
568 370 1
568 546 1
568 606 1
569 109 1
569 138 1
569 242 1
569 276 1
569 389 1
569 463 1
569 797 1
570 6 1
570 36 1
570 45 1
570 55 1
570 204 1
570 540 1
570 572 1
571 57 1
571 82 1
571 100 1
571 332 1
571 463 1
571 589 1
572 4 1
572 45 1
572 123 1
572 204 1
572 269 1
572 570 1
572 746 1
573 26 1
573 32 1
573 142 1
573 281 1
573 485 1
573 557 1
574 4 1
574 102 1
574 150 1
574 391 1
574 392 1
574 505 1
575 89 1
575 150 1
575 218 1
575 253 1
575 393 1
575 505 1
575 637 1
575 721 1
575 744 1
576 27 1
576 34 1
576 47 1
576 110 1
576 520 1
576 529 1
576 713 1
577 6 1
577 70 1
577 97 1
577 138 1
577 225 1
577 358 1
577 642 1
577 748 1
577 749 1
578 7 1
578 43 1
578 67 1
578 408 1
578 523 1
578 656 1
579 4 1
579 6 1
579 78 1
579 123 1
579 176 1
579 283 1
580 16 1
580 46 1
580 72 1
580 99 1
580 107 1
580 270 1
581 17 1
581 31 1
581 49 1
581 178 1
581 227 1
581 472 1
581 712 1
582 64 1
582 93 1
582 193 1
582 312 1
582 386 1
582 457 1
582 764 1
583 13 1
583 39 1
583 99 1
583 103 1
583 171 1
583 547 1
584 22 1
584 35 1
584 68 1
584 299 1
584 407 1
584 441 1
585 6 1
585 10 1
585 41 1
585 143 1
585 168 1
585 339 1
586 33 1
586 39 1
586 135 1
586 158 1
586 521 1
586 547 1
586 763 1
586 796 1
587 1 1
587 103 1
587 155 1
587 315 1
587 373 1
587 433 1
587 658 1
587 793 1
588 1 1
588 119 1
588 125 1
588 304 1
588 444 1
588 561 1
589 78 1
589 81 1
589 100 1
589 323 1
589 463 1
589 571 1
589 662 1
589 707 1
589 777 1
590 24 1
590 71 1
590 176 1
590 343 1
590 369 1
590 539 1
591 32 1
591 43 1
591 45 1
591 47 1
591 267 1
591 372 1
591 714 1
592 4 1
592 34 1
592 58 1
592 357 1
592 511 1
593 162 1
593 173 1
593 211 1
593 246 1
593 458 1
593 669 1
593 708 1
594 3 1
594 7 1
594 56 1
594 234 1
594 257 1
594 384 1
595 47 1
595 67 1
595 138 1
595 272 1
595 278 1
595 798 1
596 4 1
596 14 1
596 45 1
596 343 1
596 523 1
596 539 1
597 18 1
597 56 1
597 75 1
597 81 1
597 259 1
597 375 1
598 4 1
598 18 1
598 20 1
598 31 1
598 281 1
598 380 1
598 691 1
599 5 1
599 35 1
599 37 1
599 70 1
599 506 1
599 532 1
599 614 1
599 660 1
600 10 1
600 352 1
600 391 1
600 407 1
600 428 1
600 441 1
600 696 1
601 33 1
601 43 1
601 56 1
601 328 1
601 437 1
601 521 1
601 620 1
601 746 1
602 1 1
602 7 1
602 44 1
602 333 1
602 377 1
602 525 1
602 624 1
602 793 1
603 37 1
603 97 1
603 116 1
603 209 1
603 326 1
603 436 1
604 1 1
604 12 1
604 36 1
604 146 1
604 381 1
604 563 1
604 731 1
604 743 1
604 767 1
605 1 1
605 140 1
605 285 1
605 319 1
605 507 1
605 515 1
605 644 1
605 669 1
606 140 1
606 150 1
606 239 1
606 367 1
606 370 1
606 568 1
607 86 1
607 96 1
607 101 1
607 316 1
607 401 1
607 492 1
607 682 1
607 737 1
608 127 1
608 129 1
608 248 1
608 441 1
608 481 1
608 566 1
608 671 1
609 22 1
609 49 1
609 56 1
609 386 1
609 527 1
609 699 1
610 6 1
610 88 1
610 138 1
610 212 1
610 384 1
610 555 1
610 649 1
611 21 1
611 59 1
611 117 1
611 151 1
611 437 1
611 736 1
612 134 1
612 166 1
612 217 1
612 389 1
612 418 1
612 463 1
613 1 1
613 17 1
613 32 1
613 44 1
613 347 1
613 681 1
614 1 1
614 35 1
614 221 1
614 385 1
614 506 1
614 599 1
615 1 1
615 14 1
615 96 1
615 271 1
615 277 1
615 367 1
615 697 1
615 800 1
616 30 1
616 31 1
616 178 1
616 352 1
616 376 1
616 428 1
617 45 1
617 227 1
617 302 1
617 309 1
617 403 1
617 450 1
618 14 1
618 20 1
618 39 1
618 131 1
618 222 1
618 539 1
619 3 1
619 56 1
619 96 1
619 406 1
619 437 1
619 503 1
620 28 1
620 33 1
620 43 1
620 278 1
620 422 1
620 601 1
621 14 1
621 122 1
621 148 1
621 297 1
621 387 1
621 720 1
622 26 1
622 40 1
622 118 1
622 169 1
622 182 1
622 184 1
623 3 1
623 114 1
623 195 1
623 296 1
623 304 1
623 461 1
624 7 1
624 44 1
624 155 1
624 271 1
624 459 1
624 602 1
625 4 1
625 7 1
625 67 1
625 79 1
625 86 1
625 121 1
625 687 1
626 4 1
626 35 1
626 85 1
626 269 1
626 441 1
626 566 1
626 705 1
627 46 1
627 183 1
627 268 1
627 337 1
627 344 1
627 452 1
628 1 1
628 7 1
628 121 1
628 188 1
628 200 1
628 562 1
628 787 1
629 59 1
629 87 1
629 219 1
629 233 1
629 285 1
629 425 1
629 721 1
629 790 1
630 21 1
630 75 1
630 82 1
630 104 1
630 161 1
630 498 1
631 33 1
631 49 1
631 257 1
631 384 1
631 443 1
631 476 1
632 33 1
632 40 1
632 54 1
632 108 1
632 168 1
632 536 1
632 643 1
632 682 1
632 702 1
632 766 1
632 784 1
633 9 1
633 40 1
633 285 1
633 342 1
633 507 1
633 647 1
634 5 1
634 6 1
634 55 1
634 179 1
634 187 1
634 242 1
635 1 1
635 3 1
635 11 1
635 68 1
635 480 1
635 562 1
635 747 1
635 754 1
636 48 1
636 259 1
636 266 1
636 277 1
636 406 1
636 466 1
636 638 1
636 672 1
637 10 1
637 150 1
637 337 1
637 393 1
637 418 1
637 575 1
637 720 1
637 721 1
638 3 1
638 48 1
638 117 1
638 277 1
638 296 1
638 636 1
638 672 1
639 82 1
639 381 1
639 428 1
639 450 1
639 463 1
639 470 1
640 73 1
640 86 1
640 99 1
640 121 1
640 139 1
640 171 1
640 740 1
641 8 1
641 15 1
641 33 1
641 181 1
641 246 1
641 399 1
641 662 1
641 750 1
642 53 1
642 97 1
642 134 1
642 225 1
642 557 1
642 577 1
642 749 1
643 39 1
643 40 1
643 54 1
643 492 1
643 539 1
643 632 1
644 9 1
644 79 1
644 140 1
644 262 1
644 507 1
644 605 1
645 45 1
645 51 1
645 232 1
645 365 1
645 538 1
645 540 1
646 35 1
646 104 1
646 113 1
646 386 1
646 440 1
646 527 1
646 760 1
647 11 1
647 23 1
647 317 1
647 342 1
647 507 1
647 633 1
647 672 1
647 745 1
647 799 1
648 26 1
648 105 1
648 121 1
648 127 1
648 167 1
648 293 1
649 6 1
649 8 1
649 71 1
649 85 1
649 88 1
649 610 1
650 35 1
650 40 1
650 51 1
650 480 1
650 506 1
650 535 1
650 703 1
651 19 1
651 29 1
651 104 1
651 114 1
651 208 1
651 407 1
651 781 1
651 795 1
652 8 1
652 14 1
652 27 1
652 154 1
652 221 1
652 385 1
653 3 1
653 10 1
653 12 1
653 21 1
653 222 1
653 409 1
653 688 1
653 719 1
654 71 1
654 96 1
654 112 1
654 157 1
654 163 1
654 507 1
655 12 1
655 74 1
655 280 1
655 319 1
655 324 1
655 515 1
655 727 1
656 5 1
656 7 1
656 18 1
656 23 1
656 52 1
656 578 1
657 5 1
657 56 1
657 102 1
657 341 1
657 393 1
657 505 1
658 103 1
658 124 1
658 153 1
658 315 1
658 587 1
658 679 1
658 772 1
659 10 1
659 14 1
659 19 1
659 496 1
659 567 1
660 37 1
660 70 1
660 103 1
660 505 1
660 522 1
660 599 1
661 53 1
661 56 1
661 57 1
661 64 1
661 119 1
661 521 1
662 8 1
662 15 1
662 78 1
662 323 1
662 589 1
662 641 1
662 663 1
662 666 1
663 8 1
663 15 1
663 33 1
663 474 1
663 543 1
663 662 1
663 666 1
663 717 1
663 800 1
664 6 1
664 104 1
664 108 1
664 231 1
664 334 1
664 484 1
665 4 1
665 10 1
665 29 1
665 103 1
665 212 1
665 337 1
665 759 1
666 5 1
666 8 1
666 480 1
666 506 1
666 662 1
666 663 1
666 800 1
667 8 1
667 22 1
667 41 1
667 249 1
667 499 1
667 565 1
668 7 1
668 41 1
668 174 1
668 319 1
668 368 1
668 487 1
668 711 1
668 797 1
669 162 1
669 319 1
669 458 1
669 515 1
669 593 1
669 605 1
669 708 1
670 104 1
670 134 1
670 231 1
670 426 1
670 440 1
670 557 1
671 5 1
671 35 1
671 38 1
671 441 1
671 481 1
671 608 1
672 11 1
672 48 1
672 317 1
672 636 1
672 638 1
672 647 1
672 745 1
672 799 1
673 3 1
673 10 1
673 72 1
673 231 1
673 477 1
674 72 1
674 238 1
674 249 1
674 419 1
674 423 1
674 565 1
675 58 1
675 125 1
675 349 1
675 378 1
675 404 1
675 513 1
676 2 1
676 14 1
676 29 1
676 76 1
676 207 1
676 218 1
676 722 1
677 18 1
677 185 1
677 314 1
677 326 1
677 356 1
677 373 1
677 692 1
678 6 1
678 17 1
678 25 1
678 36 1
678 92 1
678 483 1
679 5 1
679 20 1
679 49 1
679 124 1
679 153 1
679 658 1
679 772 1
680 17 1
680 80 1
680 92 1
680 110 1
680 529 1
680 556 1
681 1 1
681 6 1
681 32 1
681 50 1
681 175 1
681 613 1
682 33 1
682 54 1
682 86 1
682 96 1
682 607 1
682 632 1
682 702 1
682 737 1
682 784 1
683 25 1
683 53 1
683 126 1
683 141 1
683 270 1
683 426 1
684 5 1
684 26 1
684 46 1
684 312 1
684 408 1
684 523 1
684 762 1
685 9 1
685 51 1
685 79 1
685 111 1
685 192 1
685 392 1
686 32 1
686 163 1
686 169 1
686 267 1
686 406 1
686 478 1
687 1 1
687 4 1
687 7 1
687 132 1
687 306 1
687 625 1
688 7 1
688 12 1
688 156 1
688 197 1
688 409 1
688 653 1
689 3 1
689 5 1
689 46 1
689 114 1
689 184 1
689 374 1
689 778 1
690 25 1
690 47 1
690 104 1
690 180 1
690 244 1
690 355 1
691 5 1
691 8 1
691 31 1
691 85 1
691 380 1
691 598 1
691 705 1
692 45 1
692 118 1
692 185 1
692 314 1
692 419 1
692 677 1
692 755 1
693 48 1
693 137 1
693 160 1
693 195 1
693 282 1
693 289 1
693 735 1
694 35 1
694 227 1
694 291 1
694 391 1
694 481 1
694 555 1
694 700 1
695 26 1
695 176 1
695 245 1
695 255 1
695 294 1
695 452 1
696 5 1
696 24 1
696 234 1
696 407 1
696 441 1
696 600 1
697 14 1
697 96 1
697 121 1
697 285 1
697 425 1
697 615 1
697 704 1
697 800 1
698 190 1
698 227 1
698 235 1
698 375 1
698 542 1
698 545 1
699 144 1
699 287 1
699 301 1
699 386 1
699 527 1
699 609 1
700 24 1
700 131 1
700 391 1
700 481 1
700 694 1
701 79 1
701 163 1
701 202 1
701 205 1
701 390 1
701 392 1
701 779 1
701 796 1
702 54 1
702 80 1
702 114 1
702 474 1
702 632 1
702 682 1
702 784 1
703 26 1
703 40 1
703 306 1
703 535 1
703 650 1
703 743 1
703 772 1
704 14 1
704 77 1
704 96 1
704 196 1
704 273 1
704 697 1
705 4 1
705 5 1
705 85 1
705 626 1
705 691 1
706 10 1
706 30 1
706 176 1
706 283 1
706 413 1
706 428 1
706 734 1
706 752 1
706 776 1
707 93 1
707 100 1
707 136 1
707 250 1
707 463 1
707 589 1
707 777 1
708 54 1
708 68 1
708 162 1
708 202 1
708 593 1
708 669 1
709 5 1
709 8 1
709 71 1
709 72 1
709 86 1
709 333 1
710 47 1
710 141 1
710 196 1
710 273 1
710 355 1
710 551 1
710 794 1
710 798 1
711 41 1
711 150 1
711 319 1
711 353 1
711 393 1
711 668 1
712 18 1
712 49 1
712 178 1
712 215 1
712 416 1
712 581 1
712 730 1
713 27 1
713 33 1
713 38 1
713 180 1
713 520 1
713 576 1
714 2 1
714 6 1
714 43 1
714 115 1
714 372 1
714 591 1
715 2 1
715 8 1
715 25 1
715 28 1
715 215 1
715 239 1
716 5 1
716 33 1
716 38 1
716 39 1
716 228 1
716 528 1
717 8 1
717 15 1
717 35 1
717 181 1
717 191 1
717 663 1
718 70 1
718 87 1
718 121 1
718 245 1
718 294 1
718 425 1
719 21 1
719 41 1
719 222 1
719 230 1
719 491 1
719 653 1
720 10 1
720 103 1
720 387 1
720 418 1
720 621 1
720 637 1
721 150 1
721 219 1
721 233 1
721 575 1
721 629 1
721 637 1
722 7 1
722 29 1
722 32 1
722 169 1
722 207 1
722 676 1
723 1 1
723 132 1
723 196 1
723 278 1
723 435 1
723 451 1
724 5 1
724 19 1
724 38 1
724 156 1
724 268 1
724 456 1
725 25 1
725 126 1
725 150 1
725 172 1
725 194 1
725 239 1
726 14 1
726 121 1
726 148 1
726 315 1
726 405 1
727 53 1
727 74 1
727 119 1
727 324 1
727 655 1
728 40 1
728 51 1
728 52 1
728 199 1
728 420 1
728 533 1
729 22 1
729 49 1
729 104 1
729 114 1
729 178 1
729 781 1
729 795 1
730 18 1
730 29 1
730 358 1
730 416 1
730 486 1
730 712 1
731 18 1
731 119 1
731 146 1
731 290 1
731 381 1
731 604 1
731 745 1
731 755 1
732 98 1
732 172 1
732 251 1
732 258 1
732 304 1
732 566 1
733 2 1
733 14 1
733 27 1
733 237 1
733 496 1
734 70 1
734 176 1
734 294 1
734 413 1
734 706 1
735 41 1
735 137 1
735 160 1
735 232 1
735 293 1
735 693 1
736 5 1
736 39 1
736 46 1
736 437 1
736 482 1
736 611 1
737 38 1
737 84 1
737 96 1
737 440 1
737 607 1
737 682 1
738 22 1
738 51 1
738 75 1
738 106 1
738 129 1
738 352 1
738 779 1
739 1 1
739 37 1
739 142 1
739 263 1
739 563 1
739 564 1
739 778 1
740 86 1
740 139 1
740 182 1
740 258 1
740 339 1
740 640 1
741 22 1
741 62 1
741 127 1
741 136 1
741 173 1
741 414 1
742 59 1
742 146 1
742 233 1
742 283 1
742 318 1
742 325 1
743 1 1
743 26 1
743 36 1
743 381 1
743 604 1
743 703 1
743 772 1
744 121 1
744 150 1
744 167 1
744 175 1
744 505 1
744 575 1
745 11 1
745 119 1
745 290 1
745 647 1
745 672 1
745 731 1
746 45 1
746 204 1
746 437 1
746 521 1
746 572 1
746 601 1
747 11 1
747 87 1
747 200 1
747 248 1
747 562 1
747 635 1
748 33 1
748 70 1
748 176 1
748 225 1
748 554 1
748 577 1
749 6 1
749 47 1
749 97 1
749 481 1
749 577 1
749 642 1
750 8 1
750 97 1
750 127 1
750 399 1
750 486 1
750 641 1
751 77 1
751 136 1
751 250 1
751 278 1
751 301 1
751 435 1
752 158 1
752 199 1
752 283 1
752 413 1
752 420 1
752 706 1
753 22 1
753 31 1
753 59 1
753 63 1
753 80 1
753 260 1
754 1 1
754 42 1
754 264 1
754 562 1
754 635 1
755 18 1
755 118 1
755 290 1
755 419 1
755 692 1
755 731 1
756 1 1
756 27 1
756 31 1
756 53 1
756 141 1
756 288 1
757 3 1
757 126 1
757 142 1
757 270 1
757 281 1
757 479 1
758 22 1
758 40 1
758 42 1
758 149 1
758 155 1
758 465 1
759 64 1
759 81 1
759 103 1
759 212 1
759 437 1
759 665 1
760 25 1
760 378 1
760 386 1
760 513 1
760 527 1
760 646 1
761 3 1
761 72 1
761 119 1
761 322 1
761 349 1
761 404 1
762 2 1
762 18 1
762 46 1
762 312 1
762 416 1
762 684 1
763 39 1
763 156 1
763 197 1
763 361 1
763 547 1
763 586 1
763 774 1
764 46 1
764 93 1
764 223 1
764 312 1
764 548 1
764 582 1
765 97 1
765 129 1
765 223 1
765 248 1
765 337 1
765 548 1
766 78 1
766 108 1
766 375 1
766 466 1
766 536 1
766 632 1
767 1 1
767 24 1
767 157 1
767 227 1
767 563 1
767 604 1
768 51 1
768 79 1
768 176 1
768 262 1
768 343 1
768 478 1
769 3 1
769 5 1
769 47 1
769 188 1
769 250 1
769 398 1
770 38 1
770 127 1
770 190 1
770 196 1
770 262 1
770 326 1
770 788 1
771 8 1
771 22 1
771 41 1
771 62 1
771 220 1
771 479 1
772 26 1
772 124 1
772 658 1
772 679 1
772 703 1
772 743 1
773 14 1
773 30 1
773 37 1
773 88 1
773 143 1
773 357 1
774 41 1
774 137 1
774 156 1
774 197 1
774 217 1
774 763 1
775 4 1
775 5 1
775 16 1
775 106 1
775 149 1
775 531 1
776 17 1
776 30 1
776 32 1
776 417 1
776 428 1
776 706 1
777 36 1
777 76 1
777 89 1
777 100 1
777 589 1
777 707 1
778 1 1
778 142 1
778 184 1
778 689 1
778 739 1
779 22 1
779 106 1
779 205 1
779 392 1
779 701 1
779 738 1
780 2 1
780 26 1
780 57 1
780 169 1
780 462 1
780 557 1
781 104 1
781 184 1
781 529 1
781 556 1
781 651 1
781 729 1
782 6 1
782 25 1
782 50 1
782 98 1
782 133 1
782 566 1
783 28 1
783 113 1
783 292 1
783 403 1
783 422 1
783 504 1
784 8 1
784 243 1
784 547 1
784 632 1
784 682 1
784 702 1
785 113 1
785 134 1
785 149 1
785 242 1
785 463 1
785 465 1
786 1 1
786 26 1
786 52 1
786 76 1
786 151 1
786 286 1
787 5 1
787 74 1
787 121 1
787 165 1
787 188 1
787 628 1
788 14 1
788 127 1
788 273 1
788 326 1
788 361 1
788 770 1
789 13 1
789 33 1
789 58 1
789 348 1
789 378 1
789 547 1
790 6 1
790 59 1
790 170 1
790 175 1
790 233 1
790 629 1
791 13 1
791 33 1
791 35 1
791 56 1
791 91 1
791 426 1
792 64 1
792 68 1
792 90 1
792 115 1
792 179 1
792 187 1
793 7 1
793 155 1
793 333 1
793 433 1
793 587 1
793 602 1
794 47 1
794 104 1
794 149 1
794 355 1
794 366 1
794 710 1
794 798 1
795 40 1
795 154 1
795 494 1
795 651 1
795 729 1
796 135 1
796 163 1
796 202 1
796 521 1
796 586 1
796 701 1
797 109 1
797 138 1
797 174 1
797 319 1
797 569 1
797 668 1
798 196 1
798 272 1
798 355 1
798 595 1
798 710 1
798 794 1
799 9 1
799 15 1
799 189 1
799 317 1
799 647 1
799 672 1
800 8 1
800 14 1
800 615 1
800 663 1
800 666 1
800 697 1
