%%MatrixMarket matrix coordinate real general
%
800 800 9334
1 2 1
1 3 1
1 4 1
1 5 1
1 6 1
1 7 1
1 8 1
1 9 1
1 11 1
1 12 1
1 14 1
1 15 1
1 18 1
1 22 1
1 25 1
1 26 1
1 28 1
1 29 1
1 34 1
1 36 1
1 37 1
1 45 1
1 46 1
1 54 1
1 68 1
1 70 1
1 74 1
1 81 1
1 89 1
1 92 1
1 101 1
1 102 1
1 104 1
1 107 1
1 114 1
1 115 1
1 119 1
1 131 1
1 136 1
1 137 1
1 138 1
1 141 1
1 145 1
1 146 1
1 156 1
1 162 1
1 186 1
1 193 1
1 201 1
1 204 1
1 215 1
1 216 1
1 219 1
1 220 1
1 225 1
1 231 1
1 232 1
1 244 1
1 247 1
1 254 1
1 269 1
1 270 1
1 284 1
1 296 1
1 302 1
1 317 1
1 320 1
1 321 1
1 337 1
1 342 1
1 350 1
1 357 1
1 384 1
1 393 1
1 395 1
1 429 1
1 432 1
1 434 1
1 454 1
1 482 1
1 496 1
1 499 1
1 509 1
1 512 1
1 546 1
1 559 1
1 563 1
1 570 1
1 582 1
1 588 1
1 589 1
1 607 1
1 646 1
1 648 1
1 686 1
1 723 1
1 725 1
1 736 1
1 742 1
1 755 1
1 757 1
1 762 1
1 778 1
2 1 1
2 3 1
2 4 1
2 5 1
2 6 1
2 7 1
2 9 1
2 10 1
2 11 1
2 12 1
2 13 1
2 17 1
2 18 1
2 24 1
2 25 1
2 29 1
2 37 1
2 38 1
2 54 1
2 65 1
2 72 1
2 76 1
2 82 1
2 96 1
2 98 1
2 99 1
2 103 1
2 117 1
2 121 1
2 130 1
2 134 1
2 144 1
2 147 1
2 169 1
2 177 1
2 180 1
2 184 1
2 190 1
2 192 1
2 193 1
2 206 1
2 218 1
2 232 1
2 239 1
2 240 1
2 254 1
2 259 1
2 262 1
2 303 1
2 308 1
2 313 1
2 319 1
2 328 1
2 331 1
2 342 1
2 348 1
2 350 1
2 355 1
2 362 1
2 368 1
2 410 1
2 413 1
2 424 1
2 455 1
2 503 1
2 508 1
2 538 1
2 567 1
2 575 1
2 580 1
2 598 1
2 605 1
2 668 1
2 677 1
2 703 1
2 717 1
2 720 1
2 741 1
2 742 1
2 759 1
2 765 1
3 1 1
3 2 1
3 4 1
3 6 1
3 8 1
3 9 1
3 10 1
3 11 1
3 12 1
3 13 1
3 14 1
3 17 1
3 19 1
3 20 1
3 22 1
3 25 1
3 33 1
3 35 1
3 43 1
3 45 1
3 48 1
3 54 1
3 64 1
3 65 1
3 68 1
3 79 1
3 91 1
3 94 1
3 97 1
3 99 1
3 100 1
3 105 1
3 117 1
3 123 1
3 127 1
3 129 1
3 135 1
3 137 1
3 140 1
3 143 1
3 144 1
3 150 1
3 152 1
3 160 1
3 169 1
3 173 1
3 183 1
3 198 1
3 201 1
3 203 1
3 207 1
3 229 1
3 237 1
3 242 1
3 256 1
3 257 1
3 274 1
3 299 1
3 315 1
3 320 1
3 363 1
3 391 1
3 408 1
3 423 1
3 435 1
3 449 1
3 456 1
3 474 1
3 501 1
3 528 1
3 534 1
3 555 1
3 574 1
3 600 1
3 609 1
3 624 1
3 650 1
3 671 1
3 680 1
3 699 1
3 703 1
3 733 1
3 780 1
4 1 1
4 2 1
4 3 1
4 5 1
4 6 1
4 7 1
4 8 1
4 9 1
4 10 1
4 11 1
4 12 1
4 13 1
4 14 1
4 16 1
4 17 1
4 19 1
4 20 1
4 21 1
4 23 1
4 24 1
4 26 1
4 27 1
4 28 1
4 30 1
4 31 1
4 32 1
4 34 1
4 35 1
4 36 1
4 38 1
4 43 1
4 44 1
4 46 1
4 49 1
4 56 1
4 61 1
4 62 1
4 63 1
4 65 1
4 67 1
4 69 1
4 72 1
4 73 1
4 75 1
4 78 1
4 79 1
4 82 1
4 83 1
4 89 1
4 90 1
4 98 1
4 106 1
4 108 1
4 110 1
4 119 1
4 120 1
4 127 1
4 132 1
4 142 1
4 144 1
4 149 1
4 155 1
4 161 1
4 169 1
4 171 1
4 172 1
4 177 1
4 178 1
4 179 1
4 181 1
4 189 1
4 191 1
4 204 1
4 207 1
4 212 1
4 218 1
4 220 1
4 227 1
4 237 1
4 243 1
4 245 1
4 247 1
4 251 1
4 252 1
4 259 1
4 264 1
4 265 1
4 266 1
4 273 1
4 277 1
4 293 1
4 294 1
4 319 1
4 323 1
4 324 1
4 338 1
4 339 1
4 341 1
4 361 1
4 366 1
4 369 1
4 381 1
4 414 1
4 421 1
4 430 1
4 438 1
4 453 1
4 461 1
4 465 1
4 470 1
4 481 1
4 510 1
4 511 1
4 524 1
4 532 1
4 535 1
4 540 1
4 560 1
4 577 1
4 578 1
4 583 1
4 592 1
4 594 1
4 595 1
4 600 1
4 602 1
4 620 1
4 627 1
4 632 1
4 635 1
4 638 1
4 684 1
4 698 1
4 701 1
4 703 1
4 707 1
4 716 1
4 722 1
4 725 1
4 726 1
4 730 1
4 754 1
4 797 1
5 1 1
5 2 1
5 4 1
5 6 1
5 9 1
5 26 1
5 32 1
5 36 1
5 46 1
5 70 1
5 72 1
5 74 1
5 78 1
5 95 1
5 98 1
5 107 1
5 113 1
5 131 1
5 149 1
5 167 1
5 185 1
5 186 1
5 191 1
5 209 1
5 214 1
5 219 1
5 225 1
5 232 1
5 238 1
5 250 1
5 262 1
5 284 1
5 287 1
5 289 1
5 292 1
5 353 1
5 356 1
5 361 1
5 364 1
5 369 1
5 370 1
5 430 1
5 452 1
5 463 1
5 495 1
5 496 1
5 520 1
5 521 1
5 535 1
5 546 1
5 549 1
5 555 1
5 562 1
5 583 1
5 588 1
5 607 1
5 636 1
5 638 1
5 670 1
5 730 1
5 742 1
5 755 1
5 759 1
5 760 1
6 1 1
6 2 1
6 3 1
6 4 1
6 5 1
6 7 1
6 8 1
6 13 1
6 14 1
6 15 1
6 32 1
6 47 1
6 48 1
6 51 1
6 53 1
6 55 1
6 57 1
6 58 1
6 60 1
6 63 1
6 79 1
6 85 1
6 95 1
6 108 1
6 111 1
6 113 1
6 116 1
6 119 1
6 122 1
6 130 1
6 155 1
6 165 1
6 174 1
6 187 1
6 211 1
6 222 1
6 225 1
6 231 1
6 233 1
6 249 1
6 253 1
6 268 1
6 269 1
6 270 1
6 302 1
6 335 1
6 360 1
6 375 1
6 394 1
6 417 1
6 449 1
6 453 1
6 472 1
6 476 1
6 488 1
6 505 1
6 532 1
6 540 1
6 556 1
6 583 1
6 585 1
6 620 1
6 652 1
6 673 1
6 674 1
6 696 1
6 724 1
6 729 1
6 730 1
6 735 1
6 738 1
6 752 1
6 761 1
6 788 1
7 1 1
7 2 1
7 4 1
7 6 1
7 8 1
7 10 1
7 27 1
7 41 1
7 51 1
7 57 1
7 60 1
7 85 1
7 89 1
7 101 1
7 103 1
7 128 1
7 149 1
7 155 1
7 159 1
7 164 1
7 174 1
7 179 1
7 191 1
7 195 1
7 227 1
7 231 1
7 233 1
7 239 1
7 326 1
7 339 1
7 364 1
7 381 1
7 398 1
7 407 1
7 415 1
7 428 1
7 457 1
7 472 1
7 494 1
7 512 1
7 522 1
7 537 1
7 544 1
7 593 1
7 677 1
7 716 1
7 717 1
7 727 1
7 767 1
8 1 1
8 3 1
8 4 1
8 6 1
8 7 1
8 13 1
8 15 1
8 18 1
8 27 1
8 28 1
8 31 1
8 32 1
8 34 1
8 39 1
8 40 1
8 41 1
8 47 1
8 50 1
8 51 1
8 53 1
8 54 1
8 59 1
8 62 1
8 63 1
8 69 1
8 73 1
8 84 1
8 86 1
8 89 1
8 91 1
8 93 1
8 94 1
8 95 1
8 96 1
8 101 1
8 106 1
8 110 1
8 112 1
8 113 1
8 119 1
8 120 1
8 121 1
8 123 1
8 128 1
8 129 1
8 143 1
8 149 1
8 170 1
8 186 1
8 205 1
8 211 1
8 223 1
8 227 1
8 235 1
8 246 1
8 253 1
8 258 1
8 268 1
8 270 1
8 283 1
8 285 1
8 300 1
8 331 1
8 334 1
8 340 1
8 346 1
8 347 1
8 374 1
8 380 1
8 382 1
8 387 1
8 396 1
8 399 1
8 401 1
8 406 1
8 407 1
8 418 1
8 421 1
8 433 1
8 437 1
8 456 1
8 461 1
8 470 1
8 488 1
8 494 1
8 500 1
8 507 1
8 515 1
8 518 1
8 523 1
8 554 1
8 566 1
8 568 1
8 569 1
8 570 1
8 574 1
8 575 1
8 601 1
8 604 1
8 608 1
8 610 1
8 614 1
8 622 1
8 626 1
8 630 1
8 634 1
8 641 1
8 643 1
8 661 1
8 669 1
8 674 1
8 705 1
8 732 1
8 760 1
8 768 1
8 772 1
8 781 1
8 800 1
9 1 1
9 2 1
9 3 1
9 4 1
9 5 1
9 11 1
9 25 1
9 26 1
9 37 1
9 65 1
9 77 1
9 91 1
9 92 1
9 96 1
9 100 1
9 102 1
9 113 1
9 117 1
9 128 1
9 134 1
9 145 1
9 150 1
9 165 1
9 217 1
9 224 1
9 237 1
9 259 1
9 262 1
9 275 1
9 276 1
9 286 1
9 290 1
9 303 1
9 309 1
9 327 1
9 328 1
9 340 1
9 348 1
9 361 1
9 364 1
9 376 1
9 389 1
9 403 1
9 410 1
9 429 1
9 430 1
9 459 1
9 463 1
9 471 1
9 489 1
9 525 1
9 572 1
9 581 1
9 589 1
9 593 1
9 597 1
9 659 1
9 712 1
9 734 1
9 736 1
9 737 1
9 787 1
9 791 1
9 800 1
10 2 1
10 3 1
10 4 1
10 7 1
10 12 1
10 13 1
10 16 1
10 17 1
10 19 1
10 20 1
10 21 1
10 23 1
10 30 1
10 31 1
10 33 1
10 41 1
10 42 1
10 44 1
10 48 1
10 50 1
10 67 1
10 69 1
10 72 1
10 77 1
10 79 1
10 80 1
10 88 1
10 93 1
10 103 1
10 110 1
10 114 1
10 122 1
10 133 1
10 164 1
10 166 1
10 173 1
10 181 1
10 187 1
10 194 1
10 197 1
10 229 1
10 240 1
10 288 1
10 299 1
10 301 1
10 303 1
10 305 1
10 314 1
10 323 1
10 326 1
10 357 1
10 386 1
10 403 1
10 408 1
10 412 1
10 413 1
10 420 1
10 445 1
10 448 1
10 450 1
10 454 1
10 479 1
10 484 1
10 499 1
10 510 1
10 513 1
10 515 1
10 516 1
10 517 1
10 518 1
10 521 1
10 534 1
10 537 1
10 538 1
10 553 1
10 586 1
10 651 1
10 671 1
10 704 1
10 733 1
10 787 1
10 795 1
10 797 1
10 799 1
11 1 1
11 2 1
11 3 1
11 4 1
11 9 1
11 20 1
11 25 1
11 140 1
11 150 1
11 203 1
11 232 1
11 262 1
11 290 1
11 361 1
11 440 1
11 464 1
11 471 1
11 560 1
11 581 1
11 595 1
11 598 1
11 627 1
11 654 1
12 1 1
12 2 1
12 3 1
12 4 1
12 10 1
12 14 1
12 15 1
12 16 1
12 19 1
12 24 1
12 26 1
12 36 1
12 44 1
12 45 1
12 68 1
12 71 1
12 74 1
12 81 1
12 104 1
12 115 1
12 201 1
12 206 1
12 230 1
12 242 1
12 247 1
12 265 1
12 273 1
12 281 1
12 306 1
12 319 1
12 413 1
12 429 1
12 485 1
12 570 1
12 642 1
12 654 1
12 700 1
12 774 1
12 775 1
12 783 1
13 2 1
13 3 1
13 4 1
13 6 1
13 8 1
13 10 1
13 14 1
13 17 1
13 18 1
13 21 1
13 22 1
13 46 1
13 47 1
13 49 1
13 52 1
13 57 1
13 68 1
13 70 1
13 82 1
13 91 1
13 93 1
13 121 1
13 139 1
13 143 1
13 147 1
13 158 1
13 163 1
13 172 1
13 180 1
13 183 1
13 204 1
13 221 1
13 235 1
13 246 1
13 258 1
13 263 1
13 273 1
13 283 1
13 295 1
13 303 1
13 307 1
13 311 1
13 324 1
13 329 1
13 332 1
13 339 1
13 376 1
13 391 1
13 404 1
13 443 1
13 460 1
13 469 1
13 487 1
13 499 1
13 504 1
13 506 1
13 533 1
13 537 1
13 550 1
13 558 1
13 621 1
13 623 1
13 643 1
13 653 1
13 655 1
13 663 1
13 673 1
13 714 1
13 729 1
13 796 1
14 1 1
14 3 1
14 4 1
14 6 1
14 12 1
14 13 1
14 15 1
14 22 1
14 26 1
14 36 1
14 45 1
14 46 1
14 48 1
14 49 1
14 52 1
14 57 1
14 61 1
14 83 1
14 84 1
14 151 1
14 156 1
14 175 1
14 180 1
14 182 1
14 199 1
14 202 1
14 212 1
14 213 1
14 221 1
14 224 1
14 243 1
14 253 1
14 260 1
14 266 1
14 267 1
14 279 1
14 291 1
14 306 1
14 325 1
14 352 1
14 358 1
14 389 1
14 391 1
14 446 1
14 460 1
14 475 1
14 555 1
14 564 1
14 569 1
14 578 1
14 648 1
14 701 1
14 707 1
14 708 1
14 717 1
14 745 1
14 766 1
14 782 1
15 1 1
15 6 1
15 8 1
15 12 1
15 14 1
15 18 1
15 22 1
15 28 1
15 29 1
15 32 1
15 38 1
15 40 1
15 53 1
15 55 1
15 58 1
15 68 1
15 90 1
15 96 1
15 104 1
15 111 1
15 116 1
15 134 1
15 190 1
15 194 1
15 215 1
15 217 1
15 222 1
15 238 1
15 248 1
15 266 1
15 281 1
15 321 1
15 342 1
15 357 1
15 378 1
15 436 1
15 512 1
15 559 1
15 568 1
15 569 1
15 576 1
15 582 1
15 603 1
15 629 1
15 642 1
15 656 1
15 667 1
15 674 1
15 695 1
15 702 1
15 718 1
15 729 1
15 769 1
16 4 1
16 10 1
16 12 1
16 21 1
16 23 1
16 44 1
16 69 1
16 71 1
16 75 1
16 77 1
16 93 1
16 111 1
16 133 1
16 151 1
16 183 1
16 204 1
16 209 1
16 221 1
16 288 1
16 290 1
16 305 1
16 354 1
16 403 1
16 420 1
16 448 1
16 454 1
16 460 1
16 471 1
16 533 1
16 540 1
16 541 1
16 577 1
16 581 1
16 585 1
16 728 1
16 770 1
16 796 1
17 2 1
17 3 1
17 4 1
17 10 1
17 13 1
17 18 1
17 19 1
17 20 1
17 29 1
17 31 1
17 33 1
17 35 1
17 38 1
17 42 1
17 43 1
17 50 1
17 56 1
17 65 1
17 94 1
17 99 1
17 108 1
17 123 1
17 148 1
17 166 1
17 172 1
17 188 1
17 189 1
17 240 1
17 250 1
17 259 1
17 265 1
17 294 1
17 330 1
17 332 1
17 335 1
17 368 1
17 402 1
17 428 1
17 431 1
17 462 1
17 490 1
17 511 1
17 517 1
17 596 1
17 629 1
17 657 1
17 665 1
17 706 1
17 776 1
18 1 1
18 2 1
18 8 1
18 13 1
18 15 1
18 17 1
18 28 1
18 29 1
18 32 1
18 34 1
18 37 1
18 51 1
18 54 1
18 59 1
18 62 1
18 71 1
18 73 1
18 76 1
18 81 1
18 82 1
18 87 1
18 90 1
18 101 1
18 109 1
18 114 1
18 118 1
18 124 1
18 125 1
18 126 1
18 148 1
18 158 1
18 177 1
18 184 1
18 205 1
18 210 1
18 217 1
18 236 1
18 243 1
18 277 1
18 297 1
18 300 1
18 308 1
18 322 1
18 332 1
18 345 1
18 349 1
18 359 1
18 367 1
18 380 1
18 395 1
18 401 1
18 412 1
18 455 1
18 469 1
18 474 1
18 479 1
18 493 1
18 497 1
18 522 1
18 530 1
18 539 1
18 558 1
18 587 1
18 628 1
18 649 1
18 699 1
18 702 1
18 709 1
18 728 1
18 745 1
18 778 1
19 3 1
19 4 1
19 10 1
19 12 1
19 17 1
19 21 1
19 23 1
19 24 1
19 27 1
19 43 1
19 53 1
19 56 1
19 59 1
19 60 1
19 82 1
19 83 1
19 120 1
19 132 1
19 138 1
19 140 1
19 164 1
19 188 1
19 207 1
19 240 1
19 251 1
19 281 1
19 294 1
19 371 1
19 379 1
19 399 1
19 400 1
19 410 1
19 434 1
19 441 1
19 480 1
19 516 1
19 527 1
19 529 1
19 601 1
19 657 1
19 750 1
19 775 1
20 3 1
20 4 1
20 10 1
20 11 1
20 17 1
20 31 1
20 33 1
20 41 1
20 66 1
20 108 1
20 140 1
20 166 1
20 198 1
20 293 1
20 301 1
20 312 1
20 320 1
20 323 1
20 324 1
20 392 1
20 428 1
20 437 1
20 440 1
20 464 1
20 534 1
20 551 1
20 595 1
20 620 1
20 684 1
20 733 1
21 4 1
21 10 1
21 13 1
21 16 1
21 19 1
21 23 1
21 27 1
21 30 1
21 93 1
21 111 1
21 133 1
21 143 1
21 164 1
21 178 1
21 181 1
21 194 1
21 242 1
21 247 1
21 354 1
21 434 1
21 452 1
21 460 1
21 499 1
21 553 1
21 586 1
21 595 1
21 714 1
21 755 1
22 1 1
22 3 1
22 13 1
22 14 1
22 15 1
22 45 1
22 46 1
22 61 1
22 68 1
22 70 1
22 97 1
22 115 1
22 117 1
22 139 1
22 142 1
22 154 1
22 173 1
22 202 1
22 266 1
22 314 1
22 321 1
22 358 1
22 384 1
22 436 1
22 440 1
22 648 1
22 713 1
22 718 1
22 782 1
23 4 1
23 10 1
23 16 1
23 19 1
23 21 1
23 27 1
23 30 1
23 33 1
23 35 1
23 60 1
23 77 1
23 83 1
23 114 1
23 122 1
23 151 1
23 152 1
23 166 1
23 200 1
23 234 1
23 242 1
23 288 1
23 310 1
23 334 1
23 351 1
23 410 1
23 450 1
23 452 1
23 461 1
23 477 1
23 515 1
23 520 1
23 545 1
23 550 1
23 566 1
23 616 1
23 623 1
23 637 1
23 700 1
23 714 1
23 721 1
24 2 1
24 4 1
24 12 1
24 19 1
24 43 1
24 53 1
24 55 1
24 61 1
24 64 1
24 138 1
24 206 1
24 216 1
24 319 1
24 438 1
24 580 1
24 601 1
24 633 1
24 654 1
24 673 1
24 758 1
25 1 1
25 2 1
25 3 1
25 9 1
25 11 1
25 37 1
25 54 1
25 65 1
25 76 1
25 77 1
25 91 1
25 105 1
25 128 1
25 193 1
25 200 1
25 203 1
25 207 1
25 217 1
25 233 1
25 275 1
25 276 1
25 285 1
25 310 1
25 311 1
25 328 1
25 333 1
25 423 1
25 424 1
25 427 1
25 430 1
25 514 1
25 519 1
25 549 1
25 611 1
25 750 1
25 754 1
26 1 1
26 4 1
26 5 1
26 9 1
26 12 1
26 14 1
26 36 1
26 49 1
26 52 1
26 83 1
26 90 1
26 92 1
26 113 1
26 131 1
26 146 1
26 158 1
26 175 1
26 182 1
26 186 1
26 199 1
26 204 1
26 208 1
26 214 1
26 245 1
26 265 1
26 284 1
26 403 1
26 499 1
26 528 1
26 562 1
26 564 1
26 688 1
26 739 1
26 783 1
27 4 1
27 7 1
27 8 1
27 19 1
27 21 1
27 23 1
27 28 1
27 41 1
27 60 1
27 67 1
27 84 1
27 102 1
27 110 1
27 140 1
27 159 1
27 179 1
27 236 1
27 242 1
27 336 1
27 434 1
27 595 1
27 606 1
27 666 1
27 687 1
27 689 1
27 700 1
27 714 1
27 740 1
28 1 1
28 4 1
28 8 1
28 15 1
28 18 1
28 27 1
28 29 1
28 31 1
28 34 1
28 38 1
28 39 1
28 67 1
28 69 1
28 84 1
28 87 1
28 102 1
28 104 1
28 136 1
28 138 1
28 141 1
28 142 1
28 217 1
28 241 1
28 252 1
28 256 1
28 292 1
28 293 1
28 336 1
28 390 1
28 398 1
28 451 1
28 455 1
28 507 1
28 552 1
28 646 1
28 786 1
29 1 1
29 2 1
29 15 1
29 17 1
29 18 1
29 28 1
29 37 1
29 38 1
29 39 1
29 71 1
29 109 1
29 130 1
29 138 1
29 139 1
29 148 1
29 157 1
29 162 1
29 192 1
29 269 1
29 316 1
29 337 1
29 342 1
29 416 1
29 455 1
29 493 1
29 507 1
29 509 1
29 558 1
29 615 1
29 771 1
29 780 1
29 793 1
30 4 1
30 10 1
30 21 1
30 23 1
30 33 1
30 35 1
30 44 1
30 48 1
30 72 1
30 79 1
30 118 1
30 170 1
30 181 1
30 210 1
30 234 1
30 264 1
30 294 1
30 330 1
30 354 1
30 365 1
30 379 1
30 450 1
30 532 1
30 551 1
30 613 1
30 623 1
31 4 1
31 8 1
31 10 1
31 17 1
31 20 1
31 28 1
31 34 1
31 39 1
31 40 1
31 41 1
31 42 1
31 58 1
31 66 1
31 69 1
31 75 1
31 80 1
31 85 1
31 88 1
31 92 1
31 97 1
31 100 1
31 142 1
31 153 1
31 166 1
31 175 1
31 186 1
31 189 1
31 208 1
31 230 1
31 241 1
31 283 1
31 293 1
31 296 1
31 312 1
31 362 1
31 383 1
31 444 1
31 517 1
31 591 1
31 636 1
31 656 1
31 660 1
31 753 1
31 756 1
31 788 1
32 4 1
32 5 1
32 6 1
32 8 1
32 15 1
32 18 1
32 40 1
32 51 1
32 62 1
32 63 1
32 86 1
32 90 1
32 95 1
32 98 1
32 118 1
32 134 1
32 157 1
32 176 1
32 184 1
32 232 1
32 238 1
32 269 1
32 271 1
32 322 1
32 343 1
32 378 1
32 396 1
32 402 1
32 411 1
32 414 1
32 433 1
32 439 1
32 452 1
32 501 1
32 526 1
32 535 1
32 545 1
32 656 1
32 667 1
32 710 1
32 721 1
32 730 1
32 752 1
32 776 1
33 3 1
33 10 1
33 17 1
33 20 1
33 23 1
33 30 1
33 35 1
33 44 1
33 64 1
33 108 1
33 114 1
33 135 1
33 170 1
33 197 1
33 198 1
33 250 1
33 259 1
33 330 1
33 335 1
33 348 1
33 356 1
33 377 1
33 397 1
33 426 1
33 437 1
33 439 1
33 442 1
33 445 1
33 477 1
33 484 1
33 493 1
33 615 1
33 671 1
33 731 1
33 783 1
34 1 1
34 4 1
34 8 1
34 18 1
34 28 1
34 31 1
34 39 1
34 40 1
34 42 1
34 50 1
34 58 1
34 62 1
34 73 1
34 78 1
34 87 1
34 112 1
34 114 1
34 136 1
34 141 1
34 153 1
34 163 1
34 171 1
34 235 1
34 258 1
34 263 1
34 270 1
34 298 1
34 315 1
34 320 1
34 322 1
34 367 1
34 372 1
34 385 1
34 397 1
34 400 1
34 412 1
34 447 1
34 517 1
34 568 1
34 599 1
34 610 1
34 641 1
34 643 1
34 679 1
34 686 1
34 691 1
34 694 1
34 763 1
34 786 1
35 3 1
35 4 1
35 17 1
35 23 1
35 30 1
35 33 1
35 43 1
35 64 1
35 99 1
35 135 1
35 160 1
35 226 1
35 234 1
35 250 1
35 265 1
35 294 1
35 298 1
35 350 1
35 365 1
35 368 1
35 381 1
35 426 1
35 451 1
35 461 1
35 519 1
35 531 1
35 602 1
35 607 1
35 615 1
35 637 1
35 648 1
35 710 1
36 1 1
36 4 1
36 5 1
36 12 1
36 14 1
36 26 1
36 74 1
36 83 1
36 89 1
36 107 1
36 119 1
36 185 1
36 208 1
36 237 1
36 296 1
36 306 1
36 466 1
36 560 1
36 688 1
36 783 1
37 1 1
37 2 1
37 9 1
37 18 1
37 25 1
37 29 1
37 71 1
37 77 1
37 102 1
37 105 1
37 106 1
37 125 1
37 130 1
37 139 1
37 165 1
37 176 1
37 184 1
37 192 1
37 193 1
37 264 1
37 280 1
37 286 1
37 297 1
37 337 1
37 383 1
37 455 1
37 618 1
37 771 1
37 798 1
38 2 1
38 4 1
38 15 1
38 17 1
38 28 1
38 29 1
38 39 1
38 104 1
38 169 1
38 238 1
38 241 1
38 342 1
38 438 1
38 592 1
39 8 1
39 28 1
39 29 1
39 31 1
39 34 1
39 38 1
39 40 1
39 42 1
39 47 1
39 50 1
39 88 1
39 94 1
39 116 1
39 124 1
39 129 1
39 186 1
39 263 1
39 298 1
39 347 1
39 349 1
39 443 1
39 455 1
39 472 1
39 645 1
39 702 1
39 781 1
40 8 1
40 15 1
40 31 1
40 32 1
40 34 1
40 39 1
40 42 1
40 47 1
40 58 1
40 66 1
40 78 1
40 86 1
40 97 1
40 112 1
40 134 1
40 153 1
40 163 1
40 167 1
40 185 1
40 248 1
40 383 1
40 396 1
40 417 1
40 547 1
40 665 1
41 7 1
41 8 1
41 10 1
41 20 1
41 27 1
41 31 1
41 66 1
41 89 1
41 110 1
41 155 1
41 159 1
41 301 1
41 324 1
41 326 1
41 437 1
41 486 1
41 495 1
41 523 1
41 619 1
41 733 1
41 772 1
42 10 1
42 17 1
42 31 1
42 34 1
42 39 1
42 40 1
42 47 1
42 50 1
42 67 1
42 80 1
42 85 1
42 86 1
42 88 1
42 112 1
42 125 1
42 175 1
42 195 1
42 230 1
42 321 1
42 357 1
42 359 1
42 362 1
42 365 1
42 448 1
42 450 1
42 462 1
42 468 1
42 582 1
42 609 1
42 645 1
42 719 1
42 727 1
42 793 1
43 3 1
43 4 1
43 17 1
43 19 1
43 24 1
43 35 1
43 53 1
43 55 1
43 56 1
43 59 1
43 61 1
43 64 1
43 87 1
43 94 1
43 99 1
43 222 1
43 226 1
43 229 1
43 251 1
43 298 1
43 467 1
43 490 1
43 618 1
43 629 1
43 630 1
43 632 1
43 633 1
43 638 1
43 685 1
43 776 1
43 798 1
44 4 1
44 10 1
44 12 1
44 16 1
44 30 1
44 33 1
44 48 1
44 71 1
44 75 1
44 118 1
44 133 1
44 150 1
44 168 1
44 170 1
44 197 1
44 279 1
44 290 1
44 348 1
44 356 1
44 483 1
44 541 1
44 723 1
44 731 1
44 770 1
44 787 1
45 1 1
45 3 1
45 12 1
45 14 1
45 22 1
45 104 1
45 107 1
45 137 1
45 141 1
45 201 1
45 230 1
45 435 1
45 485 1
45 531 1
45 603 1
46 1 1
46 4 1
46 5 1
46 13 1
46 14 1
46 22 1
46 49 1
46 61 1
46 70 1
46 84 1
46 115 1
46 136 1
46 205 1
46 219 1
46 273 1
46 279 1
46 283 1
46 287 1
46 369 1
46 393 1
46 440 1
46 480 1
46 492 1
46 504 1
46 576 1
46 676 1
46 715 1
47 6 1
47 8 1
47 13 1
47 39 1
47 40 1
47 42 1
47 86 1
47 88 1
47 91 1
47 116 1
47 124 1
47 185 1
47 231 1
47 263 1
47 456 1
47 505 1
47 550 1
47 609 1
47 617 1
47 640 1
47 673 1
47 735 1
47 772 1
48 3 1
48 6 1
48 10 1
48 14 1
48 30 1
48 44 1
48 72 1
48 118 1
48 173 1
48 187 1
48 253 1
48 279 1
48 301 1
48 391 1
48 509 1
48 521 1
48 680 1
48 704 1
48 723 1
48 753 1
48 787 1
49 4 1
49 13 1
49 14 1
49 26 1
49 46 1
49 52 1
49 84 1
49 90 1
49 151 1
49 161 1
49 212 1
49 214 1
49 224 1
49 244 1
49 245 1
49 267 1
49 273 1
49 275 1
49 318 1
49 323 1
49 351 1
49 360 1
49 371 1
49 394 1
49 413 1
49 470 1
49 536 1
49 558 1
49 594 1
49 667 1
49 676 1
49 701 1
49 711 1
49 759 1
49 779 1
49 789 1
50 8 1
50 10 1
50 17 1
50 34 1
50 39 1
50 42 1
50 67 1
50 94 1
50 263 1
50 321 1
50 443 1
50 462 1
50 472 1
50 542 1
50 641 1
50 643 1
50 669 1
50 676 1
50 702 1
51 6 1
51 7 1
51 8 1
51 18 1
51 32 1
51 57 1
51 62 1
51 73 1
51 76 1
51 86 1
51 113 1
51 128 1
51 174 1
51 176 1
51 271 1
51 277 1
51 326 1
51 336 1
51 406 1
51 407 1
51 414 1
51 461 1
51 470 1
51 476 1
51 489 1
51 628 1
51 630 1
51 658 1
51 784 1
52 13 1
52 14 1
52 26 1
52 49 1
52 57 1
52 175 1
52 199 1
52 212 1
52 224 1
52 291 1
52 347 1
52 352 1
52 389 1
52 502 1
52 558 1
52 621 1
52 667 1
52 717 1
52 759 1
52 763 1
53 6 1
53 8 1
53 15 1
53 19 1
53 24 1
53 43 1
53 55 1
53 56 1
53 87 1
53 96 1
53 138 1
53 146 1
53 188 1
53 216 1
53 249 1
53 280 1
53 304 1
53 388 1
53 467 1
53 490 1
53 738 1
54 1 1
54 2 1
54 3 1
54 8 1
54 18 1
54 25 1
54 59 1
54 63 1
54 76 1
54 81 1
54 99 1
54 135 1
54 168 1
54 190 1
54 196 1
54 207 1
54 233 1
54 255 1
54 257 1
54 286 1
54 311 1
54 313 1
54 319 1
54 327 1
54 333 1
54 341 1
54 378 1
54 409 1
54 425 1
54 465 1
54 468 1
54 500 1
54 514 1
54 527 1
54 562 1
54 570 1
54 588 1
54 610 1
54 628 1
54 678 1
54 680 1
54 683 1
54 697 1
54 712 1
54 725 1
54 738 1
54 770 1
54 778 1
55 6 1
55 15 1
55 24 1
55 43 1
55 53 1
55 58 1
55 87 1
55 146 1
55 187 1
55 194 1
55 216 1
55 251 1
55 255 1
55 274 1
55 280 1
55 282 1
55 304 1
55 325 1
55 369 1
55 372 1
55 422 1
55 457 1
55 462 1
55 475 1
55 524 1
55 612 1
55 633 1
55 673 1
55 724 1
56 4 1
56 17 1
56 19 1
56 43 1
56 53 1
56 59 1
56 82 1
56 132 1
56 188 1
56 222 1
56 227 1
56 281 1
56 371 1
56 425 1
56 527 1
56 605 1
56 775 1
57 6 1
57 7 1
57 13 1
57 14 1
57 51 1
57 52 1
57 60 1
57 180 1
57 191 1
57 199 1
57 212 1
57 213 1
57 220 1
57 260 1
57 306 1
57 326 1
57 347 1
57 407 1
57 415 1
57 443 1
57 476 1
57 537 1
57 577 1
57 621 1
57 627 1
57 631 1
57 687 1
57 692 1
57 724 1
57 757 1
58 6 1
58 15 1
58 31 1
58 34 1
58 40 1
58 55 1
58 66 1
58 75 1
58 78 1
58 80 1
58 111 1
58 167 1
58 187 1
58 190 1
58 194 1
58 213 1
58 215 1
58 225 1
58 255 1
58 308 1
58 332 1
58 394 1
58 411 1
58 453 1
58 457 1
58 478 1
58 505 1
58 517 1
58 532 1
58 591 1
58 599 1
58 617 1
58 644 1
58 651 1
58 672 1
58 715 1
58 752 1
58 761 1
58 796 1
59 8 1
59 18 1
59 19 1
59 43 1
59 54 1
59 56 1
59 63 1
59 121 1
59 132 1
59 171 1
59 205 1
59 222 1
59 226 1
59 282 1
59 480 1
59 566 1
59 569 1
59 604 1
59 608 1
59 746 1
60 6 1
60 7 1
60 19 1
60 23 1
60 27 1
60 57 1
60 85 1
60 140 1
60 191 1
60 195 1
60 198 1
60 220 1
60 302 1
60 367 1
60 390 1
60 399 1
60 552 1
60 565 1
60 606 1
60 687 1
60 714 1
60 740 1
60 777 1
61 4 1
61 14 1
61 22 1
61 24 1
61 43 1
61 46 1
61 64 1
61 202 1
61 279 1
61 325 1
61 438 1
61 476 1
61 480 1
61 618 1
61 630 1
61 764 1
62 4 1
62 8 1
62 18 1
62 32 1
62 34 1
62 51 1
62 73 1
62 106 1
62 118 1
62 148 1
62 161 1
62 235 1
62 236 1
62 258 1
62 261 1
62 271 1
62 277 1
62 315 1
62 385 1
62 406 1
62 489 1
62 539 1
62 545 1
62 644 1
62 657 1
62 709 1
62 731 1
63 4 1
63 6 1
63 8 1
63 32 1
63 54 1
63 59 1
63 108 1
63 121 1
63 165 1
63 171 1
63 179 1
63 189 1
63 269 1
63 282 1
63 343 1
63 501 1
63 580 1
63 601 1
63 610 1
63 722 1
63 769 1
64 3 1
64 24 1
64 33 1
64 35 1
64 43 1
64 61 1
64 135 1
64 160 1
64 226 1
64 493 1
64 567 1
64 630 1
64 732 1
64 765 1
65 2 1
65 3 1
65 4 1
65 9 1
65 17 1
65 25 1
65 96 1
65 127 1
65 193 1
65 217 1
65 299 1
65 368 1
65 370 1
65 423 1
65 424 1
65 427 1
65 442 1
65 465 1
65 525 1
65 597 1
65 754 1
66 20 1
66 31 1
66 40 1
66 41 1
66 58 1
66 75 1
66 80 1
66 97 1
66 126 1
66 154 1
66 160 1
66 293 1
66 312 1
66 324 1
66 358 1
66 392 1
66 396 1
66 411 1
66 453 1
66 644 1
66 665 1
66 684 1
66 756 1
67 4 1
67 10 1
67 27 1
67 28 1
67 42 1
67 50 1
67 102 1
67 236 1
67 293 1
67 321 1
67 392 1
67 448 1
67 689 1
67 719 1
67 725 1
68 1 1
68 3 1
68 12 1
68 13 1
68 15 1
68 22 1
68 74 1
68 81 1
68 97 1
68 139 1
68 163 1
68 215 1
68 228 1
68 261 1
68 272 1
68 281 1
68 314 1
68 352 1
68 353 1
68 429 1
68 436 1
68 478 1
68 484 1
68 512 1
68 573 1
68 582 1
68 587 1
68 695 1
68 729 1
68 795 1
69 4 1
69 8 1
69 10 1
69 16 1
69 28 1
69 31 1
69 110 1
69 283 1
69 288 1
69 312 1
69 529 1
69 540 1
70 1 1
70 5 1
70 13 1
70 22 1
70 46 1
70 115 1
70 131 1
70 136 1
70 142 1
70 205 1
70 219 1
70 244 1
70 254 1
70 262 1
70 287 1
70 292 1
70 317 1
70 345 1
70 353 1
70 492 1
70 504 1
70 511 1
70 546 1
70 563 1
70 584 1
70 614 1
70 621 1
70 715 1
70 757 1
70 760 1
71 12 1
71 16 1
71 18 1
71 29 1
71 37 1
71 44 1
71 109 1
71 125 1
71 133 1
71 150 1
71 157 1
71 176 1
71 209 1
71 211 1
71 316 1
71 359 1
71 401 1
71 483 1
71 536 1
71 682 1
71 693 1
71 771 1
71 790 1
72 2 1
72 4 1
72 5 1
72 10 1
72 30 1
72 48 1
72 79 1
72 98 1
72 132 1
72 147 1
72 149 1
72 167 1
72 172 1
72 173 1
72 178 1
72 181 1
72 182 1
72 197 1
72 210 1
72 239 1
72 299 1
72 304 1
72 385 1
72 466 1
72 485 1
72 503 1
72 535 1
72 590 1
72 619 1
72 634 1
72 666 1
72 759 1
73 4 1
73 8 1
73 18 1
73 34 1
73 51 1
73 62 1
73 76 1
73 109 1
73 124 1
73 161 1
73 171 1
73 235 1
73 277 1
73 346 1
73 397 1
73 401 1
73 539 1
73 564 1
73 589 1
73 602 1
73 649 1
73 657 1
73 686 1
73 699 1
73 706 1
73 743 1
73 784 1
74 1 1
74 5 1
74 12 1
74 36 1
74 68 1
74 81 1
74 215 1
74 228 1
74 261 1
74 587 1
74 588 1
75 4 1
75 16 1
75 31 1
75 44 1
75 58 1
75 66 1
75 80 1
75 92 1
75 126 1
75 154 1
75 290 1
75 419 1
75 426 1
75 444 1
75 543 1
75 571 1
75 581 1
75 591 1
75 635 1
75 656 1
75 690 1
75 788 1
76 2 1
76 18 1
76 25 1
76 51 1
76 54 1
76 73 1
76 109 1
76 210 1
76 300 1
76 311 1
76 313 1
76 328 1
76 331 1
76 395 1
76 698 1
76 784 1
77 9 1
77 10 1
77 16 1
77 23 1
77 25 1
77 37 1
77 105 1
77 106 1
77 151 1
77 166 1
77 183 1
77 196 1
77 200 1
77 203 1
77 303 1
77 317 1
77 351 1
77 366 1
77 408 1
77 420 1
77 471 1
77 487 1
77 545 1
77 639 1
78 4 1
78 5 1
78 34 1
78 40 1
78 58 1
78 107 1
78 163 1
78 167 1
78 213 1
78 417 1
78 560 1
78 579 1
78 599 1
78 610 1
78 625 1
78 638 1
78 715 1
79 3 1
79 4 1
79 6 1
79 10 1
79 30 1
79 72 1
79 210 1
79 379 1
79 408 1
79 449 1
79 453 1
79 474 1
79 797 1
80 10 1
80 31 1
80 42 1
80 58 1
80 66 1
80 75 1
80 85 1
80 88 1
80 100 1
80 103 1
80 125 1
80 126 1
80 160 1
80 357 1
80 358 1
80 411 1
80 419 1
80 426 1
80 479 1
80 543 1
80 582 1
80 705 1
81 1 1
81 12 1
81 18 1
81 54 1
81 68 1
81 74 1
81 101 1
81 261 1
81 429 1
81 570 1
81 700 1
81 725 1
82 2 1
82 4 1
82 13 1
82 18 1
82 19 1
82 56 1
82 120 1
82 121 1
82 147 1
82 227 1
82 281 1
82 295 1
82 308 1
82 345 1
82 425 1
82 491 1
82 506 1
82 516 1
82 529 1
82 565 1
82 567 1
82 652 1
82 653 1
82 709 1
82 716 1
82 741 1
83 4 1
83 14 1
83 19 1
83 23 1
83 26 1
83 36 1
83 207 1
83 208 1
83 410 1
84 8 1
84 14 1
84 27 1
84 28 1
84 46 1
84 49 1
84 151 1
84 161 1
84 416 1
84 460 1
84 536 1
84 697 1
84 767 1
85 6 1
85 7 1
85 31 1
85 42 1
85 60 1
85 80 1
85 100 1
85 103 1
85 125 1
85 153 1
85 159 1
85 175 1
85 195 1
85 198 1
85 302 1
85 359 1
85 364 1
85 365 1
85 367 1
85 390 1
85 398 1
85 491 1
85 590 1
85 718 1
85 766 1
86 8 1
86 32 1
86 40 1
86 42 1
86 47 1
86 51 1
86 95 1
86 112 1
86 157 1
86 176 1
86 185 1
86 336 1
86 343 1
86 407 1
86 477 1
86 597 1
86 609 1
86 617 1
86 708 1
87 18 1
87 28 1
87 34 1
87 43 1
87 53 1
87 55 1
87 146 1
87 188 1
87 251 1
87 322 1
87 325 1
87 344 1
87 372 1
87 374 1
87 377 1
87 421 1
87 462 1
87 467 1
87 475 1
87 544 1
87 579 1
87 786 1
88 10 1
88 31 1
88 39 1
88 42 1
88 47 1
88 80 1
88 116 1
88 349 1
88 505 1
88 645 1
89 1 1
89 4 1
89 7 1
89 8 1
89 36 1
89 41 1
89 101 1
89 119 1
89 123 1
89 127 1
89 155 1
89 202 1
89 206 1
89 218 1
89 220 1
89 237 1
89 245 1
89 399 1
89 418 1
89 446 1
89 466 1
89 495 1
89 523 1
89 593 1
89 767 1
90 4 1
90 15 1
90 18 1
90 26 1
90 32 1
90 49 1
90 184 1
90 214 1
90 243 1
90 275 1
90 323 1
90 371 1
90 378 1
90 557 1
90 702 1
91 3 1
91 8 1
91 9 1
91 13 1
91 25 1
91 47 1
91 93 1
91 100 1
91 105 1
91 170 1
91 263 1
91 276 1
91 295 1
91 339 1
91 404 1
91 424 1
91 430 1
91 456 1
91 489 1
91 494 1
91 572 1
91 616 1
91 659 1
91 772 1
92 1 1
92 9 1
92 26 1
92 31 1
92 75 1
92 145 1
92 146 1
92 154 1
92 158 1
92 162 1
92 307 1
92 382 1
92 444 1
92 542 1
92 593 1
92 635 1
92 641 1
92 650 1
92 690 1
92 704 1
93 8 1
93 10 1
93 13 1
93 16 1
93 21 1
93 91 1
93 111 1
93 133 1
93 143 1
93 170 1
93 178 1
93 235 1
93 295 1
93 305 1
93 339 1
93 412 1
93 424 1
93 500 1
93 510 1
93 533 1
93 575 1
93 623 1
93 671 1
94 3 1
94 8 1
94 17 1
94 39 1
94 43 1
94 50 1
94 123 1
94 129 1
94 229 1
94 300 1
94 346 1
94 402 1
94 443 1
94 542 1
94 574 1
94 596 1
94 669 1
95 5 1
95 6 1
95 8 1
95 32 1
95 86 1
95 98 1
95 112 1
95 157 1
95 209 1
95 246 1
95 271 1
95 322 1
95 373 1
95 411 1
95 439 1
95 526 1
95 597 1
95 752 1
95 794 1
96 2 1
96 8 1
96 9 1
96 15 1
96 53 1
96 65 1
96 117 1
96 193 1
96 597 1
96 674 1
97 3 1
97 22 1
97 31 1
97 40 1
97 66 1
97 68 1
97 117 1
97 129 1
97 154 1
97 169 1
97 314 1
97 383 1
97 396 1
97 419 1
97 484 1
97 547 1
97 573 1
97 660 1
97 713 1
97 726 1
97 746 1
97 756 1
98 2 1
98 4 1
98 5 1
98 32 1
98 72 1
98 95 1
98 132 1
98 144 1
98 147 1
98 182 1
98 209 1
98 218 1
98 232 1
98 254 1
98 271 1
98 313 1
98 373 1
98 402 1
98 458 1
98 485 1
98 498 1
98 530 1
98 594 1
98 612 1
98 631 1
98 742 1
98 754 1
98 794 1
99 2 1
99 3 1
99 17 1
99 35 1
99 43 1
99 54 1
99 135 1
99 144 1
99 168 1
99 190 1
99 196 1
99 240 1
99 286 1
99 298 1
99 355 1
99 368 1
99 431 1
99 456 1
99 473 1
99 490 1
99 508 1
99 629 1
99 798 1
100 3 1
100 9 1
100 31 1
100 80 1
100 85 1
100 91 1
100 153 1
100 159 1
100 208 1
100 237 1
100 276 1
100 389 1
100 491 1
100 659 1
100 792 1
101 1 1
101 7 1
101 8 1
101 18 1
101 81 1
101 89 1
101 123 1
101 127 1
101 202 1
101 206 1
101 216 1
101 278 1
101 340 1
101 539 1
101 593 1
101 707 1
102 1 1
102 9 1
102 27 1
102 28 1
102 37 1
102 67 1
102 165 1
102 192 1
102 236 1
102 336 1
102 392 1
102 429 1
102 451 1
102 666 1
103 2 1
103 7 1
103 10 1
103 80 1
103 85 1
103 159 1
103 537 1
103 717 1
104 1 1
104 12 1
104 15 1
104 28 1
104 38 1
104 45 1
104 107 1
104 115 1
104 145 1
104 238 1
104 241 1
104 287 1
104 387 1
104 485 1
104 531 1
104 568 1
104 603 1
104 683 1
105 3 1
105 25 1
105 37 1
105 77 1
105 91 1
105 106 1
105 196 1
105 200 1
105 317 1
105 383 1
105 639 1
106 4 1
106 8 1
106 37 1
106 62 1
106 77 1
106 105 1
106 196 1
106 383 1
106 421 1
106 618 1
107 1 1
107 5 1
107 36 1
107 45 1
107 78 1
107 104 1
107 141 1
107 145 1
107 185 1
107 214 1
107 370 1
107 531 1
108 4 1
108 6 1
108 17 1
108 20 1
108 33 1
108 63 1
108 165 1
108 189 1
108 259 1
108 335 1
108 377 1
108 428 1
108 437 1
108 583 1
108 665 1
108 698 1
108 726 1
108 769 1
109 18 1
109 29 1
109 71 1
109 73 1
109 76 1
109 124 1
109 126 1
109 157 1
109 177 1
109 210 1
109 291 1
109 346 1
109 401 1
109 420 1
109 493 1
109 548 1
109 653 1
109 682 1
109 728 1
110 4 1
110 8 1
110 10 1
110 27 1
110 41 1
110 69 1
110 437 1
110 486 1
111 6 1
111 15 1
111 16 1
111 21 1
111 58 1
111 93 1
111 116 1
111 122 1
111 130 1
111 143 1
111 156 1
111 190 1
111 234 1
111 297 1
111 338 1
111 405 1
111 432 1
111 473 1
111 533 1
111 556 1
111 626 1
111 651 1
111 689 1
111 690 1
111 751 1
111 755 1
111 785 1
111 796 1
112 8 1
112 34 1
112 40 1
112 42 1
112 86 1
112 95 1
112 153 1
112 400 1
112 526 1
112 763 1
113 5 1
113 6 1
113 8 1
113 9 1
113 26 1
113 51 1
113 131 1
113 356 1
113 364 1
113 403 1
113 528 1
113 736 1
113 739 1
113 800 1
114 1 1
114 10 1
114 18 1
114 23 1
114 33 1
114 34 1
114 122 1
114 152 1
114 223 1
114 270 1
114 778 1
115 1 1
115 12 1
115 22 1
115 46 1
115 70 1
115 104 1
115 142 1
115 219 1
115 247 1
115 345 1
115 434 1
115 440 1
115 511 1
115 736 1
116 6 1
116 15 1
116 39 1
116 47 1
116 88 1
116 111 1
116 122 1
116 124 1
116 156 1
116 222 1
116 231 1
116 297 1
116 349 1
116 498 1
116 505 1
116 603 1
117 2 1
117 3 1
117 9 1
117 22 1
117 96 1
117 97 1
117 129 1
117 134 1
117 137 1
117 152 1
117 154 1
117 173 1
117 272 1
117 329 1
117 384 1
117 415 1
117 458 1
117 488 1
117 496 1
117 502 1
117 573 1
117 613 1
117 655 1
117 726 1
117 746 1
118 18 1
118 30 1
118 32 1
118 44 1
118 48 1
118 62 1
118 148 1
118 279 1
118 301 1
118 545 1
118 731 1
118 753 1
119 1 1
119 4 1
119 6 1
119 8 1
119 36 1
119 89 1
119 120 1
119 253 1
119 296 1
119 302 1
119 366 1
119 375 1
119 449 1
119 466 1
119 554 1
119 559 1
119 572 1
119 620 1
120 4 1
120 8 1
120 19 1
120 82 1
120 119 1
120 366 1
120 516 1
120 565 1
120 716 1
121 2 1
121 8 1
121 13 1
121 59 1
121 63 1
121 82 1
121 147 1
121 171 1
121 179 1
121 180 1
121 246 1
121 497 1
121 569 1
121 601 1
121 720 1
121 760 1
121 786 1
122 6 1
122 10 1
122 23 1
122 111 1
122 114 1
122 116 1
122 130 1
122 152 1
122 156 1
122 223 1
122 288 1
122 338 1
122 360 1
122 515 1
122 616 1
122 689 1
122 756 1
122 785 1
123 3 1
123 8 1
123 17 1
123 89 1
123 94 1
123 101 1
123 127 1
123 340 1
123 399 1
123 402 1
123 518 1
123 574 1
124 18 1
124 39 1
124 47 1
124 73 1
124 109 1
124 116 1
124 126 1
124 231 1
124 380 1
124 564 1
125 18 1
125 37 1
125 42 1
125 71 1
125 80 1
125 85 1
125 195 1
125 211 1
125 264 1
125 297 1
125 309 1
125 318 1
125 359 1
125 474 1
125 479 1
125 497 1
126 18 1
126 66 1
126 75 1
126 80 1
126 109 1
126 124 1
126 160 1
126 177 1
126 291 1
126 380 1
126 419 1
126 469 1
126 548 1
126 645 1
126 649 1
126 705 1
126 761 1
126 794 1
127 3 1
127 4 1
127 65 1
127 89 1
127 101 1
127 123 1
127 202 1
127 299 1
127 465 1
128 7 1
128 8 1
128 9 1
128 25 1
128 51 1
128 149 1
128 164 1
128 239 1
128 276 1
128 374 1
128 471 1
128 481 1
129 3 1
129 8 1
129 39 1
129 94 1
129 97 1
129 117 1
129 137 1
129 169 1
129 272 1
129 278 1
129 300 1
129 333 1
129 347 1
129 382 1
129 384 1
129 393 1
129 415 1
129 419 1
129 486 1
129 508 1
129 554 1
129 573 1
129 694 1
130 2 1
130 6 1
130 29 1
130 37 1
130 111 1
130 122 1
130 139 1
130 162 1
130 174 1
130 184 1
130 192 1
130 234 1
130 338 1
130 360 1
130 416 1
130 432 1
130 445 1
130 575 1
130 626 1
130 690 1
131 1 1
131 5 1
131 26 1
131 70 1
131 113 1
131 244 1
131 262 1
131 284 1
131 356 1
131 431 1
131 562 1
131 664 1
131 739 1
132 4 1
132 19 1
132 56 1
132 59 1
132 72 1
132 98 1
132 144 1
132 172 1
132 182 1
132 252 1
132 341 1
132 385 1
132 480 1
132 600 1
132 746 1
133 10 1
133 16 1
133 21 1
133 44 1
133 71 1
133 93 1
133 150 1
133 168 1
133 178 1
133 194 1
133 209 1
133 316 1
133 541 1
133 797 1
134 2 1
134 9 1
134 15 1
134 32 1
134 40 1
134 117 1
134 248 1
134 410 1
134 576 1
134 656 1
134 677 1
134 721 1
135 3 1
135 33 1
135 35 1
135 54 1
135 64 1
135 99 1
135 168 1
135 255 1
135 257 1
135 456 1
135 493 1
135 500 1
135 527 1
135 556 1
135 678 1
135 732 1
136 1 1
136 28 1
136 34 1
136 46 1
136 70 1
136 141 1
136 205 1
136 254 1
136 292 1
136 320 1
136 390 1
136 393 1
136 398 1
136 504 1
136 546 1
136 561 1
136 576 1
136 646 1
136 661 1
137 1 1
137 3 1
137 45 1
137 117 1
137 129 1
137 152 1
137 256 1
137 272 1
137 278 1
137 329 1
137 333 1
137 373 1
137 393 1
137 444 1
137 496 1
137 508 1
137 554 1
137 744 1
138 1 1
138 19 1
138 24 1
138 28 1
138 29 1
138 53 1
138 269 1
138 601 1
139 13 1
139 22 1
139 29 1
139 37 1
139 68 1
139 130 1
139 162 1
139 163 1
139 316 1
139 337 1
139 352 1
139 353 1
139 436 1
139 591 1
140 3 1
140 11 1
140 19 1
140 20 1
140 27 1
140 60 1
140 203 1
140 320 1
140 399 1
140 440 1
140 560 1
140 600 1
140 606 1
140 699 1
141 1 1
141 28 1
141 34 1
141 45 1
141 107 1
141 136 1
141 292 1
141 552 1
141 661 1
142 4 1
142 22 1
142 28 1
142 31 1
142 70 1
142 115 1
142 241 1
142 252 1
142 256 1
142 338 1
142 345 1
142 414 1
142 503 1
143 3 1
143 8 1
143 13 1
143 21 1
143 93 1
143 111 1
143 183 1
143 257 1
143 258 1
143 268 1
143 609 1
143 632 1
143 643 1
143 755 1
143 799 1
144 2 1
144 3 1
144 4 1
144 98 1
144 99 1
144 132 1
144 240 1
144 252 1
144 594 1
144 605 1
144 668 1
145 1 1
145 9 1
145 92 1
145 104 1
145 107 1
145 162 1
145 201 1
145 224 1
145 289 1
145 307 1
145 309 1
145 337 1
145 427 1
145 454 1
145 459 1
145 593 1
145 650 1
145 695 1
146 1 1
146 26 1
146 53 1
146 55 1
146 87 1
146 92 1
146 158 1
146 188 1
146 204 1
146 249 1
146 280 1
146 282 1
146 325 1
146 344 1
146 377 1
146 382 1
146 388 1
146 405 1
146 422 1
146 542 1
146 544 1
146 625 1
146 662 1
146 686 1
146 704 1
146 785 1
147 2 1
147 13 1
147 72 1
147 82 1
147 98 1
147 121 1
147 239 1
147 254 1
147 506 1
147 652 1
147 655 1
148 17 1
148 18 1
148 29 1
148 62 1
148 118 1
148 236 1
148 261 1
148 558 1
148 615 1
148 745 1
148 780 1
149 4 1
149 5 1
149 7 1
149 8 1
149 72 1
149 128 1
149 167 1
149 191 1
149 197 1
149 227 1
149 228 1
149 239 1
149 267 1
149 285 1
149 344 1
149 374 1
149 428 1
149 457 1
149 463 1
149 467 1
149 481 1
149 584 1
149 624 1
149 661 1
149 716 1
149 789 1
150 3 1
150 9 1
150 11 1
150 44 1
150 71 1
150 133 1
150 168 1
150 290 1
150 316 1
150 483 1
150 682 1
151 14 1
151 16 1
151 23 1
151 49 1
151 77 1
151 84 1
151 161 1
151 183 1
151 244 1
151 351 1
151 416 1
151 460 1
151 550 1
151 566 1
151 639 1
151 728 1
152 3 1
152 23 1
152 114 1
152 117 1
152 122 1
152 137 1
152 223 1
152 256 1
152 288 1
152 310 1
152 315 1
152 329 1
152 744 1
153 31 1
153 34 1
153 40 1
153 85 1
153 100 1
153 112 1
153 208 1
153 400 1
153 491 1
153 718 1
153 753 1
154 22 1
154 66 1
154 75 1
154 92 1
154 97 1
154 117 1
154 635 1
154 713 1
154 726 1
155 4 1
155 6 1
155 7 1
155 41 1
155 89 1
155 233 1
155 249 1
155 381 1
155 418 1
155 435 1
155 495 1
155 510 1
155 522 1
155 544 1
155 578 1
155 647 1
155 652 1
155 675 1
155 733 1
155 758 1
156 1 1
156 14 1
156 111 1
156 116 1
156 122 1
156 243 1
156 297 1
156 498 1
156 689 1
156 756 1
157 29 1
157 32 1
157 71 1
157 86 1
157 95 1
157 109 1
157 411 1
157 597 1
158 13 1
158 18 1
158 26 1
158 92 1
158 146 1
158 295 1
158 329 1
158 345 1
158 382 1
158 391 1
158 491 1
158 530 1
158 622 1
159 7 1
159 27 1
159 41 1
159 85 1
159 100 1
159 103 1
160 3 1
160 35 1
160 64 1
160 66 1
160 80 1
160 126 1
160 226 1
160 350 1
160 358 1
160 567 1
160 648 1
160 705 1
160 710 1
160 761 1
161 4 1
161 49 1
161 62 1
161 73 1
161 84 1
161 151 1
161 244 1
161 277 1
161 318 1
161 416 1
161 536 1
161 697 1
161 743 1
161 767 1
162 1 1
162 29 1
162 92 1
162 130 1
162 139 1
162 145 1
162 307 1
162 316 1
163 13 1
163 34 1
163 40 1
163 68 1
163 78 1
163 139 1
163 352 1
163 591 1
163 610 1
163 625 1
163 679 1
163 694 1
164 7 1
164 10 1
164 19 1
164 21 1
164 128 1
164 174 1
164 586 1
165 6 1
165 9 1
165 37 1
165 63 1
165 102 1
165 108 1
165 192 1
165 280 1
165 286 1
165 335 1
165 670 1
165 769 1
166 10 1
166 17 1
166 20 1
166 23 1
166 31 1
166 77 1
166 189 1
166 200 1
166 330 1
166 408 1
166 487 1
167 5 1
167 40 1
167 58 1
167 72 1
167 78 1
167 149 1
167 197 1
167 213 1
167 228 1
167 267 1
167 304 1
167 344 1
167 388 1
167 417 1
167 467 1
167 543 1
167 579 1
167 711 1
167 719 1
168 44 1
168 54 1
168 99 1
168 133 1
168 135 1
168 150 1
168 255 1
168 286 1
168 341 1
168 378 1
168 675 1
168 683 1
168 748 1
169 2 1
169 3 1
169 4 1
169 38 1
169 97 1
169 129 1
169 177 1
169 419 1
169 592 1
170 8 1
170 30 1
170 33 1
170 44 1
170 91 1
170 93 1
170 295 1
170 305 1
170 356 1
170 616 1
170 662 1
170 681 1
170 792 1
171 4 1
171 34 1
171 59 1
171 63 1
171 73 1
171 121 1
171 179 1
171 282 1
171 497 1
171 602 1
171 686 1
171 706 1
171 722 1
172 4 1
172 13 1
172 17 1
172 72 1
172 132 1
172 178 1
172 266 1
172 363 1
172 385 1
172 511 1
172 600 1
172 634 1
172 666 1
173 3 1
173 10 1
173 22 1
173 48 1
173 72 1
173 117 1
173 181 1
173 187 1
173 229 1
173 248 1
173 314 1
173 509 1
173 516 1
173 596 1
174 6 1
174 7 1
174 51 1
174 130 1
174 164 1
174 234 1
174 405 1
174 556 1
174 751 1
175 14 1
175 26 1
175 31 1
175 42 1
175 52 1
175 85 1
175 182 1
175 199 1
175 230 1
175 260 1
175 291 1
175 502 1
176 32 1
176 37 1
176 51 1
176 71 1
176 86 1
176 211 1
176 264 1
176 309 1
176 336 1
176 343 1
176 536 1
176 708 1
176 798 1
177 2 1
177 4 1
177 18 1
177 109 1
177 126 1
177 169 1
177 291 1
177 420 1
177 469 1
177 645 1
177 794 1
178 4 1
178 21 1
178 72 1
178 93 1
178 133 1
178 172 1
178 266 1
178 363 1
178 447 1
178 535 1
178 635 1
179 4 1
179 7 1
179 27 1
179 63 1
179 121 1
179 171 1
179 339 1
179 494 1
179 497 1
180 2 1
180 13 1
180 14 1
180 57 1
180 121 1
180 199 1
180 221 1
180 246 1
180 376 1
180 443 1
180 577 1
180 692 1
180 720 1
180 737 1
180 786 1
181 4 1
181 10 1
181 21 1
181 30 1
181 72 1
181 173 1
181 229 1
181 247 1
181 248 1
181 264 1
181 299 1
181 386 1
181 466 1
181 481 1
181 513 1
181 553 1
181 596 1
181 606 1
181 701 1
181 764 1
182 14 1
182 26 1
182 72 1
182 98 1
182 132 1
182 175 1
182 260 1
182 485 1
182 530 1
182 547 1
182 564 1
182 766 1
183 3 1
183 13 1
183 16 1
183 77 1
183 143 1
183 151 1
183 257 1
183 258 1
183 268 1
183 311 1
183 423 1
183 533 1
183 624 1
183 728 1
183 771 1
184 2 1
184 18 1
184 32 1
184 37 1
184 90 1
184 130 1
184 243 1
184 557 1
185 5 1
185 36 1
185 40 1
185 47 1
185 86 1
185 107 1
185 495 1
185 617 1
185 636 1
186 1 1
186 5 1
186 8 1
186 26 1
186 31 1
186 39 1
186 296 1
186 499 1
186 546 1
186 583 1
187 6 1
187 10 1
187 48 1
187 55 1
187 58 1
187 173 1
187 225 1
187 255 1
187 274 1
187 314 1
187 369 1
187 417 1
187 509 1
187 521 1
187 534 1
187 660 1
187 668 1
187 724 1
187 752 1
187 799 1
188 17 1
188 19 1
188 53 1
188 56 1
188 87 1
188 146 1
188 249 1
188 294 1
188 344 1
188 371 1
188 379 1
188 386 1
188 400 1
188 405 1
188 441 1
188 571 1
188 747 1
189 4 1
189 17 1
189 31 1
189 63 1
189 108 1
189 166 1
189 330 1
189 698 1
190 2 1
190 15 1
190 54 1
190 58 1
190 99 1
190 111 1
190 196 1
190 319 1
190 425 1
190 473 1
190 651 1
190 765 1
191 4 1
191 5 1
191 7 1
191 57 1
191 60 1
191 149 1
191 220 1
191 361 1
191 407 1
191 520 1
191 565 1
191 727 1
192 2 1
192 29 1
192 37 1
192 102 1
192 130 1
192 165 1
192 280 1
192 416 1
192 575 1
192 670 1
192 793 1
193 1 1
193 2 1
193 25 1
193 37 1
193 65 1
193 96 1
193 368 1
193 370 1
193 525 1
194 10 1
194 15 1
194 21 1
194 55 1
194 58 1
194 133 1
194 215 1
194 308 1
194 332 1
194 482 1
194 663 1
194 797 1
195 7 1
195 42 1
195 60 1
195 85 1
195 125 1
195 198 1
195 359 1
195 364 1
195 552 1
195 590 1
195 766 1
196 54 1
196 77 1
196 99 1
196 105 1
196 106 1
196 190 1
196 317 1
196 473 1
197 10 1
197 33 1
197 44 1
197 72 1
197 149 1
197 167 1
197 228 1
197 304 1
197 348 1
197 388 1
197 422 1
197 445 1
197 590 1
198 3 1
198 20 1
198 33 1
198 60 1
198 85 1
198 195 1
198 367 1
198 397 1
198 534 1
198 552 1
198 671 1
199 14 1
199 26 1
199 52 1
199 57 1
199 175 1
199 180 1
199 213 1
199 221 1
199 260 1
200 23 1
200 25 1
200 77 1
200 105 1
200 166 1
200 545 1
200 639 1
201 1 1
201 3 1
201 12 1
201 45 1
201 145 1
201 224 1
201 230 1
201 242 1
201 274 1
201 289 1
201 327 1
201 427 1
201 435 1
201 528 1
201 561 1
201 589 1
201 723 1
201 779 1
202 14 1
202 22 1
202 61 1
202 89 1
202 101 1
202 127 1
202 206 1
202 218 1
202 278 1
202 325 1
202 358 1
202 446 1
202 475 1
202 476 1
202 781 1
203 3 1
203 11 1
203 25 1
203 77 1
203 140 1
203 275 1
203 285 1
203 303 1
203 310 1
203 328 1
203 355 1
203 366 1
203 376 1
203 409 1
203 538 1
203 549 1
203 599 1
203 600 1
203 611 1
203 650 1
203 659 1
203 737 1
204 1 1
204 4 1
204 13 1
204 16 1
204 26 1
204 146 1
204 221 1
204 284 1
204 307 1
204 324 1
204 354 1
204 448 1
204 524 1
204 577 1
204 663 1
204 686 1
204 692 1
204 735 1
205 8 1
205 18 1
205 46 1
205 59 1
205 70 1
205 136 1
205 492 1
205 566 1
206 2 1
206 12 1
206 24 1
206 89 1
206 101 1
206 202 1
206 218 1
206 278 1
206 446 1
206 580 1
206 654 1
207 3 1
207 4 1
207 19 1
207 25 1
207 54 1
207 83 1
207 233 1
207 251 1
207 409 1
208 26 1
208 31 1
208 36 1
208 83 1
208 100 1
208 153 1
208 688 1
208 739 1
208 753 1
209 5 1
209 16 1
209 71 1
209 95 1
209 98 1
209 133 1
210 18 1
210 30 1
210 72 1
210 76 1
210 79 1
210 109 1
210 300 1
210 379 1
210 587 1
210 728 1
211 6 1
211 8 1
211 71 1
211 125 1
211 176 1
211 536 1
211 738 1
211 790 1
212 4 1
212 14 1
212 49 1
212 52 1
212 57 1
212 347 1
212 389 1
212 578 1
212 594 1
212 631 1
212 701 1
213 14 1
213 57 1
213 58 1
213 78 1
213 167 1
213 199 1
213 260 1
213 306 1
213 492 1
213 633 1
213 719 1
214 5 1
214 26 1
214 49 1
214 90 1
214 107 1
214 245 1
214 275 1
214 360 1
214 370 1
214 394 1
214 413 1
214 495 1
214 548 1
215 1 1
215 15 1
215 58 1
215 68 1
215 74 1
215 194 1
215 228 1
215 272 1
215 308 1
215 478 1
215 482 1
215 573 1
216 1 1
216 24 1
216 53 1
216 55 1
216 101 1
216 539 1
216 673 1
216 707 1
216 758 1
217 9 1
217 15 1
217 18 1
217 25 1
217 28 1
217 65 1
217 423 1
218 2 1
218 4 1
218 89 1
218 98 1
218 202 1
218 206 1
218 313 1
218 446 1
218 754 1
219 1 1
219 5 1
219 46 1
219 70 1
219 115 1
219 225 1
219 250 1
219 342 1
219 362 1
219 432 1
219 459 1
219 483 1
219 511 1
219 715 1
219 747 1
220 1 1
220 4 1
220 57 1
220 60 1
220 89 1
220 191 1
220 245 1
220 565 1
220 687 1
220 777 1
221 13 1
221 14 1
221 16 1
221 180 1
221 199 1
221 204 1
221 307 1
221 354 1
221 692 1
221 784 1
221 796 1
222 6 1
222 15 1
222 43 1
222 56 1
222 59 1
222 116 1
222 226 1
222 603 1
223 8 1
223 114 1
223 122 1
223 152 1
223 246 1
223 331 1
223 526 1
224 9 1
224 14 1
224 49 1
224 52 1
224 145 1
224 201 1
224 267 1
224 309 1
224 327 1
224 352 1
224 427 1
224 561 1
224 667 1
225 1 1
225 5 1
225 6 1
225 58 1
225 187 1
225 219 1
225 250 1
225 394 1
225 417 1
225 496 1
225 660 1
225 670 1
225 747 1
225 752 1
226 35 1
226 43 1
226 59 1
226 64 1
226 160 1
226 222 1
226 350 1
226 451 1
226 567 1
226 602 1
227 4 1
227 7 1
227 8 1
227 56 1
227 82 1
227 149 1
227 285 1
227 406 1
227 428 1
227 463 1
228 68 1
228 74 1
228 149 1
228 167 1
228 197 1
228 215 1
228 267 1
228 272 1
228 388 1
228 422 1
228 543 1
228 587 1
228 679 1
229 3 1
229 10 1
229 43 1
229 94 1
229 173 1
229 181 1
229 248 1
229 513 1
229 553 1
229 606 1
229 651 1
229 764 1
230 12 1
230 31 1
230 42 1
230 45 1
230 175 1
230 201 1
230 362 1
231 1 1
231 6 1
231 7 1
231 47 1
231 116 1
231 124 1
231 512 1
232 1 1
232 2 1
232 5 1
232 11 1
232 32 1
232 98 1
232 238 1
232 289 1
233 6 1
233 7 1
233 25 1
233 54 1
233 155 1
233 207 1
233 249 1
233 333 1
233 375 1
233 409 1
233 418 1
233 435 1
233 468 1
233 472 1
233 519 1
233 522 1
233 557 1
233 604 1
234 23 1
234 30 1
234 35 1
234 111 1
234 130 1
234 174 1
234 365 1
234 405 1
234 432 1
234 473 1
234 551 1
234 592 1
234 607 1
234 623 1
234 637 1
235 8 1
235 13 1
235 34 1
235 62 1
235 73 1
235 93 1
235 315 1
235 397 1
235 447 1
235 500 1
235 539 1
235 589 1
235 649 1
236 18 1
236 27 1
236 62 1
236 67 1
236 102 1
236 148 1
236 261 1
236 392 1
236 644 1
236 689 1
236 709 1
236 782 1
237 3 1
237 4 1
237 9 1
237 36 1
237 89 1
237 100 1
237 389 1
237 792 1
238 5 1
238 15 1
238 32 1
238 38 1
238 104 1
238 232 1
238 241 1
238 287 1
238 289 1
238 387 1
238 438 1
238 452 1
238 549 1
238 568 1
238 683 1
238 776 1
239 2 1
239 7 1
239 72 1
239 128 1
239 147 1
239 149 1
239 457 1
239 503 1
239 619 1
240 2 1
240 10 1
240 17 1
240 19 1
240 99 1
240 144 1
240 517 1
240 605 1
240 657 1
240 750 1
240 795 1
241 28 1
241 31 1
241 38 1
241 104 1
241 142 1
241 238 1
241 287 1
241 438 1
242 3 1
242 12 1
242 21 1
242 23 1
242 27 1
242 201 1
242 274 1
242 452 1
242 700 1
243 4 1
243 14 1
243 18 1
243 90 1
243 156 1
243 184 1
243 557 1
243 707 1
243 722 1
244 1 1
244 49 1
244 70 1
244 131 1
244 151 1
244 161 1
244 317 1
244 318 1
244 351 1
244 395 1
245 4 1
245 26 1
245 49 1
245 89 1
245 214 1
245 220 1
245 394 1
245 548 1
245 711 1
246 8 1
246 13 1
246 95 1
246 121 1
246 180 1
246 223 1
246 331 1
246 334 1
246 376 1
246 705 1
246 737 1
246 762 1
246 786 1
247 1 1
247 4 1
247 12 1
247 21 1
247 115 1
247 181 1
247 434 1
247 481 1
248 15 1
248 40 1
248 134 1
248 173 1
248 181 1
248 229 1
248 576 1
248 596 1
248 764 1
249 6 1
249 53 1
249 146 1
249 155 1
249 188 1
249 233 1
249 375 1
249 405 1
249 418 1
249 585 1
249 637 1
249 652 1
249 730 1
249 734 1
249 748 1
249 785 1
249 788 1
250 5 1
250 17 1
250 33 1
250 35 1
250 219 1
250 225 1
250 265 1
250 426 1
250 519 1
250 706 1
250 747 1
251 4 1
251 19 1
251 43 1
251 55 1
251 87 1
251 207 1
251 462 1
252 4 1
252 28 1
252 132 1
252 142 1
252 144 1
252 256 1
252 338 1
252 341 1
252 503 1
253 6 1
253 8 1
253 14 1
253 48 1
253 119 1
253 268 1
253 375 1
253 449 1
253 540 1
253 554 1
254 1 1
254 2 1
254 70 1
254 98 1
254 136 1
254 147 1
254 504 1
254 561 1
254 563 1
254 621 1
254 742 1
254 749 1
254 751 1
255 54 1
255 55 1
255 58 1
255 135 1
255 168 1
255 187 1
255 274 1
255 341 1
255 457 1
255 524 1
255 562 1
255 617 1
255 668 1
255 675 1
255 738 1
256 3 1
256 28 1
256 137 1
256 142 1
256 152 1
256 252 1
256 315 1
257 3 1
257 54 1
257 135 1
257 143 1
257 183 1
257 268 1
257 363 1
257 423 1
257 465 1
257 500 1
257 556 1
257 609 1
257 632 1
257 680 1
257 697 1
257 712 1
257 770 1
257 771 1
257 799 1
258 8 1
258 13 1
258 34 1
258 62 1
258 143 1
258 183 1
258 311 1
258 568 1
259 2 1
259 4 1
259 9 1
259 17 1
259 33 1
259 108 1
259 335 1
259 377 1
259 439 1
259 442 1
259 464 1
259 777 1
259 783 1
259 791 1
260 14 1
260 57 1
260 175 1
260 182 1
260 199 1
260 213 1
260 306 1
260 492 1
260 633 1
260 757 1
261 62 1
261 68 1
261 74 1
261 81 1
261 148 1
261 236 1
261 644 1
261 782 1
262 2 1
262 5 1
262 9 1
262 11 1
262 70 1
262 131 1
262 284 1
262 292 1
262 348 1
262 431 1
262 525 1
262 555 1
262 598 1
262 614 1
262 664 1
263 13 1
263 34 1
263 39 1
263 47 1
263 50 1
263 91 1
263 298 1
263 404 1
263 550 1
263 640 1
263 643 1
263 772 1
264 4 1
264 30 1
264 37 1
264 125 1
264 176 1
264 181 1
264 309 1
264 318 1
264 404 1
264 541 1
264 701 1
264 798 1
265 4 1
265 12 1
265 17 1
265 26 1
265 35 1
265 250 1
265 273 1
265 519 1
265 531 1
265 706 1
266 4 1
266 14 1
266 15 1
266 22 1
266 172 1
266 178 1
266 363 1
266 436 1
266 447 1
266 569 1
266 708 1
266 782 1
267 14 1
267 49 1
267 149 1
267 167 1
267 224 1
267 228 1
267 344 1
267 543 1
267 679 1
267 789 1
268 6 1
268 8 1
268 143 1
268 183 1
268 253 1
268 257 1
268 270 1
268 380 1
268 433 1
268 540 1
268 574 1
268 732 1
269 1 1
269 6 1
269 29 1
269 32 1
269 63 1
269 138 1
269 343 1
269 509 1
270 1 1
270 6 1
270 8 1
270 34 1
270 114 1
270 268 1
270 380 1
270 387 1
270 433 1
270 441 1
270 488 1
270 586 1
270 611 1
270 626 1
270 674 1
270 696 1
271 32 1
271 51 1
271 62 1
271 95 1
271 98 1
271 322 1
271 373 1
271 402 1
271 414 1
271 458 1
271 489 1
271 498 1
271 631 1
271 710 1
272 68 1
272 117 1
272 129 1
272 137 1
272 215 1
272 228 1
272 278 1
272 373 1
272 384 1
272 478 1
272 496 1
272 502 1
272 613 1
272 655 1
273 4 1
273 12 1
273 13 1
273 46 1
273 49 1
273 265 1
273 283 1
273 487 1
273 676 1
274 3 1
274 55 1
274 187 1
274 201 1
274 242 1
274 255 1
274 369 1
274 524 1
274 668 1
275 9 1
275 25 1
275 49 1
275 90 1
275 203 1
275 214 1
275 285 1
275 360 1
275 371 1
275 599 1
275 659 1
276 9 1
276 25 1
276 91 1
276 100 1
276 128 1
276 572 1
276 659 1
277 4 1
277 18 1
277 51 1
277 62 1
277 73 1
277 161 1
277 349 1
277 406 1
277 628 1
277 658 1
277 678 1
277 743 1
278 101 1
278 129 1
278 137 1
278 202 1
278 206 1
278 272 1
278 333 1
278 373 1
279 14 1
279 44 1
279 46 1
279 48 1
279 61 1
279 118 1
279 301 1
279 480 1
279 723 1
279 764 1
280 37 1
280 53 1
280 55 1
280 146 1
280 165 1
280 192 1
280 282 1
280 304 1
280 372 1
280 388 1
280 612 1
280 662 1
280 670 1
281 12 1
281 15 1
281 19 1
281 56 1
281 68 1
281 82 1
281 425 1
281 512 1
281 529 1
281 605 1
281 642 1
281 740 1
281 774 1
281 775 1
282 55 1
282 59 1
282 63 1
282 146 1
282 171 1
282 280 1
282 422 1
282 612 1
282 662 1
282 722 1
283 8 1
283 13 1
283 31 1
283 46 1
283 69 1
283 273 1
283 312 1
283 487 1
283 504 1
283 529 1
283 636 1
284 1 1
284 5 1
284 26 1
284 131 1
284 204 1
284 262 1
284 431 1
285 8 1
285 25 1
285 149 1
285 203 1
285 227 1
285 275 1
285 310 1
285 355 1
285 406 1
285 599 1
285 661 1
285 768 1
286 9 1
286 37 1
286 54 1
286 99 1
286 165 1
286 168 1
286 683 1
287 5 1
287 46 1
287 70 1
287 104 1
287 238 1
287 241 1
287 387 1
288 10 1
288 16 1
288 23 1
288 69 1
288 122 1
288 152 1
288 310 1
288 334 1
288 721 1
289 5 1
289 145 1
289 201 1
289 232 1
289 238 1
289 337 1
289 549 1
289 723 1
289 779 1
290 9 1
290 11 1
290 16 1
290 44 1
290 75 1
290 150 1
290 581 1
291 14 1
291 52 1
291 109 1
291 126 1
291 175 1
291 177 1
291 420 1
291 469 1
291 502 1
291 548 1
291 653 1
292 5 1
292 28 1
292 70 1
292 136 1
292 141 1
292 262 1
292 353 1
292 390 1
292 552 1
292 555 1
292 614 1
292 661 1
293 4 1
293 20 1
293 28 1
293 31 1
293 66 1
293 67 1
293 312 1
293 551 1
293 725 1
294 4 1
294 17 1
294 19 1
294 30 1
294 35 1
294 188 1
294 381 1
294 400 1
294 513 1
294 532 1
294 571 1
295 13 1
295 82 1
295 91 1
295 93 1
295 158 1
295 170 1
295 305 1
295 329 1
295 616 1
295 622 1
295 662 1
295 792 1
296 1 1
296 31 1
296 36 1
296 119 1
296 186 1
296 302 1
297 18 1
297 37 1
297 111 1
297 116 1
297 125 1
297 156 1
297 474 1
297 498 1
297 522 1
298 34 1
298 35 1
298 39 1
298 43 1
298 99 1
298 263 1
298 798 1
299 3 1
299 10 1
299 65 1
299 72 1
299 127 1
299 181 1
299 386 1
299 466 1
300 8 1
300 18 1
300 76 1
300 94 1
300 129 1
300 210 1
300 346 1
300 395 1
300 587 1
300 698 1
300 741 1
301 10 1
301 20 1
301 41 1
301 48 1
301 118 1
301 279 1
301 323 1
301 326 1
301 753 1
302 1 1
302 6 1
302 60 1
302 85 1
302 119 1
302 296 1
302 559 1
302 572 1
303 2 1
303 9 1
303 10 1
303 13 1
303 77 1
303 203 1
303 328 1
303 340 1
303 366 1
303 409 1
303 538 1
303 664 1
304 53 1
304 55 1
304 72 1
304 167 1
304 197 1
304 280 1
304 372 1
304 590 1
305 10 1
305 16 1
305 93 1
305 170 1
305 295 1
305 403 1
305 412 1
305 585 1
305 662 1
305 681 1
306 12 1
306 14 1
306 36 1
306 57 1
306 213 1
306 260 1
306 492 1
306 757 1
307 13 1
307 92 1
307 145 1
307 162 1
307 204 1
307 221 1
307 650 1
307 663 1
307 692 1
307 735 1
307 784 1
308 2 1
308 18 1
308 58 1
308 82 1
308 194 1
308 215 1
308 332 1
308 478 1
308 482 1
308 506 1
308 567 1
308 663 1
308 709 1
309 9 1
309 125 1
309 145 1
309 176 1
309 224 1
309 264 1
309 318 1
309 404 1
309 459 1
309 541 1
309 695 1
309 790 1
310 23 1
310 25 1
310 152 1
310 203 1
310 285 1
310 288 1
310 334 1
310 355 1
310 520 1
310 549 1
310 608 1
311 13 1
311 25 1
311 54 1
311 76 1
311 183 1
311 258 1
311 313 1
311 327 1
311 514 1
311 533 1
311 750 1
312 20 1
312 31 1
312 66 1
312 69 1
312 283 1
312 293 1
312 392 1
312 529 1
312 551 1
312 620 1
312 636 1
313 2 1
313 54 1
313 76 1
313 98 1
313 218 1
313 311 1
313 327 1
314 10 1
314 22 1
314 68 1
314 97 1
314 173 1
314 187 1
314 484 1
314 516 1
314 534 1
315 3 1
315 34 1
315 62 1
315 152 1
315 235 1
315 256 1
315 385 1
316 29 1
316 71 1
316 133 1
316 139 1
316 150 1
316 162 1
317 1 1
317 70 1
317 77 1
317 105 1
317 196 1
317 244 1
317 395 1
317 757 1
318 49 1
318 125 1
318 161 1
318 244 1
318 264 1
318 309 1
318 351 1
318 404 1
319 2 1
319 4 1
319 12 1
319 24 1
319 54 1
319 190 1
319 425 1
319 765 1
320 1 1
320 3 1
320 20 1
320 34 1
320 136 1
320 140 1
321 1 1
321 15 1
321 22 1
321 42 1
321 50 1
321 67 1
321 357 1
321 384 1
321 482 1
321 629 1
321 646 1
321 658 1
321 713 1
321 718 1
321 744 1
322 18 1
322 32 1
322 34 1
322 87 1
322 95 1
322 271 1
322 367 1
322 372 1
322 374 1
322 439 1
322 526 1
323 4 1
323 10 1
323 20 1
323 49 1
323 90 1
323 301 1
323 470 1
323 684 1
324 4 1
324 13 1
324 20 1
324 41 1
324 66 1
324 204 1
324 524 1
324 684 1
325 14 1
325 55 1
325 61 1
325 87 1
325 146 1
325 202 1
325 377 1
325 446 1
325 476 1
325 745 1
325 781 1
326 7 1
326 10 1
326 41 1
326 51 1
326 57 1
326 301 1
327 9 1
327 54 1
327 201 1
327 224 1
327 311 1
327 313 1
327 561 1
328 2 1
328 9 1
328 25 1
328 76 1
328 203 1
328 303 1
328 331 1
328 340 1
328 376 1
328 409 1
328 538 1
328 664 1
328 720 1
329 13 1
329 117 1
329 137 1
329 152 1
329 158 1
329 295 1
329 391 1
329 622 1
329 744 1
330 17 1
330 30 1
330 33 1
330 166 1
330 189 1
330 450 1
330 477 1
331 2 1
331 8 1
331 76 1
331 223 1
331 246 1
331 328 1
331 334 1
331 614 1
331 622 1
331 762 1
332 13 1
332 17 1
332 18 1
332 58 1
332 194 1
332 308 1
332 469 1
332 478 1
332 506 1
332 514 1
333 25 1
333 54 1
333 129 1
333 137 1
333 233 1
333 278 1
333 393 1
333 444 1
333 519 1
334 8 1
334 23 1
334 246 1
334 288 1
334 310 1
334 331 1
334 520 1
334 608 1
334 614 1
334 705 1
334 721 1
334 762 1
335 6 1
335 17 1
335 33 1
335 108 1
335 165 1
335 259 1
335 439 1
335 464 1
336 27 1
336 28 1
336 51 1
336 86 1
336 102 1
336 176 1
336 451 1
336 477 1
336 666 1
337 1 1
337 29 1
337 37 1
337 139 1
337 145 1
337 289 1
337 454 1
338 4 1
338 111 1
338 122 1
338 130 1
338 142 1
338 252 1
338 414 1
338 445 1
338 503 1
338 626 1
339 4 1
339 7 1
339 13 1
339 91 1
339 93 1
339 179 1
339 424 1
339 494 1
339 623 1
340 8 1
340 9 1
340 101 1
340 123 1
340 303 1
340 328 1
340 518 1
340 664 1
340 720 1
341 4 1
341 54 1
341 132 1
341 168 1
341 252 1
341 255 1
341 378 1
341 562 1
341 675 1
341 748 1
342 1 1
342 2 1
342 15 1
342 29 1
342 38 1
342 219 1
342 350 1
342 362 1
342 432 1
342 459 1
342 483 1
343 32 1
343 63 1
343 86 1
343 176 1
343 269 1
343 477 1
343 501 1
343 580 1
343 708 1
344 87 1
344 146 1
344 149 1
344 167 1
344 188 1
344 267 1
344 467 1
344 544 1
344 584 1
344 642 1
344 669 1
344 685 1
344 711 1
344 789 1
345 18 1
345 70 1
345 82 1
345 115 1
345 142 1
345 158 1
345 491 1
345 530 1
346 8 1
346 73 1
346 94 1
346 109 1
346 300 1
346 564 1
347 8 1
347 39 1
347 52 1
347 57 1
347 129 1
347 212 1
347 382 1
347 631 1
347 634 1
347 781 1
348 2 1
348 9 1
348 33 1
348 44 1
348 197 1
348 262 1
348 525 1
348 712 1
348 731 1
349 18 1
349 39 1
349 88 1
349 116 1
349 277 1
350 1 1
350 2 1
350 35 1
350 160 1
350 226 1
350 342 1
350 451 1
350 648 1
351 23 1
351 49 1
351 77 1
351 151 1
351 244 1
351 318 1
351 550 1
351 639 1
352 14 1
352 52 1
352 68 1
352 139 1
352 163 1
352 224 1
352 353 1
352 591 1
353 5 1
353 68 1
353 70 1
353 139 1
353 292 1
353 352 1
353 436 1
353 760 1
354 16 1
354 21 1
354 30 1
354 204 1
354 221 1
354 448 1
354 553 1
355 2 1
355 99 1
355 203 1
355 285 1
355 310 1
355 508 1
356 5 1
356 33 1
356 44 1
356 113 1
356 131 1
356 170 1
356 739 1
357 1 1
357 10 1
357 15 1
357 42 1
357 80 1
357 321 1
357 450 1
357 479 1
357 482 1
357 518 1
357 582 1
357 629 1
357 713 1
357 773 1
358 14 1
358 22 1
358 66 1
358 80 1
358 160 1
358 202 1
359 18 1
359 42 1
359 71 1
359 85 1
359 125 1
359 195 1
359 365 1
359 468 1
359 766 1
360 6 1
360 49 1
360 122 1
360 130 1
360 214 1
360 275 1
360 413 1
361 4 1
361 5 1
361 9 1
361 11 1
361 191 1
361 430 1
361 520 1
361 581 1
361 598 1
362 2 1
362 31 1
362 42 1
362 219 1
362 230 1
362 342 1
363 3 1
363 172 1
363 178 1
363 257 1
363 266 1
363 447 1
363 465 1
364 5 1
364 7 1
364 9 1
364 85 1
364 113 1
364 195 1
364 398 1
364 463 1
364 521 1
364 590 1
364 787 1
365 30 1
365 35 1
365 42 1
365 85 1
365 234 1
365 359 1
365 468 1
365 607 1
365 613 1
365 640 1
365 727 1
366 4 1
366 77 1
366 119 1
366 120 1
366 203 1
366 303 1
367 18 1
367 34 1
367 60 1
367 85 1
367 198 1
367 322 1
367 390 1
367 412 1
368 2 1
368 17 1
368 35 1
368 65 1
368 99 1
368 193 1
368 370 1
368 431 1
368 442 1
369 4 1
369 5 1
369 46 1
369 55 1
369 187 1
369 274 1
370 5 1
370 65 1
370 107 1
370 193 1
370 214 1
370 368 1
370 442 1
370 525 1
371 19 1
371 49 1
371 56 1
371 90 1
371 188 1
371 275 1
371 379 1
371 386 1
371 527 1
372 34 1
372 55 1
372 87 1
372 280 1
372 304 1
372 322 1
372 374 1
372 749 1
373 95 1
373 98 1
373 137 1
373 271 1
373 272 1
373 278 1
373 458 1
373 794 1
374 8 1
374 87 1
374 128 1
374 149 1
374 322 1
374 372 1
374 421 1
374 481 1
374 579 1
374 749 1
375 6 1
375 119 1
375 233 1
375 249 1
375 253 1
375 449 1
375 585 1
375 637 1
376 9 1
376 13 1
376 180 1
376 203 1
376 246 1
376 328 1
376 737 1
377 33 1
377 87 1
377 108 1
377 146 1
377 259 1
377 325 1
378 15 1
378 32 1
378 54 1
378 90 1
378 168 1
378 341 1
378 667 1
378 748 1
378 769 1
379 19 1
379 30 1
379 79 1
379 188 1
379 210 1
379 371 1
379 386 1
379 441 1
379 747 1
380 8 1
380 18 1
380 124 1
380 126 1
380 268 1
380 270 1
380 387 1
380 441 1
380 586 1
380 611 1
380 647 1
380 649 1
381 4 1
381 7 1
381 35 1
381 155 1
381 294 1
381 510 1
381 544 1
381 578 1
381 677 1
382 8 1
382 92 1
382 129 1
382 146 1
382 158 1
382 347 1
382 542 1
382 625 1
382 634 1
382 641 1
382 672 1
382 688 1
382 773 1
382 774 1
382 800 1
383 31 1
383 37 1
383 40 1
383 97 1
383 105 1
383 106 1
383 618 1
383 660 1
384 1 1
384 22 1
384 117 1
384 129 1
384 272 1
384 321 1
384 415 1
384 458 1
384 486 1
384 646 1
384 658 1
385 34 1
385 62 1
385 72 1
385 132 1
385 172 1
385 315 1
385 634 1
386 10 1
386 181 1
386 188 1
386 299 1
386 371 1
386 379 1
387 8 1
387 104 1
387 238 1
387 270 1
387 287 1
387 380 1
387 586 1
387 626 1
387 647 1
387 683 1
388 53 1
388 146 1
388 167 1
388 197 1
388 228 1
388 280 1
388 422 1
389 9 1
389 14 1
389 52 1
389 100 1
389 212 1
389 237 1
389 717 1
389 763 1
390 28 1
390 60 1
390 85 1
390 136 1
390 292 1
390 367 1
390 398 1
391 3 1
391 13 1
391 14 1
391 48 1
391 158 1
391 329 1
391 555 1
391 680 1
391 780 1
392 20 1
392 66 1
392 67 1
392 102 1
392 236 1
392 312 1
392 620 1
393 1 1
393 46 1
393 129 1
393 136 1
393 137 1
393 333 1
393 444 1
393 508 1
393 576 1
394 6 1
394 49 1
394 58 1
394 214 1
394 225 1
394 245 1
394 505 1
394 548 1
394 711 1
394 779 1
395 1 1
395 18 1
395 76 1
395 244 1
395 300 1
395 317 1
395 698 1
396 8 1
396 32 1
396 40 1
396 66 1
396 97 1
396 433 1
396 515 1
396 547 1
396 665 1
396 696 1
397 33 1
397 34 1
397 73 1
397 198 1
397 235 1
397 447 1
397 649 1
397 691 1
397 693 1
398 7 1
398 28 1
398 85 1
398 136 1
398 364 1
398 390 1
398 646 1
399 8 1
399 19 1
399 60 1
399 89 1
399 123 1
399 140 1
399 418 1
399 507 1
400 19 1
400 34 1
400 112 1
400 153 1
400 188 1
400 294 1
400 513 1
400 571 1
400 763 1
401 8 1
401 18 1
401 71 1
401 73 1
401 109 1
401 682 1
401 699 1
402 17 1
402 32 1
402 94 1
402 98 1
402 123 1
402 271 1
402 596 1
402 631 1
402 710 1
403 9 1
403 10 1
403 16 1
403 26 1
403 113 1
403 305 1
403 528 1
403 585 1
403 736 1
404 13 1
404 91 1
404 263 1
404 264 1
404 309 1
404 318 1
404 541 1
405 111 1
405 146 1
405 174 1
405 188 1
405 234 1
405 249 1
405 473 1
405 592 1
405 785 1
406 8 1
406 51 1
406 62 1
406 227 1
406 277 1
406 285 1
406 658 1
406 678 1
406 691 1
406 768 1
407 7 1
407 8 1
407 51 1
407 57 1
407 86 1
407 191 1
407 415 1
407 461 1
407 724 1
407 727 1
408 3 1
408 10 1
408 77 1
408 79 1
408 166 1
408 487 1
408 703 1
409 54 1
409 203 1
409 207 1
409 233 1
409 303 1
409 328 1
409 468 1
409 538 1
409 557 1
410 2 1
410 9 1
410 19 1
410 23 1
410 83 1
410 134 1
410 677 1
411 32 1
411 58 1
411 66 1
411 80 1
411 95 1
411 157 1
411 453 1
412 10 1
412 18 1
412 34 1
412 93 1
412 305 1
412 367 1
412 510 1
413 2 1
413 10 1
413 12 1
413 49 1
413 214 1
413 360 1
414 4 1
414 32 1
414 51 1
414 142 1
414 271 1
414 338 1
415 7 1
415 57 1
415 117 1
415 129 1
415 384 1
415 407 1
415 458 1
415 486 1
415 488 1
415 694 1
415 724 1
416 29 1
416 84 1
416 130 1
416 151 1
416 161 1
416 192 1
416 767 1
416 793 1
417 6 1
417 40 1
417 78 1
417 167 1
417 187 1
417 225 1
417 579 1
417 660 1
418 8 1
418 89 1
418 155 1
418 233 1
418 249 1
418 399 1
418 435 1
418 507 1
418 647 1
419 75 1
419 80 1
419 97 1
419 126 1
419 129 1
419 169 1
419 426 1
420 10 1
420 16 1
420 77 1
420 109 1
420 177 1
420 291 1
420 454 1
420 471 1
420 653 1
421 4 1
421 8 1
421 87 1
421 106 1
421 374 1
421 579 1
421 749 1
422 55 1
422 146 1
422 197 1
422 228 1
422 282 1
422 388 1
423 3 1
423 25 1
423 65 1
423 183 1
423 217 1
423 257 1
423 624 1
423 754 1
423 771 1
424 2 1
424 25 1
424 65 1
424 91 1
424 93 1
424 339 1
424 427 1
425 54 1
425 56 1
425 82 1
425 190 1
425 281 1
425 319 1
425 605 1
426 33 1
426 35 1
426 75 1
426 80 1
426 250 1
426 419 1
426 543 1
426 571 1
426 615 1
427 25 1
427 65 1
427 145 1
427 201 1
427 224 1
427 424 1
428 7 1
428 17 1
428 20 1
428 108 1
428 149 1
428 227 1
428 463 1
428 624 1
428 665 1
428 716 1
429 1 1
429 9 1
429 12 1
429 68 1
429 81 1
429 102 1
429 570 1
430 4 1
430 5 1
430 9 1
430 25 1
430 91 1
430 361 1
430 489 1
430 734 1
430 791 1
431 17 1
431 99 1
431 131 1
431 262 1
431 284 1
431 368 1
431 490 1
431 664 1
432 1 1
432 111 1
432 130 1
432 219 1
432 234 1
432 342 1
432 459 1
432 690 1
433 8 1
433 32 1
433 268 1
433 270 1
433 396 1
433 441 1
433 515 1
433 523 1
433 696 1
434 1 1
434 19 1
434 21 1
434 27 1
434 115 1
434 247 1
434 595 1
434 687 1
434 736 1
435 3 1
435 45 1
435 155 1
435 201 1
435 233 1
435 418 1
435 528 1
435 647 1
436 15 1
436 22 1
436 68 1
436 139 1
436 266 1
436 353 1
437 8 1
437 20 1
437 33 1
437 41 1
437 108 1
437 110 1
437 486 1
437 772 1
438 4 1
438 24 1
438 38 1
438 61 1
438 238 1
438 241 1
439 32 1
439 33 1
439 95 1
439 259 1
439 322 1
439 335 1
439 442 1
439 464 1
439 526 1
439 768 1
439 777 1
440 11 1
440 20 1
440 22 1
440 46 1
440 115 1
440 140 1
440 464 1
440 560 1
441 19 1
441 188 1
441 270 1
441 379 1
441 380 1
441 433 1
441 611 1
441 747 1
442 33 1
442 65 1
442 259 1
442 368 1
442 370 1
442 439 1
442 768 1
442 783 1
442 791 1
443 13 1
443 39 1
443 50 1
443 57 1
443 94 1
443 180 1
443 472 1
443 537 1
443 542 1
443 577 1
443 627 1
443 676 1
443 681 1
444 31 1
444 75 1
444 92 1
444 137 1
444 333 1
444 393 1
444 690 1
445 10 1
445 33 1
445 130 1
445 197 1
445 338 1
445 484 1
446 14 1
446 89 1
446 202 1
446 206 1
446 218 1
446 325 1
446 475 1
446 745 1
447 34 1
447 178 1
447 235 1
447 266 1
447 363 1
447 397 1
447 691 1
447 693 1
448 10 1
448 16 1
448 42 1
448 67 1
448 204 1
448 354 1
448 719 1
449 3 1
449 6 1
449 79 1
449 119 1
449 253 1
449 375 1
449 474 1
449 501 1
450 10 1
450 23 1
450 30 1
450 42 1
450 330 1
450 357 1
450 518 1
451 28 1
451 35 1
451 102 1
451 226 1
451 336 1
451 350 1
451 602 1
452 5 1
452 21 1
452 23 1
452 32 1
452 238 1
452 242 1
452 535 1
452 776 1
453 4 1
453 6 1
453 58 1
453 66 1
453 79 1
453 411 1
453 644 1
453 672 1
453 797 1
454 1 1
454 10 1
454 16 1
454 145 1
454 337 1
454 420 1
455 2 1
455 18 1
455 28 1
455 29 1
455 37 1
455 39 1
455 507 1
456 3 1
456 8 1
456 47 1
456 91 1
456 99 1
456 135 1
456 494 1
457 7 1
457 55 1
457 58 1
457 149 1
457 239 1
457 255 1
457 617 1
458 98 1
458 117 1
458 271 1
458 373 1
458 384 1
458 415 1
458 488 1
458 498 1
459 9 1
459 145 1
459 219 1
459 309 1
459 342 1
459 432 1
459 483 1
459 695 1
459 790 1
460 13 1
460 14 1
460 16 1
460 21 1
460 84 1
460 151 1
460 714 1
461 4 1
461 8 1
461 23 1
461 35 1
461 51 1
461 407 1
461 470 1
462 17 1
462 42 1
462 50 1
462 55 1
462 87 1
462 251 1
462 475 1
463 5 1
463 9 1
463 149 1
463 227 1
463 364 1
463 428 1
463 521 1
463 624 1
463 787 1
464 11 1
464 20 1
464 259 1
464 335 1
464 439 1
464 440 1
464 777 1
465 4 1
465 54 1
465 65 1
465 127 1
465 257 1
465 363 1
465 697 1
466 36 1
466 72 1
466 89 1
466 119 1
466 181 1
466 299 1
467 43 1
467 53 1
467 87 1
467 149 1
467 167 1
467 344 1
467 490 1
467 584 1
467 642 1
467 711 1
467 743 1
468 42 1
468 54 1
468 233 1
468 359 1
468 365 1
468 409 1
468 557 1
468 604 1
468 727 1
468 793 1
469 13 1
469 18 1
469 126 1
469 177 1
469 291 1
469 332 1
469 645 1
470 4 1
470 8 1
470 49 1
470 51 1
470 323 1
470 461 1
470 630 1
470 684 1
471 9 1
471 11 1
471 16 1
471 77 1
471 128 1
471 420 1
472 6 1
472 7 1
472 39 1
472 50 1
472 233 1
472 443 1
472 676 1
472 681 1
472 702 1
473 99 1
473 111 1
473 190 1
473 196 1
473 234 1
473 405 1
473 592 1
474 3 1
474 18 1
474 79 1
474 125 1
474 297 1
474 449 1
474 479 1
474 501 1
474 522 1
475 14 1
475 55 1
475 87 1
475 202 1
475 446 1
475 462 1
476 6 1
476 51 1
476 57 1
476 61 1
476 202 1
476 325 1
476 781 1
477 23 1
477 33 1
477 86 1
477 330 1
477 336 1
477 343 1
478 58 1
478 68 1
478 215 1
478 272 1
478 308 1
478 332 1
478 506 1
478 514 1
478 563 1
478 573 1
478 795 1
479 10 1
479 18 1
479 80 1
479 125 1
479 357 1
479 474 1
479 497 1
480 19 1
480 46 1
480 59 1
480 61 1
480 132 1
480 279 1
480 764 1
481 4 1
481 128 1
481 149 1
481 181 1
481 247 1
481 374 1
482 1 1
482 194 1
482 215 1
482 308 1
482 321 1
482 357 1
482 663 1
483 44 1
483 71 1
483 150 1
483 219 1
483 342 1
483 459 1
483 682 1
483 693 1
484 10 1
484 33 1
484 68 1
484 97 1
484 314 1
484 445 1
485 12 1
485 45 1
485 72 1
485 98 1
485 104 1
485 182 1
485 530 1
485 547 1
485 612 1
486 41 1
486 110 1
486 129 1
486 384 1
486 415 1
486 437 1
486 694 1
487 13 1
487 77 1
487 166 1
487 273 1
487 283 1
487 408 1
488 6 1
488 8 1
488 117 1
488 270 1
488 415 1
488 458 1
488 674 1
489 9 1
489 51 1
489 62 1
489 91 1
489 271 1
489 430 1
489 734 1
490 17 1
490 43 1
490 53 1
490 99 1
490 431 1
490 467 1
491 82 1
491 85 1
491 100 1
491 153 1
491 158 1
491 345 1
491 718 1
492 46 1
492 70 1
492 205 1
492 213 1
492 260 1
492 306 1
492 633 1
493 18 1
493 29 1
493 33 1
493 64 1
493 109 1
493 135 1
493 732 1
493 765 1
494 7 1
494 8 1
494 91 1
494 179 1
494 339 1
494 456 1
495 5 1
495 41 1
495 89 1
495 155 1
495 185 1
495 214 1
495 523 1
495 619 1
495 636 1
495 733 1
496 1 1
496 5 1
496 117 1
496 137 1
496 225 1
496 272 1
496 502 1
496 670 1
496 742 1
497 18 1
497 121 1
497 125 1
497 171 1
497 179 1
497 479 1
498 98 1
498 116 1
498 156 1
498 271 1
498 297 1
498 458 1
499 1 1
499 10 1
499 13 1
499 21 1
499 26 1
499 186 1
500 8 1
500 54 1
500 93 1
500 135 1
500 235 1
500 257 1
500 527 1
500 556 1
500 575 1
500 680 1
501 3 1
501 32 1
501 63 1
501 343 1
501 449 1
501 474 1
501 580 1
502 52 1
502 117 1
502 175 1
502 272 1
502 291 1
502 496 1
502 613 1
503 2 1
503 72 1
503 142 1
503 239 1
503 252 1
503 338 1
503 619 1
504 13 1
504 46 1
504 70 1
504 136 1
504 254 1
504 283 1
504 546 1
504 561 1
504 584 1
505 6 1
505 47 1
505 58 1
505 88 1
505 116 1
505 394 1
505 532 1
506 13 1
506 82 1
506 147 1
506 308 1
506 332 1
506 478 1
506 514 1
506 563 1
506 652 1
506 653 1
506 655 1
507 8 1
507 28 1
507 29 1
507 399 1
507 418 1
507 455 1
508 2 1
508 99 1
508 129 1
508 137 1
508 355 1
508 393 1
508 554 1
509 1 1
509 29 1
509 48 1
509 173 1
509 187 1
509 269 1
510 4 1
510 10 1
510 93 1
510 155 1
510 381 1
510 412 1
510 671 1
511 4 1
511 17 1
511 70 1
511 115 1
511 172 1
511 219 1
512 1 1
512 7 1
512 15 1
512 68 1
512 231 1
512 281 1
512 559 1
512 740 1
513 10 1
513 181 1
513 229 1
513 294 1
513 400 1
513 553 1
513 606 1
514 25 1
514 54 1
514 311 1
514 332 1
514 478 1
514 506 1
514 563 1
514 750 1
515 8 1
515 10 1
515 23 1
515 122 1
515 396 1
515 433 1
515 523 1
515 616 1
515 696 1
516 10 1
516 19 1
516 82 1
516 120 1
516 173 1
516 314 1
516 565 1
517 10 1
517 17 1
517 31 1
517 34 1
517 58 1
517 240 1
517 795 1
518 8 1
518 10 1
518 123 1
518 340 1
518 357 1
518 450 1
519 25 1
519 35 1
519 233 1
519 250 1
519 265 1
519 333 1
519 531 1
520 5 1
520 23 1
520 191 1
520 310 1
520 334 1
520 361 1
520 608 1
521 5 1
521 10 1
521 48 1
521 187 1
521 364 1
521 463 1
521 704 1
521 799 1
522 7 1
522 18 1
522 155 1
522 233 1
522 297 1
522 474 1
523 8 1
523 41 1
523 89 1
523 433 1
523 495 1
523 515 1
523 619 1
524 4 1
524 55 1
524 204 1
524 255 1
524 274 1
524 324 1
525 9 1
525 65 1
525 193 1
525 262 1
525 348 1
525 370 1
525 712 1
526 32 1
526 95 1
526 112 1
526 223 1
526 322 1
526 439 1
527 19 1
527 54 1
527 56 1
527 135 1
527 371 1
527 500 1
527 588 1
527 628 1
527 678 1
528 3 1
528 26 1
528 113 1
528 201 1
528 403 1
528 435 1
529 19 1
529 69 1
529 82 1
529 281 1
529 283 1
529 312 1
530 18 1
530 98 1
530 158 1
530 182 1
530 345 1
530 485 1
530 547 1
530 612 1
531 35 1
531 45 1
531 104 1
531 107 1
531 265 1
531 519 1
531 603 1
532 4 1
532 6 1
532 30 1
532 58 1
532 294 1
532 505 1
532 761 1
533 13 1
533 16 1
533 93 1
533 111 1
533 183 1
533 311 1
534 3 1
534 10 1
534 20 1
534 187 1
534 198 1
534 314 1
535 4 1
535 5 1
535 32 1
535 72 1
535 178 1
535 452 1
535 635 1
536 49 1
536 71 1
536 84 1
536 161 1
536 176 1
536 211 1
536 697 1
536 790 1
537 7 1
537 10 1
537 13 1
537 57 1
537 103 1
537 443 1
538 2 1
538 10 1
538 203 1
538 303 1
538 328 1
538 409 1
539 18 1
539 62 1
539 73 1
539 101 1
539 216 1
539 235 1
539 589 1
539 657 1
539 707 1
540 4 1
540 6 1
540 16 1
540 69 1
540 253 1
540 268 1
541 16 1
541 44 1
541 133 1
541 264 1
541 309 1
541 404 1
541 770 1
542 50 1
542 92 1
542 94 1
542 146 1
542 382 1
542 443 1
542 625 1
542 641 1
542 672 1
542 704 1
543 75 1
543 80 1
543 167 1
543 228 1
543 267 1
543 426 1
543 571 1
543 679 1
544 7 1
544 87 1
544 146 1
544 155 1
544 344 1
544 381 1
544 578 1
544 675 1
544 677 1
545 23 1
545 32 1
545 62 1
545 77 1
545 118 1
545 200 1
545 731 1
546 1 1
546 5 1
546 70 1
546 136 1
546 186 1
546 504 1
546 583 1
546 584 1
546 607 1
547 40 1
547 97 1
547 182 1
547 396 1
547 485 1
547 530 1
548 109 1
548 126 1
548 214 1
548 245 1
548 291 1
548 394 1
549 5 1
549 25 1
549 203 1
549 238 1
549 289 1
549 310 1
549 611 1
550 13 1
550 23 1
550 47 1
550 151 1
550 263 1
550 351 1
550 566 1
550 640 1
551 20 1
551 30 1
551 234 1
551 293 1
551 312 1
551 613 1
551 640 1
552 28 1
552 60 1
552 141 1
552 195 1
552 198 1
552 292 1
553 10 1
553 21 1
553 181 1
553 229 1
553 354 1
553 513 1
553 651 1
554 8 1
554 119 1
554 129 1
554 137 1
554 253 1
554 508 1
555 3 1
555 5 1
555 14 1
555 262 1
555 292 1
555 391 1
555 780 1
556 6 1
556 111 1
556 135 1
556 174 1
556 257 1
556 500 1
556 751 1
557 90 1
557 184 1
557 233 1
557 243 1
557 409 1
557 468 1
557 604 1
558 13 1
558 18 1
558 29 1
558 49 1
558 52 1
558 148 1
558 615 1
558 745 1
559 1 1
559 15 1
559 119 1
559 302 1
559 512 1
559 572 1
559 740 1
560 4 1
560 11 1
560 36 1
560 78 1
560 140 1
560 440 1
561 136 1
561 201 1
561 224 1
561 254 1
561 327 1
561 504 1
562 5 1
562 26 1
562 54 1
562 131 1
562 255 1
562 341 1
562 738 1
563 1 1
563 70 1
563 254 1
563 478 1
563 506 1
563 514 1
563 621 1
563 749 1
563 751 1
563 762 1
564 14 1
564 26 1
564 73 1
564 124 1
564 182 1
564 346 1
564 766 1
565 60 1
565 82 1
565 120 1
565 191 1
565 220 1
565 516 1
565 777 1
566 8 1
566 23 1
566 59 1
566 151 1
566 205 1
566 550 1
566 604 1
567 2 1
567 64 1
567 82 1
567 160 1
567 226 1
567 308 1
567 741 1
568 8 1
568 15 1
568 34 1
568 104 1
568 238 1
568 258 1
569 8 1
569 14 1
569 15 1
569 59 1
569 121 1
569 266 1
569 608 1
569 708 1
570 1 1
570 8 1
570 12 1
570 54 1
570 81 1
570 429 1
571 75 1
571 188 1
571 294 1
571 400 1
571 426 1
571 543 1
572 9 1
572 91 1
572 119 1
572 276 1
572 302 1
572 559 1
573 68 1
573 97 1
573 117 1
573 129 1
573 215 1
573 478 1
573 795 1
574 3 1
574 8 1
574 94 1
574 123 1
574 268 1
574 732 1
575 2 1
575 8 1
575 93 1
575 130 1
575 192 1
575 500 1
576 15 1
576 46 1
576 134 1
576 136 1
576 248 1
576 393 1
577 4 1
577 16 1
577 57 1
577 180 1
577 204 1
577 443 1
577 627 1
577 692 1
578 4 1
578 14 1
578 155 1
578 212 1
578 381 1
578 544 1
578 675 1
578 758 1
579 78 1
579 87 1
579 167 1
579 374 1
579 417 1
579 421 1
580 2 1
580 24 1
580 63 1
580 206 1
580 343 1
580 501 1
581 9 1
581 11 1
581 16 1
581 75 1
581 290 1
581 361 1
581 598 1
581 654 1
582 1 1
582 15 1
582 42 1
582 68 1
582 80 1
582 357 1
582 695 1
583 4 1
583 5 1
583 6 1
583 108 1
583 186 1
583 546 1
583 726 1
584 70 1
584 149 1
584 344 1
584 467 1
584 504 1
584 546 1
584 642 1
584 669 1
584 743 1
585 6 1
585 16 1
585 249 1
585 305 1
585 375 1
585 403 1
585 637 1
585 730 1
585 734 1
585 748 1
586 10 1
586 21 1
586 164 1
586 270 1
586 380 1
586 387 1
586 647 1
587 18 1
587 68 1
587 74 1
587 210 1
587 228 1
587 300 1
587 741 1
588 1 1
588 5 1
588 54 1
588 74 1
588 527 1
588 628 1
588 755 1
588 778 1
589 1 1
589 9 1
589 73 1
589 201 1
589 235 1
589 539 1
590 72 1
590 85 1
590 195 1
590 197 1
590 304 1
590 364 1
591 31 1
591 58 1
591 75 1
591 139 1
591 163 1
591 352 1
591 656 1
592 4 1
592 38 1
592 169 1
592 234 1
592 405 1
592 473 1
593 7 1
593 9 1
593 89 1
593 92 1
593 101 1
593 145 1
593 767 1
594 4 1
594 49 1
594 98 1
594 144 1
594 212 1
595 4 1
595 11 1
595 20 1
595 21 1
595 27 1
595 434 1
595 627 1
595 687 1
596 17 1
596 94 1
596 173 1
596 181 1
596 248 1
596 402 1
597 9 1
597 65 1
597 86 1
597 95 1
597 96 1
597 157 1
598 2 1
598 11 1
598 262 1
598 361 1
598 581 1
598 654 1
599 34 1
599 58 1
599 78 1
599 203 1
599 275 1
599 285 1
599 715 1
600 3 1
600 4 1
600 132 1
600 140 1
600 172 1
600 203 1
600 650 1
600 699 1
601 8 1
601 19 1
601 24 1
601 63 1
601 121 1
601 138 1
601 760 1
602 4 1
602 35 1
602 73 1
602 171 1
602 226 1
602 451 1
602 706 1
603 15 1
603 45 1
603 104 1
603 116 1
603 222 1
603 531 1
604 8 1
604 59 1
604 233 1
604 468 1
604 557 1
604 566 1
605 2 1
605 56 1
605 144 1
605 240 1
605 281 1
605 425 1
605 668 1
605 703 1
606 27 1
606 60 1
606 140 1
606 181 1
606 229 1
606 513 1
607 1 1
607 5 1
607 35 1
607 234 1
607 365 1
607 546 1
608 8 1
608 59 1
608 310 1
608 334 1
608 520 1
608 569 1
609 3 1
609 42 1
609 47 1
609 86 1
609 143 1
609 257 1
609 632 1
610 8 1
610 34 1
610 54 1
610 63 1
610 78 1
610 163 1
610 625 1
610 679 1
611 25 1
611 203 1
611 270 1
611 380 1
611 441 1
611 549 1
612 55 1
612 98 1
612 280 1
612 282 1
612 485 1
612 530 1
613 30 1
613 117 1
613 272 1
613 365 1
613 502 1
613 551 1
613 640 1
613 655 1
614 8 1
614 70 1
614 262 1
614 292 1
614 331 1
614 334 1
614 622 1
615 29 1
615 33 1
615 35 1
615 148 1
615 426 1
615 558 1
615 780 1
616 23 1
616 91 1
616 122 1
616 170 1
616 295 1
616 515 1
616 792 1
617 47 1
617 58 1
617 86 1
617 185 1
617 255 1
617 457 1
618 37 1
618 43 1
618 61 1
618 106 1
618 383 1
618 632 1
619 41 1
619 72 1
619 239 1
619 495 1
619 503 1
619 523 1
620 4 1
620 6 1
620 20 1
620 119 1
620 312 1
620 392 1
621 13 1
621 52 1
621 57 1
621 70 1
621 254 1
621 563 1
621 751 1
622 8 1
622 158 1
622 295 1
622 329 1
622 331 1
622 614 1
623 13 1
623 23 1
623 30 1
623 93 1
623 234 1
623 339 1
624 3 1
624 149 1
624 183 1
624 423 1
624 428 1
624 463 1
625 78 1
625 146 1
625 163 1
625 382 1
625 542 1
625 610 1
625 672 1
625 688 1
626 8 1
626 111 1
626 130 1
626 270 1
626 338 1
626 387 1
627 4 1
627 11 1
627 57 1
627 443 1
627 577 1
627 595 1
628 18 1
628 51 1
628 54 1
628 277 1
628 527 1
628 588 1
628 778 1
629 15 1
629 17 1
629 43 1
629 99 1
629 321 1
629 357 1
629 713 1
629 744 1
629 773 1
629 776 1
630 8 1
630 43 1
630 51 1
630 61 1
630 64 1
630 470 1
631 57 1
631 98 1
631 212 1
631 271 1
631 347 1
631 402 1
632 4 1
632 43 1
632 143 1
632 257 1
632 609 1
632 618 1
632 638 1
632 685 1
632 799 1
633 24 1
633 43 1
633 55 1
633 213 1
633 260 1
633 492 1
634 8 1
634 72 1
634 172 1
634 347 1
634 382 1
634 385 1
634 666 1
634 800 1
635 4 1
635 75 1
635 92 1
635 154 1
635 178 1
635 535 1
636 5 1
636 31 1
636 185 1
636 283 1
636 312 1
636 495 1
637 23 1
637 35 1
637 234 1
637 249 1
637 375 1
637 585 1
637 734 1
638 4 1
638 5 1
638 43 1
638 78 1
638 632 1
638 685 1
639 77 1
639 105 1
639 151 1
639 200 1
639 351 1
640 47 1
640 263 1
640 365 1
640 550 1
640 551 1
640 613 1
641 8 1
641 34 1
641 50 1
641 92 1
641 382 1
641 542 1
642 12 1
642 15 1
642 281 1
642 344 1
642 467 1
642 584 1
642 669 1
642 685 1
642 743 1
642 774 1
642 775 1
643 8 1
643 13 1
643 34 1
643 50 1
643 143 1
643 263 1
644 58 1
644 62 1
644 66 1
644 236 1
644 261 1
644 453 1
644 672 1
644 782 1
645 39 1
645 42 1
645 88 1
645 126 1
645 177 1
645 469 1
645 794 1
646 1 1
646 28 1
646 136 1
646 321 1
646 384 1
646 398 1
646 658 1
647 155 1
647 380 1
647 387 1
647 418 1
647 435 1
647 586 1
648 1 1
648 14 1
648 22 1
648 35 1
648 160 1
648 350 1
648 710 1
649 18 1
649 73 1
649 126 1
649 235 1
649 380 1
649 397 1
650 3 1
650 92 1
650 145 1
650 203 1
650 307 1
650 600 1
651 10 1
651 58 1
651 111 1
651 190 1
651 229 1
651 553 1
651 796 1
652 6 1
652 82 1
652 147 1
652 155 1
652 249 1
652 506 1
653 13 1
653 82 1
653 109 1
653 291 1
653 420 1
653 506 1
654 11 1
654 12 1
654 24 1
654 206 1
654 581 1
654 598 1
655 13 1
655 117 1
655 147 1
655 272 1
655 506 1
655 613 1
656 15 1
656 31 1
656 32 1
656 75 1
656 134 1
656 591 1
656 721 1
656 788 1
657 17 1
657 19 1
657 62 1
657 73 1
657 240 1
657 539 1
657 750 1
658 51 1
658 277 1
658 321 1
658 384 1
658 406 1
658 646 1
658 678 1
658 691 1
659 9 1
659 91 1
659 100 1
659 203 1
659 275 1
659 276 1
660 31 1
660 97 1
660 187 1
660 225 1
660 383 1
660 417 1
661 8 1
661 136 1
661 141 1
661 149 1
661 285 1
661 292 1
662 146 1
662 170 1
662 280 1
662 282 1
662 295 1
662 305 1
662 681 1
663 13 1
663 194 1
663 204 1
663 307 1
663 308 1
663 482 1
663 735 1
664 131 1
664 262 1
664 303 1
664 328 1
664 340 1
664 431 1
664 720 1
665 17 1
665 40 1
665 66 1
665 108 1
665 396 1
665 428 1
666 27 1
666 72 1
666 102 1
666 172 1
666 336 1
666 634 1
667 15 1
667 32 1
667 49 1
667 52 1
667 224 1
667 378 1
667 759 1
667 769 1
667 789 1
668 2 1
668 144 1
668 187 1
668 255 1
668 274 1
668 605 1
668 703 1
669 8 1
669 50 1
669 94 1
669 344 1
669 584 1
669 642 1
669 685 1
670 5 1
670 165 1
670 192 1
670 225 1
670 280 1
670 496 1
671 3 1
671 10 1
671 33 1
671 93 1
671 198 1
671 510 1
672 58 1
672 382 1
672 453 1
672 542 1
672 625 1
672 644 1
672 688 1
672 773 1
673 6 1
673 13 1
673 24 1
673 47 1
673 55 1
673 216 1
673 729 1
673 735 1
673 758 1
674 6 1
674 8 1
674 15 1
674 96 1
674 270 1
674 488 1
674 696 1
675 155 1
675 168 1
675 255 1
675 341 1
675 544 1
675 578 1
675 758 1
676 46 1
676 49 1
676 50 1
676 273 1
676 443 1
676 472 1
676 681 1
677 2 1
677 7 1
677 134 1
677 381 1
677 410 1
677 544 1
678 54 1
678 135 1
678 277 1
678 406 1
678 527 1
678 658 1
678 691 1
679 34 1
679 163 1
679 228 1
679 267 1
679 543 1
679 610 1
680 3 1
680 48 1
680 54 1
680 257 1
680 391 1
680 500 1
680 712 1
681 170 1
681 305 1
681 443 1
681 472 1
681 662 1
681 676 1
682 71 1
682 109 1
682 150 1
682 401 1
682 483 1
682 693 1
683 54 1
683 104 1
683 168 1
683 238 1
683 286 1
683 387 1
684 4 1
684 20 1
684 66 1
684 323 1
684 324 1
684 470 1
685 43 1
685 344 1
685 632 1
685 638 1
685 642 1
685 669 1
686 1 1
686 34 1
686 73 1
686 146 1
686 171 1
686 204 1
687 27 1
687 57 1
687 60 1
687 220 1
687 434 1
687 595 1
688 26 1
688 36 1
688 208 1
688 382 1
688 625 1
688 672 1
688 739 1
688 773 1
688 774 1
689 27 1
689 67 1
689 111 1
689 122 1
689 156 1
689 236 1
689 756 1
689 785 1
690 75 1
690 92 1
690 111 1
690 130 1
690 432 1
690 444 1
691 34 1
691 397 1
691 406 1
691 447 1
691 658 1
691 678 1
691 693 1
692 57 1
692 180 1
692 204 1
692 221 1
692 307 1
692 577 1
692 784 1
693 71 1
693 397 1
693 447 1
693 483 1
693 682 1
693 691 1
694 34 1
694 129 1
694 163 1
694 415 1
694 486 1
695 15 1
695 68 1
695 145 1
695 309 1
695 459 1
695 582 1
695 729 1
695 790 1
696 6 1
696 270 1
696 396 1
696 433 1
696 515 1
696 674 1
697 54 1
697 84 1
697 161 1
697 257 1
697 465 1
697 536 1
697 770 1
698 4 1
698 76 1
698 108 1
698 189 1
698 300 1
698 395 1
699 3 1
699 18 1
699 73 1
699 140 1
699 401 1
699 600 1
700 12 1
700 23 1
700 27 1
700 81 1
700 242 1
701 4 1
701 14 1
701 49 1
701 181 1
701 212 1
701 264 1
702 15 1
702 18 1
702 39 1
702 50 1
702 90 1
702 472 1
703 2 1
703 3 1
703 4 1
703 408 1
703 605 1
703 668 1
704 10 1
704 48 1
704 92 1
704 146 1
704 521 1
704 542 1
705 8 1
705 80 1
705 126 1
705 160 1
705 246 1
705 334 1
705 761 1
706 17 1
706 73 1
706 171 1
706 250 1
706 265 1
706 602 1
707 4 1
707 14 1
707 101 1
707 216 1
707 243 1
707 539 1
707 722 1
708 14 1
708 86 1
708 176 1
708 266 1
708 343 1
708 569 1
709 18 1
709 62 1
709 82 1
709 236 1
709 308 1
710 32 1
710 35 1
710 160 1
710 271 1
710 402 1
710 648 1
711 49 1
711 167 1
711 245 1
711 344 1
711 394 1
711 467 1
711 779 1
712 9 1
712 54 1
712 257 1
712 348 1
712 525 1
712 680 1
713 22 1
713 97 1
713 154 1
713 321 1
713 357 1
713 629 1
713 744 1
713 773 1
714 13 1
714 21 1
714 23 1
714 27 1
714 60 1
714 460 1
714 740 1
715 46 1
715 58 1
715 70 1
715 78 1
715 219 1
715 599 1
716 4 1
716 7 1
716 82 1
716 120 1
716 149 1
716 428 1
717 2 1
717 7 1
717 14 1
717 52 1
717 103 1
717 389 1
717 763 1
718 15 1
718 22 1
718 85 1
718 153 1
718 321 1
718 491 1
719 42 1
719 67 1
719 167 1
719 213 1
719 448 1
720 2 1
720 121 1
720 180 1
720 328 1
720 340 1
720 664 1
721 23 1
721 32 1
721 134 1
721 288 1
721 334 1
721 656 1
722 4 1
722 63 1
722 171 1
722 243 1
722 282 1
722 707 1
723 1 1
723 44 1
723 48 1
723 201 1
723 279 1
723 289 1
723 779 1
724 6 1
724 55 1
724 57 1
724 187 1
724 407 1
724 415 1
725 1 1
725 4 1
725 54 1
725 67 1
725 81 1
725 293 1
726 4 1
726 97 1
726 108 1
726 117 1
726 154 1
726 583 1
726 746 1
727 7 1
727 42 1
727 191 1
727 365 1
727 407 1
727 468 1
727 793 1
728 16 1
728 18 1
728 109 1
728 151 1
728 183 1
728 210 1
729 6 1
729 13 1
729 15 1
729 68 1
729 673 1
729 695 1
730 4 1
730 5 1
730 6 1
730 32 1
730 249 1
730 585 1
730 748 1
730 788 1
731 33 1
731 44 1
731 62 1
731 118 1
731 348 1
731 545 1
732 8 1
732 64 1
732 135 1
732 268 1
732 493 1
732 574 1
732 765 1
733 3 1
733 10 1
733 20 1
733 41 1
733 155 1
733 495 1
734 9 1
734 249 1
734 430 1
734 489 1
734 585 1
734 637 1
734 791 1
735 6 1
735 47 1
735 204 1
735 307 1
735 663 1
735 673 1
736 1 1
736 9 1
736 113 1
736 115 1
736 403 1
736 434 1
736 800 1
737 9 1
737 180 1
737 203 1
737 246 1
737 376 1
738 6 1
738 53 1
738 54 1
738 211 1
738 255 1
738 562 1
739 26 1
739 113 1
739 131 1
739 208 1
739 356 1
739 688 1
740 27 1
740 60 1
740 281 1
740 512 1
740 559 1
740 714 1
741 2 1
741 82 1
741 300 1
741 567 1
741 587 1
742 1 1
742 2 1
742 5 1
742 98 1
742 254 1
742 496 1
743 73 1
743 161 1
743 277 1
743 467 1
743 584 1
743 642 1
744 137 1
744 152 1
744 321 1
744 329 1
744 629 1
744 713 1
745 14 1
745 18 1
745 148 1
745 325 1
745 446 1
745 558 1
746 59 1
746 97 1
746 117 1
746 132 1
746 726 1
747 188 1
747 219 1
747 225 1
747 250 1
747 379 1
747 441 1
748 168 1
748 249 1
748 341 1
748 378 1
748 585 1
748 730 1
749 254 1
749 372 1
749 374 1
749 421 1
749 563 1
749 762 1
750 19 1
750 25 1
750 240 1
750 311 1
750 514 1
750 657 1
751 111 1
751 174 1
751 254 1
751 556 1
751 563 1
751 621 1
752 6 1
752 32 1
752 58 1
752 95 1
752 187 1
752 225 1
753 31 1
753 48 1
753 118 1
753 153 1
753 208 1
753 301 1
754 4 1
754 25 1
754 65 1
754 98 1
754 218 1
754 423 1
755 1 1
755 5 1
755 21 1
755 111 1
755 143 1
755 588 1
756 31 1
756 66 1
756 97 1
756 122 1
756 156 1
756 689 1
757 1 1
757 57 1
757 70 1
757 260 1
757 306 1
757 317 1
758 24 1
758 155 1
758 216 1
758 578 1
758 673 1
758 675 1
759 2 1
759 5 1
759 49 1
759 52 1
759 72 1
759 667 1
759 789 1
760 5 1
760 8 1
760 70 1
760 121 1
760 353 1
760 601 1
761 6 1
761 58 1
761 126 1
761 160 1
761 532 1
761 705 1
762 1 1
762 246 1
762 331 1
762 334 1
762 563 1
762 749 1
763 34 1
763 52 1
763 112 1
763 389 1
763 400 1
763 717 1
764 61 1
764 181 1
764 229 1
764 248 1
764 279 1
764 480 1
765 2 1
765 64 1
765 190 1
765 319 1
765 493 1
765 732 1
766 14 1
766 85 1
766 182 1
766 195 1
766 359 1
766 564 1
767 7 1
767 84 1
767 89 1
767 161 1
767 416 1
767 593 1
768 8 1
768 285 1
768 406 1
768 439 1
768 442 1
769 15 1
769 63 1
769 108 1
769 165 1
769 378 1
769 667 1
770 16 1
770 44 1
770 54 1
770 257 1
770 541 1
770 697 1
771 29 1
771 37 1
771 71 1
771 183 1
771 257 1
771 423 1
772 8 1
772 41 1
772 47 1
772 91 1
772 263 1
772 437 1
773 357 1
773 382 1
773 629 1
773 672 1
773 688 1
773 713 1
773 774 1
774 12 1
774 281 1
774 382 1
774 642 1
774 688 1
774 773 1
774 775 1
775 12 1
775 19 1
775 56 1
775 281 1
775 642 1
775 774 1
776 17 1
776 32 1
776 43 1
776 238 1
776 452 1
776 629 1
777 60 1
777 220 1
777 259 1
777 439 1
777 464 1
777 565 1
778 1 1
778 18 1
778 54 1
778 114 1
778 588 1
778 628 1
779 49 1
779 201 1
779 289 1
779 394 1
779 711 1
779 723 1
780 3 1
780 29 1
780 148 1
780 391 1
780 555 1
780 615 1
781 8 1
781 39 1
781 202 1
781 325 1
781 347 1
781 476 1
782 14 1
782 22 1
782 236 1
782 261 1
782 266 1
782 644 1
783 12 1
783 26 1
783 33 1
783 36 1
783 259 1
783 442 1
783 791 1
784 51 1
784 73 1
784 76 1
784 221 1
784 307 1
784 692 1
785 111 1
785 122 1
785 146 1
785 249 1
785 405 1
785 689 1
786 28 1
786 34 1
786 87 1
786 121 1
786 180 1
786 246 1
787 9 1
787 10 1
787 44 1
787 48 1
787 364 1
787 463 1
788 6 1
788 31 1
788 75 1
788 249 1
788 656 1
788 730 1
789 49 1
789 149 1
789 267 1
789 344 1
789 667 1
789 759 1
790 71 1
790 211 1
790 309 1
790 459 1
790 536 1
790 695 1
791 9 1
791 259 1
791 430 1
791 442 1
791 734 1
791 783 1
792 100 1
792 170 1
792 237 1
792 295 1
792 616 1
793 29 1
793 42 1
793 192 1
793 416 1
793 468 1
793 727 1
794 95 1
794 98 1
794 126 1
794 177 1
794 373 1
794 645 1
795 10 1
795 68 1
795 240 1
795 478 1
795 517 1
795 573 1
796 13 1
796 16 1
796 58 1
796 111 1
796 221 1
796 651 1
797 4 1
797 10 1
797 79 1
797 133 1
797 194 1
797 453 1
798 37 1
798 43 1
798 99 1
798 176 1
798 264 1
798 298 1
799 10 1
799 143 1
799 187 1
799 257 1
799 521 1
799 632 1
800 8 1
800 9 1
800 113 1
800 382 1
800 634 1
800 736 1
