%%MatrixMarket matrix coordinate real general
%
800 800 38352
1 8 1
1 10 1
1 43 1
1 54 1
1 61 1
1 63 1
1 65 1
1 70 1
1 72 1
1 100 1
1 119 1
1 139 1
1 153 1
1 159 1
1 166 1
1 172 1
1 194 1
1 212 1
1 220 1
1 238 1
1 241 1
1 299 1
1 315 1
1 328 1
1 364 1
1 405 1
1 409 1
1 450 1
1 453 1
1 468 1
1 485 1
1 508 1
1 526 1
1 540 1
1 550 1
1 596 1
1 610 1
1 636 1
1 692 1
1 693 1
1 694 1
1 795 1
2 17 1
2 19 1
2 28 1
2 29 1
2 68 1
2 98 1
2 163 1
2 174 1
2 176 1
2 190 1
2 197 1
2 207 1
2 260 1
2 269 1
2 283 1
2 289 1
2 301 1
2 303 1
2 307 1
2 323 1
2 332 1
2 335 1
2 339 1
2 354 1
2 356 1
2 401 1
2 412 1
2 423 1
2 441 1
2 447 1
2 479 1
2 489 1
2 543 1
2 556 1
2 584 1
2 600 1
2 624 1
2 659 1
2 679 1
2 705 1
2 738 1
2 743 1
2 755 1
2 767 1
2 792 1
2 800 1
3 6 1
3 16 1
3 22 1
3 91 1
3 104 1
3 113 1
3 120 1
3 137 1
3 140 1
3 145 1
3 214 1
3 215 1
3 330 1
3 331 1
3 333 1
3 357 1
3 372 1
3 382 1
3 411 1
3 416 1
3 417 1
3 422 1
3 434 1
3 439 1
3 448 1
3 476 1
3 502 1
3 510 1
3 519 1
3 560 1
3 582 1
3 588 1
3 591 1
3 593 1
3 631 1
3 637 1
3 661 1
3 662 1
3 664 1
3 675 1
3 678 1
3 682 1
3 715 1
3 737 1
3 752 1
3 779 1
4 13 1
4 25 1
4 46 1
4 63 1
4 80 1
4 88 1
4 93 1
4 100 1
4 198 1
4 199 1
4 230 1
4 235 1
4 260 1
4 286 1
4 291 1
4 308 1
4 314 1
4 332 1
4 351 1
4 357 1
4 359 1
4 426 1
4 430 1
4 456 1
4 461 1
4 477 1
4 480 1
4 495 1
4 511 1
4 549 1
4 552 1
4 601 1
4 603 1
4 614 1
4 623 1
4 634 1
4 658 1
4 669 1
4 689 1
4 708 1
4 710 1
4 723 1
4 761 1
4 764 1
4 793 1
5 22 1
5 33 1
5 38 1
5 63 1
5 69 1
5 71 1
5 81 1
5 87 1
5 101 1
5 105 1
5 112 1
5 128 1
5 133 1
5 177 1
5 204 1
5 210 1
5 214 1
5 241 1
5 270 1
5 285 1
5 293 1
5 297 1
5 326 1
5 335 1
5 340 1
5 350 1
5 359 1
5 365 1
5 374 1
5 412 1
5 418 1
5 420 1
5 434 1
5 448 1
5 453 1
5 464 1
5 481 1
5 505 1
5 508 1
5 524 1
5 529 1
5 538 1
5 556 1
5 561 1
5 575 1
5 583 1
5 599 1
5 613 1
5 672 1
5 678 1
5 680 1
5 685 1
5 702 1
5 705 1
5 737 1
5 757 1
5 769 1
5 788 1
5 792 1
6 3 1
6 10 1
6 47 1
6 54 1
6 59 1
6 60 1
6 84 1
6 113 1
6 121 1
6 122 1
6 159 1
6 166 1
6 199 1
6 217 1
6 232 1
6 235 1
6 267 1
6 283 1
6 312 1
6 364 1
6 369 1
6 370 1
6 416 1
6 453 1
6 473 1
6 491 1
6 512 1
6 555 1
6 599 1
6 600 1
6 627 1
6 640 1
6 648 1
6 659 1
6 662 1
6 663 1
6 685 1
6 686 1
6 687 1
6 693 1
6 729 1
6 750 1
6 781 1
6 785 1
6 790 1
6 792 1
6 795 1
7 10 1
7 27 1
7 29 1
7 59 1
7 69 1
7 106 1
7 134 1
7 164 1
7 165 1
7 181 1
7 202 1
7 203 1
7 211 1
7 214 1
7 229 1
7 245 1
7 252 1
7 270 1
7 286 1
7 287 1
7 308 1
7 309 1
7 311 1
7 327 1
7 334 1
7 376 1
7 378 1
7 434 1
7 484 1
7 503 1
7 532 1
7 534 1
7 555 1
7 556 1
7 573 1
7 607 1
7 610 1
7 615 1
7 650 1
7 655 1
7 678 1
7 692 1
7 696 1
7 713 1
7 715 1
7 718 1
7 732 1
7 737 1
7 746 1
7 776 1
8 1 1
8 11 1
8 12 1
8 34 1
8 36 1
8 71 1
8 74 1
8 107 1
8 109 1
8 138 1
8 145 1
8 158 1
8 174 1
8 179 1
8 220 1
8 223 1
8 230 1
8 251 1
8 273 1
8 280 1
8 289 1
8 339 1
8 340 1
8 345 1
8 360 1
8 361 1
8 363 1
8 364 1
8 393 1
8 408 1
8 436 1
8 447 1
8 455 1
8 482 1
8 512 1
8 514 1
8 540 1
8 542 1
8 562 1
8 598 1
8 607 1
8 617 1
8 630 1
8 634 1
8 678 1
8 679 1
8 684 1
8 691 1
8 704 1
8 706 1
8 718 1
8 729 1
8 736 1
8 747 1
8 768 1
8 773 1
8 794 1
8 796 1
9 15 1
9 16 1
9 18 1
9 29 1
9 47 1
9 68 1
9 87 1
9 112 1
9 119 1
9 122 1
9 142 1
9 159 1
9 182 1
9 183 1
9 239 1
9 274 1
9 281 1
9 285 1
9 289 1
9 294 1
9 329 1
9 344 1
9 360 1
9 365 1
9 366 1
9 381 1
9 384 1
9 437 1
9 461 1
9 484 1
9 507 1
9 517 1
9 524 1
9 540 1
9 552 1
9 557 1
9 571 1
9 598 1
9 601 1
9 626 1
9 650 1
9 659 1
9 673 1
9 698 1
9 702 1
9 757 1
9 772 1
9 778 1
10 1 1
10 6 1
10 7 1
10 16 1
10 51 1
10 80 1
10 98 1
10 134 1
10 152 1
10 155 1
10 166 1
10 170 1
10 177 1
10 179 1
10 189 1
10 219 1
10 236 1
10 265 1
10 277 1
10 305 1
10 311 1
10 340 1
10 342 1
10 354 1
10 363 1
10 404 1
10 406 1
10 422 1
10 440 1
10 481 1
10 491 1
10 524 1
10 541 1
10 549 1
10 569 1
10 572 1
10 573 1
10 581 1
10 615 1
10 636 1
10 646 1
10 649 1
10 661 1
10 664 1
10 668 1
10 687 1
10 693 1
10 695 1
10 702 1
10 743 1
10 765 1
10 768 1
10 772 1
10 776 1
11 8 1
11 22 1
11 48 1
11 78 1
11 95 1
11 104 1
11 112 1
11 138 1
11 139 1
11 191 1
11 228 1
11 240 1
11 249 1
11 258 1
11 285 1
11 342 1
11 366 1
11 369 1
11 396 1
11 417 1
11 429 1
11 446 1
11 453 1
11 456 1
11 485 1
11 486 1
11 502 1
11 531 1
11 559 1
11 580 1
11 587 1
11 590 1
11 605 1
11 623 1
11 624 1
11 653 1
11 670 1
11 674 1
11 717 1
11 754 1
11 764 1
11 774 1
11 785 1
11 786 1
12 8 1
12 34 1
12 42 1
12 56 1
12 66 1
12 80 1
12 89 1
12 104 1
12 149 1
12 153 1
12 161 1
12 187 1
12 189 1
12 196 1
12 233 1
12 267 1
12 306 1
12 371 1
12 374 1
12 390 1
12 464 1
12 470 1
12 479 1
12 484 1
12 489 1
12 501 1
12 561 1
12 588 1
12 589 1
12 647 1
12 661 1
12 662 1
12 671 1
12 728 1
12 756 1
12 799 1
13 4 1
13 52 1
13 54 1
13 58 1
13 60 1
13 70 1
13 107 1
13 117 1
13 146 1
13 173 1
13 187 1
13 189 1
13 193 1
13 202 1
13 214 1
13 231 1
13 235 1
13 258 1
13 278 1
13 285 1
13 311 1
13 326 1
13 345 1
13 349 1
13 360 1
13 365 1
13 400 1
13 430 1
13 450 1
13 459 1
13 463 1
13 469 1
13 482 1
13 500 1
13 517 1
13 521 1
13 526 1
13 533 1
13 586 1
13 592 1
13 597 1
13 709 1
13 712 1
13 718 1
13 722 1
13 732 1
13 746 1
13 793 1
13 796 1
14 122 1
14 134 1
14 141 1
14 151 1
14 154 1
14 182 1
14 193 1
14 197 1
14 204 1
14 248 1
14 261 1
14 277 1
14 278 1
14 291 1
14 323 1
14 326 1
14 331 1
14 339 1
14 354 1
14 379 1
14 388 1
14 392 1
14 406 1
14 409 1
14 426 1
14 471 1
14 473 1
14 497 1
14 521 1
14 596 1
14 600 1
14 619 1
14 685 1
14 739 1
14 748 1
14 751 1
14 759 1
14 760 1
14 775 1
14 780 1
14 782 1
15 9 1
15 18 1
15 71 1
15 135 1
15 146 1
15 151 1
15 201 1
15 228 1
15 231 1
15 285 1
15 298 1
15 306 1
15 324 1
15 325 1
15 348 1
15 358 1
15 383 1
15 398 1
15 438 1
15 445 1
15 504 1
15 521 1
15 551 1
15 570 1
15 573 1
15 574 1
15 584 1
15 608 1
15 616 1
15 643 1
15 645 1
15 659 1
15 662 1
15 665 1
15 668 1
15 672 1
15 678 1
15 679 1
15 723 1
15 754 1
15 782 1
15 786 1
16 3 1
16 9 1
16 10 1
16 123 1
16 132 1
16 135 1
16 162 1
16 166 1
16 203 1
16 211 1
16 223 1
16 282 1
16 294 1
16 323 1
16 326 1
16 332 1
16 345 1
16 354 1
16 397 1
16 419 1
16 445 1
16 459 1
16 463 1
16 474 1
16 477 1
16 479 1
16 510 1
16 511 1
16 517 1
16 526 1
16 593 1
16 609 1
16 614 1
16 617 1
16 628 1
16 633 1
16 653 1
16 668 1
16 671 1
16 698 1
16 714 1
16 728 1
16 747 1
16 765 1
16 770 1
16 799 1
17 2 1
17 38 1
17 69 1
17 75 1
17 76 1
17 100 1
17 115 1
17 130 1
17 140 1
17 181 1
17 182 1
17 184 1
17 194 1
17 232 1
17 256 1
17 262 1
17 287 1
17 295 1
17 302 1
17 304 1
17 318 1
17 320 1
17 338 1
17 372 1
17 381 1
17 389 1
17 397 1
17 440 1
17 466 1
17 469 1
17 471 1
17 493 1
17 519 1
17 536 1
17 554 1
17 568 1
17 577 1
17 617 1
17 626 1
17 678 1
17 684 1
17 687 1
17 690 1
17 698 1
17 777 1
17 791 1
17 794 1
17 795 1
17 800 1
18 9 1
18 15 1
18 75 1
18 77 1
18 90 1
18 107 1
18 116 1
18 127 1
18 133 1
18 196 1
18 220 1
18 268 1
18 277 1
18 282 1
18 286 1
18 307 1
18 309 1
18 321 1
18 324 1
18 337 1
18 349 1
18 360 1
18 374 1
18 380 1
18 412 1
18 427 1
18 483 1
18 484 1
18 491 1
18 520 1
18 555 1
18 564 1
18 592 1
18 602 1
18 608 1
18 622 1
18 641 1
18 656 1
18 713 1
18 729 1
18 732 1
18 761 1
18 765 1
18 770 1
18 792 1
19 2 1
19 21 1
19 39 1
19 40 1
19 49 1
19 51 1
19 55 1
19 66 1
19 95 1
19 109 1
19 147 1
19 154 1
19 159 1
19 177 1
19 181 1
19 187 1
19 193 1
19 199 1
19 234 1
19 250 1
19 255 1
19 256 1
19 260 1
19 287 1
19 325 1
19 328 1
19 350 1
19 389 1
19 391 1
19 412 1
19 455 1
19 486 1
19 555 1
19 558 1
19 560 1
19 564 1
19 596 1
19 615 1
19 624 1
19 636 1
19 645 1
19 653 1
19 682 1
19 700 1
19 716 1
19 717 1
19 738 1
19 757 1
19 770 1
19 778 1
20 28 1
20 34 1
20 46 1
20 78 1
20 89 1
20 96 1
20 140 1
20 141 1
20 143 1
20 172 1
20 199 1
20 203 1
20 211 1
20 214 1
20 240 1
20 254 1
20 263 1
20 291 1
20 302 1
20 317 1
20 324 1
20 359 1
20 394 1
20 443 1
20 459 1
20 467 1
20 477 1
20 494 1
20 505 1
20 519 1
20 520 1
20 523 1
20 547 1
20 579 1
20 600 1
20 641 1
20 693 1
20 705 1
20 725 1
20 728 1
20 733 1
20 743 1
21 19 1
21 54 1
21 58 1
21 90 1
21 112 1
21 121 1
21 122 1
21 123 1
21 125 1
21 149 1
21 174 1
21 193 1
21 222 1
21 239 1
21 250 1
21 257 1
21 270 1
21 272 1
21 280 1
21 296 1
21 297 1
21 314 1
21 361 1
21 362 1
21 365 1
21 420 1
21 421 1
21 424 1
21 425 1
21 431 1
21 448 1
21 482 1
21 483 1
21 520 1
21 532 1
21 563 1
21 583 1
21 593 1
21 603 1
21 619 1
21 647 1
21 651 1
21 652 1
21 723 1
21 734 1
22 3 1
22 5 1
22 11 1
22 23 1
22 36 1
22 66 1
22 77 1
22 86 1
22 215 1
22 218 1
22 226 1
22 232 1
22 239 1
22 293 1
22 294 1
22 322 1
22 328 1
22 330 1
22 334 1
22 336 1
22 348 1
22 355 1
22 383 1
22 413 1
22 445 1
22 447 1
22 453 1
22 511 1
22 516 1
22 525 1
22 528 1
22 530 1
22 531 1
22 535 1
22 544 1
22 607 1
22 609 1
22 628 1
22 647 1
22 650 1
22 655 1
22 667 1
22 675 1
22 680 1
22 699 1
22 775 1
22 789 1
23 22 1
23 26 1
23 75 1
23 84 1
23 85 1
23 93 1
23 97 1
23 118 1
23 125 1
23 128 1
23 132 1
23 139 1
23 146 1
23 152 1
23 161 1
23 169 1
23 181 1
23 187 1
23 202 1
23 203 1
23 227 1
23 241 1
23 254 1
23 262 1
23 272 1
23 279 1
23 319 1
23 347 1
23 352 1
23 356 1
23 425 1
23 435 1
23 442 1
23 472 1
23 523 1
23 531 1
23 534 1
23 539 1
23 545 1
23 575 1
23 579 1
23 610 1
23 659 1
23 667 1
23 670 1
23 678 1
23 696 1
23 703 1
23 718 1
23 728 1
23 735 1
23 740 1
23 774 1
24 32 1
24 40 1
24 78 1
24 92 1
24 105 1
24 111 1
24 126 1
24 211 1
24 239 1
24 275 1
24 283 1
24 318 1
24 329 1
24 350 1
24 361 1
24 367 1
24 369 1
24 371 1
24 410 1
24 418 1
24 444 1
24 499 1
24 505 1
24 506 1
24 522 1
24 539 1
24 574 1
24 582 1
24 598 1
24 607 1
24 629 1
24 641 1
24 675 1
24 678 1
24 685 1
24 688 1
24 706 1
24 718 1
24 759 1
25 4 1
25 46 1
25 79 1
25 84 1
25 95 1
25 151 1
25 158 1
25 175 1
25 179 1
25 191 1
25 228 1
25 241 1
25 285 1
25 318 1
25 362 1
25 399 1
25 420 1
25 426 1
25 486 1
25 496 1
25 527 1
25 532 1
25 546 1
25 628 1
25 632 1
25 677 1
25 715 1
25 716 1
25 720 1
25 723 1
25 726 1
25 727 1
25 730 1
25 747 1
25 760 1
25 779 1
25 785 1
25 789 1
26 23 1
26 31 1
26 33 1
26 62 1
26 72 1
26 78 1
26 80 1
26 105 1
26 130 1
26 137 1
26 152 1
26 161 1
26 168 1
26 185 1
26 214 1
26 223 1
26 227 1
26 231 1
26 237 1
26 256 1
26 257 1
26 260 1
26 280 1
26 300 1
26 325 1
26 351 1
26 369 1
26 389 1
26 392 1
26 398 1
26 403 1
26 424 1
26 430 1
26 433 1
26 434 1
26 442 1
26 447 1
26 449 1
26 484 1
26 491 1
26 503 1
26 521 1
26 530 1
26 534 1
26 539 1
26 556 1
26 557 1
26 566 1
26 578 1
26 581 1
26 594 1
26 605 1
26 701 1
26 702 1
26 708 1
26 719 1
26 732 1
26 733 1
26 769 1
26 783 1
26 795 1
27 7 1
27 36 1
27 49 1
27 110 1
27 161 1
27 165 1
27 170 1
27 175 1
27 197 1
27 198 1
27 233 1
27 234 1
27 235 1
27 245 1
27 248 1
27 257 1
27 265 1
27 270 1
27 271 1
27 297 1
27 301 1
27 311 1
27 337 1
27 344 1
27 349 1
27 361 1
27 369 1
27 376 1
27 402 1
27 406 1
27 415 1
27 446 1
27 448 1
27 449 1
27 461 1
27 506 1
27 523 1
27 535 1
27 539 1
27 552 1
27 555 1
27 557 1
27 572 1
27 603 1
27 606 1
27 641 1
27 647 1
27 671 1
27 687 1
27 698 1
27 710 1
27 730 1
27 740 1
27 764 1
28 2 1
28 20 1
28 60 1
28 69 1
28 109 1
28 111 1
28 146 1
28 166 1
28 188 1
28 195 1
28 200 1
28 216 1
28 229 1
28 231 1
28 234 1
28 238 1
28 249 1
28 297 1
28 316 1
28 334 1
28 345 1
28 371 1
28 380 1
28 442 1
28 444 1
28 448 1
28 455 1
28 456 1
28 461 1
28 464 1
28 475 1
28 505 1
28 513 1
28 527 1
28 533 1
28 548 1
28 555 1
28 563 1
28 568 1
28 608 1
28 612 1
28 618 1
28 649 1
28 662 1
28 664 1
28 666 1
28 671 1
28 728 1
28 741 1
28 745 1
28 776 1
28 794 1
29 2 1
29 7 1
29 9 1
29 38 1
29 52 1
29 87 1
29 88 1
29 91 1
29 93 1
29 100 1
29 101 1
29 114 1
29 128 1
29 179 1
29 190 1
29 199 1
29 208 1
29 209 1
29 221 1
29 237 1
29 255 1
29 275 1
29 282 1
29 319 1
29 320 1
29 342 1
29 359 1
29 363 1
29 380 1
29 385 1
29 386 1
29 388 1
29 400 1
29 437 1
29 464 1
29 488 1
29 502 1
29 537 1
29 561 1
29 610 1
29 623 1
29 627 1
29 640 1
29 646 1
29 674 1
29 679 1
29 692 1
29 697 1
29 707 1
29 718 1
29 723 1
29 729 1
29 788 1
29 796 1
29 799 1
30 44 1
30 51 1
30 57 1
30 58 1
30 66 1
30 79 1
30 123 1
30 174 1
30 188 1
30 200 1
30 208 1
30 211 1
30 212 1
30 239 1
30 244 1
30 263 1
30 283 1
30 316 1
30 330 1
30 337 1
30 342 1
30 347 1
30 350 1
30 362 1
30 384 1
30 440 1
30 483 1
30 493 1
30 512 1
30 540 1
30 562 1
30 563 1
30 567 1
30 570 1
30 573 1
30 580 1
30 586 1
30 593 1
30 594 1
30 597 1
30 601 1
30 611 1
30 617 1
30 618 1
30 625 1
30 664 1
30 684 1
30 719 1
30 762 1
30 763 1
30 780 1
30 789 1
31 26 1
31 45 1
31 49 1
31 58 1
31 59 1
31 79 1
31 121 1
31 129 1
31 133 1
31 134 1
31 135 1
31 150 1
31 162 1
31 202 1
31 247 1
31 277 1
31 292 1
31 343 1
31 347 1
31 352 1
31 370 1
31 374 1
31 376 1
31 380 1
31 390 1
31 398 1
31 413 1
31 417 1
31 423 1
31 472 1
31 477 1
31 480 1
31 492 1
31 495 1
31 511 1
31 520 1
31 530 1
31 548 1
31 585 1
31 593 1
31 595 1
31 609 1
31 626 1
31 629 1
31 650 1
31 654 1
31 672 1
31 673 1
31 710 1
31 734 1
31 737 1
31 776 1
32 24 1
32 53 1
32 55 1
32 62 1
32 63 1
32 74 1
32 104 1
32 142 1
32 166 1
32 211 1
32 212 1
32 218 1
32 224 1
32 242 1
32 247 1
32 265 1
32 281 1
32 292 1
32 307 1
32 317 1
32 340 1
32 342 1
32 343 1
32 371 1
32 397 1
32 421 1
32 444 1
32 470 1
32 489 1
32 498 1
32 513 1
32 549 1
32 572 1
32 589 1
32 601 1
32 608 1
32 639 1
32 680 1
32 685 1
32 694 1
32 727 1
32 733 1
32 745 1
32 800 1
33 5 1
33 26 1
33 48 1
33 53 1
33 66 1
33 67 1
33 97 1
33 100 1
33 116 1
33 118 1
33 128 1
33 140 1
33 146 1
33 151 1
33 152 1
33 165 1
33 186 1
33 187 1
33 192 1
33 213 1
33 218 1
33 226 1
33 230 1
33 249 1
33 256 1
33 273 1
33 293 1
33 300 1
33 348 1
33 383 1
33 387 1
33 436 1
33 455 1
33 472 1
33 474 1
33 478 1
33 488 1
33 495 1
33 511 1
33 513 1
33 517 1
33 526 1
33 529 1
33 564 1
33 573 1
33 575 1
33 584 1
33 590 1
33 600 1
33 613 1
33 641 1
33 652 1
33 694 1
33 700 1
33 707 1
33 739 1
33 756 1
34 8 1
34 12 1
34 20 1
34 124 1
34 147 1
34 151 1
34 165 1
34 169 1
34 172 1
34 188 1
34 199 1
34 207 1
34 212 1
34 231 1
34 233 1
34 253 1
34 258 1
34 288 1
34 316 1
34 329 1
34 392 1
34 403 1
34 412 1
34 415 1
34 417 1
34 424 1
34 434 1
34 456 1
34 475 1
34 504 1
34 546 1
34 570 1
34 600 1
34 602 1
34 604 1
34 613 1
34 614 1
34 626 1
34 638 1
34 647 1
34 660 1
34 661 1
34 719 1
34 764 1
34 785 1
34 798 1
35 73 1
35 77 1
35 101 1
35 107 1
35 115 1
35 122 1
35 127 1
35 146 1
35 150 1
35 151 1
35 153 1
35 187 1
35 201 1
35 223 1
35 234 1
35 253 1
35 265 1
35 266 1
35 273 1
35 278 1
35 280 1
35 303 1
35 304 1
35 309 1
35 311 1
35 332 1
35 411 1
35 433 1
35 440 1
35 448 1
35 461 1
35 463 1
35 465 1
35 472 1
35 475 1
35 481 1
35 504 1
35 542 1
35 567 1
35 581 1
35 625 1
35 636 1
35 639 1
35 640 1
35 644 1
35 666 1
35 667 1
35 674 1
35 692 1
35 705 1
35 734 1
35 759 1
35 782 1
36 8 1
36 22 1
36 27 1
36 42 1
36 53 1
36 62 1
36 70 1
36 74 1
36 103 1
36 105 1
36 123 1
36 127 1
36 130 1
36 141 1
36 183 1
36 196 1
36 198 1
36 210 1
36 211 1
36 252 1
36 255 1
36 264 1
36 272 1
36 290 1
36 303 1
36 307 1
36 328 1
36 333 1
36 351 1
36 367 1
36 371 1
36 385 1
36 433 1
36 441 1
36 442 1
36 463 1
36 475 1
36 485 1
36 489 1
36 516 1
36 529 1
36 531 1
36 581 1
36 593 1
36 613 1
36 624 1
36 648 1
36 660 1
36 663 1
36 710 1
36 717 1
36 731 1
36 732 1
36 768 1
36 770 1
36 787 1
36 792 1
37 84 1
37 86 1
37 126 1
37 134 1
37 155 1
37 202 1
37 205 1
37 206 1
37 207 1
37 230 1
37 239 1
37 285 1
37 289 1
37 293 1
37 319 1
37 327 1
37 332 1
37 376 1
37 389 1
37 390 1
37 394 1
37 418 1
37 502 1
37 527 1
37 537 1
37 539 1
37 551 1
37 605 1
37 607 1
37 633 1
37 635 1
37 645 1
37 659 1
37 716 1
37 738 1
37 742 1
37 750 1
37 798 1
37 799 1
38 5 1
38 17 1
38 29 1
38 46 1
38 62 1
38 80 1
38 82 1
38 105 1
38 108 1
38 130 1
38 140 1
38 149 1
38 157 1
38 160 1
38 191 1
38 200 1
38 216 1
38 218 1
38 239 1
38 243 1
38 245 1
38 248 1
38 273 1
38 287 1
38 301 1
38 317 1
38 324 1
38 358 1
38 368 1
38 380 1
38 390 1
38 393 1
38 405 1
38 423 1
38 430 1
38 472 1
38 479 1
38 489 1
38 495 1
38 507 1
38 510 1
38 512 1
38 540 1
38 543 1
38 557 1
38 572 1
38 586 1
38 628 1
38 644 1
38 715 1
38 729 1
38 761 1
39 19 1
39 66 1
39 101 1
39 109 1
39 124 1
39 136 1
39 174 1
39 198 1
39 204 1
39 215 1
39 218 1
39 227 1
39 236 1
39 262 1
39 265 1
39 268 1
39 297 1
39 299 1
39 316 1
39 328 1
39 359 1
39 371 1
39 372 1
39 376 1
39 390 1
39 418 1
39 475 1
39 478 1
39 497 1
39 503 1
39 524 1
39 529 1
39 536 1
39 546 1
39 559 1
39 593 1
39 594 1
39 598 1
39 626 1
39 658 1
39 662 1
39 689 1
39 734 1
39 735 1
39 744 1
39 755 1
39 757 1
39 792 1
40 19 1
40 24 1
40 46 1
40 52 1
40 77 1
40 79 1
40 92 1
40 117 1
40 131 1
40 146 1
40 159 1
40 172 1
40 224 1
40 240 1
40 244 1
40 266 1
40 271 1
40 275 1
40 280 1
40 296 1
40 299 1
40 309 1
40 311 1
40 329 1
40 347 1
40 350 1
40 384 1
40 389 1
40 390 1
40 391 1
40 422 1
40 454 1
40 472 1
40 473 1
40 484 1
40 486 1
40 493 1
40 499 1
40 514 1
40 533 1
40 564 1
40 575 1
40 586 1
40 593 1
40 613 1
40 618 1
40 641 1
40 650 1
40 657 1
40 677 1
40 688 1
40 730 1
40 759 1
40 788 1
41 45 1
41 54 1
41 87 1
41 100 1
41 103 1
41 134 1
41 165 1
41 183 1
41 190 1
41 211 1
41 218 1
41 230 1
41 243 1
41 303 1
41 334 1
41 340 1
41 355 1
41 372 1
41 385 1
41 388 1
41 391 1
41 421 1
41 461 1
41 473 1
41 475 1
41 504 1
41 538 1
41 557 1
41 560 1
41 583 1
41 597 1
41 601 1
41 602 1
41 607 1
41 610 1
41 620 1
41 645 1
41 646 1
41 672 1
41 677 1
41 680 1
41 683 1
41 693 1
41 776 1
41 782 1
42 12 1
42 36 1
42 43 1
42 53 1
42 69 1
42 99 1
42 100 1
42 103 1
42 115 1
42 122 1
42 142 1
42 144 1
42 147 1
42 156 1
42 161 1
42 251 1
42 256 1
42 275 1
42 295 1
42 304 1
42 313 1
42 316 1
42 349 1
42 364 1
42 370 1
42 379 1
42 380 1
42 382 1
42 441 1
42 443 1
42 445 1
42 446 1
42 474 1
42 490 1
42 495 1
42 507 1
42 518 1
42 537 1
42 548 1
42 562 1
42 643 1
42 651 1
42 653 1
42 659 1
42 667 1
42 672 1
42 675 1
42 681 1
42 684 1
42 686 1
42 688 1
42 691 1
42 725 1
42 741 1
42 752 1
42 762 1
42 773 1
43 1 1
43 42 1
43 85 1
43 90 1
43 109 1
43 120 1
43 136 1
43 151 1
43 170 1
43 186 1
43 221 1
43 302 1
43 394 1
43 429 1
43 442 1
43 454 1
43 465 1
43 466 1
43 492 1
43 500 1
43 534 1
43 578 1
43 591 1
43 601 1
43 603 1
43 627 1
43 644 1
43 658 1
43 663 1
43 673 1
43 682 1
43 683 1
43 694 1
43 716 1
43 742 1
43 744 1
43 768 1
43 798 1
44 30 1
44 94 1
44 113 1
44 128 1
44 142 1
44 152 1
44 165 1
44 183 1
44 188 1
44 204 1
44 207 1
44 222 1
44 250 1
44 256 1
44 263 1
44 314 1
44 335 1
44 377 1
44 448 1
44 469 1
44 471 1
44 496 1
44 497 1
44 498 1
44 506 1
44 508 1
44 525 1
44 526 1
44 545 1
44 580 1
44 603 1
44 605 1
44 614 1
44 626 1
44 638 1
44 654 1
44 655 1
44 673 1
44 705 1
44 723 1
44 727 1
44 747 1
44 759 1
44 768 1
44 773 1
45 31 1
45 41 1
45 74 1
45 77 1
45 81 1
45 90 1
45 94 1
45 130 1
45 151 1
45 190 1
45 205 1
45 208 1
45 216 1
45 225 1
45 250 1
45 262 1
45 316 1
45 322 1
45 369 1
45 378 1
45 425 1
45 441 1
45 447 1
45 461 1
45 462 1
45 489 1
45 494 1
45 509 1
45 541 1
45 594 1
45 665 1
45 729 1
45 740 1
45 748 1
45 792 1
45 793 1
46 4 1
46 20 1
46 25 1
46 38 1
46 40 1
46 53 1
46 54 1
46 178 1
46 190 1
46 229 1
46 269 1
46 322 1
46 358 1
46 360 1
46 402 1
46 411 1
46 418 1
46 426 1
46 428 1
46 431 1
46 432 1
46 445 1
46 446 1
46 487 1
46 516 1
46 529 1
46 595 1
46 596 1
46 621 1
46 626 1
46 651 1
46 665 1
46 666 1
46 690 1
46 695 1
46 702 1
46 715 1
46 724 1
46 729 1
46 736 1
46 740 1
46 750 1
46 781 1
46 784 1
46 786 1
46 797 1
47 6 1
47 9 1
47 64 1
47 88 1
47 119 1
47 129 1
47 148 1
47 175 1
47 176 1
47 191 1
47 230 1
47 238 1
47 240 1
47 262 1
47 302 1
47 307 1
47 341 1
47 362 1
47 368 1
47 369 1
47 406 1
47 449 1
47 456 1
47 487 1
47 492 1
47 516 1
47 558 1
47 580 1
47 635 1
47 639 1
47 645 1
47 658 1
47 660 1
47 661 1
47 677 1
47 693 1
47 710 1
47 719 1
47 722 1
47 776 1
47 783 1
48 11 1
48 33 1
48 54 1
48 58 1
48 66 1
48 96 1
48 122 1
48 127 1
48 129 1
48 135 1
48 149 1
48 168 1
48 175 1
48 192 1
48 195 1
48 215 1
48 259 1
48 265 1
48 278 1
48 289 1
48 311 1
48 313 1
48 317 1
48 323 1
48 337 1
48 349 1
48 356 1
48 402 1
48 406 1
48 428 1
48 489 1
48 505 1
48 590 1
48 618 1
48 624 1
48 636 1
48 638 1
48 656 1
48 659 1
48 680 1
48 697 1
48 705 1
48 740 1
48 742 1
48 747 1
48 748 1
49 19 1
49 27 1
49 31 1
49 57 1
49 65 1
49 74 1
49 97 1
49 116 1
49 191 1
49 199 1
49 202 1
49 207 1
49 209 1
49 215 1
49 236 1
49 237 1
49 257 1
49 269 1
49 271 1
49 284 1
49 294 1
49 313 1
49 317 1
49 328 1
49 349 1
49 376 1
49 406 1
49 414 1
49 433 1
49 441 1
49 480 1
49 483 1
49 488 1
49 524 1
49 543 1
49 544 1
49 548 1
49 566 1
49 577 1
49 586 1
49 605 1
49 611 1
49 618 1
49 623 1
49 629 1
49 646 1
49 662 1
49 687 1
49 690 1
49 727 1
49 747 1
49 751 1
49 755 1
49 759 1
49 761 1
49 765 1
49 768 1
49 784 1
50 71 1
50 78 1
50 90 1
50 118 1
50 127 1
50 146 1
50 150 1
50 155 1
50 179 1
50 191 1
50 192 1
50 201 1
50 217 1
50 226 1
50 241 1
50 251 1
50 261 1
50 262 1
50 272 1
50 299 1
50 301 1
50 314 1
50 315 1
50 332 1
50 355 1
50 376 1
50 425 1
50 427 1
50 516 1
50 527 1
50 535 1
50 559 1
50 582 1
50 587 1
50 592 1
50 594 1
50 639 1
50 647 1
50 662 1
50 697 1
50 713 1
50 724 1
50 730 1
50 748 1
50 761 1
50 764 1
50 767 1
50 783 1
50 784 1
50 793 1
51 10 1
51 19 1
51 30 1
51 55 1
51 105 1
51 153 1
51 164 1
51 208 1
51 235 1
51 250 1
51 263 1
51 277 1
51 279 1
51 289 1
51 314 1
51 346 1
51 356 1
51 357 1
51 358 1
51 369 1
51 374 1
51 376 1
51 395 1
51 414 1
51 415 1
51 422 1
51 425 1
51 426 1
51 434 1
51 462 1
51 500 1
51 520 1
51 552 1
51 564 1
51 610 1
51 628 1
51 630 1
51 636 1
51 713 1
51 727 1
51 732 1
51 740 1
51 773 1
52 13 1
52 29 1
52 40 1
52 59 1
52 64 1
52 72 1
52 73 1
52 89 1
52 105 1
52 111 1
52 129 1
52 138 1
52 139 1
52 163 1
52 164 1
52 232 1
52 308 1
52 316 1
52 338 1
52 344 1
52 347 1
52 348 1
52 349 1
52 358 1
52 361 1
52 373 1
52 383 1
52 385 1
52 389 1
52 430 1
52 434 1
52 475 1
52 478 1
52 493 1
52 502 1
52 511 1
52 541 1
52 557 1
52 569 1
52 570 1
52 579 1
52 581 1
52 590 1
52 602 1
52 620 1
52 648 1
52 655 1
52 687 1
52 701 1
52 705 1
52 714 1
52 719 1
52 738 1
52 778 1
52 779 1
52 783 1
53 32 1
53 33 1
53 36 1
53 42 1
53 46 1
53 65 1
53 78 1
53 129 1
53 136 1
53 156 1
53 166 1
53 181 1
53 207 1
53 222 1
53 223 1
53 235 1
53 244 1
53 328 1
53 329 1
53 338 1
53 342 1
53 343 1
53 346 1
53 360 1
53 387 1
53 432 1
53 449 1
53 455 1
53 514 1
53 517 1
53 520 1
53 521 1
53 523 1
53 537 1
53 547 1
53 566 1
53 588 1
53 623 1
53 632 1
53 652 1
53 663 1
53 719 1
53 736 1
53 737 1
53 751 1
53 755 1
53 778 1
54 1 1
54 6 1
54 13 1
54 21 1
54 41 1
54 46 1
54 48 1
54 59 1
54 150 1
54 154 1
54 178 1
54 183 1
54 187 1
54 195 1
54 258 1
54 277 1
54 310 1
54 329 1
54 349 1
54 372 1
54 380 1
54 387 1
54 454 1
54 460 1
54 468 1
54 484 1
54 498 1
54 502 1
54 549 1
54 560 1
54 564 1
54 582 1
54 607 1
54 616 1
54 634 1
54 684 1
54 715 1
54 722 1
54 761 1
54 767 1
54 786 1
55 19 1
55 32 1
55 51 1
55 69 1
55 87 1
55 90 1
55 94 1
55 98 1
55 113 1
55 123 1
55 138 1
55 158 1
55 167 1
55 190 1
55 198 1
55 205 1
55 220 1
55 223 1
55 231 1
55 265 1
55 288 1
55 302 1
55 307 1
55 320 1
55 326 1
55 337 1
55 339 1
55 375 1
55 386 1
55 425 1
55 439 1
55 448 1
55 449 1
55 467 1
55 468 1
55 469 1
55 488 1
55 506 1
55 531 1
55 546 1
55 567 1
55 578 1
55 579 1
55 604 1
55 615 1
55 638 1
55 718 1
55 742 1
55 779 1
55 793 1
55 798 1
56 12 1
56 84 1
56 100 1
56 124 1
56 139 1
56 152 1
56 167 1
56 169 1
56 172 1
56 216 1
56 225 1
56 240 1
56 244 1
56 253 1
56 279 1
56 286 1
56 291 1
56 303 1
56 349 1
56 359 1
56 372 1
56 392 1
56 399 1
56 403 1
56 409 1
56 417 1
56 423 1
56 424 1
56 431 1
56 434 1
56 440 1
56 447 1
56 460 1
56 461 1
56 464 1
56 465 1
56 482 1
56 494 1
56 497 1
56 569 1
56 586 1
56 592 1
56 598 1
56 601 1
56 609 1
56 617 1
56 684 1
56 704 1
56 708 1
56 710 1
56 731 1
56 734 1
56 742 1
56 767 1
56 769 1
56 770 1
56 774 1
56 786 1
57 30 1
57 49 1
57 61 1
57 66 1
57 74 1
57 86 1
57 161 1
57 206 1
57 216 1
57 245 1
57 275 1
57 282 1
57 284 1
57 285 1
57 343 1
57 344 1
57 345 1
57 367 1
57 399 1
57 415 1
57 424 1
57 455 1
57 462 1
57 468 1
57 476 1
57 504 1
57 524 1
57 531 1
57 534 1
57 559 1
57 569 1
57 597 1
57 627 1
57 634 1
57 648 1
57 665 1
57 703 1
57 715 1
57 719 1
57 726 1
57 728 1
57 729 1
57 749 1
58 13 1
58 21 1
58 30 1
58 31 1
58 48 1
58 70 1
58 97 1
58 103 1
58 107 1
58 126 1
58 127 1
58 130 1
58 131 1
58 137 1
58 167 1
58 197 1
58 203 1
58 215 1
58 232 1
58 254 1
58 287 1
58 288 1
58 299 1
58 314 1
58 317 1
58 334 1
58 346 1
58 351 1
58 361 1
58 393 1
58 401 1
58 412 1
58 438 1
58 452 1
58 472 1
58 490 1
58 498 1
58 507 1
58 515 1
58 557 1
58 564 1
58 571 1
58 576 1
58 590 1
58 591 1
58 621 1
58 623 1
58 637 1
58 651 1
58 668 1
58 683 1
58 708 1
58 716 1
58 737 1
59 6 1
59 7 1
59 31 1
59 52 1
59 54 1
59 72 1
59 87 1
59 97 1
59 99 1
59 165 1
59 171 1
59 186 1
59 211 1
59 216 1
59 245 1
59 250 1
59 255 1
59 260 1
59 273 1
59 281 1
59 317 1
59 352 1
59 364 1
59 369 1
59 373 1
59 434 1
59 461 1
59 515 1
59 561 1
59 568 1
59 576 1
59 589 1
59 621 1
59 646 1
59 672 1
59 690 1
59 701 1
59 723 1
59 756 1
59 776 1
60 6 1
60 13 1
60 28 1
60 62 1
60 79 1
60 81 1
60 89 1
60 105 1
60 110 1
60 184 1
60 188 1
60 199 1
60 212 1
60 214 1
60 241 1
60 261 1
60 265 1
60 270 1
60 287 1
60 296 1
60 354 1
60 363 1
60 386 1
60 390 1
60 400 1
60 403 1
60 444 1
60 455 1
60 472 1
60 495 1
60 519 1
60 535 1
60 545 1
60 578 1
60 590 1
60 698 1
60 699 1
60 736 1
60 742 1
60 753 1
60 799 1
61 1 1
61 57 1
61 72 1
61 88 1
61 111 1
61 134 1
61 138 1
61 153 1
61 173 1
61 183 1
61 197 1
61 216 1
61 218 1
61 265 1
61 360 1
61 370 1
61 395 1
61 398 1
61 409 1
61 447 1
61 480 1
61 501 1
61 508 1
61 519 1
61 539 1
61 556 1
61 562 1
61 578 1
61 585 1
61 619 1
61 634 1
61 637 1
61 654 1
61 663 1
61 676 1
61 680 1
61 721 1
61 745 1
61 762 1
61 798 1
62 26 1
62 32 1
62 36 1
62 38 1
62 60 1
62 64 1
62 76 1
62 78 1
62 95 1
62 112 1
62 143 1
62 161 1
62 181 1
62 188 1
62 197 1
62 211 1
62 241 1
62 244 1
62 249 1
62 256 1
62 271 1
62 275 1
62 284 1
62 288 1
62 295 1
62 308 1
62 314 1
62 320 1
62 381 1
62 457 1
62 480 1
62 528 1
62 546 1
62 557 1
62 647 1
62 685 1
62 702 1
62 722 1
62 767 1
62 768 1
62 773 1
62 797 1
63 1 1
63 4 1
63 5 1
63 32 1
63 94 1
63 106 1
63 115 1
63 119 1
63 124 1
63 131 1
63 139 1
63 147 1
63 157 1
63 168 1
63 178 1
63 182 1
63 193 1
63 203 1
63 210 1
63 243 1
63 246 1
63 251 1
63 281 1
63 282 1
63 288 1
63 317 1
63 333 1
63 361 1
63 375 1
63 398 1
63 399 1
63 430 1
63 462 1
63 464 1
63 467 1
63 495 1
63 520 1
63 530 1
63 531 1
63 548 1
63 564 1
63 571 1
63 591 1
63 628 1
63 645 1
63 648 1
63 701 1
63 758 1
63 784 1
64 47 1
64 52 1
64 62 1
64 85 1
64 86 1
64 94 1
64 99 1
64 100 1
64 101 1
64 129 1
64 141 1
64 142 1
64 143 1
64 174 1
64 200 1
64 232 1
64 235 1
64 268 1
64 269 1
64 280 1
64 331 1
64 344 1
64 382 1
64 428 1
64 441 1
64 447 1
64 451 1
64 462 1
64 486 1
64 503 1
64 517 1
64 525 1
64 583 1
64 598 1
64 612 1
64 613 1
64 634 1
64 639 1
64 642 1
64 653 1
64 671 1
64 685 1
64 712 1
64 721 1
64 729 1
64 771 1
64 784 1
65 1 1
65 49 1
65 53 1
65 91 1
65 117 1
65 127 1
65 160 1
65 167 1
65 168 1
65 189 1
65 194 1
65 207 1
65 215 1
65 228 1
65 262 1
65 282 1
65 305 1
65 322 1
65 330 1
65 340 1
65 387 1
65 395 1
65 396 1
65 397 1
65 407 1
65 416 1
65 425 1
65 437 1
65 459 1
65 468 1
65 492 1
65 501 1
65 502 1
65 521 1
65 524 1
65 529 1
65 543 1
65 544 1
65 565 1
65 579 1
65 592 1
65 680 1
65 688 1
65 690 1
65 696 1
65 704 1
65 738 1
65 745 1
65 774 1
65 797 1
66 12 1
66 19 1
66 22 1
66 30 1
66 33 1
66 39 1
66 48 1
66 57 1
66 93 1
66 98 1
66 101 1
66 114 1
66 121 1
66 142 1
66 150 1
66 160 1
66 198 1
66 211 1
66 231 1
66 253 1
66 254 1
66 255 1
66 270 1
66 278 1
66 279 1
66 295 1
66 301 1
66 306 1
66 312 1
66 325 1
66 341 1
66 347 1
66 362 1
66 375 1
66 383 1
66 388 1
66 394 1
66 401 1
66 418 1
66 419 1
66 423 1
66 433 1
66 438 1
66 448 1
66 473 1
66 508 1
66 525 1
66 540 1
66 565 1
66 573 1
66 588 1
66 610 1
66 617 1
66 619 1
66 643 1
66 661 1
66 683 1
66 697 1
66 741 1
66 743 1
66 748 1
66 752 1
66 754 1
66 761 1
66 776 1
66 797 1
67 33 1
67 75 1
67 107 1
67 121 1
67 138 1
67 139 1
67 146 1
67 160 1
67 169 1
67 180 1
67 198 1
67 212 1
67 242 1
67 246 1
67 284 1
67 285 1
67 289 1
67 312 1
67 313 1
67 340 1
67 431 1
67 479 1
67 506 1
67 516 1
67 549 1
67 553 1
67 559 1
67 587 1
67 607 1
67 611 1
67 626 1
67 641 1
67 647 1
67 653 1
67 658 1
67 671 1
67 708 1
67 712 1
67 727 1
67 729 1
67 740 1
67 742 1
67 756 1
67 773 1
68 2 1
68 9 1
68 78 1
68 84 1
68 96 1
68 105 1
68 111 1
68 122 1
68 130 1
68 150 1
68 154 1
68 186 1
68 189 1
68 198 1
68 215 1
68 222 1
68 234 1
68 268 1
68 286 1
68 307 1
68 309 1
68 328 1
68 363 1
68 368 1
68 380 1
68 393 1
68 407 1
68 410 1
68 440 1
68 467 1
68 476 1
68 488 1
68 502 1
68 514 1
68 520 1
68 524 1
68 536 1
68 600 1
68 608 1
68 611 1
68 614 1
68 636 1
68 643 1
68 655 1
68 656 1
68 662 1
68 685 1
68 689 1
68 693 1
68 730 1
68 740 1
68 745 1
68 747 1
68 756 1
69 5 1
69 7 1
69 17 1
69 28 1
69 42 1
69 55 1
69 92 1
69 96 1
69 97 1
69 128 1
69 135 1
69 140 1
69 145 1
69 149 1
69 177 1
69 195 1
69 225 1
69 229 1
69 238 1
69 239 1
69 256 1
69 261 1
69 265 1
69 269 1
69 292 1
69 293 1
69 303 1
69 305 1
69 342 1
69 353 1
69 361 1
69 409 1
69 430 1
69 431 1
69 455 1
69 471 1
69 475 1
69 503 1
69 514 1
69 516 1
69 532 1
69 536 1
69 537 1
69 549 1
69 553 1
69 554 1
69 565 1
69 584 1
69 623 1
69 670 1
69 674 1
69 681 1
69 684 1
69 685 1
69 694 1
69 709 1
69 746 1
69 747 1
69 748 1
69 769 1
69 776 1
70 1 1
70 13 1
70 36 1
70 58 1
70 78 1
70 114 1
70 128 1
70 129 1
70 132 1
70 141 1
70 176 1
70 178 1
70 187 1
70 205 1
70 214 1
70 217 1
70 229 1
70 271 1
70 301 1
70 412 1
70 413 1
70 426 1
70 430 1
70 453 1
70 458 1
70 484 1
70 516 1
70 535 1
70 543 1
70 548 1
70 551 1
70 552 1
70 563 1
70 574 1
70 590 1
70 599 1
70 604 1
70 607 1
70 615 1
70 641 1
70 674 1
70 678 1
70 680 1
70 682 1
70 687 1
70 688 1
70 700 1
70 729 1
70 742 1
70 752 1
71 5 1
71 8 1
71 15 1
71 50 1
71 78 1
71 86 1
71 97 1
71 121 1
71 129 1
71 145 1
71 157 1
71 164 1
71 165 1
71 179 1
71 251 1
71 258 1
71 264 1
71 274 1
71 284 1
71 291 1
71 298 1
71 300 1
71 321 1
71 322 1
71 324 1
71 328 1
71 360 1
71 376 1
71 384 1
71 422 1
71 439 1
71 459 1
71 487 1
71 502 1
71 504 1
71 519 1
71 528 1
71 534 1
71 568 1
71 578 1
71 582 1
71 584 1
71 590 1
71 592 1
71 602 1
71 635 1
71 639 1
71 644 1
71 646 1
71 657 1
71 670 1
71 674 1
71 700 1
71 709 1
71 718 1
71 742 1
71 760 1
71 769 1
71 770 1
71 775 1
71 783 1
72 1 1
72 26 1
72 52 1
72 59 1
72 61 1
72 85 1
72 100 1
72 150 1
72 165 1
72 173 1
72 174 1
72 214 1
72 232 1
72 244 1
72 260 1
72 276 1
72 279 1
72 291 1
72 293 1
72 298 1
72 301 1
72 331 1
72 336 1
72 353 1
72 356 1
72 362 1
72 388 1
72 404 1
72 424 1
72 474 1
72 482 1
72 485 1
72 493 1
72 544 1
72 557 1
72 560 1
72 563 1
72 586 1
72 599 1
72 603 1
72 617 1
72 625 1
72 631 1
72 636 1
72 639 1
72 667 1
72 670 1
72 675 1
72 678 1
72 685 1
72 687 1
72 697 1
72 698 1
72 720 1
72 730 1
72 740 1
72 762 1
72 772 1
72 798 1
73 35 1
73 52 1
73 134 1
73 159 1
73 182 1
73 184 1
73 187 1
73 191 1
73 203 1
73 223 1
73 235 1
73 250 1
73 262 1
73 263 1
73 265 1
73 300 1
73 307 1
73 333 1
73 335 1
73 339 1
73 358 1
73 364 1
73 370 1
73 391 1
73 400 1
73 410 1
73 411 1
73 415 1
73 420 1
73 427 1
73 454 1
73 481 1
73 523 1
73 532 1
73 548 1
73 581 1
73 644 1
73 651 1
73 662 1
73 684 1
73 698 1
73 710 1
73 713 1
73 746 1
73 773 1
73 780 1
73 786 1
73 791 1
74 8 1
74 32 1
74 36 1
74 45 1
74 49 1
74 57 1
74 93 1
74 112 1
74 122 1
74 183 1
74 185 1
74 199 1
74 200 1
74 212 1
74 234 1
74 244 1
74 282 1
74 283 1
74 289 1
74 300 1
74 314 1
74 323 1
74 324 1
74 346 1
74 360 1
74 374 1
74 389 1
74 397 1
74 398 1
74 404 1
74 405 1
74 409 1
74 411 1
74 419 1
74 420 1
74 506 1
74 510 1
74 559 1
74 562 1
74 570 1
74 597 1
74 616 1
74 628 1
74 638 1
74 654 1
74 670 1
74 674 1
74 711 1
74 721 1
74 738 1
74 747 1
74 780 1
75 17 1
75 18 1
75 23 1
75 67 1
75 103 1
75 112 1
75 115 1
75 116 1
75 120 1
75 132 1
75 173 1
75 179 1
75 189 1
75 207 1
75 219 1
75 235 1
75 237 1
75 273 1
75 289 1
75 334 1
75 358 1
75 364 1
75 388 1
75 392 1
75 405 1
75 417 1
75 419 1
75 452 1
75 458 1
75 487 1
75 497 1
75 520 1
75 525 1
75 532 1
75 545 1
75 585 1
75 601 1
75 623 1
75 644 1
75 645 1
75 647 1
75 660 1
75 664 1
75 678 1
75 682 1
75 718 1
75 720 1
75 727 1
75 728 1
75 766 1
75 776 1
75 795 1
76 17 1
76 62 1
76 99 1
76 109 1
76 116 1
76 120 1
76 125 1
76 133 1
76 136 1
76 145 1
76 175 1
76 177 1
76 184 1
76 191 1
76 274 1
76 295 1
76 355 1
76 370 1
76 390 1
76 438 1
76 449 1
76 466 1
76 479 1
76 489 1
76 513 1
76 518 1
76 520 1
76 521 1
76 523 1
76 547 1
76 551 1
76 562 1
76 568 1
76 573 1
76 602 1
76 612 1
76 633 1
76 643 1
76 644 1
76 667 1
76 678 1
76 705 1
76 722 1
76 724 1
76 726 1
76 735 1
76 755 1
76 769 1
76 774 1
76 785 1
77 18 1
77 22 1
77 35 1
77 40 1
77 45 1
77 118 1
77 133 1
77 151 1
77 178 1
77 197 1
77 239 1
77 243 1
77 248 1
77 252 1
77 268 1
77 275 1
77 284 1
77 290 1
77 298 1
77 317 1
77 325 1
77 365 1
77 370 1
77 398 1
77 412 1
77 428 1
77 468 1
77 491 1
77 497 1
77 546 1
77 556 1
77 596 1
77 605 1
77 625 1
77 631 1
77 637 1
77 649 1
77 703 1
77 711 1
77 715 1
77 746 1
77 785 1
77 794 1
77 796 1
78 11 1
78 20 1
78 24 1
78 26 1
78 50 1
78 53 1
78 62 1
78 68 1
78 70 1
78 71 1
78 81 1
78 98 1
78 106 1
78 111 1
78 112 1
78 129 1
78 136 1
78 164 1
78 185 1
78 226 1
78 231 1
78 319 1
78 338 1
78 353 1
78 355 1
78 366 1
78 386 1
78 430 1
78 456 1
78 484 1
78 495 1
78 507 1
78 535 1
78 585 1
78 605 1
78 638 1
78 639 1
78 646 1
78 648 1
78 659 1
78 718 1
78 720 1
78 740 1
78 774 1
78 776 1
78 778 1
78 791 1
79 25 1
79 30 1
79 31 1
79 40 1
79 60 1
79 80 1
79 132 1
79 134 1
79 162 1
79 191 1
79 267 1
79 302 1
79 303 1
79 326 1
79 330 1
79 333 1
79 353 1
79 377 1
79 401 1
79 433 1
79 435 1
79 447 1
79 456 1
79 457 1
79 464 1
79 473 1
79 500 1
79 505 1
79 537 1
79 554 1
79 562 1
79 565 1
79 573 1
79 605 1
79 624 1
79 645 1
79 654 1
79 672 1
79 677 1
79 699 1
79 701 1
79 707 1
79 711 1
79 712 1
79 775 1
79 778 1
79 780 1
79 785 1
79 793 1
80 4 1
80 10 1
80 12 1
80 26 1
80 38 1
80 79 1
80 113 1
80 117 1
80 143 1
80 158 1
80 192 1
80 202 1
80 204 1
80 207 1
80 212 1
80 214 1
80 219 1
80 227 1
80 252 1
80 276 1
80 322 1
80 331 1
80 340 1
80 369 1
80 373 1
80 387 1
80 404 1
80 416 1
80 417 1
80 437 1
80 484 1
80 511 1
80 525 1
80 527 1
80 531 1
80 575 1
80 577 1
80 579 1
80 608 1
80 631 1
80 641 1
80 667 1
80 674 1
80 682 1
80 712 1
80 749 1
80 753 1
80 776 1
80 777 1
81 5 1
81 45 1
81 60 1
81 78 1
81 102 1
81 108 1
81 125 1
81 153 1
81 165 1
81 167 1
81 169 1
81 173 1
81 208 1
81 223 1
81 232 1
81 254 1
81 262 1
81 279 1
81 292 1
81 293 1
81 327 1
81 343 1
81 344 1
81 345 1
81 346 1
81 369 1
81 374 1
81 393 1
81 422 1
81 431 1
81 438 1
81 458 1
81 474 1
81 512 1
81 517 1
81 523 1
81 540 1
81 542 1
81 560 1
81 648 1
81 663 1
81 682 1
81 684 1
81 700 1
81 707 1
81 729 1
81 747 1
81 750 1
81 754 1
81 776 1
82 38 1
82 89 1
82 95 1
82 117 1
82 124 1
82 151 1
82 168 1
82 182 1
82 186 1
82 187 1
82 227 1
82 229 1
82 243 1
82 253 1
82 259 1
82 278 1
82 298 1
82 321 1
82 325 1
82 329 1
82 336 1
82 343 1
82 357 1
82 371 1
82 399 1
82 414 1
82 515 1
82 520 1
82 522 1
82 523 1
82 535 1
82 541 1
82 550 1
82 567 1
82 569 1
82 574 1
82 575 1
82 590 1
82 601 1
82 611 1
82 628 1
82 647 1
82 693 1
82 700 1
82 710 1
83 138 1
83 151 1
83 155 1
83 171 1
83 182 1
83 188 1
83 228 1
83 242 1
83 244 1
83 248 1
83 280 1
83 316 1
83 337 1
83 373 1
83 380 1
83 391 1
83 400 1
83 412 1
83 420 1
83 422 1
83 472 1
83 507 1
83 520 1
83 525 1
83 544 1
83 579 1
83 603 1
83 613 1
83 634 1
83 637 1
83 658 1
83 664 1
83 676 1
83 680 1
83 687 1
83 697 1
83 699 1
83 704 1
83 707 1
83 749 1
83 767 1
83 779 1
83 792 1
84 6 1
84 23 1
84 25 1
84 37 1
84 56 1
84 68 1
84 92 1
84 98 1
84 104 1
84 186 1
84 212 1
84 215 1
84 217 1
84 221 1
84 252 1
84 366 1
84 394 1
84 403 1
84 405 1
84 408 1
84 411 1
84 416 1
84 449 1
84 451 1
84 462 1
84 517 1
84 518 1
84 520 1
84 527 1
84 529 1
84 530 1
84 549 1
84 556 1
84 593 1
84 627 1
84 631 1
84 634 1
84 677 1
84 710 1
84 720 1
84 731 1
84 758 1
84 759 1
84 772 1
85 23 1
85 43 1
85 64 1
85 72 1
85 102 1
85 147 1
85 156 1
85 159 1
85 160 1
85 187 1
85 188 1
85 193 1
85 223 1
85 254 1
85 277 1
85 287 1
85 330 1
85 351 1
85 391 1
85 403 1
85 407 1
85 418 1
85 423 1
85 463 1
85 473 1
85 478 1
85 487 1
85 531 1
85 537 1
85 578 1
85 599 1
85 607 1
85 611 1
85 612 1
85 620 1
85 631 1
85 636 1
85 639 1
85 642 1
85 668 1
85 674 1
85 676 1
85 707 1
85 708 1
85 727 1
85 730 1
85 743 1
85 752 1
85 779 1
85 787 1
85 789 1
85 790 1
86 22 1
86 37 1
86 57 1
86 64 1
86 71 1
86 113 1
86 139 1
86 216 1
86 219 1
86 274 1
86 287 1
86 299 1
86 306 1
86 315 1
86 322 1
86 326 1
86 330 1
86 338 1
86 350 1
86 355 1
86 386 1
86 387 1
86 406 1
86 408 1
86 420 1
86 463 1
86 467 1
86 480 1
86 495 1
86 510 1
86 582 1
86 583 1
86 606 1
86 617 1
86 620 1
86 631 1
86 633 1
86 654 1
86 657 1
86 681 1
86 745 1
86 752 1
86 758 1
86 761 1
86 762 1
87 5 1
87 9 1
87 29 1
87 41 1
87 55 1
87 59 1
87 94 1
87 96 1
87 97 1
87 114 1
87 118 1
87 120 1
87 146 1
87 160 1
87 184 1
87 234 1
87 254 1
87 255 1
87 262 1
87 272 1
87 317 1
87 347 1
87 367 1
87 373 1
87 375 1
87 382 1
87 383 1
87 417 1
87 425 1
87 474 1
87 491 1
87 492 1
87 506 1
87 509 1
87 552 1
87 566 1
87 585 1
87 601 1
87 613 1
87 627 1
87 654 1
87 660 1
87 688 1
87 693 1
87 695 1
87 719 1
87 720 1
87 747 1
87 764 1
87 767 1
87 780 1
88 4 1
88 29 1
88 47 1
88 61 1
88 90 1
88 94 1
88 102 1
88 118 1
88 134 1
88 139 1
88 153 1
88 184 1
88 185 1
88 197 1
88 232 1
88 241 1
88 252 1
88 257 1
88 289 1
88 321 1
88 345 1
88 406 1
88 414 1
88 418 1
88 424 1
88 430 1
88 433 1
88 466 1
88 471 1
88 481 1
88 521 1
88 540 1
88 566 1
88 568 1
88 575 1
88 608 1
88 628 1
88 634 1
88 654 1
88 673 1
88 683 1
88 687 1
88 715 1
88 724 1
88 753 1
88 766 1
88 797 1
89 12 1
89 20 1
89 52 1
89 60 1
89 82 1
89 91 1
89 144 1
89 164 1
89 177 1
89 194 1
89 201 1
89 202 1
89 220 1
89 234 1
89 266 1
89 287 1
89 312 1
89 323 1
89 368 1
89 380 1
89 381 1
89 392 1
89 394 1
89 425 1
89 441 1
89 446 1
89 453 1
89 474 1
89 476 1
89 480 1
89 484 1
89 502 1
89 515 1
89 526 1
89 536 1
89 560 1
89 622 1
89 654 1
89 666 1
89 687 1
89 700 1
89 757 1
89 765 1
89 775 1
89 776 1
90 18 1
90 21 1
90 43 1
90 45 1
90 50 1
90 55 1
90 88 1
90 95 1
90 104 1
90 109 1
90 149 1
90 152 1
90 190 1
90 193 1
90 195 1
90 246 1
90 255 1
90 301 1
90 308 1
90 309 1
90 317 1
90 324 1
90 341 1
90 360 1
90 387 1
90 388 1
90 417 1
90 449 1
90 472 1
90 563 1
90 567 1
90 572 1
90 605 1
90 615 1
90 619 1
90 627 1
90 630 1
90 641 1
90 664 1
90 669 1
90 670 1
90 681 1
90 686 1
90 688 1
90 693 1
90 703 1
90 711 1
90 721 1
90 735 1
90 756 1
90 759 1
90 782 1
90 796 1
91 3 1
91 29 1
91 65 1
91 89 1
91 96 1
91 137 1
91 155 1
91 164 1
91 175 1
91 209 1
91 297 1
91 323 1
91 335 1
91 362 1
91 364 1
91 371 1
91 388 1
91 418 1
91 459 1
91 479 1
91 490 1
91 500 1
91 506 1
91 527 1
91 533 1
91 553 1
91 569 1
91 590 1
91 593 1
91 599 1
91 602 1
91 626 1
91 629 1
91 647 1
91 693 1
91 714 1
91 724 1
91 726 1
91 734 1
91 756 1
91 771 1
91 775 1
92 24 1
92 40 1
92 69 1
92 84 1
92 121 1
92 169 1
92 174 1
92 189 1
92 200 1
92 207 1
92 229 1
92 251 1
92 268 1
92 278 1
92 287 1
92 311 1
92 357 1
92 364 1
92 367 1
92 371 1
92 397 1
92 417 1
92 428 1
92 474 1
92 475 1
92 479 1
92 505 1
92 509 1
92 513 1
92 519 1
92 521 1
92 600 1
92 610 1
92 618 1
92 619 1
92 631 1
92 657 1
92 658 1
92 659 1
92 703 1
92 716 1
92 727 1
92 734 1
92 758 1
93 4 1
93 23 1
93 29 1
93 66 1
93 74 1
93 94 1
93 97 1
93 154 1
93 158 1
93 173 1
93 184 1
93 186 1
93 187 1
93 192 1
93 210 1
93 219 1
93 282 1
93 309 1
93 311 1
93 329 1
93 338 1
93 407 1
93 418 1
93 423 1
93 452 1
93 461 1
93 469 1
93 486 1
93 490 1
93 496 1
93 509 1
93 516 1
93 543 1
93 556 1
93 561 1
93 587 1
93 595 1
93 603 1
93 610 1
93 630 1
93 641 1
93 642 1
93 677 1
93 687 1
93 700 1
93 721 1
93 727 1
93 732 1
93 787 1
93 788 1
94 44 1
94 45 1
94 55 1
94 63 1
94 64 1
94 87 1
94 88 1
94 93 1
94 110 1
94 119 1
94 125 1
94 132 1
94 142 1
94 185 1
94 188 1
94 219 1
94 233 1
94 247 1
94 275 1
94 281 1
94 289 1
94 291 1
94 374 1
94 387 1
94 408 1
94 412 1
94 430 1
94 448 1
94 459 1
94 460 1
94 461 1
94 494 1
94 510 1
94 520 1
94 540 1
94 564 1
94 572 1
94 635 1
94 637 1
94 655 1
94 669 1
94 678 1
94 702 1
94 718 1
94 734 1
94 763 1
94 789 1
95 11 1
95 19 1
95 25 1
95 62 1
95 82 1
95 90 1
95 138 1
95 151 1
95 182 1
95 188 1
95 196 1
95 202 1
95 203 1
95 207 1
95 245 1
95 254 1
95 261 1
95 265 1
95 286 1
95 300 1
95 318 1
95 324 1
95 332 1
95 386 1
95 410 1
95 420 1
95 430 1
95 450 1
95 452 1
95 455 1
95 467 1
95 484 1
95 505 1
95 521 1
95 553 1
95 576 1
95 580 1
95 613 1
95 637 1
95 654 1
95 655 1
95 660 1
95 661 1
95 687 1
95 712 1
95 757 1
95 767 1
95 775 1
95 781 1
95 787 1
96 20 1
96 48 1
96 68 1
96 69 1
96 87 1
96 91 1
96 118 1
96 130 1
96 159 1
96 176 1
96 180 1
96 191 1
96 202 1
96 230 1
96 249 1
96 265 1
96 268 1
96 297 1
96 322 1
96 336 1
96 349 1
96 367 1
96 371 1
96 387 1
96 396 1
96 424 1
96 443 1
96 486 1
96 488 1
96 500 1
96 580 1
96 588 1
96 603 1
96 622 1
96 627 1
96 634 1
96 635 1
96 644 1
96 651 1
96 704 1
96 706 1
96 707 1
96 744 1
96 760 1
96 761 1
96 777 1
96 795 1
97 23 1
97 33 1
97 49 1
97 58 1
97 59 1
97 69 1
97 71 1
97 87 1
97 93 1
97 99 1
97 101 1
97 111 1
97 116 1
97 123 1
97 175 1
97 179 1
97 192 1
97 195 1
97 217 1
97 259 1
97 274 1
97 280 1
97 295 1
97 328 1
97 334 1
97 350 1
97 367 1
97 372 1
97 383 1
97 385 1
97 390 1
97 429 1
97 470 1
97 501 1
97 521 1
97 527 1
97 534 1
97 537 1
97 542 1
97 552 1
97 591 1
97 620 1
97 639 1
97 653 1
97 662 1
97 670 1
97 708 1
97 726 1
97 744 1
97 753 1
97 762 1
97 766 1
97 775 1
97 778 1
97 782 1
97 795 1
97 800 1
98 2 1
98 10 1
98 55 1
98 66 1
98 78 1
98 84 1
98 101 1
98 161 1
98 167 1
98 177 1
98 197 1
98 199 1
98 208 1
98 213 1
98 222 1
98 239 1
98 264 1
98 275 1
98 284 1
98 303 1
98 318 1
98 367 1
98 375 1
98 398 1
98 428 1
98 443 1
98 501 1
98 503 1
98 512 1
98 604 1
98 614 1
98 626 1
98 629 1
98 651 1
98 668 1
98 699 1
98 747 1
98 767 1
98 770 1
98 797 1
99 42 1
99 59 1
99 64 1
99 76 1
99 97 1
99 104 1
99 136 1
99 151 1
99 207 1
99 212 1
99 213 1
99 215 1
99 219 1
99 245 1
99 261 1
99 279 1
99 289 1
99 291 1
99 295 1
99 300 1
99 306 1
99 310 1
99 320 1
99 328 1
99 346 1
99 359 1
99 372 1
99 375 1
99 411 1
99 443 1
99 448 1
99 480 1
99 491 1
99 492 1
99 497 1
99 515 1
99 547 1
99 572 1
99 576 1
99 588 1
99 602 1
99 622 1
99 647 1
99 655 1
99 668 1
99 681 1
99 704 1
99 709 1
99 718 1
99 731 1
99 750 1
99 754 1
99 786 1
100 1 1
100 4 1
100 17 1
100 29 1
100 33 1
100 41 1
100 42 1
100 56 1
100 64 1
100 72 1
100 102 1
100 104 1
100 110 1
100 117 1
100 128 1
100 135 1
100 145 1
100 156 1
100 172 1
100 201 1
100 239 1
100 241 1
100 286 1
100 295 1
100 336 1
100 358 1
100 371 1
100 382 1
100 401 1
100 472 1
100 501 1
100 512 1
100 518 1
100 519 1
100 555 1
100 573 1
100 580 1
100 589 1
100 593 1
100 596 1
100 597 1
100 632 1
100 634 1
100 650 1
100 677 1
100 689 1
100 699 1
100 701 1
100 753 1
100 791 1
101 5 1
101 29 1
101 35 1
101 39 1
101 64 1
101 66 1
101 97 1
101 98 1
101 126 1
101 136 1
101 185 1
101 187 1
101 196 1
101 229 1
101 230 1
101 237 1
101 254 1
101 273 1
101 279 1
101 289 1
101 291 1
101 293 1
101 299 1
101 349 1
101 350 1
101 352 1
101 416 1
101 421 1
101 435 1
101 444 1
101 456 1
101 458 1
101 466 1
101 474 1
101 496 1
101 497 1
101 500 1
101 501 1
101 514 1
101 537 1
101 541 1
101 545 1
101 554 1
101 565 1
101 571 1
101 577 1
101 578 1
101 579 1
101 586 1
101 594 1
101 602 1
101 611 1
101 630 1
101 666 1
101 678 1
101 694 1
101 700 1
101 703 1
101 707 1
101 712 1
101 725 1
101 742 1
101 749 1
101 776 1
102 81 1
102 85 1
102 88 1
102 100 1
102 103 1
102 137 1
102 138 1
102 154 1
102 158 1
102 159 1
102 160 1
102 165 1
102 170 1
102 194 1
102 197 1
102 198 1
102 233 1
102 236 1
102 259 1
102 268 1
102 287 1
102 293 1
102 294 1
102 316 1
102 336 1
102 373 1
102 384 1
102 386 1
102 402 1
102 453 1
102 460 1
102 472 1
102 482 1
102 491 1
102 492 1
102 505 1
102 506 1
102 511 1
102 518 1
102 535 1
102 538 1
102 548 1
102 556 1
102 562 1
102 567 1
102 590 1
102 595 1
102 598 1
102 599 1
102 615 1
102 620 1
102 625 1
102 637 1
102 654 1
102 663 1
102 688 1
102 692 1
102 698 1
102 701 1
102 711 1
102 726 1
102 733 1
102 742 1
102 754 1
102 766 1
102 787 1
103 36 1
103 41 1
103 42 1
103 58 1
103 75 1
103 102 1
103 107 1
103 113 1
103 133 1
103 152 1
103 162 1
103 178 1
103 192 1
103 198 1
103 204 1
103 216 1
103 223 1
103 267 1
103 275 1
103 289 1
103 297 1
103 306 1
103 347 1
103 361 1
103 363 1
103 389 1
103 391 1
103 407 1
103 454 1
103 502 1
103 517 1
103 526 1
103 557 1
103 578 1
103 590 1
103 611 1
103 617 1
103 650 1
103 661 1
103 677 1
103 702 1
103 719 1
103 731 1
103 742 1
103 768 1
103 774 1
103 789 1
103 795 1
103 798 1
104 3 1
104 11 1
104 12 1
104 32 1
104 84 1
104 90 1
104 99 1
104 100 1
104 116 1
104 134 1
104 146 1
104 154 1
104 157 1
104 163 1
104 165 1
104 169 1
104 179 1
104 180 1
104 181 1
104 224 1
104 231 1
104 251 1
104 268 1
104 287 1
104 296 1
104 301 1
104 350 1
104 357 1
104 429 1
104 455 1
104 470 1
104 479 1
104 508 1
104 541 1
104 547 1
104 571 1
104 590 1
104 596 1
104 610 1
104 617 1
104 618 1
104 625 1
104 639 1
104 649 1
104 650 1
104 658 1
104 676 1
104 680 1
104 687 1
104 694 1
104 701 1
104 739 1
104 747 1
104 748 1
104 753 1
104 758 1
104 781 1
105 5 1
105 24 1
105 26 1
105 36 1
105 38 1
105 51 1
105 52 1
105 60 1
105 68 1
105 125 1
105 141 1
105 143 1
105 183 1
105 210 1
105 222 1
105 233 1
105 235 1
105 241 1
105 272 1
105 283 1
105 315 1
105 334 1
105 349 1
105 351 1
105 410 1
105 426 1
105 430 1
105 468 1
105 477 1
105 482 1
105 484 1
105 494 1
105 499 1
105 524 1
105 592 1
105 603 1
105 612 1
105 631 1
105 633 1
105 658 1
105 670 1
105 671 1
105 684 1
105 757 1
105 767 1
105 785 1
106 7 1
106 63 1
106 78 1
106 140 1
106 141 1
106 145 1
106 162 1
106 175 1
106 181 1
106 193 1
106 196 1
106 201 1
106 237 1
106 273 1
106 281 1
106 315 1
106 324 1
106 326 1
106 357 1
106 359 1
106 376 1
106 381 1
106 417 1
106 445 1
106 447 1
106 465 1
106 481 1
106 534 1
106 535 1
106 545 1
106 555 1
106 621 1
106 641 1
106 651 1
106 654 1
106 665 1
106 693 1
106 757 1
106 765 1
106 768 1
106 769 1
106 770 1
106 775 1
106 780 1
106 792 1
107 8 1
107 13 1
107 18 1
107 35 1
107 58 1
107 67 1
107 103 1
107 114 1
107 136 1
107 176 1
107 190 1
107 199 1
107 209 1
107 213 1
107 228 1
107 235 1
107 236 1
107 257 1
107 268 1
107 298 1
107 303 1
107 353 1
107 399 1
107 421 1
107 422 1
107 428 1
107 430 1
107 434 1
107 449 1
107 494 1
107 537 1
107 569 1
107 580 1
107 582 1
107 609 1
107 673 1
107 687 1
107 716 1
107 721 1
107 724 1
107 730 1
107 756 1
107 757 1
107 770 1
107 775 1
107 786 1
107 793 1
108 38 1
108 81 1
108 117 1
108 127 1
108 131 1
108 148 1
108 170 1
108 195 1
108 206 1
108 218 1
108 225 1
108 265 1
108 269 1
108 273 1
108 323 1
108 324 1
108 325 1
108 328 1
108 354 1
108 380 1
108 406 1
108 450 1
108 471 1
108 477 1
108 493 1
108 507 1
108 519 1
108 545 1
108 546 1
108 559 1
108 562 1
108 582 1
108 599 1
108 606 1
108 647 1
108 675 1
108 681 1
108 685 1
108 715 1
108 738 1
108 767 1
108 781 1
108 783 1
109 8 1
109 19 1
109 28 1
109 39 1
109 43 1
109 76 1
109 90 1
109 114 1
109 137 1
109 152 1
109 157 1
109 177 1
109 207 1
109 209 1
109 239 1
109 258 1
109 271 1
109 290 1
109 295 1
109 302 1
109 310 1
109 321 1
109 353 1
109 361 1
109 369 1
109 382 1
109 391 1
109 411 1
109 430 1
109 482 1
109 483 1
109 491 1
109 533 1
109 538 1
109 567 1
109 578 1
109 591 1
109 596 1
109 630 1
109 650 1
109 652 1
109 660 1
109 675 1
109 694 1
109 700 1
109 718 1
109 742 1
109 788 1
110 27 1
110 60 1
110 94 1
110 100 1
110 125 1
110 134 1
110 135 1
110 236 1
110 241 1
110 256 1
110 261 1
110 269 1
110 280 1
110 310 1
110 319 1
110 335 1
110 343 1
110 365 1
110 394 1
110 396 1
110 408 1
110 443 1
110 459 1
110 490 1
110 517 1
110 556 1
110 561 1
110 585 1
110 587 1
110 588 1
110 600 1
110 618 1
110 647 1
110 662 1
110 666 1
110 667 1
110 689 1
110 708 1
110 726 1
110 728 1
110 733 1
110 771 1
110 795 1
111 24 1
111 28 1
111 52 1
111 61 1
111 68 1
111 78 1
111 97 1
111 157 1
111 158 1
111 161 1
111 174 1
111 184 1
111 190 1
111 199 1
111 233 1
111 250 1
111 256 1
111 267 1
111 276 1
111 281 1
111 291 1
111 304 1
111 306 1
111 333 1
111 345 1
111 355 1
111 392 1
111 407 1
111 420 1
111 421 1
111 428 1
111 431 1
111 447 1
111 450 1
111 464 1
111 475 1
111 517 1
111 532 1
111 565 1
111 582 1
111 625 1
111 631 1
111 648 1
111 651 1
111 656 1
111 676 1
111 717 1
111 733 1
111 740 1
111 742 1
111 749 1
111 766 1
112 5 1
112 9 1
112 11 1
112 21 1
112 62 1
112 74 1
112 75 1
112 78 1
112 115 1
112 129 1
112 144 1
112 204 1
112 215 1
112 221 1
112 230 1
112 256 1
112 270 1
112 277 1
112 286 1
112 290 1
112 293 1
112 342 1
112 345 1
112 363 1
112 377 1
112 385 1
112 424 1
112 441 1
112 442 1
112 453 1
112 471 1
112 476 1
112 499 1
112 507 1
112 537 1
112 540 1
112 556 1
112 561 1
112 565 1
112 567 1
112 579 1
112 582 1
112 594 1
112 614 1
112 617 1
112 630 1
112 662 1
112 675 1
112 693 1
112 767 1
112 778 1
113 3 1
113 6 1
113 44 1
113 55 1
113 80 1
113 86 1
113 103 1
113 127 1
113 134 1
113 200 1
113 208 1
113 224 1
113 231 1
113 266 1
113 276 1
113 279 1
113 294 1
113 306 1
113 310 1
113 325 1
113 358 1
113 359 1
113 372 1
113 392 1
113 404 1
113 419 1
113 436 1
113 461 1
113 517 1
113 525 1
113 537 1
113 590 1
113 619 1
113 622 1
113 636 1
113 640 1
113 647 1
113 649 1
113 652 1
113 666 1
113 680 1
113 728 1
113 731 1
113 753 1
113 771 1
114 29 1
114 66 1
114 70 1
114 87 1
114 107 1
114 109 1
114 147 1
114 148 1
114 157 1
114 174 1
114 204 1
114 214 1
114 219 1
114 241 1
114 247 1
114 250 1
114 255 1
114 292 1
114 298 1
114 327 1
114 331 1
114 378 1
114 440 1
114 535 1
114 539 1
114 560 1
114 562 1
114 568 1
114 576 1
114 586 1
114 597 1
114 600 1
114 627 1
114 629 1
114 639 1
114 644 1
114 678 1
114 679 1
114 691 1
114 696 1
114 697 1
114 720 1
114 724 1
114 726 1
114 730 1
114 746 1
114 758 1
114 787 1
114 793 1
114 795 1
115 17 1
115 35 1
115 42 1
115 63 1
115 75 1
115 112 1
115 122 1
115 125 1
115 146 1
115 154 1
115 162 1
115 166 1
115 179 1
115 217 1
115 224 1
115 235 1
115 250 1
115 268 1
115 280 1
115 281 1
115 283 1
115 301 1
115 332 1
115 353 1
115 354 1
115 357 1
115 361 1
115 362 1
115 386 1
115 402 1
115 429 1
115 438 1
115 457 1
115 482 1
115 488 1
115 499 1
115 512 1
115 513 1
115 542 1
115 557 1
115 564 1
115 577 1
115 608 1
115 615 1
115 670 1
115 685 1
115 692 1
115 696 1
115 715 1
115 722 1
115 727 1
115 754 1
115 764 1
115 770 1
115 776 1
115 790 1
116 18 1
116 33 1
116 49 1
116 75 1
116 76 1
116 97 1
116 104 1
116 120 1
116 134 1
116 166 1
116 168 1
116 180 1
116 185 1
116 218 1
116 220 1
116 221 1
116 257 1
116 267 1
116 277 1
116 290 1
116 333 1
116 346 1
116 354 1
116 365 1
116 368 1
116 370 1
116 382 1
116 392 1
116 396 1
116 414 1
116 416 1
116 429 1
116 440 1
116 450 1
116 453 1
116 500 1
116 503 1
116 505 1
116 507 1
116 517 1
116 557 1
116 558 1
116 559 1
116 563 1
116 570 1
116 573 1
116 583 1
116 586 1
116 601 1
116 609 1
116 615 1
116 621 1
116 622 1
116 667 1
116 696 1
116 717 1
116 718 1
116 732 1
116 757 1
116 775 1
116 797 1
117 13 1
117 40 1
117 65 1
117 80 1
117 82 1
117 100 1
117 108 1
117 118 1
117 140 1
117 154 1
117 164 1
117 175 1
117 186 1
117 192 1
117 194 1
117 210 1
117 228 1
117 229 1
117 254 1
117 258 1
117 307 1
117 321 1
117 339 1
117 362 1
117 430 1
117 437 1
117 463 1
117 497 1
117 499 1
117 510 1
117 517 1
117 561 1
117 577 1
117 580 1
117 605 1
117 615 1
117 618 1
117 624 1
117 686 1
117 694 1
117 711 1
117 713 1
117 728 1
117 773 1
117 778 1
117 779 1
117 782 1
117 788 1
117 793 1
118 23 1
118 33 1
118 50 1
118 77 1
118 87 1
118 88 1
118 96 1
118 117 1
118 129 1
118 131 1
118 202 1
118 231 1
118 262 1
118 303 1
118 307 1
118 337 1
118 351 1
118 362 1
118 366 1
118 377 1
118 387 1
118 411 1
118 446 1
118 500 1
118 532 1
118 535 1
118 546 1
118 547 1
118 554 1
118 560 1
118 567 1
118 568 1
118 574 1
118 688 1
118 695 1
118 704 1
118 707 1
118 712 1
118 731 1
118 745 1
118 748 1
118 755 1
118 757 1
118 800 1
119 1 1
119 9 1
119 47 1
119 63 1
119 94 1
119 122 1
119 125 1
119 126 1
119 150 1
119 151 1
119 156 1
119 177 1
119 217 1
119 222 1
119 226 1
119 238 1
119 242 1
119 248 1
119 252 1
119 266 1
119 280 1
119 309 1
119 334 1
119 367 1
119 375 1
119 392 1
119 393 1
119 401 1
119 404 1
119 406 1
119 437 1
119 447 1
119 476 1
119 484 1
119 491 1
119 569 1
119 590 1
119 610 1
119 614 1
119 623 1
119 653 1
119 662 1
119 663 1
119 670 1
119 715 1
119 728 1
119 762 1
120 3 1
120 43 1
120 75 1
120 76 1
120 87 1
120 116 1
120 127 1
120 162 1
120 169 1
120 180 1
120 190 1
120 194 1
120 195 1
120 201 1
120 218 1
120 246 1
120 283 1
120 286 1
120 335 1
120 337 1
120 340 1
120 366 1
120 414 1
120 432 1
120 434 1
120 436 1
120 439 1
120 469 1
120 489 1
120 490 1
120 516 1
120 521 1
120 537 1
120 552 1
120 559 1
120 568 1
120 580 1
120 649 1
120 691 1
120 719 1
120 733 1
120 763 1
120 776 1
120 778 1
120 787 1
121 6 1
121 21 1
121 31 1
121 66 1
121 67 1
121 71 1
121 92 1
121 126 1
121 139 1
121 150 1
121 182 1
121 207 1
121 223 1
121 224 1
121 232 1
121 235 1
121 242 1
121 293 1
121 308 1
121 358 1
121 410 1
121 438 1
121 466 1
121 480 1
121 498 1
121 500 1
121 537 1
121 545 1
121 567 1
121 619 1
121 625 1
121 631 1
121 638 1
121 646 1
121 647 1
121 671 1
121 675 1
121 677 1
121 721 1
122 6 1
122 9 1
122 14 1
122 21 1
122 35 1
122 42 1
122 48 1
122 68 1
122 74 1
122 115 1
122 119 1
122 124 1
122 147 1
122 164 1
122 169 1
122 179 1
122 186 1
122 193 1
122 232 1
122 252 1
122 267 1
122 275 1
122 283 1
122 292 1
122 301 1
122 332 1
122 349 1
122 350 1
122 356 1
122 367 1
122 373 1
122 379 1
122 418 1
122 422 1
122 423 1
122 426 1
122 452 1
122 455 1
122 470 1
122 484 1
122 498 1
122 516 1
122 530 1
122 532 1
122 541 1
122 556 1
122 564 1
122 627 1
122 644 1
122 649 1
122 685 1
122 703 1
122 707 1
122 714 1
122 734 1
122 750 1
122 757 1
123 16 1
123 21 1
123 30 1
123 36 1
123 55 1
123 97 1
123 140 1
123 151 1
123 167 1
123 168 1
123 170 1
123 177 1
123 198 1
123 218 1
123 227 1
123 240 1
123 261 1
123 267 1
123 285 1
123 297 1
123 304 1
123 332 1
123 336 1
123 346 1
123 356 1
123 377 1
123 401 1
123 442 1
123 450 1
123 452 1
123 454 1
123 470 1
123 475 1
123 502 1
123 514 1
123 530 1
123 561 1
123 574 1
123 586 1
123 620 1
123 624 1
123 625 1
123 681 1
123 702 1
123 710 1
123 757 1
123 767 1
123 772 1
123 789 1
124 34 1
124 39 1
124 56 1
124 63 1
124 82 1
124 122 1
124 164 1
124 173 1
124 205 1
124 263 1
124 284 1
124 293 1
124 322 1
124 349 1
124 362 1
124 365 1
124 369 1
124 389 1
124 414 1
124 418 1
124 420 1
124 438 1
124 439 1
124 504 1
124 506 1
124 519 1
124 522 1
124 529 1
124 531 1
124 534 1
124 558 1
124 563 1
124 565 1
124 620 1
124 634 1
124 658 1
124 708 1
124 730 1
124 733 1
124 745 1
124 747 1
124 770 1
124 782 1
124 785 1
124 794 1
125 21 1
125 23 1
125 76 1
125 81 1
125 94 1
125 105 1
125 110 1
125 115 1
125 119 1
125 132 1
125 158 1
125 179 1
125 184 1
125 193 1
125 208 1
125 209 1
125 214 1
125 215 1
125 218 1
125 284 1
125 295 1
125 303 1
125 309 1
125 312 1
125 315 1
125 320 1
125 338 1
125 350 1
125 357 1
125 358 1
125 399 1
125 401 1
125 403 1
125 407 1
125 444 1
125 445 1
125 453 1
125 501 1
125 503 1
125 512 1
125 523 1
125 528 1
125 546 1
125 567 1
125 569 1
125 579 1
125 580 1
125 588 1
125 593 1
125 658 1
125 669 1
125 686 1
125 693 1
125 709 1
125 712 1
125 730 1
125 770 1
125 788 1
125 792 1
125 793 1
126 24 1
126 37 1
126 58 1
126 101 1
126 119 1
126 121 1
126 134 1
126 135 1
126 140 1
126 144 1
126 188 1
126 226 1
126 232 1
126 272 1
126 292 1
126 329 1
126 335 1
126 344 1
126 349 1
126 365 1
126 384 1
126 391 1
126 409 1
126 414 1
126 419 1
126 478 1
126 496 1
126 507 1
126 528 1
126 572 1
126 590 1
126 597 1
126 624 1
126 652 1
126 667 1
126 711 1
126 735 1
126 767 1
126 780 1
127 18 1
127 35 1
127 36 1
127 48 1
127 50 1
127 58 1
127 65 1
127 108 1
127 113 1
127 120 1
127 136 1
127 142 1
127 147 1
127 169 1
127 218 1
127 239 1
127 286 1
127 311 1
127 313 1
127 317 1
127 341 1
127 384 1
127 416 1
127 418 1
127 451 1
127 500 1
127 520 1
127 546 1
127 548 1
127 549 1
127 584 1
127 593 1
127 614 1
127 634 1
127 638 1
127 646 1
127 664 1
127 668 1
127 671 1
127 674 1
127 693 1
127 709 1
127 712 1
127 755 1
127 776 1
127 778 1
127 780 1
127 784 1
128 5 1
128 23 1
128 29 1
128 33 1
128 44 1
128 69 1
128 70 1
128 100 1
128 169 1
128 179 1
128 198 1
128 208 1
128 229 1
128 250 1
128 262 1
128 263 1
128 296 1
128 318 1
128 335 1
128 349 1
128 367 1
128 390 1
128 401 1
128 405 1
128 425 1
128 457 1
128 473 1
128 495 1
128 523 1
128 550 1
128 554 1
128 574 1
128 583 1
128 589 1
128 604 1
128 614 1
128 625 1
128 657 1
128 665 1
128 697 1
128 704 1
128 706 1
128 710 1
128 713 1
128 747 1
128 769 1
128 772 1
128 777 1
128 781 1
128 788 1
128 795 1
129 31 1
129 47 1
129 48 1
129 52 1
129 53 1
129 64 1
129 70 1
129 71 1
129 78 1
129 112 1
129 118 1
129 155 1
129 171 1
129 196 1
129 197 1
129 278 1
129 318 1
129 337 1
129 351 1
129 352 1
129 361 1
129 377 1
129 416 1
129 439 1
129 464 1
129 479 1
129 491 1
129 512 1
129 523 1
129 571 1
129 582 1
129 633 1
129 639 1
129 658 1
129 660 1
129 666 1
129 669 1
129 697 1
129 737 1
129 740 1
129 756 1
129 759 1
129 764 1
129 773 1
129 775 1
130 17 1
130 26 1
130 36 1
130 38 1
130 45 1
130 58 1
130 68 1
130 96 1
130 135 1
130 152 1
130 153 1
130 158 1
130 171 1
130 186 1
130 205 1
130 258 1
130 274 1
130 308 1
130 322 1
130 323 1
130 327 1
130 344 1
130 351 1
130 360 1
130 367 1
130 369 1
130 403 1
130 442 1
130 495 1
130 561 1
130 570 1
130 578 1
130 612 1
130 624 1
130 638 1
130 659 1
130 665 1
130 673 1
130 691 1
130 722 1
130 732 1
130 746 1
130 750 1
131 40 1
131 58 1
131 63 1
131 108 1
131 118 1
131 138 1
131 167 1
131 184 1
131 211 1
131 231 1
131 239 1
131 251 1
131 305 1
131 315 1
131 319 1
131 335 1
131 369 1
131 398 1
131 401 1
131 411 1
131 418 1
131 423 1
131 446 1
131 454 1
131 503 1
131 508 1
131 512 1
131 539 1
131 551 1
131 562 1
131 596 1
131 607 1
131 622 1
131 624 1
131 629 1
131 644 1
131 649 1
131 678 1
131 680 1
131 708 1
131 710 1
131 721 1
131 737 1
131 756 1
131 768 1
131 772 1
131 773 1
131 798 1
132 16 1
132 23 1
132 70 1
132 75 1
132 79 1
132 94 1
132 125 1
132 154 1
132 170 1
132 200 1
132 202 1
132 203 1
132 210 1
132 221 1
132 238 1
132 243 1
132 249 1
132 278 1
132 283 1
132 342 1
132 362 1
132 365 1
132 396 1
132 427 1
132 432 1
132 443 1
132 465 1
132 490 1
132 505 1
132 530 1
132 533 1
132 555 1
132 557 1
132 566 1
132 567 1
132 583 1
132 585 1
132 596 1
132 614 1
132 633 1
132 638 1
132 654 1
132 681 1
132 696 1
132 719 1
132 731 1
132 742 1
133 5 1
133 18 1
133 31 1
133 76 1
133 77 1
133 103 1
133 137 1
133 150 1
133 173 1
133 176 1
133 194 1
133 216 1
133 233 1
133 245 1
133 259 1
133 284 1
133 288 1
133 302 1
133 338 1
133 368 1
133 374 1
133 388 1
133 404 1
133 450 1
133 456 1
133 463 1
133 476 1
133 478 1
133 499 1
133 510 1
133 513 1
133 558 1
133 601 1
133 626 1
133 627 1
133 634 1
133 637 1
133 646 1
133 648 1
133 652 1
133 682 1
133 687 1
133 689 1
133 691 1
133 696 1
133 736 1
133 786 1
133 796 1
134 7 1
134 10 1
134 14 1
134 31 1
134 37 1
134 41 1
134 61 1
134 73 1
134 79 1
134 88 1
134 104 1
134 110 1
134 113 1
134 116 1
134 126 1
134 140 1
134 155 1
134 166 1
134 188 1
134 206 1
134 211 1
134 220 1
134 253 1
134 258 1
134 263 1
134 266 1
134 277 1
134 313 1
134 314 1
134 318 1
134 325 1
134 376 1
134 386 1
134 406 1
134 412 1
134 421 1
134 469 1
134 514 1
134 525 1
134 529 1
134 530 1
134 539 1
134 541 1
134 542 1
134 546 1
134 565 1
134 566 1
134 608 1
134 615 1
134 634 1
134 663 1
134 703 1
134 710 1
134 739 1
134 763 1
134 774 1
134 777 1
135 15 1
135 16 1
135 31 1
135 48 1
135 69 1
135 100 1
135 110 1
135 126 1
135 130 1
135 151 1
135 157 1
135 164 1
135 190 1
135 197 1
135 199 1
135 207 1
135 219 1
135 222 1
135 227 1
135 277 1
135 278 1
135 285 1
135 288 1
135 295 1
135 354 1
135 398 1
135 417 1
135 423 1
135 424 1
135 441 1
135 468 1
135 470 1
135 490 1
135 496 1
135 509 1
135 540 1
135 565 1
135 570 1
135 575 1
135 616 1
135 648 1
135 703 1
135 707 1
135 757 1
135 767 1
136 39 1
136 43 1
136 53 1
136 76 1
136 78 1
136 99 1
136 101 1
136 107 1
136 127 1
136 139 1
136 140 1
136 165 1
136 195 1
136 207 1
136 231 1
136 252 1
136 277 1
136 290 1
136 319 1
136 340 1
136 343 1
136 370 1
136 396 1
136 398 1
136 399 1
136 400 1
136 449 1
136 479 1
136 484 1
136 517 1
136 524 1
136 552 1
136 561 1
136 566 1
136 570 1
136 576 1
136 625 1
136 677 1
136 678 1
136 687 1
136 688 1
136 701 1
136 723 1
136 724 1
136 725 1
136 748 1
136 750 1
137 3 1
137 26 1
137 58 1
137 91 1
137 102 1
137 109 1
137 133 1
137 140 1
137 143 1
137 158 1
137 172 1
137 229 1
137 235 1
137 251 1
137 266 1
137 274 1
137 275 1
137 298 1
137 344 1
137 365 1
137 370 1
137 371 1
137 378 1
137 393 1
137 401 1
137 407 1
137 413 1
137 418 1
137 427 1
137 430 1
137 436 1
137 439 1
137 445 1
137 453 1
137 484 1
137 496 1
137 498 1
137 507 1
137 508 1
137 525 1
137 552 1
137 565 1
137 599 1
137 616 1
137 619 1
137 681 1
137 691 1
137 694 1
137 725 1
137 748 1
137 759 1
137 777 1
138 8 1
138 11 1
138 52 1
138 55 1
138 61 1
138 67 1
138 83 1
138 95 1
138 102 1
138 131 1
138 142 1
138 169 1
138 181 1
138 188 1
138 238 1
138 239 1
138 263 1
138 266 1
138 279 1
138 296 1
138 304 1
138 314 1
138 317 1
138 320 1
138 344 1
138 375 1
138 376 1
138 405 1
138 445 1
138 488 1
138 492 1
138 504 1
138 507 1
138 530 1
138 534 1
138 553 1
138 565 1
138 585 1
138 589 1
138 609 1
138 635 1
138 644 1
138 658 1
138 660 1
138 669 1
138 692 1
138 701 1
138 702 1
138 703 1
138 715 1
138 718 1
138 777 1
138 798 1
139 1 1
139 11 1
139 23 1
139 52 1
139 56 1
139 63 1
139 67 1
139 86 1
139 88 1
139 121 1
139 136 1
139 144 1
139 156 1
139 180 1
139 181 1
139 195 1
139 211 1
139 213 1
139 218 1
139 230 1
139 266 1
139 304 1
139 315 1
139 318 1
139 392 1
139 443 1
139 450 1
139 484 1
139 549 1
139 572 1
139 603 1
139 607 1
139 642 1
139 643 1
139 652 1
139 662 1
139 664 1
139 665 1
139 671 1
139 685 1
139 689 1
139 701 1
139 718 1
139 731 1
139 745 1
139 759 1
139 774 1
139 783 1
140 3 1
140 17 1
140 20 1
140 33 1
140 38 1
140 69 1
140 106 1
140 117 1
140 123 1
140 126 1
140 134 1
140 136 1
140 137 1
140 141 1
140 162 1
140 163 1
140 198 1
140 199 1
140 234 1
140 264 1
140 278 1
140 285 1
140 304 1
140 329 1
140 337 1
140 358 1
140 369 1
140 376 1
140 381 1
140 403 1
140 411 1
140 448 1
140 470 1
140 471 1
140 476 1
140 492 1
140 510 1
140 530 1
140 540 1
140 551 1
140 570 1
140 572 1
140 601 1
140 617 1
140 645 1
140 649 1
140 739 1
140 779 1
140 782 1
141 14 1
141 20 1
141 36 1
141 64 1
141 70 1
141 105 1
141 106 1
141 140 1
141 144 1
141 153 1
141 193 1
141 196 1
141 198 1
141 205 1
141 237 1
141 247 1
141 283 1
141 305 1
141 327 1
141 361 1
141 394 1
141 455 1
141 472 1
141 521 1
141 537 1
141 553 1
141 562 1
141 592 1
141 618 1
141 690 1
141 698 1
141 712 1
141 714 1
141 725 1
141 756 1
141 761 1
141 763 1
141 784 1
142 9 1
142 32 1
142 42 1
142 44 1
142 64 1
142 66 1
142 94 1
142 127 1
142 138 1
142 158 1
142 203 1
142 227 1
142 257 1
142 336 1
142 343 1
142 360 1
142 362 1
142 365 1
142 375 1
142 378 1
142 403 1
142 427 1
142 450 1
142 483 1
142 489 1
142 491 1
142 511 1
142 516 1
142 542 1
142 546 1
142 564 1
142 576 1
142 588 1
142 606 1
142 657 1
142 664 1
142 718 1
142 771 1
142 774 1
142 789 1
143 20 1
143 62 1
143 64 1
143 80 1
143 105 1
143 137 1
143 146 1
143 150 1
143 156 1
143 232 1
143 250 1
143 259 1
143 267 1
143 302 1
143 342 1
143 353 1
143 363 1
143 377 1
143 387 1
143 391 1
143 392 1
143 407 1
143 432 1
143 437 1
143 449 1
143 450 1
143 476 1
143 493 1
143 495 1
143 509 1
143 529 1
143 548 1
143 554 1
143 574 1
143 577 1
143 589 1
143 594 1
143 607 1
143 616 1
143 633 1
143 645 1
143 678 1
143 699 1
143 712 1
143 727 1
143 732 1
143 749 1
143 755 1
143 761 1
143 767 1
143 769 1
143 782 1
143 793 1
143 794 1
144 42 1
144 89 1
144 112 1
144 126 1
144 139 1
144 141 1
144 170 1
144 172 1
144 187 1
144 209 1
144 222 1
144 234 1
144 238 1
144 266 1
144 279 1
144 290 1
144 300 1
144 307 1
144 309 1
144 329 1
144 348 1
144 368 1
144 370 1
144 382 1
144 388 1
144 389 1
144 403 1
144 408 1
144 416 1
144 453 1
144 457 1
144 480 1
144 516 1
144 545 1
144 559 1
144 564 1
144 582 1
144 589 1
144 617 1
144 619 1
144 624 1
144 630 1
144 645 1
144 650 1
144 683 1
144 690 1
144 697 1
144 719 1
144 740 1
144 758 1
144 779 1
144 798 1
145 3 1
145 8 1
145 69 1
145 71 1
145 76 1
145 100 1
145 106 1
145 164 1
145 170 1
145 178 1
145 235 1
145 242 1
145 256 1
145 261 1
145 262 1
145 264 1
145 304 1
145 315 1
145 322 1
145 334 1
145 355 1
145 370 1
145 395 1
145 404 1
145 407 1
145 411 1
145 414 1
145 418 1
145 428 1
145 449 1
145 455 1
145 485 1
145 545 1
145 560 1
145 564 1
145 587 1
145 596 1
145 621 1
145 671 1
145 683 1
145 692 1
145 714 1
145 738 1
145 789 1
145 791 1
146 13 1
146 15 1
146 23 1
146 28 1
146 33 1
146 35 1
146 40 1
146 50 1
146 67 1
146 87 1
146 104 1
146 115 1
146 143 1
146 148 1
146 174 1
146 179 1
146 192 1
146 232 1
146 234 1
146 251 1
146 311 1
146 328 1
146 353 1
146 374 1
146 386 1
146 409 1
146 488 1
146 492 1
146 532 1
146 556 1
146 560 1
146 588 1
146 605 1
146 615 1
146 654 1
146 680 1
146 689 1
146 698 1
146 709 1
146 728 1
146 754 1
146 759 1
146 772 1
146 786 1
146 787 1
146 792 1
146 796 1
147 19 1
147 34 1
147 42 1
147 63 1
147 85 1
147 114 1
147 122 1
147 127 1
147 150 1
147 183 1
147 200 1
147 206 1
147 210 1
147 226 1
147 228 1
147 241 1
147 279 1
147 283 1
147 302 1
147 324 1
147 336 1
147 339 1
147 386 1
147 444 1
147 445 1
147 452 1
147 494 1
147 506 1
147 510 1
147 521 1
147 530 1
147 539 1
147 555 1
147 598 1
147 640 1
147 645 1
147 652 1
147 670 1
147 684 1
147 703 1
147 714 1
147 723 1
147 738 1
147 750 1
147 752 1
147 759 1
147 771 1
147 777 1
148 47 1
148 108 1
148 114 1
148 146 1
148 156 1
148 159 1
148 170 1
148 173 1
148 194 1
148 210 1
148 212 1
148 251 1
148 274 1
148 283 1
148 293 1
148 307 1
148 344 1
148 366 1
148 370 1
148 390 1
148 395 1
148 399 1
148 406 1
148 413 1
148 429 1
148 432 1
148 448 1
148 449 1
148 454 1
148 460 1
148 472 1
148 473 1
148 503 1
148 528 1
148 529 1
148 543 1
148 573 1
148 586 1
148 595 1
148 637 1
148 650 1
148 657 1
148 681 1
148 689 1
148 693 1
148 702 1
148 704 1
148 706 1
148 726 1
148 741 1
148 756 1
148 771 1
149 12 1
149 21 1
149 38 1
149 48 1
149 69 1
149 90 1
149 153 1
149 195 1
149 229 1
149 247 1
149 262 1
149 265 1
149 272 1
149 287 1
149 308 1
149 312 1
149 321 1
149 379 1
149 424 1
149 462 1
149 470 1
149 475 1
149 478 1
149 495 1
149 511 1
149 515 1
149 571 1
149 582 1
149 596 1
149 600 1
149 601 1
149 619 1
149 644 1
149 656 1
149 681 1
149 685 1
149 705 1
149 709 1
149 734 1
149 752 1
149 753 1
149 781 1
150 31 1
150 35 1
150 50 1
150 54 1
150 66 1
150 68 1
150 72 1
150 119 1
150 121 1
150 133 1
150 143 1
150 147 1
150 177 1
150 189 1
150 190 1
150 192 1
150 225 1
150 236 1
150 268 1
150 276 1
150 286 1
150 319 1
150 326 1
150 336 1
150 346 1
150 350 1
150 381 1
150 401 1
150 405 1
150 422 1
150 439 1
150 453 1
150 474 1
150 487 1
150 527 1
150 570 1
150 577 1
150 607 1
150 621 1
150 624 1
150 626 1
150 643 1
150 650 1
150 658 1
150 690 1
150 748 1
150 762 1
150 764 1
151 14 1
151 15 1
151 25 1
151 33 1
151 34 1
151 35 1
151 43 1
151 45 1
151 77 1
151 82 1
151 83 1
151 95 1
151 99 1
151 119 1
151 123 1
151 135 1
151 156 1
151 176 1
151 194 1
151 217 1
151 218 1
151 240 1
151 264 1
151 281 1
151 298 1
151 322 1
151 338 1
151 342 1
151 349 1
151 382 1
151 406 1
151 413 1
151 448 1
151 453 1
151 486 1
151 503 1
151 512 1
151 533 1
151 537 1
151 559 1
151 563 1
151 582 1
151 634 1
151 664 1
151 672 1
151 732 1
151 753 1
151 761 1
151 792 1
152 10 1
152 23 1
152 26 1
152 33 1
152 44 1
152 56 1
152 90 1
152 103 1
152 109 1
152 130 1
152 155 1
152 156 1
152 178 1
152 180 1
152 210 1
152 217 1
152 235 1
152 245 1
152 248 1
152 267 1
152 282 1
152 303 1
152 304 1
152 306 1
152 324 1
152 349 1
152 350 1
152 366 1
152 369 1
152 437 1
152 444 1
152 484 1
152 493 1
152 500 1
152 505 1
152 510 1
152 530 1
152 564 1
152 595 1
152 609 1
152 616 1
152 632 1
152 646 1
152 651 1
152 667 1
152 694 1
152 702 1
152 750 1
152 760 1
152 774 1
153 1 1
153 12 1
153 35 1
153 51 1
153 61 1
153 81 1
153 88 1
153 130 1
153 141 1
153 149 1
153 174 1
153 179 1
153 233 1
153 250 1
153 256 1
153 257 1
153 269 1
153 296 1
153 341 1
153 385 1
153 403 1
153 408 1
153 413 1
153 421 1
153 422 1
153 435 1
153 448 1
153 469 1
153 470 1
153 478 1
153 505 1
153 521 1
153 524 1
153 536 1
153 538 1
153 548 1
153 553 1
153 578 1
153 601 1
153 631 1
153 634 1
153 659 1
153 661 1
153 682 1
153 696 1
153 725 1
153 749 1
153 751 1
153 752 1
154 14 1
154 19 1
154 54 1
154 68 1
154 93 1
154 102 1
154 104 1
154 115 1
154 117 1
154 132 1
154 155 1
154 188 1
154 193 1
154 219 1
154 261 1
154 267 1
154 314 1
154 327 1
154 350 1
154 352 1
154 353 1
154 365 1
154 417 1
154 428 1
154 458 1
154 485 1
154 498 1
154 503 1
154 512 1
154 514 1
154 533 1
154 551 1
154 554 1
154 571 1
154 573 1
154 586 1
154 602 1
154 607 1
154 617 1
154 631 1
154 641 1
154 642 1
154 652 1
154 655 1
154 657 1
154 660 1
154 676 1
154 682 1
154 683 1
154 716 1
154 759 1
154 779 1
155 10 1
155 37 1
155 50 1
155 83 1
155 91 1
155 129 1
155 134 1
155 152 1
155 154 1
155 181 1
155 203 1
155 216 1
155 249 1
155 303 1
155 307 1
155 333 1
155 347 1
155 368 1
155 420 1
155 429 1
155 434 1
155 463 1
155 469 1
155 478 1
155 491 1
155 502 1
155 516 1
155 530 1
155 543 1
155 556 1
155 569 1
155 581 1
155 611 1
155 617 1
155 619 1
155 636 1
155 643 1
155 649 1
155 658 1
155 664 1
155 679 1
155 683 1
155 690 1
155 692 1
155 712 1
155 713 1
155 716 1
155 723 1
155 734 1
155 747 1
155 766 1
155 787 1
156 42 1
156 53 1
156 85 1
156 100 1
156 119 1
156 139 1
156 143 1
156 148 1
156 151 1
156 152 1
156 167 1
156 179 1
156 188 1
156 227 1
156 233 1
156 258 1
156 280 1
156 301 1
156 326 1
156 334 1
156 339 1
156 343 1
156 349 1
156 360 1
156 386 1
156 400 1
156 428 1
156 439 1
156 447 1
156 478 1
156 485 1
156 487 1
156 496 1
156 535 1
156 583 1
156 587 1
156 615 1
156 627 1
156 631 1
156 661 1
156 673 1
156 685 1
156 715 1
156 732 1
156 748 1
156 757 1
156 772 1
156 778 1
157 38 1
157 63 1
157 71 1
157 104 1
157 109 1
157 111 1
157 114 1
157 135 1
157 175 1
157 181 1
157 191 1
157 199 1
157 201 1
157 242 1
157 297 1
157 329 1
157 343 1
157 383 1
157 403 1
157 404 1
157 421 1
157 459 1
157 462 1
157 466 1
157 491 1
157 492 1
157 493 1
157 498 1
157 510 1
157 520 1
157 523 1
157 526 1
157 541 1
157 577 1
157 582 1
157 633 1
157 646 1
157 672 1
157 688 1
157 703 1
157 707 1
157 716 1
157 721 1
157 737 1
157 740 1
157 745 1
157 749 1
157 762 1
157 777 1
158 8 1
158 25 1
158 55 1
158 80 1
158 93 1
158 102 1
158 111 1
158 125 1
158 130 1
158 137 1
158 142 1
158 165 1
158 182 1
158 190 1
158 192 1
158 196 1
158 216 1
158 226 1
158 255 1
158 265 1
158 269 1
158 274 1
158 294 1
158 311 1
158 314 1
158 315 1
158 345 1
158 375 1
158 380 1
158 419 1
158 438 1
158 460 1
158 461 1
158 463 1
158 480 1
158 498 1
158 535 1
158 540 1
158 544 1
158 549 1
158 552 1
158 571 1
158 579 1
158 604 1
158 669 1
158 711 1
158 736 1
158 760 1
159 1 1
159 6 1
159 9 1
159 19 1
159 40 1
159 73 1
159 85 1
159 96 1
159 102 1
159 148 1
159 175 1
159 186 1
159 196 1
159 226 1
159 228 1
159 237 1
159 255 1
159 257 1
159 267 1
159 279 1
159 299 1
159 301 1
159 312 1
159 314 1
159 327 1
159 335 1
159 387 1
159 408 1
159 421 1
159 467 1
159 487 1
159 505 1
159 540 1
159 544 1
159 575 1
159 579 1
159 585 1
159 591 1
159 622 1
159 624 1
159 631 1
159 657 1
159 662 1
159 690 1
159 703 1
159 716 1
159 733 1
159 739 1
159 749 1
159 756 1
159 758 1
159 791 1
159 794 1
160 38 1
160 65 1
160 66 1
160 67 1
160 85 1
160 87 1
160 102 1
160 163 1
160 204 1
160 237 1
160 277 1
160 280 1
160 309 1
160 325 1
160 342 1
160 439 1
160 441 1
160 459 1
160 460 1
160 467 1
160 472 1
160 488 1
160 576 1
160 580 1
160 599 1
160 604 1
160 614 1
160 630 1
160 654 1
160 657 1
160 671 1
160 688 1
160 709 1
160 710 1
160 716 1
160 724 1
160 734 1
160 739 1
160 756 1
160 773 1
160 781 1
161 12 1
161 23 1
161 26 1
161 27 1
161 42 1
161 57 1
161 62 1
161 98 1
161 111 1
161 168 1
161 183 1
161 199 1
161 200 1
161 239 1
161 251 1
161 265 1
161 293 1
161 305 1
161 326 1
161 336 1
161 339 1
161 341 1
161 379 1
161 384 1
161 386 1
161 387 1
161 411 1
161 427 1
161 434 1
161 454 1
161 458 1
161 473 1
161 480 1
161 505 1
161 552 1
161 559 1
161 563 1
161 592 1
161 597 1
161 634 1
161 672 1
161 698 1
161 724 1
161 730 1
161 731 1
161 734 1
161 745 1
161 768 1
162 16 1
162 31 1
162 79 1
162 103 1
162 106 1
162 115 1
162 120 1
162 140 1
162 173 1
162 193 1
162 224 1
162 234 1
162 250 1
162 255 1
162 256 1
162 269 1
162 279 1
162 280 1
162 295 1
162 297 1
162 302 1
162 332 1
162 351 1
162 353 1
162 356 1
162 360 1
162 370 1
162 391 1
162 394 1
162 430 1
162 432 1
162 474 1
162 479 1
162 490 1
162 492 1
162 529 1
162 559 1
162 561 1
162 567 1
162 588 1
162 618 1
162 628 1
162 692 1
162 693 1
162 716 1
162 733 1
162 752 1
162 776 1
162 782 1
162 788 1
163 2 1
163 52 1
163 104 1
163 140 1
163 160 1
163 175 1
163 194 1
163 242 1
163 249 1
163 268 1
163 294 1
163 300 1
163 313 1
163 342 1
163 376 1
163 388 1
163 397 1
163 408 1
163 412 1
163 438 1
163 453 1
163 458 1
163 472 1
163 542 1
163 550 1
163 555 1
163 592 1
163 607 1
163 611 1
163 616 1
163 624 1
163 688 1
163 691 1
163 715 1
163 733 1
163 738 1
163 742 1
163 743 1
163 744 1
163 753 1
163 760 1
163 782 1
164 7 1
164 51 1
164 52 1
164 71 1
164 78 1
164 89 1
164 91 1
164 117 1
164 122 1
164 124 1
164 135 1
164 145 1
164 178 1
164 203 1
164 222 1
164 233 1
164 280 1
164 282 1
164 283 1
164 301 1
164 302 1
164 325 1
164 328 1
164 345 1
164 349 1
164 370 1
164 376 1
164 396 1
164 422 1
164 438 1
164 470 1
164 481 1
164 489 1
164 491 1
164 498 1
164 499 1
164 500 1
164 516 1
164 518 1
164 549 1
164 557 1
164 563 1
164 577 1
164 606 1
164 609 1
164 638 1
164 679 1
164 686 1
164 687 1
164 713 1
164 719 1
164 732 1
164 756 1
164 771 1
164 800 1
165 7 1
165 27 1
165 33 1
165 34 1
165 41 1
165 44 1
165 59 1
165 71 1
165 72 1
165 81 1
165 102 1
165 104 1
165 136 1
165 158 1
165 200 1
165 207 1
165 224 1
165 229 1
165 241 1
165 275 1
165 285 1
165 289 1
165 305 1
165 314 1
165 318 1
165 369 1
165 384 1
165 391 1
165 407 1
165 417 1
165 419 1
165 427 1
165 460 1
165 463 1
165 469 1
165 490 1
165 519 1
165 539 1
165 556 1
165 577 1
165 579 1
165 619 1
165 622 1
165 646 1
165 651 1
165 684 1
165 688 1
165 698 1
165 715 1
165 732 1
165 745 1
165 746 1
165 763 1
165 777 1
166 1 1
166 6 1
166 10 1
166 16 1
166 28 1
166 32 1
166 53 1
166 115 1
166 116 1
166 134 1
166 222 1
166 314 1
166 368 1
166 378 1
166 381 1
166 395 1
166 424 1
166 434 1
166 440 1
166 441 1
166 447 1
166 450 1
166 463 1
166 474 1
166 486 1
166 498 1
166 525 1
166 545 1
166 576 1
166 578 1
166 582 1
166 592 1
166 596 1
166 600 1
166 653 1
166 656 1
166 659 1
166 679 1
166 696 1
166 702 1
166 709 1
166 735 1
166 756 1
166 762 1
166 763 1
166 779 1
167 55 1
167 56 1
167 58 1
167 65 1
167 81 1
167 98 1
167 123 1
167 131 1
167 156 1
167 168 1
167 195 1
167 209 1
167 216 1
167 230 1
167 275 1
167 276 1
167 295 1
167 306 1
167 320 1
167 352 1
167 373 1
167 390 1
167 393 1
167 418 1
167 421 1
167 422 1
167 436 1
167 479 1
167 488 1
167 494 1
167 496 1
167 500 1
167 523 1
167 527 1
167 544 1
167 558 1
167 580 1
167 620 1
167 656 1
167 670 1
167 699 1
167 748 1
168 26 1
168 48 1
168 63 1
168 65 1
168 82 1
168 116 1
168 123 1
168 161 1
168 167 1
168 171 1
168 188 1
168 233 1
168 237 1
168 267 1
168 294 1
168 300 1
168 318 1
168 377 1
168 381 1
168 390 1
168 405 1
168 416 1
168 425 1
168 437 1
168 481 1
168 513 1
168 533 1
168 545 1
168 553 1
168 577 1
168 614 1
168 647 1
168 664 1
168 676 1
168 689 1
168 724 1
168 725 1
168 750 1
168 751 1
168 759 1
168 791 1
168 793 1
169 23 1
169 34 1
169 56 1
169 67 1
169 81 1
169 92 1
169 104 1
169 120 1
169 122 1
169 127 1
169 128 1
169 138 1
169 227 1
169 242 1
169 263 1
169 276 1
169 297 1
169 304 1
169 309 1
169 322 1
169 329 1
169 349 1
169 373 1
169 432 1
169 440 1
169 465 1
169 481 1
169 485 1
169 495 1
169 507 1
169 552 1
169 563 1
169 568 1
169 585 1
169 617 1
169 627 1
169 628 1
169 650 1
169 654 1
169 668 1
169 688 1
169 696 1
169 703 1
169 707 1
169 708 1
169 710 1
169 729 1
169 776 1
169 782 1
169 795 1
170 10 1
170 27 1
170 43 1
170 102 1
170 108 1
170 123 1
170 132 1
170 144 1
170 145 1
170 148 1
170 176 1
170 187 1
170 195 1
170 205 1
170 208 1
170 210 1
170 211 1
170 214 1
170 235 1
170 238 1
170 243 1
170 249 1
170 297 1
170 301 1
170 308 1
170 309 1
170 359 1
170 369 1
170 380 1
170 396 1
170 416 1
170 439 1
170 466 1
170 489 1
170 522 1
170 530 1
170 569 1
170 593 1
170 600 1
170 603 1
170 629 1
170 631 1
170 638 1
170 666 1
170 669 1
170 676 1
170 701 1
170 706 1
170 719 1
170 722 1
170 723 1
170 738 1
170 744 1
170 749 1
170 763 1
170 774 1
171 59 1
171 83 1
171 129 1
171 130 1
171 168 1
171 176 1
171 196 1
171 201 1
171 214 1
171 223 1
171 235 1
171 259 1
171 316 1
171 323 1
171 326 1
171 336 1
171 356 1
171 382 1
171 398 1
171 422 1
171 433 1
171 436 1
171 443 1
171 447 1
171 448 1
171 453 1
171 454 1
171 463 1
171 468 1
171 484 1
171 525 1
171 536 1
171 542 1
171 549 1
171 584 1
171 597 1
171 607 1
171 680 1
171 691 1
171 693 1
171 706 1
171 754 1
171 767 1
171 775 1
171 783 1
172 1 1
172 20 1
172 34 1
172 40 1
172 56 1
172 100 1
172 137 1
172 144 1
172 177 1
172 180 1
172 189 1
172 198 1
172 211 1
172 247 1
172 273 1
172 279 1
172 288 1
172 299 1
172 305 1
172 319 1
172 320 1
172 339 1
172 358 1
172 370 1
172 389 1
172 428 1
172 446 1
172 465 1
172 492 1
172 519 1
172 541 1
172 544 1
172 564 1
172 566 1
172 609 1
172 614 1
172 624 1
172 635 1
172 648 1
172 665 1
172 690 1
172 701 1
172 707 1
172 715 1
172 718 1
172 729 1
172 733 1
172 737 1
172 742 1
172 749 1
172 767 1
172 774 1
173 13 1
173 61 1
173 72 1
173 75 1
173 81 1
173 93 1
173 124 1
173 133 1
173 148 1
173 162 1
173 175 1
173 177 1
173 189 1
173 204 1
173 255 1
173 261 1
173 296 1
173 305 1
173 311 1
173 323 1
173 353 1
173 367 1
173 381 1
173 419 1
173 421 1
173 432 1
173 438 1
173 517 1
173 531 1
173 539 1
173 550 1
173 559 1
173 582 1
173 586 1
173 635 1
173 639 1
173 656 1
173 685 1
173 704 1
173 708 1
173 716 1
173 721 1
173 724 1
173 738 1
173 775 1
174 2 1
174 8 1
174 21 1
174 30 1
174 39 1
174 64 1
174 72 1
174 92 1
174 111 1
174 114 1
174 146 1
174 153 1
174 188 1
174 194 1
174 195 1
174 239 1
174 241 1
174 250 1
174 255 1
174 257 1
174 277 1
174 283 1
174 313 1
174 322 1
174 340 1
174 347 1
174 352 1
174 377 1
174 378 1
174 418 1
174 437 1
174 439 1
174 452 1
174 457 1
174 494 1
174 504 1
174 507 1
174 513 1
174 517 1
174 519 1
174 528 1
174 531 1
174 533 1
174 538 1
174 542 1
174 546 1
174 556 1
174 565 1
174 569 1
174 593 1
174 607 1
174 625 1
174 630 1
174 647 1
174 666 1
174 670 1
174 672 1
174 688 1
174 720 1
174 722 1
174 741 1
174 754 1
174 755 1
174 770 1
174 792 1
175 25 1
175 27 1
175 47 1
175 48 1
175 76 1
175 91 1
175 97 1
175 106 1
175 117 1
175 157 1
175 159 1
175 163 1
175 173 1
175 177 1
175 193 1
175 210 1
175 238 1
175 262 1
175 272 1
175 287 1
175 290 1
175 291 1
175 305 1
175 391 1
175 394 1
175 399 1
175 401 1
175 405 1
175 432 1
175 443 1
175 453 1
175 461 1
175 463 1
175 481 1
175 482 1
175 500 1
175 524 1
175 539 1
175 543 1
175 565 1
175 569 1
175 570 1
175 573 1
175 585 1
175 589 1
175 651 1
175 664 1
175 665 1
175 685 1
175 693 1
175 754 1
175 780 1
175 792 1
175 798 1
176 2 1
176 47 1
176 70 1
176 96 1
176 107 1
176 133 1
176 151 1
176 170 1
176 171 1
176 204 1
176 209 1
176 275 1
176 291 1
176 346 1
176 375 1
176 387 1
176 400 1
176 431 1
176 476 1
176 500 1
176 523 1
176 536 1
176 593 1
176 599 1
176 615 1
176 628 1
176 642 1
176 644 1
176 650 1
176 660 1
176 676 1
176 679 1
176 680 1
176 707 1
176 731 1
176 736 1
176 737 1
176 752 1
176 765 1
176 781 1
176 787 1
176 798 1
176 799 1
177 5 1
177 10 1
177 19 1
177 69 1
177 76 1
177 89 1
177 98 1
177 109 1
177 119 1
177 123 1
177 150 1
177 172 1
177 173 1
177 175 1
177 180 1
177 230 1
177 250 1
177 266 1
177 285 1
177 294 1
177 301 1
177 309 1
177 338 1
177 339 1
177 355 1
177 365 1
177 378 1
177 382 1
177 387 1
177 395 1
177 401 1
177 425 1
177 442 1
177 482 1
177 500 1
177 539 1
177 613 1
177 626 1
177 633 1
177 654 1
177 702 1
177 751 1
177 755 1
177 778 1
178 46 1
178 54 1
178 63 1
178 70 1
178 77 1
178 103 1
178 145 1
178 152 1
178 164 1
178 255 1
178 267 1
178 339 1
178 340 1
178 344 1
178 362 1
178 366 1
178 389 1
178 415 1
178 417 1
178 422 1
178 433 1
178 434 1
178 451 1
178 452 1
178 458 1
178 482 1
178 488 1
178 493 1
178 494 1
178 518 1
178 519 1
178 531 1
178 554 1
178 557 1
178 560 1
178 568 1
178 575 1
178 579 1
178 604 1
178 631 1
178 688 1
178 689 1
178 701 1
178 775 1
178 779 1
179 8 1
179 10 1
179 25 1
179 29 1
179 50 1
179 71 1
179 75 1
179 97 1
179 104 1
179 115 1
179 122 1
179 125 1
179 128 1
179 146 1
179 153 1
179 156 1
179 181 1
179 188 1
179 214 1
179 216 1
179 218 1
179 254 1
179 262 1
179 305 1
179 316 1
179 348 1
179 376 1
179 381 1
179 407 1
179 421 1
179 427 1
179 443 1
179 455 1
179 463 1
179 507 1
179 518 1
179 535 1
179 555 1
179 564 1
179 585 1
179 606 1
179 628 1
179 653 1
179 667 1
179 681 1
179 683 1
179 686 1
179 707 1
179 724 1
179 733 1
179 755 1
179 765 1
179 783 1
179 798 1
179 799 1
180 67 1
180 96 1
180 104 1
180 116 1
180 120 1
180 139 1
180 152 1
180 172 1
180 177 1
180 185 1
180 205 1
180 240 1
180 258 1
180 269 1
180 279 1
180 310 1
180 332 1
180 335 1
180 338 1
180 339 1
180 344 1
180 355 1
180 367 1
180 385 1
180 416 1
180 431 1
180 437 1
180 504 1
180 508 1
180 532 1
180 537 1
180 573 1
180 579 1
180 588 1
180 589 1
180 604 1
180 629 1
180 633 1
180 637 1
180 644 1
180 652 1
180 656 1
180 676 1
180 677 1
180 683 1
180 694 1
180 711 1
180 781 1
181 7 1
181 17 1
181 19 1
181 23 1
181 53 1
181 62 1
181 104 1
181 106 1
181 138 1
181 139 1
181 155 1
181 157 1
181 179 1
181 185 1
181 191 1
181 199 1
181 203 1
181 215 1
181 219 1
181 229 1
181 301 1
181 312 1
181 319 1
181 338 1
181 372 1
181 418 1
181 428 1
181 433 1
181 457 1
181 470 1
181 480 1
181 484 1
181 495 1
181 514 1
181 544 1
181 553 1
181 575 1
181 581 1
181 585 1
181 586 1
181 589 1
181 596 1
181 613 1
181 614 1
181 633 1
181 643 1
181 718 1
181 768 1
181 785 1
182 9 1
182 14 1
182 17 1
182 63 1
182 73 1
182 82 1
182 83 1
182 95 1
182 121 1
182 158 1
182 190 1
182 261 1
182 317 1
182 329 1
182 341 1
182 343 1
182 381 1
182 398 1
182 409 1
182 423 1
182 462 1
182 479 1
182 490 1
182 496 1
182 499 1
182 501 1
182 508 1
182 527 1
182 552 1
182 564 1
182 645 1
182 654 1
182 671 1
182 682 1
182 690 1
182 703 1
182 708 1
182 717 1
182 738 1
182 751 1
182 761 1
182 762 1
182 800 1
183 9 1
183 36 1
183 41 1
183 44 1
183 54 1
183 61 1
183 74 1
183 105 1
183 147 1
183 161 1
183 201 1
183 202 1
183 222 1
183 227 1
183 234 1
183 237 1
183 258 1
183 259 1
183 260 1
183 324 1
183 350 1
183 359 1
183 363 1
183 365 1
183 370 1
183 387 1
183 395 1
183 420 1
183 432 1
183 443 1
183 486 1
183 496 1
183 519 1
183 540 1
183 584 1
183 598 1
183 603 1
183 615 1
183 616 1
183 629 1
183 643 1
183 649 1
183 661 1
183 664 1
183 679 1
183 727 1
183 728 1
183 734 1
183 759 1
183 773 1
183 781 1
184 17 1
184 60 1
184 73 1
184 76 1
184 87 1
184 88 1
184 93 1
184 111 1
184 125 1
184 131 1
184 201 1
184 211 1
184 253 1
184 287 1
184 334 1
184 385 1
184 392 1
184 395 1
184 414 1
184 424 1
184 443 1
184 448 1
184 468 1
184 479 1
184 496 1
184 502 1
184 511 1
184 522 1
184 523 1
184 536 1
184 576 1
184 577 1
184 584 1
184 597 1
184 622 1
184 630 1
184 655 1
184 658 1
184 671 1
184 677 1
184 678 1
184 726 1
184 729 1
184 767 1
184 773 1
185 26 1
185 74 1
185 78 1
185 88 1
185 94 1
185 101 1
185 116 1
185 180 1
185 181 1
185 187 1
185 197 1
185 198 1
185 229 1
185 320 1
185 328 1
185 333 1
185 356 1
185 357 1
185 364 1
185 372 1
185 422 1
185 435 1
185 492 1
185 525 1
185 549 1
185 564 1
185 582 1
185 599 1
185 603 1
185 604 1
185 621 1
185 653 1
185 659 1
185 669 1
185 739 1
185 773 1
185 781 1
186 33 1
186 43 1
186 59 1
186 68 1
186 82 1
186 84 1
186 93 1
186 117 1
186 122 1
186 130 1
186 159 1
186 189 1
186 197 1
186 199 1
186 211 1
186 220 1
186 229 1
186 244 1
186 267 1
186 306 1
186 381 1
186 419 1
186 421 1
186 423 1
186 475 1
186 480 1
186 507 1
186 529 1
186 563 1
186 605 1
186 618 1
186 625 1
186 669 1
186 694 1
186 713 1
186 722 1
186 736 1
186 756 1
186 769 1
186 782 1
186 783 1
186 787 1
187 12 1
187 13 1
187 19 1
187 23 1
187 33 1
187 35 1
187 54 1
187 70 1
187 73 1
187 82 1
187 85 1
187 93 1
187 101 1
187 144 1
187 170 1
187 185 1
187 212 1
187 215 1
187 239 1
187 318 1
187 319 1
187 345 1
187 368 1
187 369 1
187 375 1
187 402 1
187 416 1
187 427 1
187 441 1
187 471 1
187 479 1
187 538 1
187 564 1
187 565 1
187 600 1
187 618 1
187 630 1
187 643 1
187 649 1
187 656 1
187 658 1
187 659 1
187 712 1
187 716 1
187 766 1
188 28 1
188 30 1
188 34 1
188 44 1
188 60 1
188 62 1
188 83 1
188 85 1
188 94 1
188 95 1
188 126 1
188 134 1
188 138 1
188 154 1
188 156 1
188 168 1
188 174 1
188 179 1
188 226 1
188 233 1
188 252 1
188 262 1
188 281 1
188 283 1
188 292 1
188 296 1
188 333 1
188 366 1
188 391 1
188 396 1
188 415 1
188 420 1
188 423 1
188 427 1
188 446 1
188 515 1
188 519 1
188 528 1
188 537 1
188 560 1
188 571 1
188 579 1
188 596 1
188 607 1
188 622 1
188 635 1
188 639 1
188 656 1
188 657 1
188 671 1
188 674 1
188 687 1
188 705 1
188 709 1
188 721 1
188 733 1
188 743 1
188 745 1
188 760 1
189 10 1
189 12 1
189 13 1
189 65 1
189 68 1
189 75 1
189 92 1
189 150 1
189 172 1
189 173 1
189 186 1
189 205 1
189 215 1
189 229 1
189 241 1
189 255 1
189 284 1
189 322 1
189 329 1
189 336 1
189 344 1
189 363 1
189 385 1
189 402 1
189 428 1
189 435 1
189 456 1
189 464 1
189 476 1
189 480 1
189 491 1
189 525 1
189 544 1
189 548 1
189 551 1
189 571 1
189 588 1
189 652 1
189 668 1
189 692 1
189 697 1
189 699 1
189 746 1
189 765 1
189 768 1
189 785 1
190 2 1
190 29 1
190 41 1
190 45 1
190 46 1
190 55 1
190 90 1
190 107 1
190 111 1
190 120 1
190 135 1
190 150 1
190 158 1
190 182 1
190 198 1
190 231 1
190 253 1
190 259 1
190 279 1
190 323 1
190 326 1
190 329 1
190 334 1
190 345 1
190 349 1
190 369 1
190 400 1
190 405 1
190 411 1
190 434 1
190 436 1
190 484 1
190 493 1
190 497 1
190 505 1
190 513 1
190 563 1
190 587 1
190 601 1
190 615 1
190 621 1
190 622 1
190 653 1
190 654 1
190 655 1
190 666 1
190 711 1
190 723 1
190 729 1
190 731 1
190 752 1
190 794 1
191 11 1
191 25 1
191 38 1
191 47 1
191 49 1
191 50 1
191 73 1
191 76 1
191 79 1
191 96 1
191 157 1
191 181 1
191 193 1
191 216 1
191 251 1
191 265 1
191 289 1
191 295 1
191 298 1
191 303 1
191 318 1
191 320 1
191 338 1
191 357 1
191 364 1
191 373 1
191 394 1
191 403 1
191 417 1
191 421 1
191 496 1
191 500 1
191 537 1
191 555 1
191 579 1
191 642 1
191 651 1
191 663 1
191 666 1
191 678 1
191 694 1
191 709 1
191 720 1
191 795 1
191 796 1
192 33 1
192 48 1
192 50 1
192 80 1
192 93 1
192 97 1
192 103 1
192 117 1
192 146 1
192 150 1
192 158 1
192 229 1
192 239 1
192 246 1
192 254 1
192 279 1
192 303 1
192 340 1
192 345 1
192 357 1
192 379 1
192 399 1
192 411 1
192 442 1
192 454 1
192 464 1
192 479 1
192 488 1
192 490 1
192 499 1
192 528 1
192 572 1
192 611 1
192 613 1
192 645 1
192 679 1
192 708 1
192 716 1
192 760 1
192 762 1
192 783 1
192 784 1
193 13 1
193 14 1
193 19 1
193 21 1
193 63 1
193 85 1
193 90 1
193 106 1
193 122 1
193 125 1
193 141 1
193 154 1
193 162 1
193 175 1
193 191 1
193 296 1
193 305 1
193 317 1
193 318 1
193 322 1
193 354 1
193 430 1
193 437 1
193 473 1
193 488 1
193 539 1
193 557 1
193 576 1
193 604 1
193 640 1
193 654 1
193 655 1
193 769 1
193 787 1
194 1 1
194 17 1
194 65 1
194 89 1
194 102 1
194 117 1
194 120 1
194 133 1
194 148 1
194 151 1
194 163 1
194 174 1
194 214 1
194 216 1
194 232 1
194 233 1
194 251 1
194 253 1
194 270 1
194 307 1
194 309 1
194 346 1
194 347 1
194 357 1
194 358 1
194 359 1
194 381 1
194 424 1
194 430 1
194 461 1
194 481 1
194 488 1
194 504 1
194 511 1
194 517 1
194 525 1
194 557 1
194 568 1
194 592 1
194 604 1
194 605 1
194 607 1
194 626 1
194 638 1
194 661 1
194 668 1
194 678 1
194 695 1
194 703 1
194 719 1
194 728 1
194 733 1
194 741 1
194 769 1
194 773 1
195 28 1
195 48 1
195 54 1
195 69 1
195 90 1
195 97 1
195 108 1
195 120 1
195 136 1
195 139 1
195 149 1
195 167 1
195 170 1
195 174 1
195 203 1
195 215 1
195 218 1
195 221 1
195 267 1
195 272 1
195 273 1
195 334 1
195 357 1
195 367 1
195 372 1
195 410 1
195 411 1
195 432 1
195 438 1
195 447 1
195 460 1
195 461 1
195 495 1
195 514 1
195 541 1
195 546 1
195 594 1
195 609 1
195 628 1
195 634 1
195 637 1
195 641 1
195 649 1
195 666 1
195 673 1
195 696 1
195 745 1
195 749 1
195 754 1
195 761 1
195 766 1
195 793 1
196 12 1
196 18 1
196 36 1
196 95 1
196 101 1
196 106 1
196 129 1
196 141 1
196 158 1
196 159 1
196 171 1
196 197 1
196 234 1
196 237 1
196 285 1
196 295 1
196 320 1
196 336 1
196 338 1
196 340 1
196 348 1
196 352 1
196 375 1
196 380 1
196 454 1
196 495 1
196 513 1
196 519 1
196 520 1
196 530 1
196 574 1
196 590 1
196 594 1
196 642 1
196 646 1
196 688 1
196 709 1
196 738 1
196 742 1
196 747 1
196 748 1
197 2 1
197 14 1
197 27 1
197 58 1
197 61 1
197 62 1
197 77 1
197 88 1
197 98 1
197 102 1
197 129 1
197 135 1
197 185 1
197 186 1
197 196 1
197 203 1
197 232 1
197 249 1
197 263 1
197 279 1
197 283 1
197 286 1
197 291 1
197 311 1
197 329 1
197 337 1
197 351 1
197 370 1
197 399 1
197 405 1
197 436 1
197 442 1
197 446 1
197 458 1
197 469 1
197 476 1
197 480 1
197 484 1
197 490 1
197 510 1
197 568 1
197 583 1
197 596 1
197 613 1
197 638 1
197 644 1
197 665 1
197 673 1
197 688 1
197 738 1
197 755 1
197 779 1
198 4 1
198 27 1
198 36 1
198 39 1
198 55 1
198 66 1
198 67 1
198 68 1
198 102 1
198 103 1
198 123 1
198 128 1
198 140 1
198 141 1
198 172 1
198 185 1
198 190 1
198 206 1
198 222 1
198 249 1
198 253 1
198 258 1
198 284 1
198 305 1
198 348 1
198 366 1
198 381 1
198 394 1
198 400 1
198 427 1
198 443 1
198 450 1
198 473 1
198 481 1
198 495 1
198 512 1
198 522 1
198 535 1
198 568 1
198 584 1
198 599 1
198 606 1
198 663 1
198 674 1
198 677 1
198 683 1
198 689 1
198 715 1
198 716 1
198 723 1
198 753 1
198 791 1
199 4 1
199 6 1
199 19 1
199 20 1
199 29 1
199 34 1
199 49 1
199 60 1
199 74 1
199 98 1
199 107 1
199 111 1
199 135 1
199 140 1
199 157 1
199 161 1
199 181 1
199 186 1
199 232 1
199 233 1
199 252 1
199 272 1
199 316 1
199 381 1
199 431 1
199 432 1
199 439 1
199 447 1
199 518 1
199 524 1
199 528 1
199 536 1
199 567 1
199 619 1
199 668 1
199 675 1
199 683 1
199 788 1
199 792 1
199 795 1
200 28 1
200 30 1
200 38 1
200 64 1
200 74 1
200 92 1
200 113 1
200 132 1
200 147 1
200 161 1
200 165 1
200 214 1
200 218 1
200 226 1
200 228 1
200 231 1
200 238 1
200 243 1
200 247 1
200 267 1
200 277 1
200 291 1
200 297 1
200 302 1
200 336 1
200 341 1
200 360 1
200 384 1
200 387 1
200 430 1
200 455 1
200 497 1
200 558 1
200 583 1
200 586 1
200 590 1
200 601 1
200 613 1
200 614 1
200 625 1
200 645 1
200 646 1
200 673 1
200 676 1
200 680 1
200 704 1
200 711 1
200 752 1
200 766 1
200 782 1
200 790 1
201 15 1
201 35 1
201 50 1
201 89 1
201 100 1
201 106 1
201 120 1
201 157 1
201 171 1
201 183 1
201 184 1
201 250 1
201 279 1
201 280 1
201 291 1
201 294 1
201 305 1
201 314 1
201 323 1
201 335 1
201 364 1
201 386 1
201 388 1
201 393 1
201 394 1
201 400 1
201 436 1
201 445 1
201 476 1
201 478 1
201 497 1
201 512 1
201 518 1
201 524 1
201 556 1
201 558 1
201 562 1
201 625 1
201 643 1
201 655 1
201 671 1
201 689 1
201 699 1
201 717 1
201 733 1
201 736 1
201 738 1
201 745 1
201 751 1
201 770 1
201 771 1
201 774 1
201 800 1
202 7 1
202 13 1
202 23 1
202 31 1
202 37 1
202 49 1
202 80 1
202 89 1
202 95 1
202 96 1
202 118 1
202 132 1
202 183 1
202 215 1
202 223 1
202 226 1
202 228 1
202 243 1
202 273 1
202 280 1
202 287 1
202 314 1
202 316 1
202 317 1
202 344 1
202 349 1
202 368 1
202 373 1
202 382 1
202 395 1
202 407 1
202 414 1
202 439 1
202 462 1
202 490 1
202 492 1
202 493 1
202 552 1
202 566 1
202 572 1
202 577 1
202 595 1
202 620 1
202 626 1
202 631 1
202 659 1
202 674 1
202 697 1
202 700 1
202 715 1
202 747 1
202 751 1
202 759 1
202 769 1
202 794 1
203 7 1
203 16 1
203 20 1
203 23 1
203 58 1
203 63 1
203 73 1
203 95 1
203 132 1
203 142 1
203 155 1
203 164 1
203 181 1
203 195 1
203 197 1
203 204 1
203 243 1
203 278 1
203 303 1
203 314 1
203 346 1
203 350 1
203 353 1
203 361 1
203 366 1
203 382 1
203 412 1
203 434 1
203 444 1
203 453 1
203 470 1
203 491 1
203 513 1
203 531 1
203 535 1
203 537 1
203 553 1
203 599 1
203 603 1
203 635 1
203 656 1
203 670 1
203 709 1
203 716 1
203 758 1
203 770 1
203 779 1
203 782 1
203 783 1
203 793 1
203 796 1
204 5 1
204 14 1
204 39 1
204 44 1
204 80 1
204 103 1
204 112 1
204 114 1
204 160 1
204 173 1
204 176 1
204 203 1
204 206 1
204 254 1
204 270 1
204 277 1
204 304 1
204 307 1
204 315 1
204 324 1
204 327 1
204 345 1
204 348 1
204 360 1
204 362 1
204 367 1
204 368 1
204 382 1
204 397 1
204 417 1
204 426 1
204 442 1
204 455 1
204 472 1
204 543 1
204 551 1
204 583 1
204 584 1
204 607 1
204 618 1
204 626 1
204 633 1
204 646 1
204 698 1
204 699 1
204 712 1
204 723 1
204 743 1
204 751 1
204 766 1
204 788 1
204 797 1
205 37 1
205 45 1
205 55 1
205 70 1
205 124 1
205 130 1
205 141 1
205 170 1
205 180 1
205 189 1
205 207 1
205 213 1
205 232 1
205 238 1
205 247 1
205 267 1
205 283 1
205 287 1
205 319 1
205 327 1
205 346 1
205 351 1
205 358 1
205 369 1
205 389 1
205 391 1
205 421 1
205 444 1
205 465 1
205 485 1
205 488 1
205 490 1
205 495 1
205 500 1
205 536 1
205 553 1
205 554 1
205 559 1
205 586 1
205 588 1
205 600 1
205 604 1
205 607 1
205 629 1
205 651 1
205 685 1
205 727 1
205 745 1
205 764 1
205 766 1
205 783 1
205 784 1
206 37 1
206 57 1
206 108 1
206 134 1
206 147 1
206 198 1
206 204 1
206 212 1
206 227 1
206 253 1
206 271 1
206 314 1
206 353 1
206 374 1
206 388 1
206 413 1
206 415 1
206 421 1
206 429 1
206 447 1
206 456 1
206 477 1
206 520 1
206 573 1
206 581 1
206 607 1
206 610 1
206 647 1
206 652 1
206 663 1
206 668 1
206 672 1
206 701 1
206 706 1
206 718 1
206 725 1
206 734 1
206 754 1
206 760 1
206 772 1
207 2 1
207 34 1
207 37 1
207 44 1
207 49 1
207 53 1
207 65 1
207 75 1
207 80 1
207 92 1
207 95 1
207 99 1
207 109 1
207 121 1
207 135 1
207 136 1
207 165 1
207 205 1
207 234 1
207 274 1
207 294 1
207 298 1
207 311 1
207 322 1
207 404 1
207 408 1
207 418 1
207 466 1
207 533 1
207 534 1
207 544 1
207 551 1
207 560 1
207 594 1
207 613 1
207 628 1
207 663 1
207 711 1
207 735 1
207 771 1
207 778 1
207 783 1
207 800 1
208 29 1
208 30 1
208 45 1
208 51 1
208 81 1
208 98 1
208 113 1
208 125 1
208 128 1
208 170 1
208 242 1
208 254 1
208 258 1
208 273 1
208 280 1
208 290 1
208 311 1
208 312 1
208 320 1
208 327 1
208 334 1
208 385 1
208 401 1
208 404 1
208 417 1
208 453 1
208 491 1
208 503 1
208 522 1
208 525 1
208 549 1
208 557 1
208 562 1
208 586 1
208 591 1
208 592 1
208 594 1
208 598 1
208 621 1
208 657 1
208 671 1
208 673 1
208 696 1
208 700 1
208 701 1
208 702 1
208 709 1
208 724 1
208 732 1
208 772 1
208 785 1
209 29 1
209 49 1
209 91 1
209 107 1
209 109 1
209 125 1
209 144 1
209 167 1
209 176 1
209 235 1
209 260 1
209 279 1
209 309 1
209 311 1
209 316 1
209 325 1
209 334 1
209 387 1
209 388 1
209 407 1
209 416 1
209 425 1
209 443 1
209 448 1
209 466 1
209 485 1
209 515 1
209 519 1
209 522 1
209 523 1
209 533 1
209 541 1
209 555 1
209 601 1
209 611 1
209 642 1
209 669 1
209 674 1
209 689 1
209 697 1
209 781 1
209 793 1
210 5 1
210 36 1
210 63 1
210 93 1
210 105 1
210 117 1
210 132 1
210 147 1
210 148 1
210 152 1
210 170 1
210 175 1
210 223 1
210 225 1
210 309 1
210 327 1
210 338 1
210 344 1
210 346 1
210 377 1
210 414 1
210 426 1
210 437 1
210 446 1
210 449 1
210 453 1
210 485 1
210 497 1
210 563 1
210 572 1
210 574 1
210 609 1
210 611 1
210 630 1
210 657 1
210 661 1
210 686 1
210 702 1
210 712 1
210 717 1
210 740 1
210 772 1
210 789 1
211 7 1
211 16 1
211 20 1
211 24 1
211 30 1
211 32 1
211 36 1
211 41 1
211 59 1
211 62 1
211 66 1
211 131 1
211 134 1
211 139 1
211 170 1
211 172 1
211 184 1
211 186 1
211 212 1
211 220 1
211 228 1
211 273 1
211 283 1
211 286 1
211 289 1
211 310 1
211 320 1
211 331 1
211 341 1
211 351 1
211 357 1
211 372 1
211 393 1
211 409 1
211 437 1
211 442 1
211 460 1
211 476 1
211 484 1
211 491 1
211 594 1
211 602 1
211 657 1
211 658 1
211 661 1
211 680 1
211 707 1
211 708 1
211 798 1
212 1 1
212 30 1
212 32 1
212 34 1
212 60 1
212 67 1
212 74 1
212 80 1
212 84 1
212 99 1
212 148 1
212 187 1
212 206 1
212 211 1
212 246 1
212 252 1
212 259 1
212 276 1
212 290 1
212 297 1
212 310 1
212 316 1
212 346 1
212 379 1
212 390 1
212 395 1
212 410 1
212 416 1
212 429 1
212 477 1
212 487 1
212 543 1
212 565 1
212 593 1
212 598 1
212 599 1
212 604 1
212 611 1
212 618 1
212 629 1
212 660 1
212 679 1
212 700 1
212 725 1
212 737 1
212 769 1
212 786 1
213 33 1
213 98 1
213 99 1
213 107 1
213 139 1
213 205 1
213 224 1
213 226 1
213 315 1
213 342 1
213 363 1
213 367 1
213 382 1
213 407 1
213 417 1
213 418 1
213 431 1
213 435 1
213 438 1
213 462 1
213 471 1
213 543 1
213 563 1
213 585 1
213 589 1
213 597 1
213 614 1
213 615 1
213 643 1
213 650 1
213 668 1
213 676 1
213 681 1
213 724 1
213 733 1
213 750 1
213 751 1
213 753 1
213 762 1
213 764 1
213 765 1
213 774 1
213 780 1
213 797 1
213 798 1
214 3 1
214 5 1
214 7 1
214 13 1
214 20 1
214 26 1
214 60 1
214 70 1
214 72 1
214 80 1
214 114 1
214 125 1
214 170 1
214 171 1
214 179 1
214 194 1
214 200 1
214 223 1
214 243 1
214 247 1
214 264 1
214 273 1
214 278 1
214 296 1
214 300 1
214 310 1
214 317 1
214 333 1
214 343 1
214 347 1
214 348 1
214 350 1
214 357 1
214 360 1
214 371 1
214 372 1
214 389 1
214 411 1
214 450 1
214 486 1
214 513 1
214 528 1
214 535 1
214 536 1
214 579 1
214 585 1
214 588 1
214 589 1
214 594 1
214 609 1
214 627 1
214 653 1
214 655 1
214 663 1
214 667 1
214 689 1
214 690 1
214 740 1
214 759 1
214 760 1
214 763 1
214 768 1
214 798 1
215 3 1
215 22 1
215 39 1
215 48 1
215 49 1
215 58 1
215 65 1
215 68 1
215 84 1
215 99 1
215 112 1
215 125 1
215 181 1
215 187 1
215 189 1
215 195 1
215 202 1
215 233 1
215 237 1
215 245 1
215 250 1
215 256 1
215 309 1
215 331 1
215 361 1
215 367 1
215 394 1
215 397 1
215 410 1
215 418 1
215 448 1
215 475 1
215 534 1
215 581 1
215 594 1
215 624 1
215 629 1
215 643 1
215 656 1
215 674 1
215 675 1
215 696 1
215 697 1
215 702 1
215 746 1
215 762 1
215 764 1
215 776 1
215 793 1
215 797 1
216 28 1
216 38 1
216 45 1
216 56 1
216 57 1
216 59 1
216 61 1
216 86 1
216 103 1
216 133 1
216 155 1
216 158 1
216 167 1
216 179 1
216 191 1
216 194 1
216 250 1
216 253 1
216 260 1
216 263 1
216 289 1
216 290 1
216 298 1
216 302 1
216 306 1
216 316 1
216 325 1
216 336 1
216 342 1
216 352 1
216 368 1
216 369 1
216 376 1
216 377 1
216 384 1
216 413 1
216 422 1
216 453 1
216 461 1
216 462 1
216 468 1
216 474 1
216 477 1
216 480 1
216 482 1
216 490 1
216 495 1
216 531 1
216 539 1
216 541 1
216 552 1
216 556 1
216 577 1
216 578 1
216 585 1
216 605 1
216 655 1
216 658 1
216 665 1
216 683 1
216 714 1
216 735 1
216 739 1
216 788 1
216 790 1
217 6 1
217 50 1
217 70 1
217 84 1
217 97 1
217 115 1
217 119 1
217 151 1
217 152 1
217 221 1
217 232 1
217 268 1
217 276 1
217 277 1
217 317 1
217 340 1
217 390 1
217 395 1
217 479 1
217 502 1
217 533 1
217 598 1
217 617 1
217 710 1
217 711 1
217 722 1
217 776 1
217 781 1
218 22 1
218 32 1
218 33 1
218 38 1
218 39 1
218 41 1
218 61 1
218 108 1
218 116 1
218 120 1
218 123 1
218 125 1
218 127 1
218 139 1
218 151 1
218 179 1
218 195 1
218 200 1
218 242 1
218 243 1
218 249 1
218 275 1
218 289 1
218 301 1
218 314 1
218 371 1
218 392 1
218 447 1
218 453 1
218 520 1
218 527 1
218 548 1
218 559 1
218 561 1
218 583 1
218 588 1
218 596 1
218 601 1
218 625 1
218 635 1
218 644 1
218 646 1
218 647 1
218 650 1
218 655 1
218 716 1
218 729 1
218 744 1
218 797 1
219 10 1
219 75 1
219 80 1
219 86 1
219 93 1
219 94 1
219 99 1
219 114 1
219 135 1
219 154 1
219 181 1
219 237 1
219 261 1
219 263 1
219 264 1
219 289 1
219 290 1
219 307 1
219 315 1
219 325 1
219 346 1
219 369 1
219 414 1
219 428 1
219 445 1
219 450 1
219 495 1
219 535 1
219 537 1
219 564 1
219 575 1
219 625 1
219 640 1
219 643 1
219 652 1
219 676 1
219 681 1
219 695 1
219 734 1
219 737 1
219 738 1
219 740 1
219 760 1
219 769 1
219 784 1
219 785 1
219 789 1
220 1 1
220 8 1
220 18 1
220 55 1
220 89 1
220 116 1
220 134 1
220 186 1
220 211 1
220 246 1
220 275 1
220 291 1
220 301 1
220 302 1
220 352 1
220 400 1
220 410 1
220 415 1
220 418 1
220 445 1
220 458 1
220 489 1
220 491 1
220 513 1
220 528 1
220 530 1
220 537 1
220 578 1
220 586 1
220 587 1
220 588 1
220 592 1
220 595 1
220 626 1
220 627 1
220 645 1
220 652 1
220 654 1
220 685 1
220 697 1
220 724 1
220 750 1
220 760 1
220 761 1
220 772 1
220 783 1
220 784 1
220 787 1
220 789 1
220 790 1
221 29 1
221 43 1
221 84 1
221 112 1
221 116 1
221 132 1
221 195 1
221 217 1
221 243 1
221 251 1
221 272 1
221 282 1
221 295 1
221 353 1
221 398 1
221 437 1
221 444 1
221 446 1
221 451 1
221 470 1
221 478 1
221 485 1
221 515 1
221 520 1
221 536 1
221 539 1
221 541 1
221 559 1
221 644 1
221 678 1
221 718 1
221 729 1
221 740 1
221 742 1
221 791 1
222 21 1
222 44 1
222 53 1
222 68 1
222 98 1
222 105 1
222 119 1
222 135 1
222 144 1
222 164 1
222 166 1
222 183 1
222 198 1
222 224 1
222 237 1
222 246 1
222 247 1
222 299 1
222 308 1
222 321 1
222 325 1
222 327 1
222 360 1
222 361 1
222 372 1
222 381 1
222 390 1
222 411 1
222 413 1
222 418 1
222 427 1
222 434 1
222 435 1
222 436 1
222 437 1
222 438 1
222 445 1
222 460 1
222 471 1
222 475 1
222 502 1
222 528 1
222 560 1
222 585 1
222 603 1
222 624 1
222 630 1
222 644 1
222 654 1
222 656 1
222 672 1
222 708 1
222 727 1
222 764 1
222 790 1
223 8 1
223 16 1
223 26 1
223 35 1
223 53 1
223 55 1
223 73 1
223 81 1
223 85 1
223 103 1
223 121 1
223 171 1
223 202 1
223 210 1
223 214 1
223 302 1
223 307 1
223 324 1
223 347 1
223 371 1
223 388 1
223 392 1
223 418 1
223 494 1
223 527 1
223 558 1
223 568 1
223 607 1
223 623 1
223 638 1
223 648 1
223 666 1
223 673 1
223 686 1
223 695 1
223 704 1
223 723 1
223 763 1
223 792 1
224 32 1
224 40 1
224 104 1
224 113 1
224 115 1
224 121 1
224 162 1
224 165 1
224 213 1
224 222 1
224 249 1
224 268 1
224 282 1
224 298 1
224 333 1
224 370 1
224 400 1
224 403 1
224 433 1
224 434 1
224 435 1
224 456 1
224 471 1
224 475 1
224 481 1
224 482 1
224 491 1
224 532 1
224 547 1
224 566 1
224 583 1
224 601 1
224 609 1
224 618 1
224 628 1
224 684 1
224 695 1
224 711 1
225 45 1
225 56 1
225 69 1
225 108 1
225 150 1
225 210 1
225 240 1
225 300 1
225 308 1
225 314 1
225 333 1
225 336 1
225 342 1
225 358 1
225 384 1
225 445 1
225 457 1
225 501 1
225 520 1
225 533 1
225 550 1
225 558 1
225 562 1
225 576 1
225 615 1
225 623 1
225 629 1
225 641 1
225 644 1
225 655 1
225 672 1
225 735 1
225 739 1
225 766 1
225 769 1
225 788 1
225 791 1
225 796 1
226 22 1
226 33 1
226 50 1
226 78 1
226 119 1
226 126 1
226 147 1
226 158 1
226 159 1
226 188 1
226 200 1
226 202 1
226 213 1
226 229 1
226 231 1
226 264 1
226 275 1
226 280 1
226 309 1
226 322 1
226 360 1
226 367 1
226 374 1
226 378 1
226 399 1
226 445 1
226 446 1
226 466 1
226 490 1
226 501 1
226 503 1
226 507 1
226 513 1
226 529 1
226 536 1
226 546 1
226 614 1
226 648 1
226 659 1
226 667 1
226 668 1
226 679 1
226 682 1
226 696 1
226 699 1
226 700 1
226 706 1
226 765 1
226 778 1
227 23 1
227 26 1
227 39 1
227 80 1
227 82 1
227 123 1
227 135 1
227 142 1
227 156 1
227 169 1
227 183 1
227 206 1
227 235 1
227 262 1
227 268 1
227 270 1
227 280 1
227 327 1
227 331 1
227 342 1
227 356 1
227 362 1
227 366 1
227 401 1
227 439 1
227 446 1
227 467 1
227 471 1
227 478 1
227 497 1
227 498 1
227 504 1
227 523 1
227 526 1
227 541 1
227 567 1
227 575 1
227 587 1
227 591 1
227 594 1
227 595 1
227 597 1
227 599 1
227 626 1
227 717 1
227 729 1
227 746 1
227 775 1
228 11 1
228 15 1
228 25 1
228 65 1
228 83 1
228 107 1
228 117 1
228 147 1
228 159 1
228 200 1
228 202 1
228 211 1
228 236 1
228 243 1
228 252 1
228 260 1
228 271 1
228 273 1
228 291 1
228 294 1
228 324 1
228 360 1
228 402 1
228 415 1
228 434 1
228 452 1
228 454 1
228 493 1
228 494 1
228 506 1
228 508 1
228 520 1
228 528 1
228 549 1
228 556 1
228 557 1
228 572 1
228 596 1
228 605 1
228 619 1
228 643 1
228 653 1
228 694 1
228 696 1
228 740 1
228 756 1
229 7 1
229 28 1
229 46 1
229 69 1
229 70 1
229 82 1
229 92 1
229 101 1
229 117 1
229 128 1
229 137 1
229 149 1
229 165 1
229 181 1
229 185 1
229 186 1
229 189 1
229 192 1
229 226 1
229 242 1
229 279 1
229 282 1
229 283 1
229 294 1
229 316 1
229 329 1
229 330 1
229 333 1
229 341 1
229 351 1
229 390 1
229 399 1
229 403 1
229 407 1
229 408 1
229 413 1
229 447 1
229 466 1
229 471 1
229 502 1
229 513 1
229 531 1
229 553 1
229 581 1
229 584 1
229 592 1
229 602 1
229 609 1
229 617 1
229 639 1
229 702 1
229 703 1
229 732 1
229 738 1
229 753 1
229 758 1
229 766 1
229 777 1
229 781 1
229 788 1
230 4 1
230 8 1
230 33 1
230 37 1
230 41 1
230 47 1
230 96 1
230 101 1
230 112 1
230 139 1
230 167 1
230 177 1
230 272 1
230 278 1
230 308 1
230 374 1
230 379 1
230 392 1
230 404 1
230 415 1
230 416 1
230 432 1
230 454 1
230 477 1
230 479 1
230 495 1
230 502 1
230 507 1
230 541 1
230 549 1
230 599 1
230 602 1
230 640 1
230 647 1
230 661 1
230 670 1
230 677 1
230 680 1
230 681 1
230 684 1
230 705 1
230 708 1
230 712 1
230 732 1
230 738 1
230 744 1
230 749 1
231 13 1
231 15 1
231 26 1
231 28 1
231 34 1
231 55 1
231 66 1
231 78 1
231 104 1
231 113 1
231 118 1
231 131 1
231 136 1
231 190 1
231 200 1
231 226 1
231 250 1
231 251 1
231 262 1
231 279 1
231 280 1
231 282 1
231 302 1
231 307 1
231 308 1
231 310 1
231 341 1
231 344 1
231 377 1
231 420 1
231 425 1
231 442 1
231 521 1
231 528 1
231 535 1
231 539 1
231 548 1
231 550 1
231 559 1
231 585 1
231 600 1
231 602 1
231 660 1
231 661 1
231 682 1
231 686 1
231 693 1
231 709 1
231 724 1
231 743 1
231 796 1
232 6 1
232 17 1
232 22 1
232 52 1
232 58 1
232 64 1
232 72 1
232 81 1
232 88 1
232 121 1
232 122 1
232 126 1
232 143 1
232 146 1
232 194 1
232 197 1
232 199 1
232 205 1
232 217 1
232 242 1
232 268 1
232 271 1
232 287 1
232 289 1
232 291 1
232 368 1
232 374 1
232 388 1
232 399 1
232 406 1
232 425 1
232 440 1
232 468 1
232 471 1
232 499 1
232 502 1
232 511 1
232 512 1
232 515 1
232 519 1
232 521 1
232 534 1
232 544 1
232 562 1
232 567 1
232 572 1
232 601 1
232 627 1
232 661 1
232 675 1
232 682 1
232 707 1
232 722 1
232 724 1
232 732 1
232 735 1
232 757 1
232 762 1
232 797 1
233 12 1
233 27 1
233 34 1
233 94 1
233 102 1
233 105 1
233 111 1
233 133 1
233 153 1
233 156 1
233 164 1
233 168 1
233 188 1
233 194 1
233 199 1
233 215 1
233 260 1
233 264 1
233 275 1
233 276 1
233 287 1
233 302 1
233 309 1
233 311 1
233 328 1
233 331 1
233 353 1
233 376 1
233 392 1
233 422 1
233 434 1
233 454 1
233 461 1
233 477 1
233 497 1
233 511 1
233 517 1
233 536 1
233 541 1
233 550 1
233 553 1
233 599 1
233 601 1
233 628 1
233 638 1
233 639 1
233 652 1
233 657 1
233 674 1
233 675 1
233 726 1
233 733 1
233 740 1
233 751 1
233 778 1
233 796 1
234 19 1
234 27 1
234 28 1
234 35 1
234 68 1
234 74 1
234 87 1
234 89 1
234 140 1
234 144 1
234 146 1
234 162 1
234 183 1
234 196 1
234 207 1
234 241 1
234 282 1
234 302 1
234 312 1
234 348 1
234 362 1
234 364 1
234 389 1
234 418 1
234 455 1
234 472 1
234 521 1
234 525 1
234 558 1
234 567 1
234 579 1
234 603 1
234 604 1
234 657 1
234 709 1
234 710 1
234 721 1
234 745 1
234 748 1
234 753 1
234 786 1
235 4 1
235 6 1
235 13 1
235 27 1
235 51 1
235 53 1
235 64 1
235 73 1
235 75 1
235 105 1
235 107 1
235 115 1
235 121 1
235 137 1
235 145 1
235 152 1
235 170 1
235 171 1
235 209 1
235 227 1
235 257 1
235 262 1
235 265 1
235 339 1
235 355 1
235 376 1
235 377 1
235 383 1
235 385 1
235 405 1
235 413 1
235 419 1
235 432 1
235 447 1
235 458 1
235 470 1
235 489 1
235 502 1
235 523 1
235 529 1
235 534 1
235 562 1
235 592 1
235 595 1
235 597 1
235 618 1
235 626 1
235 704 1
235 710 1
235 716 1
235 729 1
235 732 1
235 764 1
235 783 1
235 785 1
236 10 1
236 39 1
236 49 1
236 102 1
236 107 1
236 110 1
236 150 1
236 228 1
236 249 1
236 265 1
236 282 1
236 312 1
236 313 1
236 356 1
236 375 1
236 386 1
236 387 1
236 433 1
236 439 1
236 448 1
236 459 1
236 479 1
236 495 1
236 509 1
236 540 1
236 553 1
236 572 1
236 576 1
236 580 1
236 617 1
236 619 1
236 623 1
236 655 1
236 663 1
236 670 1
236 713 1
236 745 1
236 768 1
236 779 1
236 785 1
236 796 1
237 26 1
237 29 1
237 49 1
237 75 1
237 101 1
237 106 1
237 141 1
237 159 1
237 160 1
237 168 1
237 183 1
237 196 1
237 215 1
237 219 1
237 222 1
237 254 1
237 256 1
237 283 1
237 284 1
237 293 1
237 311 1
237 314 1
237 344 1
237 406 1
237 450 1
237 460 1
237 481 1
237 496 1
237 503 1
237 509 1
237 525 1
237 538 1
237 539 1
237 545 1
237 546 1
237 570 1
237 588 1
237 594 1
237 610 1
237 634 1
237 641 1
237 654 1
237 657 1
237 669 1
237 670 1
237 671 1
237 682 1
237 696 1
237 718 1
237 720 1
237 734 1
237 794 1
237 800 1
238 1 1
238 28 1
238 47 1
238 69 1
238 119 1
238 132 1
238 138 1
238 144 1
238 170 1
238 175 1
238 200 1
238 205 1
238 252 1
238 291 1
238 318 1
238 358 1
238 380 1
238 391 1
238 399 1
238 406 1
238 416 1
238 438 1
238 467 1
238 473 1
238 480 1
238 483 1
238 504 1
238 537 1
238 543 1
238 549 1
238 553 1
238 565 1
238 603 1
238 611 1
238 613 1
238 624 1
238 632 1
238 633 1
238 634 1
238 658 1
238 672 1
238 702 1
238 703 1
238 736 1
238 746 1
238 752 1
238 754 1
239 9 1
239 21 1
239 22 1
239 24 1
239 30 1
239 37 1
239 38 1
239 69 1
239 77 1
239 98 1
239 100 1
239 109 1
239 127 1
239 131 1
239 138 1
239 161 1
239 174 1
239 187 1
239 192 1
239 262 1
239 321 1
239 325 1
239 338 1
239 376 1
239 396 1
239 442 1
239 495 1
239 549 1
239 556 1
239 572 1
239 608 1
239 609 1
239 618 1
239 656 1
239 671 1
239 675 1
239 701 1
239 800 1
240 11 1
240 20 1
240 40 1
240 47 1
240 56 1
240 123 1
240 151 1
240 180 1
240 225 1
240 271 1
240 290 1
240 296 1
240 308 1
240 320 1
240 324 1
240 333 1
240 348 1
240 350 1
240 359 1
240 366 1
240 412 1
240 433 1
240 439 1
240 447 1
240 452 1
240 483 1
240 499 1
240 504 1
240 509 1
240 534 1
240 552 1
240 597 1
240 626 1
240 629 1
240 647 1
240 661 1
240 702 1
240 704 1
240 718 1
240 723 1
240 771 1
240 773 1
240 776 1
241 1 1
241 5 1
241 23 1
241 25 1
241 50 1
241 60 1
241 62 1
241 88 1
241 100 1
241 105 1
241 110 1
241 114 1
241 147 1
241 165 1
241 174 1
241 189 1
241 234 1
241 245 1
241 254 1
241 291 1
241 312 1
241 313 1
241 337 1
241 351 1
241 358 1
241 375 1
241 388 1
241 392 1
241 416 1
241 430 1
241 447 1
241 528 1
241 547 1
241 552 1
241 554 1
241 593 1
241 667 1
241 696 1
241 708 1
241 712 1
241 735 1
241 740 1
241 749 1
241 752 1
242 32 1
242 67 1
242 83 1
242 119 1
242 121 1
242 145 1
242 157 1
242 163 1
242 169 1
242 208 1
242 218 1
242 229 1
242 232 1
242 256 1
242 266 1
242 286 1
242 294 1
242 322 1
242 357 1
242 389 1
242 394 1
242 411 1
242 432 1
242 435 1
242 444 1
242 474 1
242 495 1
242 532 1
242 540 1
242 548 1
242 557 1
242 578 1
242 594 1
242 612 1
242 631 1
242 637 1
242 638 1
242 690 1
242 700 1
242 703 1
242 732 1
242 733 1
242 735 1
242 741 1
242 774 1
242 785 1
243 38 1
243 41 1
243 63 1
243 77 1
243 82 1
243 132 1
243 170 1
243 200 1
243 202 1
243 203 1
243 214 1
243 218 1
243 221 1
243 228 1
243 255 1
243 258 1
243 268 1
243 301 1
243 327 1
243 341 1
243 354 1
243 359 1
243 445 1
243 463 1
243 475 1
243 498 1
243 519 1
243 520 1
243 530 1
243 545 1
243 549 1
243 550 1
243 616 1
243 649 1
243 651 1
243 666 1
243 678 1
243 683 1
243 695 1
243 712 1
243 713 1
243 719 1
243 730 1
243 754 1
243 769 1
243 783 1
244 30 1
244 40 1
244 53 1
244 56 1
244 62 1
244 72 1
244 74 1
244 83 1
244 186 1
244 252 1
244 266 1
244 287 1
244 298 1
244 302 1
244 305 1
244 308 1
244 310 1
244 327 1
244 448 1
244 452 1
244 460 1
244 462 1
244 490 1
244 492 1
244 530 1
244 545 1
244 556 1
244 566 1
244 574 1
244 583 1
244 612 1
244 617 1
244 626 1
244 680 1
244 693 1
244 696 1
244 698 1
244 700 1
244 710 1
244 712 1
244 737 1
244 743 1
244 748 1
244 776 1
244 778 1
245 7 1
245 27 1
245 38 1
245 57 1
245 59 1
245 95 1
245 99 1
245 133 1
245 152 1
245 215 1
245 241 1
245 312 1
245 334 1
245 351 1
245 380 1
245 386 1
245 395 1
245 424 1
245 437 1
245 538 1
245 571 1
245 611 1
245 623 1
245 660 1
245 677 1
245 697 1
245 701 1
245 732 1
245 742 1
245 747 1
245 790 1
246 63 1
246 67 1
246 90 1
246 120 1
246 192 1
246 212 1
246 220 1
246 222 1
246 256 1
246 273 1
246 275 1
246 286 1
246 291 1
246 295 1
246 297 1
246 338 1
246 339 1
246 348 1
246 379 1
246 380 1
246 406 1
246 456 1
246 476 1
246 484 1
246 547 1
246 569 1
246 592 1
246 603 1
246 645 1
246 653 1
246 667 1
246 675 1
246 695 1
246 756 1
247 31 1
247 32 1
247 94 1
247 114 1
247 141 1
247 149 1
247 172 1
247 200 1
247 205 1
247 214 1
247 222 1
247 260 1
247 277 1
247 282 1
247 297 1
247 302 1
247 313 1
247 317 1
247 343 1
247 357 1
247 372 1
247 381 1
247 386 1
247 403 1
247 407 1
247 411 1
247 450 1
247 472 1
247 484 1
247 524 1
247 525 1
247 539 1
247 546 1
247 553 1
247 562 1
247 568 1
247 578 1
247 608 1
247 621 1
247 622 1
247 700 1
247 719 1
247 722 1
247 740 1
247 742 1
247 749 1
247 753 1
247 761 1
247 764 1
247 767 1
247 783 1
247 790 1
248 14 1
248 27 1
248 38 1
248 77 1
248 83 1
248 119 1
248 152 1
248 268 1
248 294 1
248 311 1
248 336 1
248 339 1
248 347 1
248 350 1
248 366 1
248 384 1
248 390 1
248 396 1
248 398 1
248 416 1
248 433 1
248 440 1
248 443 1
248 459 1
248 483 1
248 489 1
248 492 1
248 535 1
248 549 1
248 558 1
248 586 1
248 622 1
248 690 1
248 692 1
248 717 1
248 721 1
248 731 1
248 767 1
249 11 1
249 28 1
249 33 1
249 62 1
249 96 1
249 132 1
249 155 1
249 163 1
249 170 1
249 197 1
249 198 1
249 218 1
249 224 1
249 236 1
249 260 1
249 266 1
249 308 1
249 354 1
249 394 1
249 404 1
249 436 1
249 440 1
249 449 1
249 456 1
249 466 1
249 474 1
249 504 1
249 505 1
249 563 1
249 568 1
249 582 1
249 635 1
249 664 1
249 670 1
249 689 1
249 701 1
249 726 1
249 732 1
249 737 1
249 745 1
249 752 1
249 754 1
249 767 1
249 778 1
250 19 1
250 21 1
250 44 1
250 45 1
250 51 1
250 59 1
250 73 1
250 111 1
250 114 1
250 115 1
250 128 1
250 143 1
250 153 1
250 162 1
250 174 1
250 177 1
250 201 1
250 215 1
250 216 1
250 231 1
250 303 1
250 327 1
250 330 1
250 337 1
250 341 1
250 362 1
250 379 1
250 390 1
250 391 1
250 395 1
250 403 1
250 414 1
250 429 1
250 452 1
250 456 1
250 483 1
250 491 1
250 504 1
250 514 1
250 523 1
250 552 1
250 560 1
250 563 1
250 571 1
250 600 1
250 636 1
250 648 1
250 656 1
250 717 1
250 727 1
250 738 1
250 743 1
250 778 1
250 791 1
251 8 1
251 42 1
251 50 1
251 63 1
251 71 1
251 92 1
251 104 1
251 131 1
251 137 1
251 146 1
251 148 1
251 161 1
251 191 1
251 194 1
251 221 1
251 231 1
251 256 1
251 258 1
251 289 1
251 290 1
251 294 1
251 306 1
251 311 1
251 329 1
251 356 1
251 361 1
251 370 1
251 377 1
251 385 1
251 414 1
251 431 1
251 483 1
251 497 1
251 501 1
251 512 1
251 548 1
251 552 1
251 557 1
251 612 1
251 624 1
251 654 1
251 691 1
251 730 1
251 738 1
251 745 1
251 751 1
251 784 1
251 793 1
252 7 1
252 36 1
252 77 1
252 80 1
252 84 1
252 88 1
252 119 1
252 122 1
252 136 1
252 188 1
252 199 1
252 212 1
252 228 1
252 238 1
252 244 1
252 257 1
252 258 1
252 271 1
252 308 1
252 332 1
252 338 1
252 361 1
252 411 1
252 419 1
252 437 1
252 445 1
252 486 1
252 518 1
252 528 1
252 529 1
252 539 1
252 563 1
252 579 1
252 582 1
252 608 1
252 616 1
252 620 1
252 625 1
252 631 1
252 680 1
252 703 1
252 747 1
252 754 1
252 763 1
252 799 1
253 34 1
253 35 1
253 56 1
253 66 1
253 82 1
253 134 1
253 184 1
253 190 1
253 194 1
253 198 1
253 206 1
253 216 1
253 259 1
253 275 1
253 300 1
253 313 1
253 328 1
253 340 1
253 388 1
253 407 1
253 413 1
253 436 1
253 448 1
253 460 1
253 470 1
253 477 1
253 500 1
253 505 1
253 506 1
253 516 1
253 519 1
253 543 1
253 586 1
253 640 1
253 644 1
253 646 1
253 696 1
253 713 1
253 720 1
253 722 1
253 736 1
253 739 1
253 741 1
253 749 1
253 781 1
254 20 1
254 23 1
254 58 1
254 66 1
254 81 1
254 85 1
254 87 1
254 95 1
254 101 1
254 117 1
254 179 1
254 192 1
254 204 1
254 208 1
254 237 1
254 241 1
254 283 1
254 286 1
254 292 1
254 325 1
254 333 1
254 341 1
254 348 1
254 356 1
254 360 1
254 370 1
254 381 1
254 388 1
254 407 1
254 417 1
254 450 1
254 454 1
254 472 1
254 517 1
254 530 1
254 567 1
254 605 1
254 722 1
254 727 1
254 738 1
254 739 1
254 740 1
254 796 1
255 19 1
255 29 1
255 36 1
255 59 1
255 66 1
255 87 1
255 90 1
255 114 1
255 158 1
255 159 1
255 162 1
255 173 1
255 174 1
255 178 1
255 189 1
255 243 1
255 260 1
255 263 1
255 321 1
255 334 1
255 347 1
255 352 1
255 361 1
255 379 1
255 380 1
255 391 1
255 397 1
255 404 1
255 421 1
255 431 1
255 451 1
255 462 1
255 464 1
255 492 1
255 498 1
255 552 1
255 559 1
255 560 1
255 594 1
255 603 1
255 605 1
255 640 1
255 675 1
255 688 1
255 693 1
255 694 1
255 736 1
255 738 1
255 752 1
255 757 1
255 794 1
256 17 1
256 19 1
256 26 1
256 33 1
256 42 1
256 44 1
256 62 1
256 69 1
256 110 1
256 111 1
256 112 1
256 145 1
256 153 1
256 162 1
256 215 1
256 237 1
256 242 1
256 246 1
256 251 1
256 263 1
256 270 1
256 280 1
256 295 1
256 327 1
256 357 1
256 454 1
256 462 1
256 466 1
256 530 1
256 539 1
256 544 1
256 573 1
256 580 1
256 582 1
256 594 1
256 633 1
256 656 1
256 674 1
256 682 1
256 683 1
256 725 1
256 752 1
256 781 1
256 798 1
257 21 1
257 26 1
257 27 1
257 49 1
257 88 1
257 107 1
257 116 1
257 142 1
257 153 1
257 159 1
257 174 1
257 235 1
257 252 1
257 263 1
257 264 1
257 304 1
257 313 1
257 338 1
257 379 1
257 384 1
257 417 1
257 437 1
257 442 1
257 474 1
257 478 1
257 493 1
257 498 1
257 530 1
257 532 1
257 547 1
257 558 1
257 564 1
257 568 1
257 605 1
257 618 1
257 653 1
257 669 1
257 684 1
257 686 1
257 698 1
257 708 1
257 711 1
257 722 1
257 727 1
257 733 1
257 740 1
257 755 1
257 772 1
257 786 1
257 792 1
257 798 1
258 11 1
258 13 1
258 34 1
258 54 1
258 71 1
258 109 1
258 117 1
258 130 1
258 134 1
258 156 1
258 180 1
258 183 1
258 198 1
258 208 1
258 243 1
258 251 1
258 252 1
258 269 1
258 276 1
258 289 1
258 309 1
258 322 1
258 328 1
258 349 1
258 351 1
258 355 1
258 362 1
258 389 1
258 394 1
258 409 1
258 418 1
258 421 1
258 444 1
258 445 1
258 449 1
258 478 1
258 488 1
258 498 1
258 514 1
258 522 1
258 555 1
258 563 1
258 571 1
258 575 1
258 584 1
258 585 1
258 588 1
258 613 1
258 617 1
258 638 1
258 670 1
258 684 1
258 705 1
258 709 1
258 711 1
258 734 1
258 759 1
258 772 1
259 48 1
259 82 1
259 97 1
259 102 1
259 133 1
259 143 1
259 171 1
259 183 1
259 190 1
259 212 1
259 253 1
259 284 1
259 318 1
259 338 1
259 349 1
259 373 1
259 386 1
259 408 1
259 462 1
259 474 1
259 504 1
259 514 1
259 530 1
259 536 1
259 540 1
259 560 1
259 579 1
259 585 1
259 611 1
259 612 1
259 617 1
259 646 1
259 696 1
259 728 1
259 748 1
259 757 1
259 759 1
259 773 1
259 779 1
259 789 1
259 800 1
260 2 1
260 4 1
260 19 1
260 26 1
260 59 1
260 72 1
260 183 1
260 209 1
260 216 1
260 228 1
260 233 1
260 247 1
260 249 1
260 255 1
260 278 1
260 311 1
260 342 1
260 416 1
260 442 1
260 469 1
260 478 1
260 484 1
260 493 1
260 502 1
260 546 1
260 549 1
260 584 1
260 587 1
260 606 1
260 628 1
260 638 1
260 668 1
260 693 1
260 696 1
260 734 1
260 751 1
260 766 1
260 772 1
260 774 1
260 793 1
260 795 1
261 14 1
261 50 1
261 60 1
261 69 1
261 95 1
261 99 1
261 110 1
261 123 1
261 145 1
261 154 1
261 173 1
261 182 1
261 219 1
261 278 1
261 288 1
261 312 1
261 320 1
261 324 1
261 343 1
261 349 1
261 354 1
261 362 1
261 378 1
261 381 1
261 404 1
261 443 1
261 446 1
261 478 1
261 509 1
261 521 1
261 522 1
261 531 1
261 558 1
261 572 1
261 590 1
261 591 1
261 592 1
261 594 1
261 597 1
261 638 1
261 657 1
261 661 1
261 662 1
261 678 1
261 711 1
261 717 1
261 746 1
261 753 1
261 777 1
261 785 1
262 17 1
262 23 1
262 39 1
262 45 1
262 47 1
262 50 1
262 65 1
262 73 1
262 81 1
262 87 1
262 118 1
262 128 1
262 145 1
262 149 1
262 175 1
262 179 1
262 188 1
262 227 1
262 231 1
262 235 1
262 239 1
262 266 1
262 293 1
262 335 1
262 336 1
262 352 1
262 366 1
262 369 1
262 380 1
262 403 1
262 440 1
262 442 1
262 450 1
262 456 1
262 471 1
262 474 1
262 503 1
262 518 1
262 521 1
262 524 1
262 555 1
262 563 1
262 578 1
262 598 1
262 607 1
262 645 1
262 646 1
262 671 1
262 697 1
262 711 1
262 717 1
262 720 1
262 723 1
262 755 1
263 20 1
263 30 1
263 44 1
263 51 1
263 73 1
263 124 1
263 128 1
263 134 1
263 138 1
263 169 1
263 197 1
263 216 1
263 219 1
263 255 1
263 256 1
263 257 1
263 320 1
263 333 1
263 352 1
263 432 1
263 441 1
263 444 1
263 467 1
263 468 1
263 472 1
263 504 1
263 537 1
263 539 1
263 545 1
263 556 1
263 607 1
263 615 1
263 643 1
263 649 1
263 664 1
263 687 1
263 695 1
263 758 1
263 774 1
263 782 1
263 795 1
264 36 1
264 71 1
264 98 1
264 140 1
264 145 1
264 151 1
264 214 1
264 219 1
264 226 1
264 233 1
264 257 1
264 266 1
264 268 1
264 275 1
264 281 1
264 307 1
264 308 1
264 319 1
264 337 1
264 338 1
264 382 1
264 394 1
264 422 1
264 428 1
264 464 1
264 476 1
264 484 1
264 485 1
264 505 1
264 575 1
264 604 1
264 620 1
264 633 1
264 641 1
264 645 1
264 648 1
264 655 1
264 656 1
264 660 1
264 665 1
264 690 1
264 694 1
264 708 1
264 712 1
264 716 1
264 731 1
264 761 1
265 10 1
265 27 1
265 32 1
265 35 1
265 39 1
265 48 1
265 55 1
265 60 1
265 61 1
265 69 1
265 73 1
265 95 1
265 96 1
265 108 1
265 149 1
265 158 1
265 161 1
265 191 1
265 235 1
265 236 1
265 273 1
265 277 1
265 283 1
265 294 1
265 411 1
265 419 1
265 523 1
265 577 1
265 578 1
265 580 1
265 609 1
265 639 1
265 662 1
265 669 1
265 696 1
265 721 1
265 731 1
265 763 1
265 773 1
265 784 1
266 35 1
266 40 1
266 89 1
266 113 1
266 119 1
266 134 1
266 137 1
266 138 1
266 139 1
266 144 1
266 177 1
266 242 1
266 244 1
266 249 1
266 262 1
266 264 1
266 267 1
266 287 1
266 299 1
266 347 1
266 358 1
266 374 1
266 391 1
266 405 1
266 407 1
266 421 1
266 431 1
266 444 1
266 471 1
266 479 1
266 491 1
266 512 1
266 567 1
266 597 1
266 598 1
266 604 1
266 621 1
266 633 1
266 662 1
266 673 1
266 687 1
266 706 1
266 718 1
266 740 1
266 761 1
266 772 1
266 784 1
266 800 1
267 6 1
267 12 1
267 79 1
267 103 1
267 111 1
267 116 1
267 122 1
267 123 1
267 143 1
267 152 1
267 154 1
267 159 1
267 168 1
267 178 1
267 186 1
267 195 1
267 200 1
267 205 1
267 266 1
267 280 1
267 286 1
267 313 1
267 316 1
267 322 1
267 356 1
267 361 1
267 366 1
267 379 1
267 383 1
267 397 1
267 401 1
267 405 1
267 417 1
267 445 1
267 472 1
267 474 1
267 475 1
267 517 1
267 527 1
267 530 1
267 544 1
267 571 1
267 578 1
267 584 1
267 593 1
267 614 1
267 615 1
267 657 1
267 682 1
267 696 1
267 705 1
267 707 1
267 708 1
267 719 1
267 728 1
267 732 1
267 750 1
267 751 1
267 760 1
267 769 1
267 795 1
268 18 1
268 39 1
268 64 1
268 68 1
268 77 1
268 92 1
268 96 1
268 102 1
268 104 1
268 107 1
268 115 1
268 150 1
268 163 1
268 217 1
268 224 1
268 227 1
268 232 1
268 243 1
268 248 1
268 264 1
268 308 1
268 341 1
268 351 1
268 357 1
268 358 1
268 365 1
268 370 1
268 400 1
268 416 1
268 421 1
268 428 1
268 474 1
268 478 1
268 505 1
268 510 1
268 516 1
268 530 1
268 538 1
268 570 1
268 586 1
268 590 1
268 600 1
268 616 1
268 617 1
268 639 1
268 664 1
268 700 1
268 726 1
268 747 1
268 748 1
268 756 1
268 770 1
268 779 1
268 798 1
269 2 1
269 46 1
269 49 1
269 64 1
269 69 1
269 108 1
269 110 1
269 153 1
269 158 1
269 162 1
269 180 1
269 258 1
269 307 1
269 330 1
269 348 1
269 414 1
269 417 1
269 503 1
269 506 1
269 507 1
269 523 1
269 531 1
269 537 1
269 553 1
269 555 1
269 561 1
269 574 1
269 583 1
269 585 1
269 588 1
269 596 1
269 600 1
269 627 1
269 664 1
269 666 1
269 669 1
269 676 1
269 680 1
269 682 1
269 775 1
270 5 1
270 7 1
270 21 1
270 27 1
270 60 1
270 66 1
270 112 1
270 194 1
270 204 1
270 227 1
270 256 1
270 294 1
270 298 1
270 329 1
270 339 1
270 366 1
270 388 1
270 402 1
270 411 1
270 428 1
270 551 1
270 560 1
270 572 1
270 608 1
270 615 1
270 658 1
270 676 1
270 677 1
270 682 1
270 688 1
270 703 1
270 725 1
270 735 1
270 760 1
270 768 1
270 791 1
271 27 1
271 40 1
271 49 1
271 62 1
271 70 1
271 109 1
271 206 1
271 228 1
271 232 1
271 240 1
271 252 1
271 289 1
271 322 1
271 363 1
271 437 1
271 460 1
271 497 1
271 557 1
271 560 1
271 572 1
271 629 1
271 642 1
271 650 1
271 662 1
271 667 1
271 683 1
271 701 1
271 715 1
271 716 1
271 719 1
271 736 1
271 740 1
271 751 1
271 760 1
271 789 1
271 793 1
272 21 1
272 23 1
272 36 1
272 50 1
272 87 1
272 105 1
272 126 1
272 149 1
272 175 1
272 195 1
272 199 1
272 221 1
272 230 1
272 273 1
272 312 1
272 321 1
272 333 1
272 338 1
272 363 1
272 382 1
272 412 1
272 423 1
272 491 1
272 493 1
272 499 1
272 518 1
272 527 1
272 528 1
272 531 1
272 568 1
272 570 1
272 614 1
272 636 1
272 642 1
272 646 1
272 650 1
272 690 1
272 695 1
272 697 1
272 710 1
272 725 1
272 736 1
272 749 1
272 787 1
272 796 1
273 8 1
273 33 1
273 35 1
273 38 1
273 59 1
273 75 1
273 101 1
273 106 1
273 108 1
273 172 1
273 195 1
273 202 1
273 208 1
273 211 1
273 214 1
273 228 1
273 246 1
273 265 1
273 272 1
273 310 1
273 314 1
273 315 1
273 323 1
273 376 1
273 393 1
273 413 1
273 455 1
273 481 1
273 559 1
273 560 1
273 563 1
273 592 1
273 622 1
273 669 1
273 689 1
273 700 1
273 729 1
273 732 1
273 734 1
273 754 1
274 9 1
274 71 1
274 76 1
274 86 1
274 97 1
274 130 1
274 137 1
274 148 1
274 158 1
274 207 1
274 277 1
274 282 1
274 300 1
274 303 1
274 313 1
274 336 1
274 344 1
274 346 1
274 350 1
274 388 1
274 393 1
274 395 1
274 414 1
274 416 1
274 421 1
274 438 1
274 527 1
274 529 1
274 574 1
274 602 1
274 625 1
274 652 1
274 680 1
274 692 1
274 697 1
274 714 1
274 738 1
275 24 1
275 29 1
275 40 1
275 42 1
275 57 1
275 62 1
275 77 1
275 94 1
275 98 1
275 103 1
275 122 1
275 137 1
275 165 1
275 167 1
275 176 1
275 218 1
275 220 1
275 226 1
275 233 1
275 246 1
275 253 1
275 264 1
275 293 1
275 298 1
275 302 1
275 339 1
275 342 1
275 368 1
275 392 1
275 397 1
275 401 1
275 405 1
275 406 1
275 416 1
275 431 1
275 439 1
275 479 1
275 483 1
275 496 1
275 498 1
275 504 1
275 512 1
275 527 1
275 532 1
275 597 1
275 614 1
275 615 1
275 623 1
275 670 1
275 693 1
275 704 1
275 745 1
275 773 1
275 782 1
275 788 1
275 799 1
276 72 1
276 80 1
276 111 1
276 113 1
276 150 1
276 167 1
276 169 1
276 212 1
276 217 1
276 233 1
276 258 1
276 278 1
276 283 1
276 299 1
276 304 1
276 345 1
276 352 1
276 356 1
276 399 1
276 456 1
276 457 1
276 458 1
276 474 1
276 482 1
276 495 1
276 502 1
276 503 1
276 504 1
276 551 1
276 558 1
276 568 1
276 672 1
276 683 1
276 699 1
276 709 1
276 725 1
276 726 1
276 778 1
276 780 1
276 787 1
276 792 1
276 800 1
277 10 1
277 14 1
277 18 1
277 31 1
277 51 1
277 54 1
277 85 1
277 112 1
277 116 1
277 134 1
277 135 1
277 136 1
277 160 1
277 174 1
277 200 1
277 204 1
277 217 1
277 247 1
277 265 1
277 274 1
277 286 1
277 292 1
277 294 1
277 332 1
277 364 1
277 394 1
277 411 1
277 416 1
277 441 1
277 458 1
277 463 1
277 495 1
277 523 1
277 524 1
277 570 1
277 571 1
277 576 1
277 582 1
277 583 1
277 597 1
277 652 1
277 655 1
277 659 1
277 663 1
277 671 1
277 676 1
277 682 1
277 692 1
277 694 1
277 698 1
277 716 1
277 730 1
277 739 1
277 742 1
277 760 1
277 763 1
277 775 1
277 782 1
278 13 1
278 14 1
278 35 1
278 48 1
278 66 1
278 82 1
278 92 1
278 129 1
278 132 1
278 135 1
278 140 1
278 203 1
278 214 1
278 230 1
278 260 1
278 261 1
278 276 1
278 286 1
278 329 1
278 331 1
278 404 1
278 411 1
278 412 1
278 435 1
278 457 1
278 470 1
278 475 1
278 485 1
278 504 1
278 509 1
278 520 1
278 531 1
278 532 1
278 559 1
278 560 1
278 610 1
278 619 1
278 636 1
278 647 1
278 683 1
278 687 1
278 695 1
278 704 1
278 717 1
278 736 1
278 737 1
278 754 1
278 759 1
278 769 1
278 770 1
278 781 1
279 23 1
279 51 1
279 56 1
279 66 1
279 72 1
279 81 1
279 99 1
279 101 1
279 113 1
279 138 1
279 144 1
279 147 1
279 159 1
279 162 1
279 172 1
279 180 1
279 190 1
279 192 1
279 197 1
279 201 1
279 209 1
279 229 1
279 231 1
279 302 1
279 322 1
279 346 1
279 348 1
279 357 1
279 359 1
279 379 1
279 385 1
279 404 1
279 409 1
279 472 1
279 514 1
279 528 1
279 550 1
279 556 1
279 596 1
279 601 1
279 619 1
279 646 1
279 653 1
279 659 1
279 680 1
279 689 1
279 695 1
279 719 1
279 731 1
280 8 1
280 21 1
280 26 1
280 35 1
280 40 1
280 64 1
280 83 1
280 97 1
280 110 1
280 115 1
280 119 1
280 156 1
280 160 1
280 162 1
280 164 1
280 201 1
280 202 1
280 208 1
280 226 1
280 227 1
280 231 1
280 256 1
280 267 1
280 312 1
280 313 1
280 342 1
280 352 1
280 360 1
280 384 1
280 389 1
280 408 1
280 423 1
280 425 1
280 443 1
280 474 1
280 490 1
280 501 1
280 512 1
280 518 1
280 524 1
280 539 1
280 549 1
280 562 1
280 612 1
280 673 1
280 680 1
280 693 1
280 712 1
280 713 1
280 726 1
280 742 1
280 759 1
280 773 1
280 796 1
281 9 1
281 32 1
281 59 1
281 63 1
281 94 1
281 106 1
281 111 1
281 115 1
281 151 1
281 188 1
281 264 1
281 303 1
281 376 1
281 400 1
281 403 1
281 408 1
281 415 1
281 426 1
281 436 1
281 474 1
281 506 1
281 507 1
281 540 1
281 555 1
281 584 1
281 585 1
281 609 1
281 620 1
281 631 1
281 636 1
281 643 1
281 647 1
281 648 1
281 658 1
281 670 1
281 710 1
281 732 1
281 745 1
281 756 1
281 783 1
281 797 1
282 16 1
282 18 1
282 29 1
282 57 1
282 63 1
282 65 1
282 74 1
282 93 1
282 152 1
282 164 1
282 221 1
282 224 1
282 229 1
282 231 1
282 234 1
282 236 1
282 247 1
282 274 1
282 324 1
282 326 1
282 332 1
282 392 1
282 415 1
282 421 1
282 435 1
282 436 1
282 460 1
282 461 1
282 495 1
282 497 1
282 514 1
282 538 1
282 557 1
282 559 1
282 560 1
282 564 1
282 571 1
282 625 1
282 652 1
282 664 1
282 670 1
282 684 1
282 705 1
282 715 1
282 720 1
282 764 1
282 776 1
282 780 1
283 2 1
283 6 1
283 24 1
283 30 1
283 74 1
283 105 1
283 115 1
283 120 1
283 122 1
283 132 1
283 141 1
283 147 1
283 148 1
283 164 1
283 174 1
283 188 1
283 197 1
283 205 1
283 211 1
283 229 1
283 237 1
283 254 1
283 265 1
283 276 1
283 311 1
283 330 1
283 456 1
283 472 1
283 501 1
283 543 1
283 552 1
283 556 1
283 595 1
283 616 1
283 652 1
283 668 1
283 679 1
283 703 1
283 754 1
283 755 1
283 771 1
283 776 1
283 794 1
284 49 1
284 57 1
284 62 1
284 67 1
284 71 1
284 77 1
284 98 1
284 124 1
284 125 1
284 133 1
284 189 1
284 198 1
284 237 1
284 259 1
284 287 1
284 306 1
284 314 1
284 317 1
284 335 1
284 343 1
284 417 1
284 420 1
284 421 1
284 439 1
284 453 1
284 482 1
284 508 1
284 542 1
284 547 1
284 569 1
284 586 1
284 598 1
284 626 1
284 640 1
284 641 1
284 707 1
284 727 1
284 731 1
284 745 1
284 758 1
284 766 1
284 789 1
285 5 1
285 9 1
285 11 1
285 13 1
285 15 1
285 25 1
285 37 1
285 57 1
285 67 1
285 123 1
285 135 1
285 140 1
285 165 1
285 177 1
285 196 1
285 290 1
285 295 1
285 301 1
285 329 1
285 338 1
285 340 1
285 352 1
285 355 1
285 356 1
285 362 1
285 373 1
285 452 1
285 459 1
285 468 1
285 478 1
285 495 1
285 497 1
285 525 1
285 539 1
285 543 1
285 565 1
285 586 1
285 617 1
285 625 1
285 626 1
285 637 1
285 638 1
285 642 1
285 646 1
285 650 1
285 669 1
285 705 1
285 727 1
285 750 1
285 752 1
285 772 1
285 776 1
285 787 1
285 793 1
285 794 1
285 800 1
286 4 1
286 7 1
286 18 1
286 56 1
286 68 1
286 95 1
286 100 1
286 112 1
286 120 1
286 127 1
286 150 1
286 197 1
286 211 1
286 242 1
286 246 1
286 254 1
286 267 1
286 277 1
286 278 1
286 289 1
286 309 1
286 319 1
286 329 1
286 377 1
286 391 1
286 418 1
286 419 1
286 426 1
286 442 1
286 453 1
286 462 1
286 468 1
286 469 1
286 470 1
286 472 1
286 479 1
286 494 1
286 499 1
286 523 1
286 527 1
286 560 1
286 569 1
286 577 1
286 587 1
286 597 1
286 614 1
286 622 1
286 645 1
286 659 1
286 706 1
286 710 1
286 717 1
286 735 1
286 739 1
286 778 1
287 7 1
287 17 1
287 19 1
287 38 1
287 58 1
287 60 1
287 85 1
287 86 1
287 89 1
287 92 1
287 102 1
287 104 1
287 149 1
287 175 1
287 184 1
287 202 1
287 205 1
287 232 1
287 233 1
287 244 1
287 266 1
287 284 1
287 297 1
287 302 1
287 333 1
287 340 1
287 355 1
287 381 1
287 404 1
287 407 1
287 410 1
287 414 1
287 438 1
287 464 1
287 482 1
287 495 1
287 512 1
287 530 1
287 544 1
287 572 1
287 590 1
287 603 1
287 639 1
287 650 1
287 654 1
287 680 1
287 683 1
287 700 1
287 714 1
287 731 1
287 744 1
287 753 1
287 769 1
288 34 1
288 55 1
288 58 1
288 62 1
288 63 1
288 133 1
288 135 1
288 172 1
288 261 1
288 300 1
288 330 1
288 332 1
288 337 1
288 355 1
288 366 1
288 380 1
288 403 1
288 435 1
288 442 1
288 458 1
288 463 1
288 484 1
288 495 1
288 518 1
288 525 1
288 538 1
288 551 1
288 554 1
288 556 1
288 569 1
288 574 1
288 580 1
288 585 1
288 595 1
288 634 1
288 654 1
288 677 1
288 680 1
288 688 1
288 779 1
288 788 1
289 2 1
289 8 1
289 9 1
289 37 1
289 48 1
289 51 1
289 67 1
289 74 1
289 75 1
289 88 1
289 94 1
289 99 1
289 101 1
289 103 1
289 165 1
289 191 1
289 211 1
289 216 1
289 218 1
289 219 1
289 232 1
289 251 1
289 258 1
289 271 1
289 286 1
289 303 1
289 313 1
289 362 1
289 363 1
289 369 1
289 379 1
289 406 1
289 420 1
289 426 1
289 446 1
289 448 1
289 462 1
289 470 1
289 473 1
289 474 1
289 478 1
289 501 1
289 512 1
289 513 1
289 546 1
289 556 1
289 567 1
289 570 1
289 616 1
289 625 1
289 632 1
289 636 1
289 640 1
289 665 1
289 690 1
289 695 1
289 700 1
289 702 1
289 714 1
289 740 1
289 761 1
289 796 1
290 36 1
290 77 1
290 109 1
290 112 1
290 116 1
290 136 1
290 144 1
290 175 1
290 208 1
290 212 1
290 216 1
290 219 1
290 240 1
290 251 1
290 285 1
290 313 1
290 390 1
290 391 1
290 397 1
290 398 1
290 399 1
290 404 1
290 435 1
290 439 1
290 450 1
290 484 1
290 485 1
290 486 1
290 490 1
290 513 1
290 541 1
290 553 1
290 560 1
290 562 1
290 599 1
290 607 1
290 611 1
290 628 1
290 637 1
290 652 1
290 665 1
290 677 1
290 678 1
290 697 1
290 721 1
290 746 1
290 768 1
290 779 1
291 4 1
291 14 1
291 20 1
291 56 1
291 71 1
291 72 1
291 94 1
291 99 1
291 101 1
291 111 1
291 175 1
291 176 1
291 197 1
291 200 1
291 201 1
291 220 1
291 228 1
291 232 1
291 238 1
291 241 1
291 246 1
291 302 1
291 319 1
291 321 1
291 329 1
291 343 1
291 350 1
291 353 1
291 362 1
291 372 1
291 405 1
291 411 1
291 413 1
291 425 1
291 439 1
291 457 1
291 467 1
291 497 1
291 523 1
291 617 1
291 632 1
291 669 1
291 671 1
291 683 1
291 690 1
291 707 1
291 715 1
291 720 1
291 772 1
291 782 1
291 783 1
291 796 1
292 31 1
292 32 1
292 69 1
292 81 1
292 114 1
292 122 1
292 126 1
292 188 1
292 254 1
292 277 1
292 295 1
292 297 1
292 304 1
292 314 1
292 319 1
292 353 1
292 383 1
292 399 1
292 415 1
292 423 1
292 460 1
292 461 1
292 472 1
292 502 1
292 514 1
292 519 1
292 525 1
292 534 1
292 540 1
292 575 1
292 578 1
292 579 1
292 605 1
292 639 1
292 658 1
292 665 1
292 670 1
292 695 1
292 725 1
292 733 1
292 763 1
292 765 1
292 767 1
292 768 1
292 790 1
293 5 1
293 22 1
293 33 1
293 37 1
293 69 1
293 72 1
293 81 1
293 101 1
293 102 1
293 112 1
293 121 1
293 124 1
293 148 1
293 161 1
293 237 1
293 262 1
293 275 1
293 296 1
293 305 1
293 312 1
293 317 1
293 333 1
293 341 1
293 367 1
293 392 1
293 408 1
293 411 1
293 421 1
293 422 1
293 434 1
293 437 1
293 490 1
293 495 1
293 518 1
293 519 1
293 531 1
293 533 1
293 578 1
293 581 1
293 588 1
293 599 1
293 602 1
293 674 1
293 702 1
293 722 1
293 729 1
293 736 1
293 746 1
293 758 1
293 774 1
293 783 1
294 9 1
294 16 1
294 22 1
294 49 1
294 102 1
294 113 1
294 158 1
294 163 1
294 168 1
294 177 1
294 201 1
294 207 1
294 228 1
294 229 1
294 242 1
294 248 1
294 251 1
294 265 1
294 270 1
294 277 1
294 308 1
294 322 1
294 327 1
294 330 1
294 345 1
294 347 1
294 370 1
294 418 1
294 423 1
294 434 1
294 472 1
294 475 1
294 480 1
294 498 1
294 510 1
294 531 1
294 535 1
294 562 1
294 585 1
294 640 1
294 645 1
294 646 1
294 664 1
294 696 1
294 704 1
294 719 1
294 739 1
294 763 1
295 17 1
295 42 1
295 62 1
295 66 1
295 76 1
295 97 1
295 99 1
295 100 1
295 109 1
295 125 1
295 135 1
295 162 1
295 167 1
295 191 1
295 196 1
295 221 1
295 246 1
295 256 1
295 285 1
295 292 1
295 312 1
295 347 1
295 361 1
295 368 1
295 369 1
295 386 1
295 411 1
295 419 1
295 438 1
295 439 1
295 451 1
295 484 1
295 486 1
295 501 1
295 518 1
295 522 1
295 524 1
295 555 1
295 578 1
295 606 1
295 612 1
295 616 1
295 642 1
295 656 1
295 667 1
295 670 1
295 675 1
295 678 1
295 680 1
295 688 1
295 701 1
295 723 1
295 738 1
295 751 1
295 756 1
295 781 1
295 782 1
295 785 1
296 21 1
296 40 1
296 60 1
296 104 1
296 128 1
296 138 1
296 153 1
296 173 1
296 188 1
296 193 1
296 214 1
296 240 1
296 293 1
296 299 1
296 302 1
296 308 1
296 320 1
296 339 1
296 345 1
296 354 1
296 371 1
296 374 1
296 386 1
296 432 1
296 439 1
296 452 1
296 463 1
296 490 1
296 496 1
296 523 1
296 541 1
296 547 1
296 552 1
296 563 1
296 591 1
296 601 1
296 620 1
296 649 1
296 670 1
296 731 1
296 733 1
296 778 1
296 784 1
296 788 1
296 792 1
296 794 1
297 5 1
297 21 1
297 27 1
297 28 1
297 39 1
297 91 1
297 96 1
297 103 1
297 123 1
297 157 1
297 162 1
297 169 1
297 170 1
297 200 1
297 212 1
297 246 1
297 247 1
297 287 1
297 292 1
297 307 1
297 308 1
297 309 1
297 310 1
297 331 1
297 344 1
297 380 1
297 434 1
297 437 1
297 450 1
297 464 1
297 513 1
297 584 1
297 596 1
297 607 1
297 612 1
297 620 1
297 623 1
297 640 1
297 654 1
297 663 1
297 670 1
297 703 1
297 731 1
297 768 1
298 15 1
298 71 1
298 72 1
298 77 1
298 82 1
298 107 1
298 114 1
298 137 1
298 151 1
298 191 1
298 207 1
298 216 1
298 224 1
298 244 1
298 270 1
298 275 1
298 306 1
298 360 1
298 387 1
298 408 1
298 444 1
298 457 1
298 487 1
298 506 1
298 508 1
298 512 1
298 539 1
298 552 1
298 555 1
298 572 1
298 575 1
298 577 1
298 580 1
298 583 1
298 596 1
298 615 1
298 622 1
298 624 1
298 625 1
298 636 1
298 660 1
298 697 1
298 698 1
298 704 1
298 741 1
298 756 1
298 757 1
298 761 1
298 767 1
298 769 1
298 782 1
299 1 1
299 39 1
299 40 1
299 50 1
299 58 1
299 86 1
299 101 1
299 159 1
299 172 1
299 222 1
299 266 1
299 276 1
299 296 1
299 313 1
299 316 1
299 317 1
299 334 1
299 345 1
299 363 1
299 391 1
299 416 1
299 450 1
299 463 1
299 465 1
299 476 1
299 486 1
299 558 1
299 574 1
299 615 1
299 620 1
299 627 1
299 643 1
299 665 1
299 670 1
299 696 1
299 707 1
299 719 1
299 753 1
299 754 1
299 770 1
300 26 1
300 33 1
300 71 1
300 73 1
300 74 1
300 95 1
300 99 1
300 144 1
300 163 1
300 168 1
300 214 1
300 225 1
300 253 1
300 274 1
300 288 1
300 325 1
300 334 1
300 336 1
300 368 1
300 374 1
300 376 1
300 385 1
300 395 1
300 399 1
300 415 1
300 422 1
300 445 1
300 446 1
300 507 1
300 532 1
300 534 1
300 559 1
300 573 1
300 592 1
300 593 1
300 659 1
300 665 1
300 674 1
300 758 1
301 2 1
301 27 1
301 38 1
301 50 1
301 66 1
301 70 1
301 72 1
301 90 1
301 104 1
301 115 1
301 122 1
301 156 1
301 159 1
301 164 1
301 170 1
301 177 1
301 181 1
301 218 1
301 220 1
301 243 1
301 285 1
301 311 1
301 314 1
301 320 1
301 341 1
301 354 1
301 365 1
301 369 1
301 388 1
301 409 1
301 418 1
301 467 1
301 485 1
301 492 1
301 527 1
301 555 1
301 563 1
301 585 1
301 597 1
301 606 1
301 657 1
301 666 1
301 668 1
301 685 1
301 711 1
301 739 1
301 749 1
301 762 1
301 781 1
301 783 1
301 793 1
302 17 1
302 20 1
302 43 1
302 47 1
302 55 1
302 79 1
302 109 1
302 133 1
302 143 1
302 147 1
302 162 1
302 164 1
302 200 1
302 216 1
302 220 1
302 223 1
302 231 1
302 233 1
302 234 1
302 244 1
302 247 1
302 275 1
302 279 1
302 287 1
302 291 1
302 296 1
302 310 1
302 311 1
302 318 1
302 326 1
302 337 1
302 365 1
302 379 1
302 385 1
302 433 1
302 435 1
302 436 1
302 468 1
302 517 1
302 527 1
302 532 1
302 550 1
302 567 1
302 568 1
302 612 1
302 646 1
302 655 1
302 663 1
302 699 1
302 709 1
302 746 1
302 754 1
302 764 1
302 791 1
303 2 1
303 35 1
303 36 1
303 41 1
303 56 1
303 69 1
303 79 1
303 98 1
303 107 1
303 118 1
303 125 1
303 152 1
303 155 1
303 191 1
303 192 1
303 203 1
303 250 1
303 274 1
303 281 1
303 289 1
303 351 1
303 353 1
303 361 1
303 371 1
303 374 1
303 398 1
303 401 1
303 411 1
303 430 1
303 439 1
303 445 1
303 465 1
303 483 1
303 494 1
303 498 1
303 499 1
303 508 1
303 516 1
303 539 1
303 547 1
303 559 1
303 566 1
303 574 1
303 584 1
303 596 1
303 599 1
303 617 1
303 663 1
303 685 1
303 691 1
303 694 1
303 702 1
303 740 1
303 760 1
303 773 1
303 789 1
303 792 1
303 793 1
304 17 1
304 35 1
304 42 1
304 111 1
304 123 1
304 138 1
304 139 1
304 140 1
304 145 1
304 152 1
304 169 1
304 204 1
304 257 1
304 276 1
304 292 1
304 319 1
304 333 1
304 401 1
304 410 1
304 432 1
304 446 1
304 465 1
304 481 1
304 482 1
304 514 1
304 531 1
304 537 1
304 539 1
304 592 1
304 596 1
304 603 1
304 610 1
304 618 1
304 671 1
304 673 1
304 698 1
304 727 1
304 747 1
304 772 1
304 774 1
304 776 1
304 779 1
304 798 1
305 10 1
305 65 1
305 69 1
305 131 1
305 141 1
305 161 1
305 165 1
305 172 1
305 173 1
305 175 1
305 179 1
305 193 1
305 198 1
305 201 1
305 244 1
305 293 1
305 330 1
305 359 1
305 381 1
305 382 1
305 400 1
305 410 1
305 416 1
305 447 1
305 474 1
305 478 1
305 479 1
305 487 1
305 510 1
305 531 1
305 534 1
305 541 1
305 543 1
305 551 1
305 566 1
305 603 1
305 614 1
305 625 1
305 654 1
305 659 1
305 664 1
305 718 1
305 731 1
305 736 1
305 778 1
305 794 1
306 12 1
306 15 1
306 66 1
306 86 1
306 99 1
306 103 1
306 111 1
306 113 1
306 152 1
306 167 1
306 186 1
306 216 1
306 251 1
306 284 1
306 298 1
306 318 1
306 325 1
306 329 1
306 346 1
306 354 1
306 368 1
306 405 1
306 429 1
306 444 1
306 446 1
306 504 1
306 509 1
306 515 1
306 518 1
306 527 1
306 531 1
306 539 1
306 544 1
306 548 1
306 555 1
306 558 1
306 614 1
306 634 1
306 660 1
306 722 1
306 736 1
306 750 1
306 759 1
306 763 1
306 764 1
306 784 1
306 788 1
307 2 1
307 18 1
307 32 1
307 36 1
307 47 1
307 55 1
307 68 1
307 73 1
307 117 1
307 118 1
307 144 1
307 148 1
307 155 1
307 194 1
307 204 1
307 219 1
307 223 1
307 231 1
307 264 1
307 269 1
307 297 1
307 315 1
307 316 1
307 321 1
307 341 1
307 347 1
307 373 1
307 385 1
307 414 1
307 469 1
307 473 1
307 475 1
307 476 1
307 537 1
307 568 1
307 571 1
307 586 1
307 600 1
307 610 1
307 633 1
307 659 1
307 661 1
307 662 1
307 698 1
307 727 1
307 752 1
307 754 1
307 768 1
308 4 1
308 7 1
308 52 1
308 62 1
308 90 1
308 121 1
308 130 1
308 149 1
308 170 1
308 222 1
308 225 1
308 230 1
308 231 1
308 240 1
308 244 1
308 249 1
308 252 1
308 264 1
308 268 1
308 294 1
308 296 1
308 297 1
308 309 1
308 318 1
308 355 1
308 362 1
308 370 1
308 387 1
308 406 1
308 411 1
308 417 1
308 437 1
308 593 1
308 607 1
308 637 1
308 663 1
308 678 1
308 699 1
308 708 1
308 723 1
308 724 1
308 732 1
308 735 1
308 746 1
308 757 1
308 776 1
308 782 1
308 788 1
308 795 1
309 7 1
309 18 1
309 35 1
309 40 1
309 68 1
309 90 1
309 93 1
309 119 1
309 125 1
309 144 1
309 160 1
309 169 1
309 170 1
309 177 1
309 194 1
309 209 1
309 210 1
309 215 1
309 226 1
309 233 1
309 258 1
309 286 1
309 297 1
309 308 1
309 312 1
309 394 1
309 398 1
309 401 1
309 404 1
309 411 1
309 415 1
309 438 1
309 467 1
309 495 1
309 496 1
309 507 1
309 510 1
309 532 1
309 535 1
309 570 1
309 572 1
309 582 1
309 606 1
309 610 1
309 642 1
309 649 1
309 684 1
309 691 1
309 701 1
309 750 1
309 756 1
309 794 1
309 799 1
310 54 1
310 99 1
310 109 1
310 110 1
310 113 1
310 180 1
310 211 1
310 212 1
310 214 1
310 231 1
310 244 1
310 273 1
310 297 1
310 302 1
310 331 1
310 342 1
310 348 1
310 398 1
310 400 1
310 417 1
310 436 1
310 476 1
310 489 1
310 495 1
310 497 1
310 503 1
310 508 1
310 530 1
310 537 1
310 542 1
310 561 1
310 587 1
310 596 1
310 599 1
310 610 1
310 636 1
310 641 1
310 643 1
310 659 1
310 663 1
310 675 1
310 715 1
310 716 1
310 718 1
310 721 1
310 755 1
310 760 1
310 772 1
310 774 1
310 789 1
311 7 1
311 10 1
311 13 1
311 27 1
311 35 1
311 40 1
311 48 1
311 92 1
311 93 1
311 127 1
311 146 1
311 158 1
311 173 1
311 197 1
311 207 1
311 208 1
311 209 1
311 233 1
311 237 1
311 248 1
311 251 1
311 260 1
311 283 1
311 301 1
311 302 1
311 314 1
311 322 1
311 323 1
311 357 1
311 358 1
311 401 1
311 431 1
311 480 1
311 497 1
311 529 1
311 535 1
311 598 1
311 634 1
311 648 1
311 654 1
311 700 1
311 707 1
311 732 1
311 733 1
311 746 1
311 751 1
311 760 1
311 763 1
311 768 1
311 773 1
311 782 1
311 783 1
312 6 1
312 66 1
312 67 1
312 89 1
312 125 1
312 149 1
312 159 1
312 181 1
312 208 1
312 234 1
312 236 1
312 241 1
312 245 1
312 261 1
312 272 1
312 280 1
312 293 1
312 295 1
312 309 1
312 314 1
312 315 1
312 321 1
312 350 1
312 352 1
312 361 1
312 406 1
312 466 1
312 501 1
312 526 1
312 528 1
312 542 1
312 549 1
312 562 1
312 570 1
312 573 1
312 576 1
312 588 1
312 596 1
312 603 1
312 608 1
312 610 1
312 612 1
312 630 1
312 641 1
312 674 1
312 678 1
312 679 1
312 685 1
312 688 1
312 702 1
312 722 1
312 739 1
312 741 1
312 762 1
312 768 1
313 42 1
313 48 1
313 49 1
313 67 1
313 127 1
313 134 1
313 163 1
313 174 1
313 236 1
313 241 1
313 247 1
313 253 1
313 257 1
313 267 1
313 274 1
313 280 1
313 289 1
313 290 1
313 299 1
313 315 1
313 360 1
313 361 1
313 376 1
313 385 1
313 414 1
313 449 1
313 464 1
313 486 1
313 500 1
313 538 1
313 540 1
313 545 1
313 547 1
313 555 1
313 556 1
313 566 1
313 571 1
313 587 1
313 595 1
313 600 1
313 613 1
313 622 1
313 629 1
313 644 1
313 646 1
313 649 1
313 668 1
313 674 1
313 688 1
313 700 1
313 709 1
313 720 1
313 723 1
313 735 1
313 739 1
313 748 1
313 750 1
313 766 1
314 4 1
314 21 1
314 44 1
314 50 1
314 51 1
314 58 1
314 62 1
314 74 1
314 134 1
314 138 1
314 154 1
314 158 1
314 159 1
314 165 1
314 166 1
314 201 1
314 202 1
314 203 1
314 206 1
314 218 1
314 225 1
314 237 1
314 273 1
314 284 1
314 292 1
314 301 1
314 311 1
314 312 1
314 326 1
314 359 1
314 365 1
314 370 1
314 391 1
314 393 1
314 401 1
314 429 1
314 436 1
314 439 1
314 453 1
314 459 1
314 464 1
314 477 1
314 513 1
314 528 1
314 531 1
314 537 1
314 553 1
314 574 1
314 578 1
314 589 1
314 607 1
314 611 1
314 613 1
314 618 1
314 623 1
314 630 1
314 643 1
314 685 1
314 728 1
314 739 1
314 765 1
314 766 1
315 1 1
315 50 1
315 86 1
315 105 1
315 106 1
315 125 1
315 131 1
315 139 1
315 145 1
315 158 1
315 204 1
315 213 1
315 219 1
315 273 1
315 307 1
315 312 1
315 313 1
315 331 1
315 352 1
315 374 1
315 386 1
315 390 1
315 398 1
315 421 1
315 433 1
315 465 1
315 474 1
315 492 1
315 514 1
315 557 1
315 566 1
315 569 1
315 579 1
315 586 1
315 600 1
315 633 1
315 635 1
315 645 1
315 656 1
315 661 1
315 687 1
315 691 1
315 737 1
315 753 1
315 760 1
315 761 1
315 791 1
316 28 1
316 30 1
316 34 1
316 39 1
316 42 1
316 45 1
316 52 1
316 83 1
316 102 1
316 171 1
316 179 1
316 199 1
316 202 1
316 209 1
316 212 1
316 216 1
316 229 1
316 267 1
316 299 1
316 307 1
316 320 1
316 324 1
316 325 1
316 329 1
316 349 1
316 360 1
316 362 1
316 369 1
316 399 1
316 448 1
316 455 1
316 456 1
316 479 1
316 491 1
316 497 1
316 511 1
316 519 1
316 556 1
316 579 1
316 580 1
316 590 1
316 607 1
316 614 1
316 626 1
316 647 1
316 654 1
316 664 1
316 696 1
316 697 1
316 703 1
316 745 1
316 758 1
316 790 1
317 20 1
317 32 1
317 38 1
317 48 1
317 49 1
317 58 1
317 59 1
317 63 1
317 77 1
317 87 1
317 90 1
317 127 1
317 138 1
317 182 1
317 193 1
317 202 1
317 214 1
317 217 1
317 247 1
317 284 1
317 293 1
317 299 1
317 320 1
317 346 1
317 355 1
317 367 1
317 392 1
317 412 1
317 426 1
317 428 1
317 445 1
317 465 1
317 477 1
317 483 1
317 498 1
317 573 1
317 581 1
317 595 1
317 599 1
317 620 1
317 622 1
317 635 1
317 670 1
317 722 1
317 730 1
317 744 1
317 776 1
317 779 1
317 783 1
317 784 1
317 796 1
318 17 1
318 24 1
318 25 1
318 95 1
318 98 1
318 128 1
318 129 1
318 134 1
318 139 1
318 165 1
318 168 1
318 187 1
318 191 1
318 193 1
318 238 1
318 259 1
318 302 1
318 306 1
318 308 1
318 320 1
318 323 1
318 329 1
318 332 1
318 344 1
318 357 1
318 359 1
318 406 1
318 409 1
318 414 1
318 432 1
318 442 1
318 448 1
318 449 1
318 466 1
318 473 1
318 479 1
318 481 1
318 486 1
318 490 1
318 539 1
318 554 1
318 558 1
318 563 1
318 586 1
318 641 1
318 657 1
318 729 1
318 736 1
318 737 1
318 770 1
318 782 1
319 23 1
319 29 1
319 37 1
319 78 1
319 110 1
319 131 1
319 136 1
319 150 1
319 172 1
319 181 1
319 187 1
319 205 1
319 264 1
319 286 1
319 291 1
319 292 1
319 304 1
319 327 1
319 329 1
319 348 1
319 352 1
319 361 1
319 364 1
319 417 1
319 431 1
319 445 1
319 448 1
319 478 1
319 502 1
319 523 1
319 526 1
319 543 1
319 562 1
319 574 1
319 602 1
319 606 1
319 636 1
319 650 1
319 684 1
319 702 1
319 712 1
319 767 1
319 781 1
319 782 1
319 794 1
320 17 1
320 29 1
320 55 1
320 62 1
320 99 1
320 125 1
320 138 1
320 167 1
320 172 1
320 185 1
320 191 1
320 196 1
320 208 1
320 211 1
320 240 1
320 261 1
320 263 1
320 296 1
320 301 1
320 316 1
320 317 1
320 318 1
320 324 1
320 338 1
320 352 1
320 353 1
320 359 1
320 371 1
320 383 1
320 391 1
320 396 1
320 427 1
320 430 1
320 441 1
320 445 1
320 462 1
320 501 1
320 505 1
320 510 1
320 549 1
320 560 1
320 573 1
320 574 1
320 591 1
320 607 1
320 642 1
320 643 1
320 649 1
320 663 1
320 690 1
320 728 1
320 751 1
320 758 1
320 762 1
321 18 1
321 71 1
321 82 1
321 88 1
321 109 1
321 117 1
321 149 1
321 222 1
321 239 1
321 255 1
321 272 1
321 291 1
321 307 1
321 312 1
321 325 1
321 339 1
321 366 1
321 391 1
321 408 1
321 440 1
321 496 1
321 514 1
321 526 1
321 532 1
321 541 1
321 550 1
321 558 1
321 577 1
321 589 1
321 689 1
321 697 1
321 724 1
321 728 1
321 729 1
321 754 1
321 755 1
321 772 1
321 796 1
322 22 1
322 45 1
322 46 1
322 65 1
322 71 1
322 80 1
322 86 1
322 96 1
322 124 1
322 130 1
322 145 1
322 151 1
322 169 1
322 174 1
322 189 1
322 193 1
322 207 1
322 226 1
322 242 1
322 258 1
322 267 1
322 271 1
322 279 1
322 294 1
322 311 1
322 381 1
322 403 1
322 404 1
322 438 1
322 490 1
322 498 1
322 499 1
322 520 1
322 541 1
322 571 1
322 577 1
322 581 1
322 593 1
322 612 1
322 645 1
322 689 1
322 702 1
322 703 1
322 712 1
322 729 1
322 730 1
322 751 1
322 760 1
322 762 1
322 776 1
322 780 1
322 783 1
322 785 1
322 798 1
323 2 1
323 14 1
323 16 1
323 48 1
323 74 1
323 89 1
323 91 1
323 108 1
323 130 1
323 171 1
323 173 1
323 190 1
323 201 1
323 273 1
323 311 1
323 318 1
323 327 1
323 332 1
323 347 1
323 355 1
323 373 1
323 374 1
323 407 1
323 428 1
323 432 1
323 434 1
323 442 1
323 451 1
323 455 1
323 460 1
323 495 1
323 498 1
323 513 1
323 575 1
323 594 1
323 596 1
323 603 1
323 636 1
323 652 1
323 659 1
323 672 1
323 762 1
323 799 1
324 15 1
324 18 1
324 20 1
324 38 1
324 71 1
324 74 1
324 90 1
324 95 1
324 106 1
324 108 1
324 147 1
324 152 1
324 183 1
324 204 1
324 223 1
324 228 1
324 240 1
324 261 1
324 282 1
324 316 1
324 320 1
324 333 1
324 334 1
324 338 1
324 355 1
324 358 1
324 369 1
324 373 1
324 410 1
324 415 1
324 417 1
324 430 1
324 453 1
324 472 1
324 561 1
324 562 1
324 563 1
324 564 1
324 568 1
324 587 1
324 597 1
324 608 1
324 611 1
324 633 1
324 644 1
324 646 1
324 649 1
324 674 1
324 680 1
324 681 1
324 693 1
324 742 1
324 755 1
324 767 1
324 782 1
325 15 1
325 19 1
325 26 1
325 66 1
325 77 1
325 82 1
325 108 1
325 113 1
325 134 1
325 160 1
325 164 1
325 209 1
325 216 1
325 219 1
325 222 1
325 239 1
325 254 1
325 300 1
325 306 1
325 316 1
325 321 1
325 353 1
325 437 1
325 460 1
325 469 1
325 498 1
325 499 1
325 510 1
325 536 1
325 595 1
325 653 1
325 666 1
325 668 1
325 674 1
325 675 1
325 686 1
325 688 1
325 702 1
325 712 1
325 720 1
325 730 1
325 743 1
325 763 1
325 776 1
325 777 1
325 795 1
325 799 1
326 5 1
326 13 1
326 14 1
326 16 1
326 55 1
326 79 1
326 86 1
326 106 1
326 150 1
326 156 1
326 161 1
326 171 1
326 190 1
326 282 1
326 302 1
326 314 1
326 361 1
326 392 1
326 422 1
326 434 1
326 441 1
326 453 1
326 464 1
326 475 1
326 490 1
326 558 1
326 618 1
326 633 1
326 677 1
326 682 1
326 703 1
326 712 1
326 714 1
326 715 1
326 728 1
326 764 1
326 773 1
326 784 1
326 792 1
326 797 1
327 7 1
327 37 1
327 81 1
327 114 1
327 130 1
327 141 1
327 154 1
327 159 1
327 204 1
327 205 1
327 208 1
327 210 1
327 222 1
327 227 1
327 243 1
327 244 1
327 250 1
327 256 1
327 294 1
327 319 1
327 323 1
327 334 1
327 341 1
327 344 1
327 352 1
327 369 1
327 414 1
327 456 1
327 459 1
327 467 1
327 488 1
327 500 1
327 545 1
327 565 1
327 568 1
327 577 1
327 655 1
327 674 1
327 696 1
327 711 1
327 715 1
327 737 1
327 766 1
328 1 1
328 19 1
328 22 1
328 36 1
328 39 1
328 49 1
328 53 1
328 68 1
328 71 1
328 97 1
328 99 1
328 108 1
328 146 1
328 164 1
328 185 1
328 233 1
328 253 1
328 258 1
328 330 1
328 353 1
328 370 1
328 388 1
328 415 1
328 428 1
328 440 1
328 444 1
328 459 1
328 483 1
328 490 1
328 526 1
328 534 1
328 551 1
328 555 1
328 556 1
328 569 1
328 585 1
328 586 1
328 590 1
328 599 1
328 617 1
328 635 1
328 638 1
328 691 1
328 718 1
328 737 1
328 754 1
328 776 1
328 792 1
329 9 1
329 24 1
329 34 1
329 40 1
329 53 1
329 54 1
329 82 1
329 93 1
329 126 1
329 140 1
329 144 1
329 157 1
329 169 1
329 182 1
329 189 1
329 190 1
329 197 1
329 229 1
329 251 1
329 270 1
329 278 1
329 285 1
329 286 1
329 291 1
329 306 1
329 316 1
329 318 1
329 319 1
329 340 1
329 343 1
329 350 1
329 355 1
329 374 1
329 375 1
329 392 1
329 446 1
329 448 1
329 449 1
329 465 1
329 467 1
329 472 1
329 492 1
329 606 1
329 608 1
329 633 1
329 657 1
329 665 1
329 675 1
329 681 1
329 716 1
329 745 1
329 756 1
329 766 1
329 772 1
329 789 1
330 3 1
330 22 1
330 30 1
330 65 1
330 79 1
330 85 1
330 86 1
330 229 1
330 250 1
330 269 1
330 283 1
330 288 1
330 294 1
330 305 1
330 328 1
330 334 1
330 357 1
330 401 1
330 404 1
330 416 1
330 434 1
330 443 1
330 453 1
330 466 1
330 477 1
330 517 1
330 520 1
330 534 1
330 552 1
330 565 1
330 576 1
330 623 1
330 630 1
330 635 1
330 643 1
330 661 1
330 674 1
330 697 1
330 704 1
330 722 1
330 732 1
330 751 1
330 762 1
330 770 1
330 786 1
331 3 1
331 14 1
331 64 1
331 72 1
331 80 1
331 114 1
331 211 1
331 215 1
331 227 1
331 233 1
331 278 1
331 297 1
331 310 1
331 315 1
331 355 1
331 368 1
331 369 1
331 407 1
331 423 1
331 424 1
331 432 1
331 455 1
331 456 1
331 468 1
331 489 1
331 504 1
331 508 1
331 515 1
331 534 1
331 550 1
331 554 1
331 577 1
331 581 1
331 604 1
331 609 1
331 616 1
331 672 1
331 681 1
331 694 1
331 713 1
331 724 1
331 743 1
331 744 1
331 750 1
331 776 1
331 792 1
331 799 1
332 2 1
332 4 1
332 16 1
332 35 1
332 37 1
332 50 1
332 95 1
332 115 1
332 122 1
332 123 1
332 162 1
332 180 1
332 252 1
332 277 1
332 282 1
332 288 1
332 318 1
332 323 1
332 335 1
332 392 1
332 395 1
332 440 1
332 451 1
332 470 1
332 476 1
332 478 1
332 485 1
332 500 1
332 560 1
332 567 1
332 568 1
332 582 1
332 609 1
332 629 1
332 632 1
332 646 1
332 652 1
332 663 1
332 665 1
332 705 1
332 795 1
333 3 1
333 36 1
333 63 1
333 73 1
333 79 1
333 111 1
333 116 1
333 155 1
333 185 1
333 188 1
333 214 1
333 224 1
333 225 1
333 229 1
333 240 1
333 254 1
333 263 1
333 272 1
333 287 1
333 293 1
333 304 1
333 324 1
333 347 1
333 364 1
333 376 1
333 378 1
333 385 1
333 394 1
333 415 1
333 455 1
333 478 1
333 485 1
333 488 1
333 541 1
333 551 1
333 557 1
333 559 1
333 579 1
333 604 1
333 607 1
333 609 1
333 613 1
333 621 1
333 624 1
333 636 1
333 642 1
333 658 1
333 684 1
333 690 1
333 707 1
333 712 1
333 742 1
333 751 1
333 752 1
333 755 1
333 771 1
333 772 1
333 775 1
333 778 1
333 783 1
333 798 1
334 7 1
334 22 1
334 28 1
334 41 1
334 58 1
334 75 1
334 97 1
334 105 1
334 119 1
334 145 1
334 156 1
334 184 1
334 190 1
334 195 1
334 208 1
334 209 1
334 245 1
334 255 1
334 299 1
334 300 1
334 324 1
334 327 1
334 330 1
334 361 1
334 378 1
334 386 1
334 390 1
334 397 1
334 413 1
334 455 1
334 466 1
334 505 1
334 508 1
334 512 1
334 520 1
334 543 1
334 570 1
334 577 1
334 585 1
334 592 1
334 599 1
334 620 1
334 658 1
334 670 1
334 672 1
334 691 1
334 712 1
334 734 1
334 735 1
334 770 1
334 774 1
334 791 1
335 2 1
335 5 1
335 44 1
335 73 1
335 91 1
335 110 1
335 120 1
335 126 1
335 128 1
335 131 1
335 159 1
335 180 1
335 201 1
335 262 1
335 284 1
335 332 1
335 339 1
335 353 1
335 354 1
335 370 1
335 380 1
335 388 1
335 403 1
335 467 1
335 496 1
335 513 1
335 515 1
335 517 1
335 520 1
335 526 1
335 532 1
335 538 1
335 567 1
335 589 1
335 619 1
335 633 1
335 652 1
335 655 1
335 701 1
335 711 1
335 752 1
335 765 1
335 795 1
336 22 1
336 72 1
336 82 1
336 96 1
336 100 1
336 102 1
336 123 1
336 142 1
336 147 1
336 150 1
336 161 1
336 171 1
336 189 1
336 196 1
336 200 1
336 216 1
336 225 1
336 248 1
336 262 1
336 274 1
336 300 1
336 337 1
336 343 1
336 344 1
336 411 1
336 418 1
336 429 1
336 436 1
336 457 1
336 467 1
336 479 1
336 514 1
336 517 1
336 520 1
336 526 1
336 563 1
336 633 1
336 635 1
336 638 1
336 650 1
336 668 1
336 686 1
336 690 1
336 711 1
336 741 1
336 744 1
336 750 1
336 796 1
337 18 1
337 27 1
337 30 1
337 48 1
337 55 1
337 83 1
337 118 1
337 120 1
337 129 1
337 140 1
337 197 1
337 241 1
337 250 1
337 264 1
337 288 1
337 302 1
337 336 1
337 370 1
337 377 1
337 388 1
337 389 1
337 393 1
337 404 1
337 409 1
337 420 1
337 424 1
337 430 1
337 446 1
337 470 1
337 474 1
337 477 1
337 498 1
337 527 1
337 540 1
337 545 1
337 597 1
337 613 1
337 686 1
337 703 1
337 704 1
337 712 1
337 744 1
337 752 1
337 768 1
337 793 1
338 17 1
338 52 1
338 53 1
338 78 1
338 86 1
338 93 1
338 125 1
338 133 1
338 151 1
338 177 1
338 180 1
338 181 1
338 191 1
338 196 1
338 210 1
338 239 1
338 246 1
338 252 1
338 257 1
338 259 1
338 264 1
338 272 1
338 285 1
338 320 1
338 324 1
338 345 1
338 354 1
338 364 1
338 387 1
338 390 1
338 429 1
338 437 1
338 444 1
338 478 1
338 495 1
338 501 1
338 508 1
338 509 1
338 528 1
338 530 1
338 543 1
338 552 1
338 574 1
338 591 1
338 596 1
338 605 1
338 620 1
338 627 1
338 629 1
338 635 1
338 654 1
338 701 1
338 702 1
338 707 1
338 741 1
338 777 1
338 787 1
339 2 1
339 8 1
339 14 1
339 55 1
339 73 1
339 117 1
339 147 1
339 156 1
339 161 1
339 172 1
339 177 1
339 178 1
339 180 1
339 235 1
339 246 1
339 248 1
339 270 1
339 275 1
339 296 1
339 321 1
339 335 1
339 388 1
339 401 1
339 410 1
339 417 1
339 438 1
339 458 1
339 474 1
339 482 1
339 491 1
339 493 1
339 533 1
339 544 1
339 557 1
339 596 1
339 624 1
339 632 1
339 645 1
339 654 1
339 714 1
339 723 1
339 736 1
339 740 1
339 742 1
339 745 1
339 769 1
339 788 1
339 798 1
340 5 1
340 8 1
340 10 1
340 32 1
340 41 1
340 65 1
340 67 1
340 80 1
340 120 1
340 136 1
340 174 1
340 178 1
340 192 1
340 196 1
340 217 1
340 253 1
340 285 1
340 287 1
340 329 1
340 382 1
340 389 1
340 413 1
340 428 1
340 450 1
340 465 1
340 525 1
340 541 1
340 557 1
340 562 1
340 579 1
340 585 1
340 606 1
340 613 1
340 649 1
340 674 1
340 714 1
340 736 1
340 741 1
340 757 1
340 770 1
341 47 1
341 66 1
341 90 1
341 127 1
341 153 1
341 161 1
341 182 1
341 200 1
341 211 1
341 229 1
341 231 1
341 243 1
341 250 1
341 254 1
341 268 1
341 293 1
341 301 1
341 307 1
341 327 1
341 354 1
341 363 1
341 405 1
341 409 1
341 427 1
341 474 1
341 492 1
341 503 1
341 507 1
341 548 1
341 554 1
341 555 1
341 561 1
341 576 1
341 588 1
341 592 1
341 595 1
341 613 1
341 631 1
341 652 1
341 656 1
341 665 1
341 680 1
341 698 1
341 718 1
341 736 1
341 756 1
341 797 1
342 10 1
342 11 1
342 29 1
342 30 1
342 32 1
342 53 1
342 69 1
342 112 1
342 132 1
342 143 1
342 151 1
342 160 1
342 163 1
342 213 1
342 216 1
342 225 1
342 227 1
342 260 1
342 275 1
342 280 1
342 310 1
342 368 1
342 385 1
342 386 1
342 422 1
342 427 1
342 457 1
342 471 1
342 490 1
342 491 1
342 504 1
342 508 1
342 510 1
342 517 1
342 518 1
342 536 1
342 539 1
342 542 1
342 571 1
342 576 1
342 582 1
342 604 1
342 607 1
342 614 1
342 617 1
342 618 1
342 621 1
342 629 1
342 633 1
342 645 1
342 660 1
342 662 1
342 671 1
342 699 1
342 721 1
342 722 1
342 768 1
343 31 1
343 32 1
343 53 1
343 57 1
343 81 1
343 82 1
343 110 1
343 136 1
343 142 1
343 156 1
343 157 1
343 182 1
343 214 1
343 247 1
343 261 1
343 284 1
343 291 1
343 329 1
343 336 1
343 355 1
343 361 1
343 388 1
343 393 1
343 396 1
343 405 1
343 465 1
343 471 1
343 483 1
343 499 1
343 527 1
343 528 1
343 555 1
343 572 1
343 579 1
343 583 1
343 633 1
343 637 1
343 657 1
343 666 1
343 668 1
343 680 1
343 697 1
343 706 1
343 785 1
344 9 1
344 27 1
344 52 1
344 57 1
344 64 1
344 81 1
344 126 1
344 130 1
344 137 1
344 138 1
344 148 1
344 178 1
344 180 1
344 189 1
344 202 1
344 210 1
344 231 1
344 237 1
344 274 1
344 297 1
344 318 1
344 327 1
344 336 1
344 355 1
344 379 1
344 399 1
344 401 1
344 443 1
344 469 1
344 508 1
344 557 1
344 591 1
344 593 1
344 598 1
344 631 1
344 664 1
344 669 1
344 671 1
344 674 1
344 679 1
344 698 1
344 725 1
344 756 1
344 776 1
344 777 1
344 781 1
344 795 1
345 8 1
345 13 1
345 16 1
345 28 1
345 57 1
345 81 1
345 88 1
345 111 1
345 112 1
345 158 1
345 164 1
345 187 1
345 190 1
345 192 1
345 204 1
345 276 1
345 294 1
345 296 1
345 299 1
345 338 1
345 350 1
345 368 1
345 412 1
345 432 1
345 439 1
345 446 1
345 447 1
345 463 1
345 469 1
345 485 1
345 515 1
345 517 1
345 553 1
345 570 1
345 591 1
345 613 1
345 622 1
345 646 1
345 651 1
345 716 1
345 744 1
345 769 1
345 775 1
345 787 1
345 791 1
345 792 1
346 51 1
346 53 1
346 58 1
346 74 1
346 81 1
346 99 1
346 116 1
346 123 1
346 150 1
346 176 1
346 194 1
346 203 1
346 205 1
346 210 1
346 212 1
346 219 1
346 274 1
346 279 1
346 306 1
346 317 1
346 348 1
346 353 1
346 357 1
346 381 1
346 412 1
346 469 1
346 483 1
346 492 1
346 498 1
346 521 1
346 538 1
346 607 1
346 663 1
346 702 1
346 709 1
346 713 1
346 717 1
346 731 1
346 773 1
346 779 1
346 800 1
347 23 1
347 30 1
347 31 1
347 40 1
347 52 1
347 66 1
347 87 1
347 103 1
347 155 1
347 174 1
347 194 1
347 214 1
347 223 1
347 248 1
347 255 1
347 266 1
347 294 1
347 295 1
347 307 1
347 323 1
347 333 1
347 370 1
347 404 1
347 414 1
347 419 1
347 426 1
347 428 1
347 437 1
347 493 1
347 512 1
347 534 1
347 539 1
347 541 1
347 550 1
347 600 1
347 633 1
347 636 1
347 640 1
347 663 1
347 699 1
347 743 1
347 759 1
347 765 1
348 15 1
348 22 1
348 33 1
348 52 1
348 144 1
348 179 1
348 196 1
348 198 1
348 204 1
348 214 1
348 234 1
348 240 1
348 246 1
348 254 1
348 269 1
348 279 1
348 310 1
348 319 1
348 346 1
348 369 1
348 383 1
348 423 1
348 426 1
348 507 1
348 522 1
348 552 1
348 553 1
348 569 1
348 571 1
348 574 1
348 582 1
348 583 1
348 596 1
348 599 1
348 605 1
348 629 1
348 662 1
348 667 1
348 683 1
348 684 1
348 702 1
348 706 1
348 719 1
348 722 1
348 750 1
348 771 1
348 774 1
348 777 1
349 13 1
349 18 1
349 27 1
349 42 1
349 48 1
349 49 1
349 52 1
349 54 1
349 56 1
349 96 1
349 101 1
349 105 1
349 122 1
349 124 1
349 126 1
349 128 1
349 151 1
349 152 1
349 156 1
349 164 1
349 169 1
349 190 1
349 202 1
349 258 1
349 259 1
349 261 1
349 316 1
349 353 1
349 357 1
349 372 1
349 393 1
349 405 1
349 422 1
349 431 1
349 433 1
349 436 1
349 455 1
349 462 1
349 464 1
349 509 1
349 517 1
349 529 1
349 544 1
349 612 1
349 615 1
349 654 1
349 655 1
349 657 1
349 680 1
349 683 1
349 710 1
349 713 1
349 744 1
349 754 1
349 755 1
349 761 1
349 791 1
350 5 1
350 19 1
350 24 1
350 30 1
350 40 1
350 86 1
350 97 1
350 101 1
350 104 1
350 122 1
350 125 1
350 150 1
350 152 1
350 154 1
350 183 1
350 203 1
350 214 1
350 240 1
350 248 1
350 274 1
350 291 1
350 312 1
350 329 1
350 345 1
350 351 1
350 354 1
350 356 1
350 365 1
350 372 1
350 378 1
350 384 1
350 396 1
350 402 1
350 435 1
350 458 1
350 468 1
350 479 1
350 483 1
350 485 1
350 500 1
350 531 1
350 536 1
350 567 1
350 584 1
350 595 1
350 654 1
350 655 1
350 658 1
350 673 1
350 681 1
350 690 1
350 732 1
350 738 1
350 771 1
350 776 1
350 781 1
350 791 1
351 4 1
351 26 1
351 36 1
351 58 1
351 85 1
351 105 1
351 118 1
351 129 1
351 130 1
351 162 1
351 197 1
351 205 1
351 211 1
351 229 1
351 241 1
351 245 1
351 258 1
351 268 1
351 303 1
351 350 1
351 359 1
351 370 1
351 378 1
351 383 1
351 404 1
351 441 1
351 442 1
351 485 1
351 492 1
351 503 1
351 539 1
351 540 1
351 590 1
351 593 1
351 680 1
351 681 1
351 701 1
351 702 1
351 703 1
351 724 1
351 729 1
352 23 1
352 31 1
352 59 1
352 101 1
352 129 1
352 154 1
352 167 1
352 174 1
352 196 1
352 216 1
352 220 1
352 255 1
352 262 1
352 263 1
352 276 1
352 280 1
352 285 1
352 312 1
352 315 1
352 319 1
352 320 1
352 327 1
352 358 1
352 363 1
352 370 1
352 395 1
352 417 1
352 421 1
352 425 1
352 447 1
352 467 1
352 468 1
352 469 1
352 479 1
352 493 1
352 503 1
352 514 1
352 526 1
352 528 1
352 585 1
352 594 1
352 626 1
352 640 1
352 668 1
352 694 1
352 701 1
352 710 1
352 724 1
352 726 1
352 728 1
352 766 1
352 778 1
352 793 1
352 794 1
353 69 1
353 72 1
353 78 1
353 79 1
353 107 1
353 109 1
353 115 1
353 143 1
353 146 1
353 154 1
353 162 1
353 173 1
353 203 1
353 206 1
353 221 1
353 233 1
353 291 1
353 292 1
353 303 1
353 320 1
353 325 1
353 328 1
353 335 1
353 346 1
353 349 1
353 361 1
353 395 1
353 397 1
353 400 1
353 425 1
353 464 1
353 467 1
353 474 1
353 475 1
353 477 1
353 502 1
353 527 1
353 545 1
353 546 1
353 553 1
353 558 1
353 601 1
353 611 1
353 617 1
353 623 1
353 636 1
353 661 1
353 675 1
353 685 1
353 704 1
353 715 1
353 730 1
353 747 1
353 754 1
353 755 1
353 786 1
354 2 1
354 10 1
354 14 1
354 16 1
354 60 1
354 108 1
354 115 1
354 116 1
354 135 1
354 193 1
354 243 1
354 249 1
354 261 1
354 296 1
354 301 1
354 306 1
354 335 1
354 338 1
354 341 1
354 350 1
354 419 1
354 425 1
354 450 1
354 487 1
354 501 1
354 511 1
354 547 1
354 550 1
354 552 1
354 557 1
354 594 1
354 609 1
354 624 1
354 650 1
354 655 1
354 667 1
354 670 1
354 683 1
354 686 1
354 728 1
354 747 1
354 756 1
354 759 1
354 790 1
354 799 1
355 22 1
355 41 1
355 50 1
355 76 1
355 78 1
355 86 1
355 111 1
355 145 1
355 177 1
355 180 1
355 235 1
355 258 1
355 285 1
355 287 1
355 288 1
355 308 1
355 317 1
355 323 1
355 324 1
355 329 1
355 331 1
355 343 1
355 344 1
355 378 1
355 387 1
355 389 1
355 402 1
355 445 1
355 449 1
355 452 1
355 453 1
355 454 1
355 468 1
355 477 1
355 486 1
355 489 1
355 497 1
355 507 1
355 510 1
355 519 1
355 532 1
355 542 1
355 545 1
355 554 1
355 555 1
355 560 1
355 563 1
355 637 1
355 679 1
355 683 1
355 696 1
355 707 1
355 728 1
355 737 1
355 738 1
355 753 1
355 755 1
355 786 1
356 2 1
356 23 1
356 48 1
356 51 1
356 72 1
356 122 1
356 123 1
356 162 1
356 171 1
356 185 1
356 227 1
356 236 1
356 251 1
356 254 1
356 267 1
356 276 1
356 285 1
356 350 1
356 358 1
356 392 1
356 397 1
356 402 1
356 434 1
356 440 1
356 460 1
356 461 1
356 485 1
356 489 1
356 498 1
356 502 1
356 506 1
356 522 1
356 530 1
356 533 1
356 595 1
356 604 1
356 643 1
356 659 1
356 664 1
356 691 1
356 773 1
356 787 1
357 3 1
357 4 1
357 51 1
357 82 1
357 92 1
357 104 1
357 106 1
357 115 1
357 125 1
357 185 1
357 191 1
357 192 1
357 194 1
357 195 1
357 211 1
357 214 1
357 242 1
357 247 1
357 256 1
357 268 1
357 279 1
357 311 1
357 318 1
357 330 1
357 346 1
357 349 1
357 365 1
357 385 1
357 406 1
357 427 1
357 429 1
357 445 1
357 460 1
357 470 1
357 483 1
357 506 1
357 509 1
357 522 1
357 581 1
357 584 1
357 605 1
357 633 1
357 641 1
357 643 1
357 679 1
357 682 1
357 697 1
357 733 1
357 739 1
357 756 1
357 758 1
358 15 1
358 38 1
358 46 1
358 51 1
358 52 1
358 73 1
358 75 1
358 100 1
358 113 1
358 121 1
358 125 1
358 140 1
358 172 1
358 194 1
358 205 1
358 225 1
358 238 1
358 241 1
358 266 1
358 268 1
358 311 1
358 324 1
358 352 1
358 356 1
358 404 1
358 407 1
358 420 1
358 450 1
358 465 1
358 480 1
358 512 1
358 524 1
358 533 1
358 543 1
358 546 1
358 548 1
358 585 1
358 607 1
358 608 1
358 689 1
358 699 1
358 719 1
358 734 1
358 737 1
358 756 1
358 775 1
358 792 1
359 4 1
359 5 1
359 20 1
359 29 1
359 39 1
359 56 1
359 99 1
359 106 1
359 113 1
359 170 1
359 183 1
359 194 1
359 240 1
359 243 1
359 279 1
359 305 1
359 314 1
359 318 1
359 320 1
359 351 1
359 374 1
359 383 1
359 426 1
359 439 1
359 441 1
359 521 1
359 526 1
359 530 1
359 537 1
359 560 1
359 601 1
359 603 1
359 604 1
359 606 1
359 608 1
359 613 1
359 631 1
359 638 1
359 641 1
359 653 1
359 658 1
359 659 1
359 671 1
359 692 1
359 700 1
359 747 1
359 751 1
359 779 1
360 8 1
360 9 1
360 13 1
360 18 1
360 46 1
360 53 1
360 61 1
360 71 1
360 74 1
360 90 1
360 130 1
360 142 1
360 156 1
360 162 1
360 200 1
360 204 1
360 214 1
360 222 1
360 226 1
360 228 1
360 254 1
360 280 1
360 298 1
360 313 1
360 316 1
360 362 1
360 363 1
360 405 1
360 408 1
360 412 1
360 418 1
360 426 1
360 440 1
360 443 1
360 452 1
360 466 1
360 507 1
360 521 1
360 528 1
360 548 1
360 554 1
360 592 1
360 601 1
360 604 1
360 613 1
360 638 1
360 667 1
360 709 1
360 712 1
360 745 1
360 769 1
360 787 1
360 799 1
361 8 1
361 21 1
361 24 1
361 27 1
361 52 1
361 58 1
361 63 1
361 69 1
361 103 1
361 109 1
361 115 1
361 129 1
361 141 1
361 203 1
361 215 1
361 222 1
361 251 1
361 252 1
361 255 1
361 267 1
361 295 1
361 303 1
361 312 1
361 313 1
361 319 1
361 326 1
361 334 1
361 343 1
361 353 1
361 367 1
361 389 1
361 406 1
361 408 1
361 415 1
361 428 1
361 446 1
361 448 1
361 471 1
361 478 1
361 480 1
361 493 1
361 495 1
361 496 1
361 532 1
361 554 1
361 570 1
361 586 1
361 591 1
361 632 1
361 651 1
361 671 1
361 677 1
361 681 1
361 689 1
361 696 1
361 737 1
361 746 1
361 754 1
361 765 1
361 771 1
361 782 1
361 783 1
361 785 1
362 21 1
362 25 1
362 30 1
362 47 1
362 66 1
362 72 1
362 91 1
362 115 1
362 117 1
362 118 1
362 124 1
362 132 1
362 142 1
362 178 1
362 204 1
362 227 1
362 234 1
362 250 1
362 258 1
362 261 1
362 285 1
362 289 1
362 291 1
362 308 1
362 316 1
362 360 1
362 375 1
362 379 1
362 420 1
362 428 1
362 432 1
362 456 1
362 476 1
362 511 1
362 513 1
362 527 1
362 529 1
362 540 1
362 569 1
362 581 1
362 597 1
362 611 1
362 618 1
362 620 1
362 635 1
362 655 1
362 700 1
362 709 1
362 734 1
362 747 1
362 753 1
362 757 1
363 8 1
363 10 1
363 29 1
363 60 1
363 68 1
363 103 1
363 112 1
363 143 1
363 183 1
363 189 1
363 213 1
363 271 1
363 272 1
363 289 1
363 299 1
363 341 1
363 352 1
363 360 1
363 383 1
363 384 1
363 386 1
363 409 1
363 419 1
363 444 1
363 448 1
363 452 1
363 470 1
363 487 1
363 498 1
363 510 1
363 516 1
363 536 1
363 552 1
363 575 1
363 582 1
363 635 1
363 653 1
363 690 1
363 730 1
363 758 1
363 785 1
364 1 1
364 6 1
364 8 1
364 42 1
364 59 1
364 73 1
364 75 1
364 91 1
364 92 1
364 185 1
364 191 1
364 201 1
364 234 1
364 277 1
364 319 1
364 333 1
364 338 1
364 378 1
364 382 1
364 391 1
364 397 1
364 412 1
364 413 1
364 451 1
364 455 1
364 489 1
364 611 1
364 644 1
364 655 1
364 669 1
364 685 1
364 694 1
364 701 1
364 719 1
364 779 1
365 5 1
365 9 1
365 13 1
365 21 1
365 77 1
365 110 1
365 116 1
365 124 1
365 126 1
365 132 1
365 137 1
365 142 1
365 154 1
365 177 1
365 183 1
365 268 1
365 301 1
365 302 1
365 314 1
365 350 1
365 357 1
365 410 1
365 419 1
365 453 1
365 461 1
365 467 1
365 528 1
365 531 1
365 533 1
365 539 1
365 564 1
365 570 1
365 572 1
365 574 1
365 576 1
365 602 1
365 620 1
365 626 1
365 646 1
365 671 1
365 695 1
365 698 1
365 722 1
365 739 1
366 9 1
366 11 1
366 78 1
366 84 1
366 118 1
366 120 1
366 148 1
366 152 1
366 178 1
366 188 1
366 198 1
366 203 1
366 227 1
366 240 1
366 248 1
366 262 1
366 267 1
366 270 1
366 288 1
366 321 1
366 367 1
366 385 1
366 388 1
366 389 1
366 392 1
366 397 1
366 431 1
366 460 1
366 478 1
366 484 1
366 488 1
366 512 1
366 531 1
366 540 1
366 548 1
366 551 1
366 576 1
366 613 1
366 626 1
366 643 1
366 650 1
366 666 1
366 694 1
366 714 1
366 729 1
366 735 1
366 747 1
366 792 1
367 24 1
367 36 1
367 57 1
367 87 1
367 92 1
367 96 1
367 97 1
367 98 1
367 119 1
367 122 1
367 128 1
367 130 1
367 173 1
367 180 1
367 195 1
367 204 1
367 213 1
367 215 1
367 226 1
367 293 1
367 317 1
367 361 1
367 366 1
367 388 1
367 407 1
367 414 1
367 431 1
367 451 1
367 455 1
367 457 1
367 464 1
367 469 1
367 494 1
367 496 1
367 510 1
367 514 1
367 515 1
367 555 1
367 585 1
367 586 1
367 608 1
367 612 1
367 625 1
367 634 1
367 639 1
367 662 1
367 671 1
367 682 1
367 709 1
367 731 1
367 742 1
367 763 1
367 764 1
367 772 1
367 787 1
367 789 1
368 38 1
368 47 1
368 68 1
368 89 1
368 116 1
368 133 1
368 144 1
368 155 1
368 166 1
368 187 1
368 202 1
368 204 1
368 216 1
368 232 1
368 275 1
368 295 1
368 300 1
368 306 1
368 331 1
368 342 1
368 345 1
368 369 1
368 391 1
368 405 1
368 420 1
368 423 1
368 429 1
368 508 1
368 534 1
368 543 1
368 576 1
368 594 1
368 606 1
368 618 1
368 620 1
368 628 1
368 635 1
368 644 1
368 645 1
368 660 1
368 711 1
368 752 1
368 790 1
368 798 1
369 6 1
369 11 1
369 24 1
369 26 1
369 27 1
369 45 1
369 47 1
369 51 1
369 59 1
369 80 1
369 81 1
369 109 1
369 124 1
369 130 1
369 131 1
369 140 1
369 152 1
369 165 1
369 170 1
369 187 1
369 190 1
369 205 1
369 216 1
369 219 1
369 262 1
369 289 1
369 295 1
369 301 1
369 316 1
369 324 1
369 327 1
369 331 1
369 348 1
369 368 1
369 373 1
369 375 1
369 390 1
369 472 1
369 491 1
369 498 1
369 506 1
369 525 1
369 529 1
369 548 1
369 567 1
369 577 1
369 585 1
369 594 1
369 629 1
369 631 1
369 632 1
369 636 1
369 645 1
369 653 1
369 656 1
369 670 1
369 687 1
369 698 1
369 702 1
369 712 1
369 747 1
369 749 1
369 756 1
369 766 1
369 784 1
370 6 1
370 31 1
370 42 1
370 61 1
370 73 1
370 76 1
370 77 1
370 116 1
370 136 1
370 137 1
370 144 1
370 145 1
370 148 1
370 162 1
370 164 1
370 172 1
370 183 1
370 197 1
370 224 1
370 251 1
370 254 1
370 268 1
370 294 1
370 308 1
370 314 1
370 328 1
370 335 1
370 337 1
370 347 1
370 351 1
370 352 1
370 434 1
370 437 1
370 439 1
370 443 1
370 445 1
370 483 1
370 494 1
370 582 1
370 585 1
370 623 1
370 646 1
370 652 1
370 661 1
370 693 1
370 694 1
370 711 1
370 718 1
370 739 1
370 743 1
370 748 1
370 756 1
370 771 1
370 777 1
371 12 1
371 24 1
371 28 1
371 32 1
371 36 1
371 39 1
371 82 1
371 91 1
371 92 1
371 96 1
371 100 1
371 137 1
371 214 1
371 218 1
371 223 1
371 296 1
371 303 1
371 320 1
371 418 1
371 436 1
371 439 1
371 445 1
371 461 1
371 473 1
371 499 1
371 512 1
371 535 1
371 546 1
371 564 1
371 569 1
371 585 1
371 596 1
371 644 1
371 648 1
371 655 1
371 681 1
371 683 1
371 685 1
371 704 1
371 710 1
371 733 1
371 739 1
371 746 1
371 750 1
371 767 1
371 789 1
372 3 1
372 17 1
372 39 1
372 41 1
372 54 1
372 56 1
372 97 1
372 99 1
372 113 1
372 181 1
372 185 1
372 195 1
372 211 1
372 214 1
372 222 1
372 247 1
372 291 1
372 349 1
372 350 1
372 373 1
372 400 1
372 404 1
372 446 1
372 453 1
372 458 1
372 481 1
372 525 1
372 532 1
372 539 1
372 574 1
372 580 1
372 591 1
372 632 1
372 673 1
372 674 1
372 737 1
372 742 1
372 745 1
372 757 1
372 766 1
372 770 1
372 773 1
372 790 1
373 52 1
373 59 1
373 80 1
373 83 1
373 87 1
373 102 1
373 122 1
373 167 1
373 169 1
373 191 1
373 202 1
373 259 1
373 285 1
373 307 1
373 323 1
373 324 1
373 369 1
373 372 1
373 374 1
373 380 1
373 391 1
373 409 1
373 413 1
373 416 1
373 441 1
373 468 1
373 480 1
373 485 1
373 515 1
373 532 1
373 534 1
373 547 1
373 552 1
373 553 1
373 567 1
373 580 1
373 582 1
373 600 1
373 614 1
373 626 1
373 635 1
373 660 1
373 664 1
373 669 1
373 682 1
373 687 1
373 696 1
373 706 1
373 716 1
373 764 1
374 5 1
374 12 1
374 18 1
374 31 1
374 51 1
374 74 1
374 81 1
374 94 1
374 133 1
374 146 1
374 206 1
374 226 1
374 230 1
374 232 1
374 266 1
374 296 1
374 300 1
374 303 1
374 315 1
374 323 1
374 329 1
374 359 1
374 373 1
374 391 1
374 404 1
374 408 1
374 419 1
374 458 1
374 469 1
374 480 1
374 500 1
374 515 1
374 520 1
374 528 1
374 531 1
374 534 1
374 536 1
374 542 1
374 544 1
374 547 1
374 569 1
374 575 1
374 602 1
374 603 1
374 626 1
374 666 1
374 679 1
374 702 1
374 706 1
374 729 1
374 778 1
374 790 1
375 55 1
375 63 1
375 66 1
375 87 1
375 98 1
375 99 1
375 119 1
375 138 1
375 142 1
375 158 1
375 176 1
375 187 1
375 196 1
375 236 1
375 241 1
375 329 1
375 362 1
375 369 1
375 379 1
375 464 1
375 468 1
375 470 1
375 477 1
375 511 1
375 512 1
375 574 1
375 585 1
375 603 1
375 604 1
375 605 1
375 607 1
375 612 1
375 616 1
375 683 1
375 709 1
375 766 1
376 7 1
376 27 1
376 31 1
376 37 1
376 39 1
376 49 1
376 50 1
376 51 1
376 71 1
376 106 1
376 134 1
376 138 1
376 140 1
376 163 1
376 164 1
376 179 1
376 216 1
376 233 1
376 235 1
376 239 1
376 273 1
376 281 1
376 300 1
376 313 1
376 333 1
376 404 1
376 408 1
376 509 1
376 558 1
376 580 1
376 604 1
376 627 1
376 666 1
376 683 1
376 750 1
376 759 1
376 766 1
376 798 1
376 799 1
377 44 1
377 79 1
377 112 1
377 118 1
377 123 1
377 129 1
377 143 1
377 168 1
377 174 1
377 210 1
377 216 1
377 231 1
377 235 1
377 251 1
377 286 1
377 337 1
377 387 1
377 403 1
377 429 1
377 434 1
377 460 1
377 474 1
377 482 1
377 486 1
377 494 1
377 506 1
377 526 1
377 536 1
377 549 1
377 568 1
377 618 1
377 625 1
377 662 1
377 663 1
377 703 1
377 710 1
377 714 1
377 716 1
377 742 1
377 750 1
377 755 1
378 7 1
378 45 1
378 114 1
378 137 1
378 142 1
378 166 1
378 174 1
378 177 1
378 226 1
378 261 1
378 333 1
378 334 1
378 350 1
378 351 1
378 355 1
378 364 1
378 417 1
378 422 1
378 445 1
378 455 1
378 499 1
378 519 1
378 544 1
378 575 1
378 581 1
378 611 1
378 621 1
378 680 1
378 682 1
378 707 1
378 714 1
378 727 1
378 743 1
378 744 1
378 748 1
378 768 1
378 784 1
378 791 1
379 14 1
379 42 1
379 122 1
379 149 1
379 161 1
379 192 1
379 212 1
379 230 1
379 246 1
379 250 1
379 255 1
379 257 1
379 267 1
379 279 1
379 289 1
379 302 1
379 344 1
379 362 1
379 375 1
379 387 1
379 397 1
379 419 1
379 430 1
379 438 1
379 451 1
379 495 1
379 510 1
379 538 1
379 541 1
379 549 1
379 559 1
379 570 1
379 586 1
379 607 1
379 617 1
379 642 1
379 659 1
379 663 1
379 667 1
379 701 1
379 703 1
379 739 1
379 756 1
379 758 1
379 761 1
379 771 1
379 800 1
380 18 1
380 28 1
380 29 1
380 31 1
380 38 1
380 42 1
380 54 1
380 68 1
380 83 1
380 89 1
380 108 1
380 158 1
380 170 1
380 196 1
380 238 1
380 245 1
380 246 1
380 255 1
380 262 1
380 288 1
380 297 1
380 335 1
380 373 1
380 387 1
380 396 1
380 408 1
380 443 1
380 444 1
380 450 1
380 462 1
380 470 1
380 486 1
380 488 1
380 489 1
380 504 1
380 518 1
380 520 1
380 524 1
380 530 1
380 550 1
380 682 1
380 707 1
380 710 1
380 719 1
380 727 1
380 744 1
380 764 1
380 789 1
381 9 1
381 17 1
381 62 1
381 89 1
381 106 1
381 140 1
381 150 1
381 166 1
381 168 1
381 173 1
381 179 1
381 182 1
381 186 1
381 194 1
381 198 1
381 199 1
381 222 1
381 247 1
381 254 1
381 261 1
381 287 1
381 305 1
381 322 1
381 346 1
381 416 1
381 427 1
381 481 1
381 490 1
381 492 1
381 506 1
381 515 1
381 530 1
381 559 1
381 567 1
381 631 1
381 700 1
381 713 1
381 715 1
381 716 1
381 723 1
381 726 1
381 737 1
381 742 1
381 746 1
381 773 1
381 774 1
381 777 1
382 3 1
382 42 1
382 64 1
382 87 1
382 100 1
382 109 1
382 116 1
382 144 1
382 151 1
382 171 1
382 177 1
382 202 1
382 203 1
382 204 1
382 213 1
382 264 1
382 272 1
382 305 1
382 340 1
382 364 1
382 391 1
382 396 1
382 407 1
382 418 1
382 456 1
382 457 1
382 458 1
382 460 1
382 477 1
382 486 1
382 568 1
382 573 1
382 592 1
382 604 1
382 606 1
382 647 1
382 690 1
382 695 1
382 711 1
382 745 1
382 746 1
382 756 1
382 764 1
382 773 1
382 779 1
382 790 1
383 15 1
383 22 1
383 33 1
383 52 1
383 66 1
383 87 1
383 97 1
383 157 1
383 235 1
383 267 1
383 292 1
383 320 1
383 348 1
383 351 1
383 359 1
383 363 1
383 387 1
383 391 1
383 406 1
383 415 1
383 438 1
383 471 1
383 478 1
383 512 1
383 542 1
383 554 1
383 576 1
383 578 1
383 582 1
383 605 1
383 624 1
383 626 1
383 662 1
383 665 1
383 690 1
383 699 1
383 700 1
383 725 1
383 733 1
383 734 1
383 738 1
383 747 1
383 765 1
384 9 1
384 30 1
384 40 1
384 71 1
384 102 1
384 126 1
384 127 1
384 161 1
384 165 1
384 200 1
384 216 1
384 225 1
384 248 1
384 257 1
384 280 1
384 350 1
384 363 1
384 445 1
384 475 1
384 514 1
384 534 1
384 548 1
384 571 1
384 580 1
384 584 1
384 608 1
384 618 1
384 619 1
384 626 1
384 641 1
384 655 1
384 659 1
384 668 1
384 669 1
384 679 1
384 694 1
384 727 1
384 773 1
384 792 1
384 793 1
385 29 1
385 36 1
385 41 1
385 52 1
385 97 1
385 112 1
385 153 1
385 180 1
385 184 1
385 189 1
385 208 1
385 235 1
385 251 1
385 279 1
385 300 1
385 302 1
385 307 1
385 313 1
385 333 1
385 342 1
385 357 1
385 366 1
385 421 1
385 436 1
385 446 1
385 448 1
385 452 1
385 457 1
385 464 1
385 472 1
385 495 1
385 500 1
385 504 1
385 538 1
385 566 1
385 576 1
385 577 1
385 623 1
385 634 1
385 681 1
385 687 1
385 731 1
385 741 1
385 781 1
385 788 1
385 796 1
386 29 1
386 55 1
386 60 1
386 78 1
386 86 1
386 95 1
386 102 1
386 115 1
386 134 1
386 146 1
386 147 1
386 156 1
386 161 1
386 201 1
386 236 1
386 245 1
386 247 1
386 259 1
386 295 1
386 296 1
386 315 1
386 334 1
386 342 1
386 363 1
386 392 1
386 393 1
386 412 1
386 461 1
386 484 1
386 502 1
386 523 1
386 541 1
386 572 1
386 576 1
386 586 1
386 591 1
386 611 1
386 622 1
386 654 1
386 660 1
386 661 1
386 698 1
386 709 1
386 726 1
386 727 1
386 734 1
386 748 1
386 756 1
386 792 1
387 33 1
387 53 1
387 54 1
387 65 1
387 80 1
387 86 1
387 90 1
387 94 1
387 96 1
387 118 1
387 143 1
387 159 1
387 161 1
387 176 1
387 177 1
387 183 1
387 200 1
387 209 1
387 236 1
387 298 1
387 308 1
387 338 1
387 355 1
387 377 1
387 379 1
387 380 1
387 383 1
387 454 1
387 458 1
387 475 1
387 476 1
387 477 1
387 508 1
387 523 1
387 551 1
387 610 1
387 613 1
387 648 1
387 651 1
387 682 1
387 695 1
387 697 1
387 698 1
387 703 1
387 736 1
387 746 1
387 763 1
387 782 1
387 790 1
387 791 1
387 796 1
388 14 1
388 29 1
388 41 1
388 66 1
388 72 1
388 75 1
388 90 1
388 91 1
388 133 1
388 144 1
388 163 1
388 201 1
388 206 1
388 209 1
388 223 1
388 232 1
388 241 1
388 253 1
388 254 1
388 270 1
388 274 1
388 301 1
388 328 1
388 335 1
388 337 1
388 339 1
388 343 1
388 366 1
388 367 1
388 396 1
388 404 1
388 408 1
388 414 1
388 436 1
388 490 1
388 494 1
388 495 1
388 514 1
388 542 1
388 551 1
388 568 1
388 583 1
388 647 1
388 673 1
388 692 1
388 701 1
388 748 1
388 783 1
388 785 1
388 795 1
389 17 1
389 19 1
389 26 1
389 37 1
389 40 1
389 52 1
389 74 1
389 103 1
389 124 1
389 144 1
389 172 1
389 178 1
389 205 1
389 214 1
389 234 1
389 242 1
389 258 1
389 280 1
389 337 1
389 340 1
389 355 1
389 361 1
389 366 1
389 427 1
389 459 1
389 476 1
389 490 1
389 583 1
389 594 1
389 603 1
389 623 1
389 628 1
389 630 1
389 632 1
389 681 1
389 685 1
389 697 1
389 720 1
389 724 1
389 737 1
389 743 1
389 746 1
389 758 1
389 765 1
389 783 1
389 796 1
390 12 1
390 31 1
390 37 1
390 38 1
390 39 1
390 40 1
390 60 1
390 76 1
390 97 1
390 128 1
390 148 1
390 167 1
390 168 1
390 212 1
390 217 1
390 222 1
390 229 1
390 248 1
390 250 1
390 290 1
390 315 1
390 334 1
390 338 1
390 369 1
390 394 1
390 415 1
390 421 1
390 525 1
390 528 1
390 534 1
390 548 1
390 586 1
390 604 1
390 617 1
390 620 1
390 651 1
390 667 1
390 693 1
390 710 1
390 719 1
390 720 1
390 754 1
390 784 1
390 800 1
391 19 1
391 40 1
391 41 1
391 73 1
391 83 1
391 85 1
391 103 1
391 109 1
391 126 1
391 143 1
391 162 1
391 165 1
391 175 1
391 188 1
391 205 1
391 238 1
391 250 1
391 255 1
391 266 1
391 286 1
391 290 1
391 299 1
391 314 1
391 320 1
391 321 1
391 364 1
391 368 1
391 373 1
391 374 1
391 382 1
391 383 1
391 439 1
391 444 1
391 460 1
391 475 1
391 479 1
391 482 1
391 489 1
391 493 1
391 495 1
391 497 1
391 500 1
391 502 1
391 506 1
391 565 1
391 602 1
391 625 1
391 654 1
391 702 1
391 717 1
391 732 1
391 741 1
391 762 1
391 782 1
392 14 1
392 26 1
392 34 1
392 56 1
392 75 1
392 89 1
392 111 1
392 113 1
392 116 1
392 119 1
392 139 1
392 143 1
392 184 1
392 218 1
392 223 1
392 230 1
392 233 1
392 241 1
392 275 1
392 282 1
392 293 1
392 317 1
392 326 1
392 329 1
392 332 1
392 356 1
392 366 1
392 386 1
392 396 1
392 397 1
392 430 1
392 447 1
392 471 1
392 505 1
392 507 1
392 524 1
392 548 1
392 569 1
392 577 1
392 614 1
392 617 1
392 618 1
392 619 1
392 629 1
392 720 1
392 723 1
392 741 1
392 746 1
392 747 1
392 774 1
392 789 1
393 8 1
393 38 1
393 58 1
393 68 1
393 81 1
393 119 1
393 137 1
393 167 1
393 201 1
393 211 1
393 273 1
393 274 1
393 314 1
393 337 1
393 343 1
393 349 1
393 386 1
393 416 1
393 419 1
393 480 1
393 508 1
393 528 1
393 530 1
393 535 1
393 537 1
393 591 1
393 600 1
393 610 1
393 621 1
393 625 1
393 647 1
393 703 1
393 719 1
393 724 1
393 747 1
393 789 1
394 20 1
394 37 1
394 43 1
394 66 1
394 84 1
394 89 1
394 110 1
394 141 1
394 162 1
394 175 1
394 191 1
394 198 1
394 201 1
394 215 1
394 242 1
394 249 1
394 258 1
394 264 1
394 277 1
394 309 1
394 333 1
394 390 1
394 401 1
394 443 1
394 444 1
394 455 1
394 467 1
394 479 1
394 500 1
394 515 1
394 521 1
394 533 1
394 551 1
394 586 1
394 604 1
394 605 1
394 655 1
394 658 1
394 674 1
394 681 1
394 682 1
394 689 1
394 700 1
394 717 1
394 733 1
394 777 1
394 793 1
395 51 1
395 61 1
395 65 1
395 145 1
395 148 1
395 166 1
395 177 1
395 183 1
395 184 1
395 202 1
395 212 1
395 217 1
395 245 1
395 250 1
395 274 1
395 300 1
395 332 1
395 352 1
395 353 1
395 396 1
395 410 1
395 418 1
395 421 1
395 447 1
395 475 1
395 481 1
395 485 1
395 496 1
395 498 1
395 500 1
395 520 1
395 556 1
395 567 1
395 572 1
395 589 1
395 598 1
395 602 1
395 608 1
395 622 1
395 630 1
395 634 1
395 658 1
395 662 1
395 701 1
395 717 1
395 726 1
395 788 1
395 790 1
396 11 1
396 65 1
396 96 1
396 110 1
396 116 1
396 132 1
396 136 1
396 164 1
396 170 1
396 188 1
396 239 1
396 248 1
396 320 1
396 343 1
396 350 1
396 380 1
396 382 1
396 388 1
396 392 1
396 395 1
396 428 1
396 451 1
396 467 1
396 473 1
396 476 1
396 482 1
396 493 1
396 505 1
396 520 1
396 556 1
396 562 1
396 566 1
396 569 1
396 571 1
396 598 1
396 654 1
396 717 1
396 738 1
396 746 1
396 752 1
396 766 1
396 768 1
396 789 1
397 16 1
397 17 1
397 32 1
397 65 1
397 74 1
397 92 1
397 163 1
397 204 1
397 215 1
397 255 1
397 267 1
397 275 1
397 290 1
397 334 1
397 353 1
397 356 1
397 364 1
397 366 1
397 379 1
397 392 1
397 425 1
397 486 1
397 487 1
397 503 1
397 518 1
397 540 1
397 542 1
397 547 1
397 579 1
397 588 1
397 610 1
397 615 1
397 622 1
397 625 1
397 652 1
397 655 1
397 705 1
397 708 1
397 715 1
397 746 1
397 767 1
397 789 1
397 791 1
398 15 1
398 26 1
398 31 1
398 61 1
398 63 1
398 74 1
398 77 1
398 98 1
398 131 1
398 135 1
398 136 1
398 171 1
398 182 1
398 221 1
398 248 1
398 290 1
398 303 1
398 309 1
398 310 1
398 315 1
398 403 1
398 413 1
398 415 1
398 418 1
398 439 1
398 458 1
398 472 1
398 473 1
398 494 1
398 507 1
398 509 1
398 528 1
398 636 1
398 646 1
398 654 1
398 704 1
398 706 1
398 712 1
398 726 1
398 735 1
398 740 1
398 743 1
398 774 1
398 781 1
399 25 1
399 56 1
399 57 1
399 63 1
399 82 1
399 107 1
399 125 1
399 136 1
399 148 1
399 175 1
399 192 1
399 197 1
399 226 1
399 229 1
399 232 1
399 238 1
399 276 1
399 290 1
399 292 1
399 300 1
399 316 1
399 344 1
399 426 1
399 438 1
399 485 1
399 491 1
399 500 1
399 513 1
399 535 1
399 549 1
399 551 1
399 553 1
399 570 1
399 578 1
399 579 1
399 589 1
399 597 1
399 603 1
399 605 1
399 650 1
399 692 1
399 752 1
399 759 1
399 764 1
400 13 1
400 29 1
400 60 1
400 73 1
400 83 1
400 136 1
400 156 1
400 176 1
400 190 1
400 198 1
400 201 1
400 220 1
400 224 1
400 268 1
400 281 1
400 305 1
400 310 1
400 353 1
400 372 1
400 443 1
400 450 1
400 461 1
400 466 1
400 474 1
400 500 1
400 543 1
400 547 1
400 584 1
400 627 1
400 652 1
400 665 1
400 682 1
400 691 1
400 700 1
400 706 1
400 713 1
400 744 1
400 782 1
400 793 1
401 2 1
401 58 1
401 66 1
401 79 1
401 100 1
401 119 1
401 123 1
401 125 1
401 128 1
401 131 1
401 137 1
401 150 1
401 175 1
401 177 1
401 208 1
401 227 1
401 267 1
401 275 1
401 303 1
401 304 1
401 309 1
401 311 1
401 314 1
401 330 1
401 339 1
401 344 1
401 394 1
401 421 1
401 438 1
401 439 1
401 441 1
401 495 1
401 501 1
401 521 1
401 526 1
401 550 1
401 561 1
401 643 1
401 649 1
401 656 1
401 744 1
401 756 1
401 796 1
402 27 1
402 46 1
402 48 1
402 102 1
402 115 1
402 187 1
402 189 1
402 228 1
402 270 1
402 350 1
402 355 1
402 356 1
402 407 1
402 428 1
402 514 1
402 518 1
402 554 1
402 563 1
402 581 1
402 623 1
402 662 1
402 672 1
402 677 1
402 681 1
402 686 1
402 699 1
402 727 1
402 735 1
402 752 1
402 759 1
403 26 1
403 34 1
403 56 1
403 60 1
403 84 1
403 85 1
403 125 1
403 130 1
403 140 1
403 142 1
403 144 1
403 153 1
403 157 1
403 191 1
403 224 1
403 229 1
403 247 1
403 250 1
403 262 1
403 281 1
403 288 1
403 322 1
403 335 1
403 377 1
403 398 1
403 438 1
403 442 1
403 444 1
403 447 1
403 484 1
403 498 1
403 515 1
403 541 1
403 548 1
403 562 1
403 564 1
403 573 1
403 590 1
403 596 1
403 633 1
403 637 1
403 665 1
403 667 1
403 679 1
403 680 1
403 688 1
403 717 1
403 722 1
403 746 1
404 10 1
404 72 1
404 74 1
404 80 1
404 113 1
404 119 1
404 133 1
404 145 1
404 157 1
404 207 1
404 208 1
404 230 1
404 249 1
404 255 1
404 261 1
404 278 1
404 279 1
404 287 1
404 290 1
404 309 1
404 322 1
404 330 1
404 337 1
404 347 1
404 351 1
404 358 1
404 372 1
404 374 1
404 376 1
404 388 1
404 415 1
404 416 1
404 423 1
404 439 1
404 452 1
404 471 1
404 493 1
404 500 1
404 525 1
404 564 1
404 589 1
404 591 1
404 595 1
404 605 1
404 608 1
404 634 1
404 715 1
404 756 1
404 759 1
404 764 1
404 769 1
405 1 1
405 38 1
405 74 1
405 75 1
405 84 1
405 128 1
405 138 1
405 150 1
405 168 1
405 175 1
405 190 1
405 197 1
405 235 1
405 266 1
405 267 1
405 275 1
405 291 1
405 306 1
405 341 1
405 343 1
405 349 1
405 360 1
405 368 1
405 423 1
405 448 1
405 453 1
405 477 1
405 488 1
405 508 1
405 523 1
405 539 1
405 579 1
405 601 1
405 603 1
405 610 1
405 615 1
405 629 1
405 648 1
405 659 1
405 662 1
405 672 1
405 693 1
405 697 1
405 710 1
405 716 1
405 738 1
405 789 1
405 800 1
406 10 1
406 14 1
406 27 1
406 47 1
406 48 1
406 49 1
406 86 1
406 88 1
406 108 1
406 119 1
406 134 1
406 148 1
406 151 1
406 232 1
406 237 1
406 238 1
406 246 1
406 275 1
406 289 1
406 308 1
406 312 1
406 318 1
406 357 1
406 361 1
406 383 1
406 408 1
406 416 1
406 425 1
406 432 1
406 443 1
406 448 1
406 454 1
406 467 1
406 474 1
406 511 1
406 525 1
406 532 1
406 562 1
406 592 1
406 603 1
406 610 1
406 622 1
406 635 1
406 640 1
406 655 1
406 656 1
406 657 1
406 680 1
406 715 1
406 724 1
406 729 1
406 741 1
406 750 1
407 65 1
407 68 1
407 85 1
407 93 1
407 103 1
407 111 1
407 125 1
407 137 1
407 143 1
407 145 1
407 165 1
407 179 1
407 202 1
407 209 1
407 213 1
407 229 1
407 247 1
407 253 1
407 254 1
407 266 1
407 287 1
407 323 1
407 331 1
407 358 1
407 367 1
407 382 1
407 402 1
407 415 1
407 430 1
407 458 1
407 472 1
407 482 1
407 527 1
407 534 1
407 558 1
407 583 1
407 604 1
407 637 1
407 665 1
407 674 1
407 690 1
407 763 1
407 782 1
408 8 1
408 84 1
408 86 1
408 94 1
408 110 1
408 144 1
408 153 1
408 159 1
408 163 1
408 207 1
408 229 1
408 259 1
408 280 1
408 281 1
408 293 1
408 298 1
408 321 1
408 360 1
408 361 1
408 374 1
408 376 1
408 380 1
408 388 1
408 406 1
408 498 1
408 542 1
408 561 1
408 579 1
408 600 1
408 604 1
408 632 1
408 636 1
408 640 1
408 649 1
408 659 1
408 672 1
408 708 1
408 727 1
408 731 1
408 759 1
408 771 1
408 778 1
408 800 1
409 1 1
409 14 1
409 56 1
409 61 1
409 69 1
409 74 1
409 126 1
409 146 1
409 182 1
409 211 1
409 258 1
409 279 1
409 301 1
409 318 1
409 337 1
409 341 1
409 363 1
409 373 1
409 427 1
409 429 1
409 433 1
409 450 1
409 457 1
409 468 1
409 486 1
409 490 1
409 494 1
409 522 1
409 535 1
409 548 1
409 588 1
409 638 1
409 663 1
409 680 1
409 688 1
409 693 1
409 696 1
409 758 1
409 763 1
409 769 1
409 772 1
409 776 1
409 797 1
410 24 1
410 68 1
410 73 1
410 95 1
410 105 1
410 121 1
410 195 1
410 212 1
410 215 1
410 220 1
410 287 1
410 304 1
410 305 1
410 324 1
410 339 1
410 365 1
410 395 1
410 417 1
410 425 1
410 437 1
410 440 1
410 444 1
410 445 1
410 454 1
410 468 1
410 472 1
410 495 1
410 514 1
410 541 1
410 559 1
410 574 1
410 575 1
410 631 1
410 666 1
410 691 1
410 695 1
410 699 1
410 701 1
410 726 1
410 783 1
410 785 1
411 3 1
411 35 1
411 46 1
411 73 1
411 74 1
411 84 1
411 99 1
411 109 1
411 118 1
411 131 1
411 140 1
411 145 1
411 161 1
411 190 1
411 192 1
411 195 1
411 214 1
411 222 1
411 242 1
411 247 1
411 252 1
411 265 1
411 270 1
411 277 1
411 278 1
411 291 1
411 293 1
411 295 1
411 303 1
411 308 1
411 309 1
411 336 1
411 428 1
411 438 1
411 445 1
411 458 1
411 481 1
411 495 1
411 505 1
411 517 1
411 593 1
411 596 1
411 599 1
411 601 1
411 604 1
411 658 1
411 699 1
411 741 1
411 757 1
411 763 1
411 783 1
412 2 1
412 5 1
412 18 1
412 19 1
412 34 1
412 58 1
412 70 1
412 77 1
412 83 1
412 94 1
412 134 1
412 163 1
412 203 1
412 240 1
412 272 1
412 278 1
412 317 1
412 345 1
412 346 1
412 360 1
412 364 1
412 386 1
412 415 1
412 428 1
412 440 1
412 442 1
412 453 1
412 493 1
412 501 1
412 517 1
412 518 1
412 532 1
412 542 1
412 549 1
412 552 1
412 561 1
412 577 1
412 590 1
412 594 1
412 598 1
412 623 1
412 626 1
412 636 1
412 640 1
412 651 1
412 702 1
412 775 1
413 22 1
413 31 1
413 70 1
413 137 1
413 148 1
413 151 1
413 153 1
413 206 1
413 216 1
413 222 1
413 229 1
413 235 1
413 253 1
413 273 1
413 291 1
413 334 1
413 340 1
413 364 1
413 373 1
413 398 1
413 422 1
413 435 1
413 444 1
413 469 1
413 486 1
413 489 1
413 497 1
413 504 1
413 513 1
413 531 1
413 536 1
413 537 1
413 557 1
413 563 1
413 584 1
413 587 1
413 592 1
413 624 1
413 639 1
413 657 1
413 670 1
413 698 1
413 702 1
413 712 1
413 715 1
413 730 1
413 732 1
413 763 1
413 767 1
413 769 1
413 776 1
413 777 1
413 780 1
413 788 1
413 789 1
413 793 1
414 49 1
414 51 1
414 82 1
414 88 1
414 116 1
414 120 1
414 124 1
414 126 1
414 145 1
414 184 1
414 202 1
414 210 1
414 219 1
414 250 1
414 251 1
414 269 1
414 274 1
414 287 1
414 307 1
414 313 1
414 318 1
414 327 1
414 347 1
414 367 1
414 388 1
414 450 1
414 473 1
414 517 1
414 520 1
414 528 1
414 576 1
414 592 1
414 637 1
414 646 1
414 650 1
414 652 1
414 749 1
414 750 1
414 773 1
414 785 1
414 791 1
415 27 1
415 34 1
415 51 1
415 57 1
415 73 1
415 178 1
415 188 1
415 206 1
415 220 1
415 228 1
415 230 1
415 281 1
415 282 1
415 292 1
415 300 1
415 309 1
415 324 1
415 328 1
415 333 1
415 361 1
415 383 1
415 390 1
415 398 1
415 404 1
415 407 1
415 412 1
415 420 1
415 424 1
415 425 1
415 438 1
415 451 1
415 469 1
415 484 1
415 536 1
415 559 1
415 560 1
415 565 1
415 574 1
415 583 1
415 585 1
415 605 1
415 616 1
415 626 1
415 642 1
415 654 1
415 684 1
415 695 1
415 696 1
415 700 1
415 740 1
415 748 1
415 755 1
415 773 1
415 778 1
415 781 1
415 787 1
415 796 1
416 3 1
416 6 1
416 65 1
416 80 1
416 84 1
416 101 1
416 116 1
416 127 1
416 129 1
416 144 1
416 168 1
416 170 1
416 180 1
416 187 1
416 209 1
416 212 1
416 230 1
416 238 1
416 241 1
416 248 1
416 260 1
416 268 1
416 274 1
416 275 1
416 277 1
416 299 1
416 305 1
416 330 1
416 373 1
416 381 1
416 393 1
416 404 1
416 406 1
416 417 1
416 440 1
416 448 1
416 513 1
416 523 1
416 540 1
416 569 1
416 570 1
416 575 1
416 589 1
416 616 1
416 619 1
416 649 1
416 662 1
416 697 1
416 715 1
416 742 1
416 756 1
416 782 1
417 3 1
417 11 1
417 31 1
417 34 1
417 56 1
417 75 1
417 80 1
417 87 1
417 90 1
417 92 1
417 106 1
417 135 1
417 154 1
417 165 1
417 178 1
417 191 1
417 204 1
417 208 1
417 213 1
417 254 1
417 257 1
417 267 1
417 269 1
417 284 1
417 308 1
417 310 1
417 319 1
417 324 1
417 339 1
417 352 1
417 378 1
417 410 1
417 416 1
417 426 1
417 433 1
417 460 1
417 474 1
417 475 1
417 483 1
417 507 1
417 518 1
417 598 1
417 604 1
417 632 1
417 649 1
417 658 1
417 681 1
417 683 1
417 712 1
417 727 1
417 758 1
417 759 1
417 780 1
417 797 1
418 5 1
418 24 1
418 37 1
418 39 1
418 46 1
418 66 1
418 85 1
418 88 1
418 91 1
418 93 1
418 122 1
418 124 1
418 127 1
418 131 1
418 137 1
418 145 1
418 167 1
418 174 1
418 181 1
418 207 1
418 213 1
418 215 1
418 220 1
418 222 1
418 223 1
418 234 1
418 258 1
418 286 1
418 294 1
418 301 1
418 336 1
418 360 1
418 371 1
418 382 1
418 395 1
418 398 1
418 424 1
418 435 1
418 440 1
418 454 1
418 456 1
418 461 1
418 469 1
418 487 1
418 492 1
418 515 1
418 535 1
418 548 1
418 553 1
418 561 1
418 568 1
418 598 1
418 610 1
418 646 1
418 647 1
418 649 1
418 662 1
418 676 1
418 685 1
418 700 1
418 707 1
418 721 1
418 736 1
418 793 1
418 795 1
419 16 1
419 66 1
419 74 1
419 75 1
419 113 1
419 126 1
419 158 1
419 165 1
419 173 1
419 186 1
419 235 1
419 252 1
419 265 1
419 286 1
419 295 1
419 347 1
419 354 1
419 363 1
419 365 1
419 374 1
419 379 1
419 393 1
419 425 1
419 443 1
419 444 1
419 447 1
419 450 1
419 453 1
419 457 1
419 509 1
419 522 1
419 528 1
419 529 1
419 553 1
419 560 1
419 562 1
419 580 1
419 614 1
419 617 1
419 640 1
419 642 1
419 649 1
419 664 1
419 669 1
419 686 1
419 691 1
419 715 1
419 745 1
419 752 1
419 754 1
419 755 1
419 768 1
419 771 1
419 775 1
419 783 1
419 785 1
420 5 1
420 21 1
420 25 1
420 73 1
420 74 1
420 83 1
420 86 1
420 95 1
420 111 1
420 124 1
420 155 1
420 183 1
420 188 1
420 231 1
420 284 1
420 289 1
420 337 1
420 358 1
420 362 1
420 368 1
420 415 1
420 432 1
420 435 1
420 441 1
420 476 1
420 479 1
420 503 1
420 528 1
420 536 1
420 546 1
420 577 1
420 593 1
420 594 1
420 595 1
420 599 1
420 605 1
420 610 1
420 627 1
420 629 1
420 636 1
420 643 1
420 644 1
420 651 1
420 659 1
420 673 1
420 678 1
420 727 1
420 770 1
420 778 1
421 21 1
421 32 1
421 41 1
421 101 1
421 107 1
421 111 1
421 134 1
421 153 1
421 157 1
421 159 1
421 167 1
421 173 1
421 179 1
421 186 1
421 191 1
421 205 1
421 206 1
421 255 1
421 258 1
421 266 1
421 268 1
421 274 1
421 282 1
421 284 1
421 293 1
421 315 1
421 352 1
421 385 1
421 390 1
421 395 1
421 401 1
421 442 1
421 466 1
421 481 1
421 500 1
421 515 1
421 522 1
421 532 1
421 539 1
421 556 1
421 558 1
421 607 1
421 669 1
421 689 1
421 713 1
421 721 1
421 729 1
421 732 1
421 737 1
421 759 1
422 3 1
422 10 1
422 40 1
422 51 1
422 71 1
422 81 1
422 83 1
422 107 1
422 122 1
422 150 1
422 153 1
422 164 1
422 167 1
422 171 1
422 178 1
422 185 1
422 216 1
422 233 1
422 264 1
422 293 1
422 300 1
422 326 1
422 342 1
422 349 1
422 378 1
422 413 1
422 451 1
422 464 1
422 500 1
422 520 1
422 553 1
422 557 1
422 561 1
422 585 1
422 586 1
422 594 1
422 607 1
422 627 1
422 641 1
422 648 1
422 660 1
422 662 1
422 663 1
422 678 1
422 722 1
422 780 1
422 792 1
423 2 1
423 31 1
423 38 1
423 56 1
423 66 1
423 85 1
423 93 1
423 122 1
423 131 1
423 135 1
423 182 1
423 186 1
423 188 1
423 272 1
423 280 1
423 292 1
423 294 1
423 331 1
423 348 1
423 368 1
423 404 1
423 405 1
423 449 1
423 457 1
423 483 1
423 501 1
423 524 1
423 531 1
423 561 1
423 564 1
423 572 1
423 606 1
423 634 1
423 662 1
423 663 1
423 685 1
423 713 1
423 741 1
423 756 1
423 776 1
423 794 1
424 21 1
424 26 1
424 34 1
424 56 1
424 57 1
424 72 1
424 88 1
424 96 1
424 112 1
424 135 1
424 149 1
424 166 1
424 184 1
424 194 1
424 245 1
424 331 1
424 337 1
424 415 1
424 418 1
424 429 1
424 439 1
424 449 1
424 450 1
424 486 1
424 557 1
424 570 1
424 572 1
424 580 1
424 665 1
424 690 1
424 707 1
424 732 1
424 752 1
424 760 1
424 761 1
424 795 1
424 799 1
425 21 1
425 23 1
425 45 1
425 50 1
425 51 1
425 55 1
425 65 1
425 87 1
425 89 1
425 128 1
425 168 1
425 177 1
425 209 1
425 231 1
425 232 1
425 280 1
425 291 1
425 352 1
425 353 1
425 354 1
425 397 1
425 406 1
425 410 1
425 415 1
425 419 1
425 433 1
425 434 1
425 469 1
425 499 1
425 588 1
425 627 1
425 629 1
425 656 1
425 662 1
425 670 1
425 674 1
425 706 1
425 725 1
425 743 1
425 754 1
425 759 1
425 782 1
425 786 1
426 4 1
426 14 1
426 25 1
426 46 1
426 51 1
426 70 1
426 105 1
426 122 1
426 204 1
426 210 1
426 281 1
426 286 1
426 289 1
426 317 1
426 347 1
426 348 1
426 359 1
426 360 1
426 399 1
426 417 1
426 442 1
426 447 1
426 457 1
426 464 1
426 470 1
426 478 1
426 523 1
426 528 1
426 537 1
426 546 1
426 553 1
426 558 1
426 577 1
426 600 1
426 606 1
426 607 1
426 619 1
426 646 1
426 662 1
426 676 1
426 701 1
426 705 1
426 709 1
426 738 1
426 743 1
426 766 1
426 772 1
426 791 1
427 18 1
427 50 1
427 73 1
427 132 1
427 137 1
427 142 1
427 161 1
427 165 1
427 179 1
427 187 1
427 188 1
427 198 1
427 222 1
427 320 1
427 341 1
427 342 1
427 357 1
427 381 1
427 389 1
427 409 1
427 466 1
427 487 1
427 490 1
427 497 1
427 502 1
427 508 1
427 510 1
427 540 1
427 563 1
427 585 1
427 591 1
427 625 1
427 641 1
427 645 1
427 669 1
427 703 1
427 722 1
427 726 1
427 745 1
427 758 1
427 761 1
427 787 1
428 46 1
428 48 1
428 64 1
428 77 1
428 92 1
428 98 1
428 107 1
428 111 1
428 145 1
428 154 1
428 156 1
428 172 1
428 181 1
428 189 1
428 219 1
428 264 1
428 268 1
428 270 1
428 317 1
428 323 1
428 328 1
428 340 1
428 347 1
428 361 1
428 362 1
428 396 1
428 402 1
428 411 1
428 412 1
428 431 1
428 435 1
428 443 1
428 445 1
428 476 1
428 515 1
428 531 1
428 540 1
428 544 1
428 570 1
428 598 1
428 629 1
428 641 1
428 649 1
428 651 1
428 671 1
428 672 1
428 682 1
428 683 1
428 687 1
428 689 1
428 695 1
428 698 1
428 718 1
428 731 1
428 764 1
428 792 1
429 11 1
429 43 1
429 97 1
429 104 1
429 115 1
429 116 1
429 148 1
429 155 1
429 206 1
429 212 1
429 250 1
429 306 1
429 314 1
429 336 1
429 338 1
429 357 1
429 368 1
429 377 1
429 409 1
429 424 1
429 460 1
429 472 1
429 545 1
429 559 1
429 573 1
429 612 1
429 639 1
429 657 1
429 711 1
429 725 1
429 738 1
429 741 1
429 742 1
429 763 1
429 777 1
429 780 1
430 4 1
430 13 1
430 26 1
430 38 1
430 52 1
430 63 1
430 69 1
430 70 1
430 78 1
430 88 1
430 94 1
430 95 1
430 105 1
430 107 1
430 109 1
430 117 1
430 137 1
430 162 1
430 193 1
430 194 1
430 200 1
430 241 1
430 303 1
430 320 1
430 324 1
430 337 1
430 379 1
430 392 1
430 407 1
430 440 1
430 454 1
430 464 1
430 473 1
430 487 1
430 507 1
430 524 1
430 579 1
430 592 1
430 611 1
430 615 1
430 639 1
430 645 1
430 660 1
430 679 1
430 683 1
430 688 1
430 735 1
430 740 1
431 21 1
431 46 1
431 56 1
431 67 1
431 69 1
431 81 1
431 111 1
431 176 1
431 180 1
431 199 1
431 213 1
431 251 1
431 255 1
431 266 1
431 275 1
431 311 1
431 319 1
431 349 1
431 366 1
431 367 1
431 428 1
431 456 1
431 457 1
431 462 1
431 485 1
431 497 1
431 514 1
431 516 1
431 527 1
431 541 1
431 555 1
431 569 1
431 579 1
431 588 1
431 594 1
431 608 1
431 631 1
431 632 1
431 640 1
431 666 1
431 682 1
431 683 1
431 706 1
431 724 1
431 740 1
431 775 1
432 46 1
432 53 1
432 120 1
432 132 1
432 143 1
432 148 1
432 162 1
432 169 1
432 173 1
432 175 1
432 183 1
432 195 1
432 199 1
432 230 1
432 235 1
432 242 1
432 263 1
432 296 1
432 304 1
432 318 1
432 323 1
432 331 1
432 345 1
432 362 1
432 406 1
432 420 1
432 439 1
432 446 1
432 457 1
432 458 1
432 472 1
432 487 1
432 502 1
432 503 1
432 504 1
432 511 1
432 527 1
432 530 1
432 536 1
432 538 1
432 549 1
432 586 1
432 594 1
432 630 1
432 638 1
432 655 1
432 656 1
432 662 1
432 687 1
432 699 1
432 703 1
432 707 1
432 736 1
432 749 1
432 756 1
432 769 1
432 770 1
432 788 1
432 791 1
432 800 1
433 26 1
433 35 1
433 36 1
433 49 1
433 66 1
433 79 1
433 88 1
433 171 1
433 178 1
433 181 1
433 224 1
433 236 1
433 240 1
433 248 1
433 302 1
433 315 1
433 349 1
433 409 1
433 417 1
433 425 1
433 493 1
433 501 1
433 507 1
433 531 1
433 532 1
433 533 1
433 543 1
433 593 1
433 604 1
433 623 1
433 630 1
433 650 1
433 652 1
433 665 1
433 699 1
433 720 1
433 739 1
433 745 1
433 759 1
433 764 1
433 782 1
434 3 1
434 5 1
434 7 1
434 26 1
434 34 1
434 51 1
434 52 1
434 56 1
434 59 1
434 107 1
434 120 1
434 155 1
434 161 1
434 166 1
434 178 1
434 190 1
434 203 1
434 222 1
434 224 1
434 228 1
434 233 1
434 293 1
434 294 1
434 297 1
434 323 1
434 326 1
434 330 1
434 356 1
434 370 1
434 377 1
434 425 1
434 454 1
434 473 1
434 529 1
434 576 1
434 598 1
434 627 1
434 632 1
434 682 1
434 696 1
434 705 1
434 707 1
434 731 1
434 736 1
434 743 1
434 744 1
434 761 1
434 769 1
434 774 1
435 23 1
435 79 1
435 101 1
435 153 1
435 185 1
435 189 1
435 213 1
435 222 1
435 224 1
435 242 1
435 278 1
435 282 1
435 288 1
435 290 1
435 302 1
435 350 1
435 413 1
435 418 1
435 420 1
435 428 1
435 490 1
435 499 1
435 510 1
435 520 1
435 525 1
435 544 1
435 566 1
435 573 1
435 598 1
435 621 1
435 629 1
435 668 1
435 681 1
435 687 1
435 710 1
435 727 1
435 728 1
435 763 1
435 764 1
435 768 1
435 773 1
435 789 1
436 8 1
436 33 1
436 113 1
436 120 1
436 137 1
436 167 1
436 171 1
436 190 1
436 197 1
436 201 1
436 222 1
436 249 1
436 253 1
436 281 1
436 282 1
436 302 1
436 310 1
436 314 1
436 336 1
436 349 1
436 371 1
436 385 1
436 388 1
436 443 1
436 523 1
436 534 1
436 540 1
436 541 1
436 564 1
436 596 1
436 603 1
436 604 1
436 622 1
436 661 1
436 675 1
436 721 1
436 736 1
436 737 1
436 750 1
436 788 1
436 790 1
437 9 1
437 29 1
437 65 1
437 80 1
437 117 1
437 119 1
437 143 1
437 152 1
437 168 1
437 174 1
437 180 1
437 193 1
437 210 1
437 211 1
437 221 1
437 222 1
437 245 1
437 252 1
437 257 1
437 271 1
437 293 1
437 297 1
437 308 1
437 325 1
437 338 1
437 347 1
437 370 1
437 410 1
437 459 1
437 463 1
437 477 1
437 479 1
437 486 1
437 508 1
437 509 1
437 514 1
437 534 1
437 535 1
437 565 1
437 575 1
437 585 1
437 596 1
437 637 1
437 648 1
437 659 1
437 667 1
437 669 1
437 693 1
437 696 1
437 697 1
437 702 1
437 707 1
437 743 1
437 748 1
438 15 1
438 58 1
438 66 1
438 76 1
438 81 1
438 115 1
438 121 1
438 124 1
438 158 1
438 163 1
438 164 1
438 173 1
438 195 1
438 213 1
438 222 1
438 238 1
438 274 1
438 287 1
438 295 1
438 309 1
438 322 1
438 339 1
438 379 1
438 383 1
438 399 1
438 401 1
438 403 1
438 411 1
438 415 1
438 451 1
438 456 1
438 477 1
438 499 1
438 504 1
438 505 1
438 532 1
438 539 1
438 562 1
438 563 1
438 566 1
438 572 1
438 589 1
438 597 1
438 601 1
438 611 1
438 634 1
438 635 1
438 652 1
438 721 1
438 730 1
438 735 1
438 800 1
439 3 1
439 55 1
439 71 1
439 120 1
439 124 1
439 129 1
439 137 1
439 150 1
439 156 1
439 160 1
439 170 1
439 174 1
439 199 1
439 202 1
439 227 1
439 236 1
439 240 1
439 275 1
439 284 1
439 290 1
439 291 1
439 295 1
439 296 1
439 303 1
439 314 1
439 345 1
439 359 1
439 370 1
439 371 1
439 391 1
439 398 1
439 401 1
439 404 1
439 424 1
439 432 1
439 444 1
439 450 1
439 463 1
439 556 1
439 590 1
439 598 1
439 600 1
439 653 1
439 660 1
439 670 1
439 683 1
439 686 1
439 691 1
439 718 1
439 723 1
439 738 1
439 745 1
439 753 1
439 781 1
439 786 1
440 10 1
440 17 1
440 30 1
440 35 1
440 56 1
440 68 1
440 114 1
440 116 1
440 166 1
440 169 1
440 232 1
440 248 1
440 249 1
440 262 1
440 321 1
440 328 1
440 332 1
440 356 1
440 360 1
440 410 1
440 412 1
440 416 1
440 418 1
440 430 1
440 487 1
440 497 1
440 512 1
440 572 1
440 574 1
440 595 1
440 596 1
440 629 1
440 639 1
440 642 1
440 679 1
440 682 1
440 715 1
440 725 1
440 729 1
440 738 1
440 744 1
440 776 1
440 795 1
441 2 1
441 36 1
441 42 1
441 45 1
441 49 1
441 64 1
441 89 1
441 112 1
441 135 1
441 160 1
441 166 1
441 187 1
441 263 1
441 277 1
441 320 1
441 326 1
441 351 1
441 359 1
441 373 1
441 401 1
441 420 1
441 444 1
441 449 1
441 455 1
441 467 1
441 478 1
441 484 1
441 489 1
441 497 1
441 527 1
441 545 1
441 548 1
441 549 1
441 570 1
441 574 1
441 587 1
441 588 1
441 592 1
441 601 1
441 651 1
441 652 1
441 675 1
441 704 1
441 753 1
441 780 1
441 783 1
442 23 1
442 26 1
442 28 1
442 36 1
442 43 1
442 112 1
442 123 1
442 130 1
442 177 1
442 192 1
442 197 1
442 204 1
442 211 1
442 231 1
442 239 1
442 257 1
442 260 1
442 262 1
442 286 1
442 288 1
442 318 1
442 323 1
442 351 1
442 403 1
442 412 1
442 421 1
442 426 1
442 457 1
442 469 1
442 489 1
442 500 1
442 510 1
442 539 1
442 545 1
442 574 1
442 575 1
442 579 1
442 590 1
442 593 1
442 602 1
442 617 1
442 618 1
442 625 1
442 627 1
442 654 1
442 685 1
442 719 1
442 721 1
442 728 1
442 732 1
442 745 1
442 772 1
442 783 1
442 785 1
442 793 1
443 20 1
443 42 1
443 96 1
443 98 1
443 99 1
443 110 1
443 132 1
443 139 1
443 171 1
443 175 1
443 179 1
443 183 1
443 184 1
443 198 1
443 209 1
443 248 1
443 261 1
443 280 1
443 330 1
443 344 1
443 360 1
443 370 1
443 380 1
443 394 1
443 400 1
443 406 1
443 419 1
443 428 1
443 436 1
443 494 1
443 508 1
443 518 1
443 618 1
443 623 1
443 636 1
443 638 1
443 641 1
443 656 1
443 658 1
443 659 1
443 661 1
443 664 1
443 671 1
443 674 1
443 677 1
443 717 1
443 721 1
443 733 1
443 757 1
443 766 1
443 770 1
443 779 1
443 792 1
444 24 1
444 28 1
444 32 1
444 60 1
444 101 1
444 125 1
444 147 1
444 152 1
444 203 1
444 205 1
444 221 1
444 242 1
444 258 1
444 263 1
444 266 1
444 298 1
444 306 1
444 328 1
444 338 1
444 363 1
444 380 1
444 391 1
444 394 1
444 403 1
444 410 1
444 413 1
444 419 1
444 439 1
444 441 1
444 446 1
444 487 1
444 497 1
444 518 1
444 544 1
444 555 1
444 562 1
444 577 1
444 581 1
444 583 1
444 584 1
444 610 1
444 615 1
444 625 1
444 628 1
444 634 1
444 646 1
444 652 1
444 662 1
444 664 1
444 673 1
444 682 1
444 685 1
444 690 1
444 710 1
444 711 1
444 727 1
444 763 1
445 15 1
445 16 1
445 22 1
445 42 1
445 46 1
445 106 1
445 125 1
445 137 1
445 138 1
445 147 1
445 201 1
445 219 1
445 220 1
445 222 1
445 225 1
445 226 1
445 243 1
445 252 1
445 258 1
445 267 1
445 300 1
445 303 1
445 317 1
445 319 1
445 320 1
445 355 1
445 357 1
445 370 1
445 371 1
445 378 1
445 384 1
445 410 1
445 411 1
445 428 1
445 473 1
445 482 1
445 529 1
445 561 1
445 590 1
445 595 1
445 598 1
445 608 1
445 616 1
445 651 1
445 696 1
445 736 1
445 744 1
445 748 1
445 751 1
445 755 1
445 781 1
445 789 1
445 793 1
446 11 1
446 27 1
446 42 1
446 46 1
446 89 1
446 118 1
446 131 1
446 172 1
446 188 1
446 197 1
446 210 1
446 221 1
446 226 1
446 227 1
446 261 1
446 289 1
446 300 1
446 304 1
446 306 1
446 329 1
446 337 1
446 345 1
446 361 1
446 372 1
446 385 1
446 432 1
446 444 1
446 455 1
446 456 1
446 498 1
446 512 1
446 517 1
446 519 1
446 537 1
446 538 1
446 549 1
446 579 1
446 581 1
446 597 1
446 704 1
446 749 1
446 774 1
446 778 1
447 2 1
447 8 1
447 22 1
447 26 1
447 45 1
447 56 1
447 61 1
447 64 1
447 79 1
447 106 1
447 111 1
447 119 1
447 156 1
447 166 1
447 171 1
447 195 1
447 199 1
447 206 1
447 218 1
447 229 1
447 235 1
447 240 1
447 241 1
447 305 1
447 345 1
447 352 1
447 392 1
447 395 1
447 403 1
447 419 1
447 426 1
447 448 1
447 473 1
447 475 1
447 497 1
447 499 1
447 501 1
447 514 1
447 518 1
447 520 1
447 534 1
447 536 1
447 578 1
447 621 1
447 625 1
447 634 1
447 658 1
447 668 1
447 677 1
447 695 1
447 754 1
447 787 1
447 788 1
447 790 1
447 793 1
448 3 1
448 5 1
448 21 1
448 27 1
448 28 1
448 35 1
448 44 1
448 55 1
448 66 1
448 94 1
448 99 1
448 140 1
448 148 1
448 151 1
448 153 1
448 171 1
448 184 1
448 209 1
448 215 1
448 236 1
448 244 1
448 253 1
448 289 1
448 316 1
448 318 1
448 319 1
448 329 1
448 361 1
448 363 1
448 385 1
448 405 1
448 406 1
448 416 1
448 447 1
448 472 1
448 484 1
448 504 1
448 547 1
448 587 1
448 590 1
448 604 1
448 623 1
448 634 1
448 640 1
448 666 1
448 667 1
448 670 1
448 684 1
448 689 1
448 690 1
448 709 1
448 780 1
448 786 1
448 788 1
449 26 1
449 27 1
449 47 1
449 53 1
449 55 1
449 76 1
449 84 1
449 90 1
449 107 1
449 136 1
449 143 1
449 145 1
449 148 1
449 210 1
449 249 1
449 258 1
449 313 1
449 318 1
449 329 1
449 355 1
449 423 1
449 424 1
449 441 1
449 463 1
449 466 1
449 467 1
449 485 1
449 508 1
449 579 1
449 590 1
449 615 1
449 616 1
449 640 1
449 687 1
449 706 1
449 724 1
449 739 1
449 747 1
449 757 1
449 790 1
449 791 1
449 796 1
450 1 1
450 13 1
450 95 1
450 108 1
450 111 1
450 116 1
450 123 1
450 133 1
450 139 1
450 142 1
450 143 1
450 166 1
450 198 1
450 214 1
450 219 1
450 237 1
450 247 1
450 254 1
450 262 1
450 290 1
450 297 1
450 299 1
450 340 1
450 354 1
450 358 1
450 380 1
450 400 1
450 409 1
450 414 1
450 419 1
450 424 1
450 439 1
450 464 1
450 465 1
450 466 1
450 495 1
450 509 1
450 544 1
450 545 1
450 558 1
450 577 1
450 581 1
450 588 1
450 595 1
450 624 1
450 637 1
450 664 1
450 670 1
450 692 1
450 704 1
450 714 1
450 718 1
450 721 1
450 723 1
450 728 1
450 765 1
450 769 1
450 790 1
450 796 1
451 64 1
451 84 1
451 127 1
451 178 1
451 221 1
451 255 1
451 295 1
451 323 1
451 332 1
451 364 1
451 367 1
451 379 1
451 396 1
451 415 1
451 422 1
451 438 1
451 491 1
451 492 1
451 499 1
451 550 1
451 591 1
451 596 1
451 665 1
451 689 1
451 717 1
451 739 1
451 774 1
451 783 1
451 799 1
452 58 1
452 75 1
452 93 1
452 95 1
452 122 1
452 123 1
452 147 1
452 174 1
452 178 1
452 228 1
452 240 1
452 244 1
452 250 1
452 285 1
452 296 1
452 355 1
452 360 1
452 363 1
452 385 1
452 404 1
452 460 1
452 467 1
452 489 1
452 501 1
452 540 1
452 557 1
452 577 1
452 638 1
452 639 1
452 646 1
452 647 1
452 664 1
452 669 1
452 672 1
452 683 1
452 692 1
452 703 1
452 722 1
452 724 1
452 755 1
452 766 1
452 792 1
453 1 1
453 5 1
453 6 1
453 11 1
453 22 1
453 70 1
453 89 1
453 102 1
453 112 1
453 116 1
453 125 1
453 137 1
453 144 1
453 150 1
453 151 1
453 163 1
453 171 1
453 175 1
453 203 1
453 208 1
453 210 1
453 216 1
453 218 1
453 284 1
453 286 1
453 314 1
453 324 1
453 326 1
453 330 1
453 355 1
453 365 1
453 372 1
453 405 1
453 412 1
453 419 1
453 470 1
453 497 1
453 524 1
453 532 1
453 536 1
453 569 1
453 581 1
453 584 1
453 587 1
453 605 1
453 645 1
453 650 1
453 678 1
453 679 1
453 680 1
453 705 1
453 711 1
453 715 1
453 723 1
453 727 1
453 738 1
453 758 1
453 775 1
454 40 1
454 43 1
454 54 1
454 73 1
454 103 1
454 123 1
454 131 1
454 148 1
454 161 1
454 171 1
454 192 1
454 196 1
454 228 1
454 230 1
454 233 1
454 254 1
454 256 1
454 355 1
454 387 1
454 406 1
454 410 1
454 418 1
454 430 1
454 434 1
454 474 1
454 475 1
454 483 1
454 500 1
454 511 1
454 529 1
454 532 1
454 582 1
454 611 1
454 612 1
454 627 1
454 681 1
454 686 1
454 750 1
454 756 1
454 800 1
455 8 1
455 19 1
455 28 1
455 33 1
455 53 1
455 57 1
455 60 1
455 69 1
455 95 1
455 104 1
455 122 1
455 141 1
455 145 1
455 179 1
455 200 1
455 204 1
455 234 1
455 273 1
455 316 1
455 323 1
455 331 1
455 333 1
455 334 1
455 349 1
455 364 1
455 367 1
455 378 1
455 394 1
455 441 1
455 446 1
455 483 1
455 489 1
455 493 1
455 521 1
455 527 1
455 575 1
455 580 1
455 599 1
455 600 1
455 612 1
455 618 1
455 626 1
455 639 1
455 652 1
455 674 1
455 677 1
455 682 1
455 689 1
455 729 1
455 736 1
455 750 1
455 794 1
456 4 1
456 11 1
456 28 1
456 34 1
456 47 1
456 78 1
456 79 1
456 101 1
456 133 1
456 189 1
456 206 1
456 224 1
456 246 1
456 249 1
456 250 1
456 262 1
456 276 1
456 283 1
456 316 1
456 327 1
456 331 1
456 362 1
456 382 1
456 418 1
456 431 1
456 438 1
456 446 1
456 492 1
456 497 1
456 498 1
456 501 1
456 531 1
456 536 1
456 547 1
456 564 1
456 573 1
456 581 1
456 584 1
456 585 1
456 601 1
456 603 1
456 642 1
456 648 1
456 663 1
456 724 1
456 731 1
456 733 1
456 767 1
456 772 1
456 775 1
457 62 1
457 79 1
457 115 1
457 128 1
457 144 1
457 174 1
457 181 1
457 225 1
457 276 1
457 278 1
457 291 1
457 298 1
457 336 1
457 342 1
457 367 1
457 382 1
457 385 1
457 409 1
457 419 1
457 423 1
457 426 1
457 431 1
457 432 1
457 442 1
457 488 1
457 499 1
457 504 1
457 526 1
457 532 1
457 538 1
457 542 1
457 546 1
457 547 1
457 552 1
457 559 1
457 569 1
457 571 1
457 573 1
457 589 1
457 598 1
457 601 1
457 605 1
457 610 1
457 622 1
457 628 1
457 629 1
457 630 1
457 650 1
457 662 1
457 676 1
457 697 1
457 700 1
457 701 1
457 715 1
457 743 1
457 752 1
457 780 1
457 785 1
457 789 1
457 796 1
458 70 1
458 75 1
458 81 1
458 101 1
458 154 1
458 161 1
458 163 1
458 178 1
458 197 1
458 220 1
458 235 1
458 276 1
458 277 1
458 288 1
458 339 1
458 350 1
458 372 1
458 374 1
458 382 1
458 387 1
458 398 1
458 407 1
458 411 1
458 432 1
458 462 1
458 468 1
458 476 1
458 511 1
458 513 1
458 532 1
458 534 1
458 545 1
458 548 1
458 559 1
458 568 1
458 576 1
458 578 1
458 579 1
458 604 1
458 624 1
458 631 1
458 633 1
458 650 1
458 658 1
458 672 1
458 673 1
458 679 1
458 740 1
458 755 1
458 761 1
458 771 1
458 773 1
458 778 1
459 13 1
459 16 1
459 20 1
459 65 1
459 71 1
459 91 1
459 94 1
459 110 1
459 157 1
459 160 1
459 236 1
459 248 1
459 285 1
459 314 1
459 327 1
459 328 1
459 389 1
459 437 1
459 464 1
459 478 1
459 501 1
459 513 1
459 544 1
459 559 1
459 575 1
459 597 1
459 602 1
459 632 1
459 633 1
459 636 1
459 639 1
459 647 1
459 697 1
459 700 1
459 701 1
459 708 1
459 716 1
459 730 1
459 749 1
459 759 1
459 778 1
459 780 1
459 788 1
460 54 1
460 56 1
460 94 1
460 102 1
460 148 1
460 158 1
460 160 1
460 165 1
460 195 1
460 211 1
460 222 1
460 237 1
460 244 1
460 253 1
460 271 1
460 282 1
460 292 1
460 323 1
460 325 1
460 356 1
460 357 1
460 366 1
460 377 1
460 382 1
460 391 1
460 417 1
460 429 1
460 452 1
460 502 1
460 545 1
460 550 1
460 561 1
460 686 1
460 693 1
460 735 1
460 763 1
460 778 1
461 4 1
461 9 1
461 27 1
461 28 1
461 35 1
461 41 1
461 45 1
461 56 1
461 59 1
461 93 1
461 94 1
461 113 1
461 158 1
461 175 1
461 194 1
461 195 1
461 216 1
461 233 1
461 282 1
461 292 1
461 356 1
461 365 1
461 371 1
461 386 1
461 400 1
461 418 1
461 488 1
461 490 1
461 500 1
461 501 1
461 531 1
461 538 1
461 592 1
461 594 1
461 612 1
461 641 1
461 652 1
461 682 1
461 698 1
461 714 1
461 754 1
461 762 1
461 786 1
462 45 1
462 51 1
462 57 1
462 63 1
462 64 1
462 84 1
462 149 1
462 157 1
462 182 1
462 202 1
462 213 1
462 216 1
462 244 1
462 255 1
462 256 1
462 259 1
462 286 1
462 289 1
462 320 1
462 349 1
462 380 1
462 431 1
462 458 1
462 500 1
462 537 1
462 562 1
462 564 1
462 567 1
462 574 1
462 587 1
462 605 1
462 613 1
462 618 1
462 636 1
462 648 1
462 667 1
462 678 1
462 686 1
462 695 1
462 702 1
462 752 1
462 753 1
462 758 1
462 796 1
462 799 1
463 13 1
463 16 1
463 35 1
463 36 1
463 85 1
463 86 1
463 117 1
463 133 1
463 155 1
463 158 1
463 165 1
463 166 1
463 171 1
463 175 1
463 179 1
463 243 1
463 277 1
463 288 1
463 296 1
463 299 1
463 345 1
463 437 1
463 439 1
463 449 1
463 467 1
463 491 1
463 510 1
463 543 1
463 554 1
463 555 1
463 564 1
463 575 1
463 579 1
463 588 1
463 597 1
463 599 1
463 601 1
463 604 1
463 616 1
463 623 1
463 631 1
463 643 1
463 651 1
463 679 1
463 718 1
463 730 1
463 746 1
463 760 1
463 776 1
463 789 1
464 5 1
464 12 1
464 28 1
464 29 1
464 56 1
464 63 1
464 79 1
464 111 1
464 129 1
464 189 1
464 192 1
464 255 1
464 264 1
464 287 1
464 297 1
464 313 1
464 314 1
464 326 1
464 349 1
464 353 1
464 367 1
464 375 1
464 385 1
464 422 1
464 426 1
464 430 1
464 450 1
464 459 1
464 472 1
464 497 1
464 498 1
464 520 1
464 539 1
464 586 1
464 601 1
464 660 1
464 666 1
464 675 1
464 691 1
464 729 1
464 732 1
464 739 1
464 740 1
464 772 1
464 775 1
464 786 1
465 35 1
465 43 1
465 56 1
465 106 1
465 132 1
465 169 1
465 172 1
465 205 1
465 299 1
465 303 1
465 304 1
465 315 1
465 317 1
465 329 1
465 340 1
465 343 1
465 358 1
465 450 1
465 467 1
465 471 1
465 490 1
465 504 1
465 517 1
465 521 1
465 522 1
465 561 1
465 592 1
465 607 1
465 610 1
465 613 1
465 637 1
465 651 1
465 728 1
465 751 1
465 771 1
465 785 1
466 17 1
466 43 1
466 76 1
466 88 1
466 101 1
466 121 1
466 157 1
466 170 1
466 207 1
466 209 1
466 226 1
466 229 1
466 249 1
466 256 1
466 312 1
466 318 1
466 330 1
466 334 1
466 360 1
466 400 1
466 421 1
466 427 1
466 449 1
466 450 1
466 474 1
466 476 1
466 497 1
466 502 1
466 505 1
466 509 1
466 515 1
466 543 1
466 548 1
466 561 1
466 581 1
466 590 1
466 591 1
466 596 1
466 601 1
466 614 1
466 669 1
466 682 1
466 683 1
466 690 1
466 784 1
467 20 1
467 55 1
467 63 1
467 68 1
467 86 1
467 95 1
467 159 1
467 160 1
467 227 1
467 238 1
467 263 1
467 291 1
467 301 1
467 309 1
467 327 1
467 329 1
467 335 1
467 336 1
467 352 1
467 353 1
467 365 1
467 394 1
467 396 1
467 406 1
467 441 1
467 449 1
467 452 1
467 463 1
467 465 1
467 480 1
467 515 1
467 543 1
467 553 1
467 563 1
467 571 1
467 575 1
467 578 1
467 586 1
467 609 1
467 611 1
467 624 1
467 665 1
467 708 1
467 715 1
467 716 1
467 717 1
467 762 1
467 764 1
467 787 1
468 1 1
468 54 1
468 55 1
468 57 1
468 65 1
468 77 1
468 105 1
468 135 1
468 171 1
468 184 1
468 216 1
468 232 1
468 263 1
468 285 1
468 286 1
468 302 1
468 331 1
468 350 1
468 352 1
468 355 1
468 373 1
468 375 1
468 409 1
468 410 1
468 458 1
468 509 1
468 535 1
468 568 1
468 576 1
468 637 1
468 641 1
468 650 1
468 668 1
468 670 1
468 707 1
468 746 1
468 770 1
468 774 1
468 780 1
469 13 1
469 17 1
469 44 1
469 55 1
469 93 1
469 120 1
469 134 1
469 153 1
469 155 1
469 165 1
469 197 1
469 260 1
469 286 1
469 307 1
469 325 1
469 344 1
469 345 1
469 346 1
469 352 1
469 367 1
469 374 1
469 413 1
469 415 1
469 418 1
469 425 1
469 442 1
469 483 1
469 493 1
469 540 1
469 562 1
469 597 1
469 648 1
469 656 1
469 682 1
469 694 1
469 696 1
469 710 1
469 721 1
469 728 1
469 734 1
469 745 1
469 768 1
469 781 1
469 784 1
469 792 1
469 794 1
470 12 1
470 32 1
470 97 1
470 104 1
470 122 1
470 123 1
470 135 1
470 140 1
470 149 1
470 153 1
470 164 1
470 181 1
470 203 1
470 221 1
470 235 1
470 253 1
470 278 1
470 286 1
470 289 1
470 332 1
470 337 1
470 357 1
470 363 1
470 375 1
470 380 1
470 426 1
470 453 1
470 515 1
470 521 1
470 522 1
470 535 1
470 548 1
470 549 1
470 552 1
470 561 1
470 562 1
470 568 1
470 617 1
470 625 1
470 638 1
470 640 1
470 650 1
470 669 1
470 684 1
470 685 1
470 695 1
470 734 1
470 765 1
471 14 1
471 17 1
471 44 1
471 69 1
471 88 1
471 108 1
471 112 1
471 140 1
471 187 1
471 213 1
471 222 1
471 224 1
471 227 1
471 229 1
471 232 1
471 262 1
471 266 1
471 342 1
471 343 1
471 361 1
471 383 1
471 392 1
471 404 1
471 465 1
471 484 1
471 490 1
471 519 1
471 542 1
471 555 1
471 599 1
471 612 1
471 643 1
471 647 1
471 666 1
471 671 1
471 675 1
471 685 1
471 699 1
471 710 1
471 717 1
471 749 1
471 758 1
471 785 1
471 790 1
472 23 1
472 31 1
472 33 1
472 35 1
472 38 1
472 40 1
472 58 1
472 60 1
472 83 1
472 90 1
472 100 1
472 102 1
472 141 1
472 148 1
472 160 1
472 163 1
472 204 1
472 234 1
472 247 1
472 254 1
472 263 1
472 267 1
472 279 1
472 283 1
472 286 1
472 292 1
472 294 1
472 324 1
472 329 1
472 369 1
472 385 1
472 398 1
472 407 1
472 410 1
472 429 1
472 432 1
472 448 1
472 464 1
472 578 1
472 601 1
472 606 1
472 630 1
472 646 1
472 654 1
472 657 1
472 665 1
472 686 1
472 710 1
472 711 1
472 727 1
472 735 1
472 766 1
472 775 1
473 6 1
473 14 1
473 40 1
473 41 1
473 66 1
473 79 1
473 85 1
473 128 1
473 148 1
473 161 1
473 193 1
473 198 1
473 238 1
473 289 1
473 307 1
473 318 1
473 371 1
473 396 1
473 398 1
473 414 1
473 430 1
473 434 1
473 445 1
473 447 1
473 480 1
473 517 1
473 529 1
473 534 1
473 576 1
473 610 1
473 635 1
473 647 1
473 656 1
473 662 1
473 706 1
473 746 1
474 16 1
474 33 1
474 42 1
474 72 1
474 81 1
474 87 1
474 89 1
474 92 1
474 101 1
474 150 1
474 162 1
474 166 1
474 216 1
474 242 1
474 249 1
474 257 1
474 259 1
474 262 1
474 267 1
474 268 1
474 276 1
474 280 1
474 281 1
474 289 1
474 305 1
474 315 1
474 337 1
474 339 1
474 341 1
474 353 1
474 377 1
474 400 1
474 406 1
474 417 1
474 454 1
474 466 1
474 508 1
474 538 1
474 564 1
474 573 1
474 591 1
474 593 1
474 662 1
474 683 1
474 687 1
474 693 1
474 694 1
474 728 1
474 743 1
475 28 1
475 34 1
475 35 1
475 36 1
475 39 1
475 41 1
475 52 1
475 69 1
475 92 1
475 111 1
475 123 1
475 149 1
475 186 1
475 215 1
475 222 1
475 224 1
475 243 1
475 267 1
475 278 1
475 294 1
475 307 1
475 326 1
475 353 1
475 384 1
475 387 1
475 391 1
475 395 1
475 417 1
475 447 1
475 454 1
475 479 1
475 508 1
475 518 1
475 540 1
475 548 1
475 551 1
475 582 1
475 594 1
475 636 1
475 644 1
475 660 1
475 684 1
475 688 1
475 700 1
475 721 1
475 723 1
475 731 1
475 757 1
475 772 1
475 774 1
475 778 1
475 787 1
475 791 1
476 3 1
476 57 1
476 68 1
476 89 1
476 112 1
476 119 1
476 133 1
476 140 1
476 143 1
476 176 1
476 189 1
476 197 1
476 201 1
476 211 1
476 246 1
476 264 1
476 299 1
476 307 1
476 310 1
476 332 1
476 362 1
476 387 1
476 389 1
476 396 1
476 420 1
476 428 1
476 458 1
476 466 1
476 485 1
476 495 1
476 510 1
476 514 1
476 531 1
476 570 1
476 629 1
476 683 1
476 697 1
476 707 1
476 713 1
476 727 1
476 733 1
476 744 1
476 763 1
476 785 1
476 799 1
477 4 1
477 16 1
477 20 1
477 31 1
477 105 1
477 108 1
477 206 1
477 212 1
477 216 1
477 230 1
477 233 1
477 253 1
477 314 1
477 317 1
477 330 1
477 337 1
477 353 1
477 355 1
477 375 1
477 382 1
477 387 1
477 405 1
477 437 1
477 438 1
477 495 1
477 506 1
477 535 1
477 544 1
477 553 1
477 568 1
477 576 1
477 601 1
477 614 1
477 618 1
477 620 1
477 632 1
477 695 1
477 707 1
477 726 1
477 734 1
477 738 1
477 770 1
477 775 1
477 778 1
477 797 1
478 33 1
478 39 1
478 52 1
478 85 1
478 126 1
478 133 1
478 149 1
478 153 1
478 155 1
478 156 1
478 201 1
478 221 1
478 227 1
478 257 1
478 258 1
478 260 1
478 261 1
478 268 1
478 285 1
478 289 1
478 305 1
478 319 1
478 332 1
478 333 1
478 338 1
478 361 1
478 366 1
478 383 1
478 426 1
478 441 1
478 459 1
478 486 1
478 510 1
478 528 1
478 529 1
478 572 1
478 582 1
478 583 1
478 586 1
478 591 1
478 596 1
478 604 1
478 607 1
478 644 1
478 649 1
478 653 1
478 671 1
478 679 1
478 692 1
478 699 1
478 707 1
478 708 1
478 738 1
478 743 1
478 780 1
479 2 1
479 12 1
479 16 1
479 38 1
479 67 1
479 76 1
479 91 1
479 92 1
479 104 1
479 129 1
479 136 1
479 162 1
479 167 1
479 182 1
479 184 1
479 187 1
479 192 1
479 217 1
479 230 1
479 236 1
479 266 1
479 275 1
479 286 1
479 305 1
479 316 1
479 318 1
479 336 1
479 350 1
479 352 1
479 391 1
479 394 1
479 420 1
479 437 1
479 475 1
479 497 1
479 538 1
479 540 1
479 604 1
479 605 1
479 625 1
479 673 1
479 681 1
479 691 1
479 698 1
479 728 1
479 747 1
479 749 1
479 764 1
479 773 1
479 778 1
480 4 1
480 31 1
480 49 1
480 61 1
480 62 1
480 86 1
480 89 1
480 99 1
480 121 1
480 144 1
480 158 1
480 161 1
480 181 1
480 186 1
480 189 1
480 197 1
480 216 1
480 238 1
480 294 1
480 311 1
480 358 1
480 361 1
480 373 1
480 374 1
480 393 1
480 467 1
480 473 1
480 494 1
480 497 1
480 509 1
480 534 1
480 559 1
480 610 1
480 615 1
480 670 1
480 686 1
480 690 1
480 692 1
480 778 1
480 784 1
481 5 1
481 10 1
481 35 1
481 73 1
481 88 1
481 106 1
481 164 1
481 168 1
481 169 1
481 175 1
481 194 1
481 198 1
481 224 1
481 237 1
481 273 1
481 304 1
481 318 1
481 372 1
481 381 1
481 395 1
481 411 1
481 421 1
481 508 1
481 512 1
481 541 1
481 542 1
481 546 1
481 551 1
481 671 1
481 695 1
481 700 1
481 731 1
481 773 1
481 776 1
481 791 1
481 796 1
482 8 1
482 13 1
482 21 1
482 56 1
482 72 1
482 102 1
482 105 1
482 109 1
482 115 1
482 175 1
482 177 1
482 178 1
482 216 1
482 224 1
482 276 1
482 284 1
482 287 1
482 304 1
482 339 1
482 377 1
482 391 1
482 396 1
482 407 1
482 445 1
482 503 1
482 505 1
482 523 1
482 535 1
482 537 1
482 545 1
482 552 1
482 555 1
482 565 1
482 591 1
482 592 1
482 641 1
482 697 1
482 699 1
482 702 1
482 704 1
482 706 1
482 707 1
482 714 1
482 719 1
482 720 1
482 721 1
482 727 1
482 728 1
482 729 1
482 740 1
482 769 1
482 787 1
482 793 1
482 796 1
482 799 1
483 18 1
483 21 1
483 30 1
483 49 1
483 109 1
483 142 1
483 238 1
483 240 1
483 248 1
483 250 1
483 251 1
483 275 1
483 303 1
483 317 1
483 328 1
483 343 1
483 346 1
483 350 1
483 357 1
483 370 1
483 417 1
483 423 1
483 454 1
483 455 1
483 469 1
483 490 1
483 512 1
483 515 1
483 520 1
483 559 1
483 598 1
483 678 1
483 708 1
483 786 1
483 795 1
483 796 1
484 7 1
484 9 1
484 12 1
484 18 1
484 26 1
484 40 1
484 54 1
484 70 1
484 78 1
484 80 1
484 89 1
484 95 1
484 105 1
484 119 1
484 122 1
484 136 1
484 137 1
484 139 1
484 152 1
484 171 1
484 181 1
484 190 1
484 197 1
484 211 1
484 246 1
484 247 1
484 260 1
484 264 1
484 288 1
484 290 1
484 295 1
484 366 1
484 386 1
484 403 1
484 415 1
484 441 1
484 448 1
484 471 1
484 512 1
484 537 1
484 561 1
484 562 1
484 564 1
484 594 1
484 598 1
484 600 1
484 629 1
484 635 1
484 641 1
484 649 1
484 664 1
484 684 1
484 686 1
484 687 1
484 699 1
484 754 1
484 770 1
484 785 1
485 1 1
485 11 1
485 36 1
485 72 1
485 145 1
485 154 1
485 156 1
485 169 1
485 205 1
485 209 1
485 210 1
485 221 1
485 264 1
485 278 1
485 290 1
485 301 1
485 332 1
485 333 1
485 345 1
485 350 1
485 351 1
485 356 1
485 373 1
485 395 1
485 399 1
485 431 1
485 449 1
485 476 1
485 494 1
485 499 1
485 504 1
485 553 1
485 578 1
485 643 1
485 647 1
485 672 1
485 674 1
485 683 1
485 685 1
485 686 1
485 694 1
485 709 1
485 715 1
485 719 1
485 750 1
485 764 1
485 777 1
485 791 1
486 11 1
486 19 1
486 25 1
486 40 1
486 64 1
486 93 1
486 96 1
486 151 1
486 166 1
486 183 1
486 214 1
486 252 1
486 290 1
486 295 1
486 299 1
486 313 1
486 318 1
486 355 1
486 377 1
486 380 1
486 382 1
486 397 1
486 409 1
486 413 1
486 424 1
486 437 1
486 478 1
486 501 1
486 509 1
486 521 1
486 528 1
486 532 1
486 549 1
486 569 1
486 621 1
486 647 1
486 664 1
486 675 1
486 685 1
486 716 1
486 720 1
486 721 1
486 722 1
486 736 1
486 789 1
487 46 1
487 47 1
487 71 1
487 75 1
487 85 1
487 150 1
487 156 1
487 159 1
487 212 1
487 298 1
487 305 1
487 354 1
487 363 1
487 397 1
487 418 1
487 427 1
487 430 1
487 432 1
487 440 1
487 444 1
487 493 1
487 507 1
487 529 1
487 565 1
487 572 1
487 577 1
487 591 1
487 594 1
487 596 1
487 617 1
487 630 1
487 650 1
487 652 1
487 664 1
487 665 1
487 716 1
487 717 1
487 723 1
487 745 1
487 748 1
487 760 1
487 762 1
487 765 1
487 767 1
487 778 1
487 780 1
488 29 1
488 33 1
488 49 1
488 55 1
488 68 1
488 96 1
488 115 1
488 138 1
488 146 1
488 160 1
488 167 1
488 178 1
488 192 1
488 193 1
488 194 1
488 205 1
488 258 1
488 327 1
488 333 1
488 366 1
488 380 1
488 405 1
488 457 1
488 461 1
488 500 1
488 515 1
488 575 1
488 615 1
488 634 1
488 635 1
488 641 1
488 647 1
488 671 1
488 692 1
488 698 1
488 709 1
488 739 1
488 755 1
488 758 1
489 2 1
489 12 1
489 32 1
489 36 1
489 38 1
489 45 1
489 48 1
489 76 1
489 120 1
489 142 1
489 164 1
489 170 1
489 220 1
489 235 1
489 248 1
489 310 1
489 331 1
489 355 1
489 356 1
489 364 1
489 380 1
489 391 1
489 413 1
489 441 1
489 442 1
489 452 1
489 455 1
489 501 1
489 506 1
489 529 1
489 532 1
489 563 1
489 564 1
489 570 1
489 591 1
489 593 1
489 604 1
489 615 1
489 622 1
489 635 1
489 639 1
489 648 1
489 651 1
489 677 1
489 684 1
489 697 1
489 733 1
489 748 1
489 793 1
489 794 1
490 42 1
490 58 1
490 91 1
490 93 1
490 110 1
490 120 1
490 132 1
490 135 1
490 162 1
490 165 1
490 182 1
490 192 1
490 197 1
490 202 1
490 205 1
490 216 1
490 226 1
490 244 1
490 280 1
490 290 1
490 293 1
490 296 1
490 318 1
490 322 1
490 326 1
490 328 1
490 342 1
490 381 1
490 388 1
490 389 1
490 409 1
490 427 1
490 435 1
490 461 1
490 465 1
490 471 1
490 483 1
490 492 1
490 509 1
490 520 1
490 540 1
490 574 1
490 575 1
490 579 1
490 625 1
490 649 1
490 650 1
490 655 1
490 661 1
490 675 1
490 687 1
490 743 1
490 770 1
491 6 1
491 10 1
491 18 1
491 26 1
491 77 1
491 87 1
491 99 1
491 102 1
491 109 1
491 119 1
491 129 1
491 142 1
491 155 1
491 157 1
491 164 1
491 189 1
491 203 1
491 208 1
491 211 1
491 220 1
491 224 1
491 250 1
491 266 1
491 272 1
491 316 1
491 339 1
491 342 1
491 369 1
491 399 1
491 451 1
491 463 1
491 513 1
491 527 1
491 578 1
491 587 1
491 590 1
491 662 1
491 677 1
491 698 1
491 717 1
491 718 1
491 742 1
491 747 1
491 759 1
491 761 1
491 763 1
492 31 1
492 43 1
492 47 1
492 65 1
492 87 1
492 99 1
492 102 1
492 138 1
492 140 1
492 146 1
492 157 1
492 162 1
492 172 1
492 185 1
492 202 1
492 244 1
492 248 1
492 255 1
492 301 1
492 315 1
492 329 1
492 341 1
492 346 1
492 351 1
492 381 1
492 418 1
492 451 1
492 456 1
492 490 1
492 496 1
492 517 1
492 519 1
492 524 1
492 529 1
492 532 1
492 536 1
492 538 1
492 549 1
492 557 1
492 601 1
492 609 1
492 637 1
492 641 1
492 645 1
492 658 1
492 671 1
492 707 1
492 719 1
492 741 1
492 742 1
492 771 1
492 799 1
493 17 1
493 30 1
493 40 1
493 52 1
493 72 1
493 108 1
493 143 1
493 152 1
493 157 1
493 178 1
493 190 1
493 202 1
493 228 1
493 257 1
493 260 1
493 272 1
493 339 1
493 347 1
493 352 1
493 361 1
493 391 1
493 396 1
493 404 1
493 412 1
493 433 1
493 455 1
493 469 1
493 487 1
493 495 1
493 505 1
493 520 1
493 534 1
493 560 1
493 577 1
493 596 1
493 609 1
493 667 1
493 679 1
493 738 1
493 763 1
493 766 1
493 773 1
493 780 1
493 783 1
494 20 1
494 45 1
494 56 1
494 94 1
494 105 1
494 107 1
494 147 1
494 167 1
494 174 1
494 178 1
494 223 1
494 228 1
494 286 1
494 303 1
494 367 1
494 370 1
494 377 1
494 388 1
494 398 1
494 409 1
494 443 1
494 480 1
494 485 1
494 505 1
494 512 1
494 514 1
494 515 1
494 542 1
494 561 1
494 572 1
494 602 1
494 603 1
494 616 1
494 617 1
494 630 1
494 652 1
494 661 1
494 666 1
494 677 1
494 680 1
494 701 1
494 707 1
494 741 1
494 746 1
494 761 1
494 800 1
495 4 1
495 31 1
495 33 1
495 38 1
495 42 1
495 60 1
495 63 1
495 78 1
495 86 1
495 128 1
495 130 1
495 143 1
495 149 1
495 169 1
495 181 1
495 195 1
495 196 1
495 198 1
495 205 1
495 216 1
495 219 1
495 230 1
495 236 1
495 239 1
495 242 1
495 276 1
495 277 1
495 282 1
495 285 1
495 287 1
495 288 1
495 293 1
495 309 1
495 310 1
495 323 1
495 338 1
495 361 1
495 379 1
495 385 1
495 388 1
495 391 1
495 401 1
495 410 1
495 411 1
495 450 1
495 476 1
495 477 1
495 493 1
495 591 1
495 631 1
495 634 1
495 670 1
495 699 1
495 701 1
495 707 1
495 715 1
495 717 1
495 731 1
495 740 1
495 759 1
495 760 1
495 767 1
495 781 1
495 793 1
495 797 1
496 25 1
496 44 1
496 93 1
496 101 1
496 126 1
496 135 1
496 137 1
496 156 1
496 167 1
496 182 1
496 183 1
496 184 1
496 191 1
496 237 1
496 275 1
496 296 1
496 309 1
496 321 1
496 335 1
496 361 1
496 367 1
496 395 1
496 492 1
496 505 1
496 511 1
496 515 1
496 532 1
496 551 1
496 602 1
496 627 1
496 636 1
496 641 1
496 646 1
496 670 1
496 691 1
496 705 1
496 719 1
496 727 1
496 743 1
496 760 1
497 14 1
497 39 1
497 44 1
497 56 1
497 75 1
497 77 1
497 99 1
497 101 1
497 117 1
497 190 1
497 200 1
497 201 1
497 210 1
497 227 1
497 233 1
497 251 1
497 271 1
497 282 1
497 285 1
497 291 1
497 310 1
497 311 1
497 316 1
497 355 1
497 391 1
497 413 1
497 427 1
497 431 1
497 440 1
497 441 1
497 444 1
497 447 1
497 453 1
497 456 1
497 464 1
497 466 1
497 479 1
497 480 1
497 503 1
497 531 1
497 536 1
497 551 1
497 555 1
497 584 1
497 585 1
497 601 1
497 620 1
497 640 1
497 641 1
497 643 1
497 645 1
497 663 1
497 682 1
497 717 1
497 730 1
497 736 1
497 746 1
497 764 1
497 777 1
497 788 1
497 789 1
498 32 1
498 44 1
498 54 1
498 58 1
498 121 1
498 122 1
498 137 1
498 154 1
498 157 1
498 158 1
498 164 1
498 166 1
498 227 1
498 243 1
498 255 1
498 257 1
498 258 1
498 275 1
498 294 1
498 303 1
498 317 1
498 322 1
498 323 1
498 325 1
498 337 1
498 346 1
498 356 1
498 363 1
498 369 1
498 395 1
498 403 1
498 408 1
498 446 1
498 456 1
498 464 1
498 503 1
498 505 1
498 519 1
498 526 1
498 538 1
498 542 1
498 551 1
498 562 1
498 583 1
498 604 1
498 609 1
498 637 1
498 659 1
498 683 1
498 685 1
498 688 1
498 701 1
498 719 1
498 728 1
498 729 1
498 733 1
498 741 1
498 761 1
498 770 1
498 786 1
499 24 1
499 40 1
499 105 1
499 112 1
499 115 1
499 117 1
499 133 1
499 164 1
499 182 1
499 192 1
499 232 1
499 240 1
499 272 1
499 286 1
499 303 1
499 322 1
499 325 1
499 343 1
499 371 1
499 378 1
499 425 1
499 435 1
499 438 1
499 447 1
499 451 1
499 457 1
499 485 1
499 530 1
499 548 1
499 549 1
499 579 1
499 612 1
499 614 1
499 625 1
499 657 1
499 665 1
499 673 1
499 684 1
499 690 1
499 694 1
499 695 1
499 713 1
499 733 1
499 736 1
499 770 1
499 782 1
499 789 1
499 797 1
500 13 1
500 43 1
500 51 1
500 79 1
500 91 1
500 96 1
500 101 1
500 116 1
500 118 1
500 121 1
500 127 1
500 152 1
500 164 1
500 167 1
500 175 1
500 176 1
500 177 1
500 191 1
500 205 1
500 253 1
500 313 1
500 327 1
500 332 1
500 350 1
500 374 1
500 385 1
500 391 1
500 394 1
500 395 1
500 399 1
500 400 1
500 404 1
500 421 1
500 422 1
500 442 1
500 454 1
500 461 1
500 462 1
500 488 1
500 503 1
500 539 1
500 554 1
500 557 1
500 578 1
500 581 1
500 670 1
500 722 1
500 751 1
500 764 1
500 772 1
500 794 1
500 800 1
501 12 1
501 61 1
501 65 1
501 97 1
501 98 1
501 100 1
501 101 1
501 125 1
501 182 1
501 225 1
501 226 1
501 251 1
501 280 1
501 283 1
501 289 1
501 295 1
501 312 1
501 320 1
501 338 1
501 354 1
501 401 1
501 412 1
501 423 1
501 433 1
501 447 1
501 452 1
501 456 1
501 459 1
501 461 1
501 486 1
501 489 1
501 529 1
501 541 1
501 542 1
501 553 1
501 569 1
501 572 1
501 576 1
501 579 1
501 588 1
501 601 1
501 614 1
501 687 1
501 705 1
501 707 1
501 714 1
501 721 1
501 736 1
501 738 1
501 749 1
501 767 1
502 3 1
502 11 1
502 29 1
502 37 1
502 52 1
502 54 1
502 65 1
502 68 1
502 71 1
502 89 1
502 103 1
502 123 1
502 155 1
502 184 1
502 217 1
502 222 1
502 229 1
502 230 1
502 232 1
502 235 1
502 260 1
502 276 1
502 292 1
502 319 1
502 353 1
502 356 1
502 386 1
502 391 1
502 427 1
502 432 1
502 460 1
502 466 1
502 506 1
502 517 1
502 540 1
502 542 1
502 626 1
502 627 1
502 635 1
502 683 1
502 705 1
502 716 1
502 739 1
502 792 1
503 7 1
503 26 1
503 39 1
503 64 1
503 69 1
503 98 1
503 116 1
503 125 1
503 131 1
503 148 1
503 151 1
503 154 1
503 208 1
503 226 1
503 237 1
503 262 1
503 269 1
503 276 1
503 310 1
503 341 1
503 351 1
503 352 1
503 397 1
503 420 1
503 432 1
503 482 1
503 497 1
503 498 1
503 500 1
503 505 1
503 511 1
503 518 1
503 539 1
503 552 1
503 571 1
503 595 1
503 621 1
503 637 1
503 646 1
503 681 1
503 691 1
503 692 1
503 703 1
503 710 1
503 728 1
503 737 1
503 738 1
503 749 1
503 770 1
503 776 1
504 15 1
504 34 1
504 35 1
504 41 1
504 57 1
504 71 1
504 124 1
504 138 1
504 174 1
504 180 1
504 194 1
504 227 1
504 238 1
504 240 1
504 249 1
504 250 1
504 259 1
504 263 1
504 275 1
504 276 1
504 278 1
504 306 1
504 331 1
504 342 1
504 380 1
504 385 1
504 413 1
504 432 1
504 438 1
504 448 1
504 457 1
504 465 1
504 485 1
504 505 1
504 535 1
504 555 1
504 580 1
504 581 1
504 588 1
504 621 1
504 633 1
504 706 1
504 714 1
504 718 1
504 747 1
504 757 1
504 769 1
504 771 1
504 778 1
505 5 1
505 20 1
505 24 1
505 28 1
505 48 1
505 79 1
505 92 1
505 95 1
505 102 1
505 116 1
505 132 1
505 152 1
505 153 1
505 159 1
505 161 1
505 190 1
505 249 1
505 253 1
505 264 1
505 268 1
505 320 1
505 334 1
505 392 1
505 396 1
505 411 1
505 438 1
505 466 1
505 482 1
505 493 1
505 494 1
505 496 1
505 498 1
505 503 1
505 504 1
505 550 1
505 553 1
505 603 1
505 640 1
505 651 1
505 779 1
505 780 1
506 24 1
506 27 1
506 44 1
506 55 1
506 67 1
506 74 1
506 87 1
506 91 1
506 102 1
506 124 1
506 147 1
506 228 1
506 253 1
506 269 1
506 281 1
506 298 1
506 356 1
506 357 1
506 369 1
506 377 1
506 381 1
506 391 1
506 477 1
506 489 1
506 502 1
506 528 1
506 548 1
506 563 1
506 592 1
506 600 1
506 626 1
506 627 1
506 636 1
506 688 1
506 697 1
506 700 1
506 718 1
506 733 1
506 763 1
507 9 1
507 38 1
507 42 1
507 58 1
507 78 1
507 83 1
507 108 1
507 112 1
507 116 1
507 126 1
507 137 1
507 138 1
507 169 1
507 174 1
507 179 1
507 186 1
507 226 1
507 230 1
507 269 1
507 281 1
507 300 1
507 309 1
507 341 1
507 348 1
507 355 1
507 360 1
507 392 1
507 398 1
507 417 1
507 430 1
507 433 1
507 487 1
507 517 1
507 583 1
507 591 1
507 593 1
507 605 1
507 639 1
507 715 1
507 755 1
507 762 1
507 763 1
507 778 1
508 1 1
508 5 1
508 44 1
508 61 1
508 66 1
508 104 1
508 131 1
508 137 1
508 180 1
508 182 1
508 228 1
508 284 1
508 298 1
508 303 1
508 310 1
508 331 1
508 334 1
508 338 1
508 342 1
508 344 1
508 368 1
508 387 1
508 393 1
508 405 1
508 427 1
508 437 1
508 443 1
508 449 1
508 474 1
508 475 1
508 481 1
508 535 1
508 577 1
508 593 1
508 638 1
508 656 1
508 660 1
508 685 1
508 713 1
508 717 1
508 736 1
508 742 1
508 756 1
508 765 1
508 776 1
508 783 1
508 793 1
508 798 1
509 45 1
509 87 1
509 92 1
509 93 1
509 135 1
509 143 1
509 236 1
509 237 1
509 240 1
509 261 1
509 278 1
509 306 1
509 338 1
509 349 1
509 357 1
509 376 1
509 398 1
509 419 1
509 437 1
509 450 1
509 466 1
509 468 1
509 480 1
509 486 1
509 490 1
509 515 1
509 523 1
509 540 1
509 560 1
509 566 1
509 570 1
509 587 1
509 632 1
509 645 1
509 654 1
509 665 1
509 672 1
509 685 1
509 697 1
509 704 1
509 716 1
509 730 1
509 734 1
509 738 1
509 753 1
509 776 1
509 783 1
509 791 1
509 796 1
510 3 1
510 16 1
510 38 1
510 74 1
510 86 1
510 94 1
510 117 1
510 133 1
510 140 1
510 147 1
510 152 1
510 157 1
510 197 1
510 268 1
510 294 1
510 305 1
510 309 1
510 320 1
510 325 1
510 342 1
510 355 1
510 363 1
510 367 1
510 379 1
510 427 1
510 435 1
510 442 1
510 463 1
510 476 1
510 478 1
510 570 1
510 593 1
510 598 1
510 613 1
510 624 1
510 627 1
510 641 1
510 655 1
510 663 1
510 669 1
510 671 1
510 693 1
510 697 1
510 698 1
510 715 1
510 726 1
510 737 1
510 750 1
510 765 1
510 766 1
510 773 1
510 792 1
511 4 1
511 16 1
511 22 1
511 31 1
511 33 1
511 52 1
511 80 1
511 102 1
511 142 1
511 149 1
511 184 1
511 194 1
511 232 1
511 233 1
511 316 1
511 354 1
511 362 1
511 375 1
511 406 1
511 432 1
511 454 1
511 458 1
511 496 1
511 503 1
511 515 1
511 519 1
511 523 1
511 528 1
511 580 1
511 596 1
511 600 1
511 602 1
511 613 1
511 621 1
511 645 1
511 681 1
511 708 1
511 732 1
511 760 1
511 761 1
511 783 1
511 790 1
512 6 1
512 8 1
512 30 1
512 38 1
512 81 1
512 98 1
512 100 1
512 115 1
512 125 1
512 129 1
512 131 1
512 151 1
512 154 1
512 198 1
512 201 1
512 232 1
512 251 1
512 266 1
512 275 1
512 280 1
512 287 1
512 289 1
512 298 1
512 334 1
512 347 1
512 358 1
512 366 1
512 371 1
512 375 1
512 383 1
512 440 1
512 446 1
512 481 1
512 483 1
512 484 1
512 494 1
512 519 1
512 538 1
512 546 1
512 560 1
512 567 1
512 571 1
512 587 1
512 610 1
512 622 1
512 630 1
512 639 1
512 657 1
512 673 1
512 709 1
512 748 1
512 764 1
512 777 1
512 779 1
513 28 1
513 32 1
513 33 1
513 76 1
513 92 1
513 115 1
513 133 1
513 168 1
513 174 1
513 190 1
513 196 1
513 203 1
513 214 1
513 220 1
513 226 1
513 229 1
513 289 1
513 290 1
513 297 1
513 314 1
513 323 1
513 335 1
513 362 1
513 399 1
513 413 1
513 416 1
513 458 1
513 459 1
513 491 1
513 543 1
513 548 1
513 554 1
513 564 1
513 589 1
513 593 1
513 605 1
513 612 1
513 642 1
513 656 1
513 667 1
513 694 1
513 711 1
513 757 1
513 758 1
513 779 1
513 781 1
514 8 1
514 40 1
514 53 1
514 68 1
514 69 1
514 101 1
514 123 1
514 134 1
514 154 1
514 181 1
514 195 1
514 250 1
514 258 1
514 259 1
514 279 1
514 282 1
514 292 1
514 304 1
514 315 1
514 321 1
514 336 1
514 352 1
514 367 1
514 384 1
514 388 1
514 402 1
514 410 1
514 431 1
514 437 1
514 447 1
514 476 1
514 494 1
514 516 1
514 537 1
514 591 1
514 607 1
514 636 1
514 713 1
514 729 1
514 732 1
514 768 1
514 770 1
515 58 1
515 59 1
515 82 1
515 89 1
515 99 1
515 149 1
515 188 1
515 209 1
515 221 1
515 232 1
515 306 1
515 331 1
515 335 1
515 345 1
515 367 1
515 373 1
515 374 1
515 381 1
515 394 1
515 403 1
515 418 1
515 421 1
515 428 1
515 466 1
515 467 1
515 470 1
515 483 1
515 488 1
515 494 1
515 496 1
515 509 1
515 511 1
515 524 1
515 533 1
515 551 1
515 558 1
515 559 1
515 562 1
515 572 1
515 579 1
515 582 1
515 628 1
515 641 1
515 685 1
515 710 1
515 728 1
515 730 1
515 747 1
515 749 1
515 762 1
515 766 1
515 788 1
515 793 1
516 22 1
516 36 1
516 46 1
516 47 1
516 50 1
516 67 1
516 69 1
516 70 1
516 93 1
516 120 1
516 122 1
516 142 1
516 144 1
516 155 1
516 164 1
516 253 1
516 268 1
516 303 1
516 363 1
516 431 1
516 514 1
516 523 1
516 536 1
516 554 1
516 555 1
516 581 1
516 601 1
516 602 1
516 606 1
516 620 1
516 627 1
516 642 1
516 644 1
516 651 1
516 659 1
516 682 1
516 708 1
516 718 1
516 719 1
516 735 1
516 739 1
516 775 1
516 785 1
517 9 1
517 13 1
517 16 1
517 33 1
517 53 1
517 64 1
517 81 1
517 84 1
517 103 1
517 110 1
517 111 1
517 113 1
517 116 1
517 117 1
517 136 1
517 173 1
517 174 1
517 194 1
517 233 1
517 254 1
517 267 1
517 302 1
517 330 1
517 335 1
517 336 1
517 342 1
517 345 1
517 349 1
517 411 1
517 412 1
517 414 1
517 446 1
517 465 1
517 473 1
517 492 1
517 502 1
517 507 1
517 568 1
517 584 1
517 590 1
517 598 1
517 599 1
517 601 1
517 639 1
517 648 1
517 664 1
517 683 1
517 715 1
517 730 1
517 745 1
517 746 1
517 767 1
517 774 1
517 776 1
517 789 1
517 791 1
517 794 1
518 42 1
518 76 1
518 84 1
518 100 1
518 102 1
518 164 1
518 178 1
518 179 1
518 199 1
518 201 1
518 252 1
518 262 1
518 272 1
518 280 1
518 288 1
518 293 1
518 295 1
518 306 1
518 342 1
518 380 1
518 397 1
518 402 1
518 412 1
518 417 1
518 443 1
518 444 1
518 447 1
518 475 1
518 503 1
518 533 1
518 536 1
518 552 1
518 599 1
518 616 1
518 644 1
518 718 1
518 728 1
518 777 1
518 781 1
518 789 1
519 3 1
519 17 1
519 20 1
519 60 1
519 61 1
519 71 1
519 92 1
519 100 1
519 108 1
519 124 1
519 165 1
519 172 1
519 174 1
519 178 1
519 183 1
519 188 1
519 196 1
519 209 1
519 232 1
519 243 1
519 253 1
519 292 1
519 293 1
519 316 1
519 355 1
519 378 1
519 446 1
519 471 1
519 492 1
519 498 1
519 511 1
519 512 1
519 527 1
519 542 1
519 552 1
519 567 1
519 579 1
519 580 1
519 602 1
519 626 1
519 646 1
519 678 1
519 718 1
519 757 1
519 767 1
519 778 1
519 781 1
519 783 1
520 18 1
520 20 1
520 21 1
520 31 1
520 51 1
520 53 1
520 63 1
520 68 1
520 75 1
520 76 1
520 82 1
520 83 1
520 84 1
520 94 1
520 127 1
520 157 1
520 196 1
520 206 1
520 218 1
520 221 1
520 225 1
520 228 1
520 243 1
520 278 1
520 322 1
520 330 1
520 334 1
520 335 1
520 336 1
520 374 1
520 380 1
520 395 1
520 396 1
520 414 1
520 422 1
520 435 1
520 447 1
520 464 1
520 483 1
520 490 1
520 493 1
520 535 1
520 549 1
520 601 1
520 609 1
520 659 1
520 667 1
520 695 1
520 705 1
520 710 1
520 720 1
520 733 1
520 736 1
520 752 1
520 773 1
520 783 1
521 13 1
521 14 1
521 15 1
521 26 1
521 53 1
521 65 1
521 76 1
521 88 1
521 92 1
521 95 1
521 97 1
521 120 1
521 141 1
521 147 1
521 153 1
521 231 1
521 232 1
521 234 1
521 261 1
521 262 1
521 346 1
521 359 1
521 360 1
521 394 1
521 401 1
521 455 1
521 465 1
521 470 1
521 486 1
521 529 1
521 579 1
521 581 1
521 590 1
521 593 1
521 616 1
521 632 1
521 645 1
521 646 1
521 648 1
521 651 1
521 676 1
521 678 1
521 682 1
521 705 1
521 711 1
521 716 1
521 721 1
521 739 1
521 765 1
522 24 1
522 82 1
522 124 1
522 170 1
522 184 1
522 198 1
522 208 1
522 209 1
522 258 1
522 261 1
522 295 1
522 348 1
522 356 1
522 357 1
522 409 1
522 419 1
522 421 1
522 465 1
522 470 1
522 523 1
522 565 1
522 580 1
522 591 1
522 643 1
522 644 1
522 656 1
522 685 1
522 692 1
522 696 1
522 707 1
522 709 1
522 722 1
522 728 1
522 740 1
522 752 1
522 754 1
522 788 1
522 791 1
523 20 1
523 23 1
523 27 1
523 53 1
523 73 1
523 76 1
523 81 1
523 82 1
523 125 1
523 128 1
523 129 1
523 157 1
523 167 1
523 176 1
523 184 1
523 209 1
523 227 1
523 235 1
523 250 1
523 265 1
523 269 1
523 277 1
523 286 1
523 291 1
523 296 1
523 319 1
523 386 1
523 387 1
523 405 1
523 416 1
523 426 1
523 436 1
523 482 1
523 509 1
523 511 1
523 516 1
523 522 1
523 559 1
523 572 1
523 583 1
523 588 1
523 606 1
523 607 1
523 631 1
523 648 1
523 650 1
523 683 1
523 689 1
523 718 1
523 721 1
523 725 1
523 730 1
523 733 1
523 746 1
523 747 1
523 767 1
523 772 1
523 782 1
523 784 1
524 5 1
524 9 1
524 10 1
524 39 1
524 49 1
524 57 1
524 65 1
524 68 1
524 105 1
524 136 1
524 153 1
524 175 1
524 199 1
524 201 1
524 247 1
524 262 1
524 277 1
524 280 1
524 295 1
524 358 1
524 380 1
524 392 1
524 423 1
524 430 1
524 453 1
524 492 1
524 515 1
524 531 1
524 550 1
524 552 1
524 580 1
524 594 1
524 595 1
524 598 1
524 626 1
524 637 1
524 663 1
524 674 1
524 677 1
524 684 1
524 685 1
524 690 1
524 704 1
524 727 1
524 729 1
524 732 1
524 754 1
524 777 1
524 778 1
524 782 1
525 22 1
525 44 1
525 64 1
525 66 1
525 75 1
525 80 1
525 83 1
525 113 1
525 134 1
525 137 1
525 166 1
525 171 1
525 185 1
525 189 1
525 194 1
525 208 1
525 234 1
525 237 1
525 247 1
525 285 1
525 288 1
525 292 1
525 340 1
525 369 1
525 372 1
525 390 1
525 404 1
525 406 1
525 435 1
525 538 1
525 551 1
525 563 1
525 564 1
525 572 1
525 584 1
525 588 1
525 613 1
525 632 1
525 636 1
525 653 1
525 660 1
525 667 1
525 669 1
525 676 1
525 677 1
525 678 1
525 680 1
525 706 1
525 772 1
525 773 1
525 781 1
525 788 1
525 790 1
525 798 1
526 1 1
526 13 1
526 16 1
526 33 1
526 44 1
526 89 1
526 103 1
526 157 1
526 227 1
526 312 1
526 319 1
526 321 1
526 328 1
526 335 1
526 336 1
526 352 1
526 359 1
526 377 1
526 401 1
526 457 1
526 498 1
526 557 1
526 574 1
526 577 1
526 586 1
526 590 1
526 619 1
526 631 1
526 641 1
526 645 1
526 663 1
526 667 1
526 673 1
526 674 1
526 676 1
526 725 1
526 730 1
526 745 1
526 752 1
526 757 1
526 764 1
526 772 1
526 783 1
526 784 1
527 25 1
527 28 1
527 37 1
527 50 1
527 80 1
527 84 1
527 91 1
527 97 1
527 150 1
527 167 1
527 182 1
527 218 1
527 223 1
527 267 1
527 272 1
527 274 1
527 275 1
527 286 1
527 301 1
527 302 1
527 306 1
527 337 1
527 343 1
527 353 1
527 362 1
527 407 1
527 431 1
527 432 1
527 441 1
527 455 1
527 491 1
527 519 1
527 534 1
527 537 1
527 541 1
527 556 1
527 563 1
527 594 1
527 664 1
527 668 1
527 672 1
527 675 1
527 696 1
527 697 1
527 748 1
527 781 1
527 793 1
528 22 1
528 62 1
528 71 1
528 125 1
528 126 1
528 148 1
528 174 1
528 188 1
528 192 1
528 199 1
528 214 1
528 220 1
528 222 1
528 228 1
528 231 1
528 241 1
528 252 1
528 272 1
528 279 1
528 312 1
528 314 1
528 338 1
528 343 1
528 352 1
528 360 1
528 365 1
528 374 1
528 390 1
528 393 1
528 398 1
528 414 1
528 419 1
528 420 1
528 426 1
528 478 1
528 486 1
528 506 1
528 511 1
528 553 1
528 558 1
528 562 1
528 583 1
528 599 1
528 614 1
528 634 1
528 689 1
528 692 1
528 696 1
528 722 1
528 760 1
528 764 1
528 794 1
528 800 1
529 5 1
529 33 1
529 36 1
529 39 1
529 46 1
529 65 1
529 84 1
529 124 1
529 134 1
529 143 1
529 148 1
529 162 1
529 186 1
529 226 1
529 235 1
529 252 1
529 274 1
529 311 1
529 349 1
529 362 1
529 369 1
529 419 1
529 434 1
529 445 1
529 454 1
529 473 1
529 478 1
529 487 1
529 489 1
529 492 1
529 501 1
529 521 1
529 530 1
529 549 1
529 602 1
529 642 1
529 646 1
529 698 1
529 708 1
529 761 1
529 764 1
529 779 1
530 22 1
530 26 1
530 31 1
530 63 1
530 84 1
530 122 1
530 123 1
530 132 1
530 134 1
530 138 1
530 140 1
530 147 1
530 152 1
530 155 1
530 170 1
530 196 1
530 220 1
530 243 1
530 244 1
530 254 1
530 256 1
530 257 1
530 259 1
530 267 1
530 268 1
530 287 1
530 310 1
530 338 1
530 356 1
530 359 1
530 380 1
530 381 1
530 393 1
530 432 1
530 499 1
530 529 1
530 533 1
530 541 1
530 559 1
530 618 1
530 620 1
530 631 1
530 637 1
530 638 1
530 643 1
530 664 1
530 681 1
530 700 1
530 724 1
530 727 1
530 746 1
530 749 1
530 755 1
530 788 1
530 795 1
531 11 1
531 22 1
531 23 1
531 36 1
531 55 1
531 57 1
531 63 1
531 80 1
531 85 1
531 124 1
531 173 1
531 174 1
531 178 1
531 203 1
531 216 1
531 229 1
531 261 1
531 269 1
531 272 1
531 278 1
531 293 1
531 294 1
531 304 1
531 305 1
531 306 1
531 314 1
531 350 1
531 365 1
531 366 1
531 374 1
531 413 1
531 423 1
531 428 1
531 433 1
531 456 1
531 461 1
531 476 1
531 497 1
531 524 1
531 549 1
531 559 1
531 578 1
531 588 1
531 591 1
531 603 1
531 604 1
531 625 1
531 639 1
531 658 1
531 667 1
531 680 1
531 687 1
531 713 1
531 739 1
531 797 1
532 7 1
532 21 1
532 25 1
532 69 1
532 73 1
532 75 1
532 111 1
532 118 1
532 122 1
532 146 1
532 180 1
532 224 1
532 242 1
532 257 1
532 275 1
532 278 1
532 300 1
532 302 1
532 309 1
532 321 1
532 335 1
532 355 1
532 361 1
532 372 1
532 373 1
532 406 1
532 412 1
532 421 1
532 433 1
532 438 1
532 453 1
532 454 1
532 457 1
532 458 1
532 486 1
532 489 1
532 492 1
532 496 1
532 550 1
532 576 1
532 616 1
532 621 1
532 633 1
532 667 1
532 675 1
532 678 1
532 687 1
532 715 1
532 744 1
532 745 1
532 792 1
533 13 1
533 28 1
533 40 1
533 91 1
533 109 1
533 132 1
533 151 1
533 154 1
533 168 1
533 174 1
533 207 1
533 209 1
533 217 1
533 225 1
533 293 1
533 339 1
533 356 1
533 358 1
533 365 1
533 394 1
533 433 1
533 515 1
533 518 1
533 530 1
533 556 1
533 559 1
533 569 1
533 593 1
533 649 1
533 653 1
533 654 1
533 681 1
533 685 1
533 687 1
533 689 1
533 708 1
533 747 1
533 767 1
533 783 1
534 7 1
534 23 1
534 26 1
534 43 1
534 57 1
534 71 1
534 97 1
534 106 1
534 124 1
534 138 1
534 207 1
534 215 1
534 232 1
534 235 1
534 240 1
534 292 1
534 300 1
534 305 1
534 328 1
534 330 1
534 331 1
534 347 1
534 368 1
534 373 1
534 374 1
534 384 1
534 390 1
534 407 1
534 436 1
534 437 1
534 447 1
534 458 1
534 473 1
534 480 1
534 493 1
534 527 1
534 538 1
534 562 1
534 638 1
534 645 1
534 654 1
534 656 1
534 679 1
534 685 1
534 713 1
534 719 1
534 762 1
534 784 1
534 786 1
534 791 1
534 794 1
534 796 1
535 22 1
535 27 1
535 50 1
535 60 1
535 70 1
535 78 1
535 82 1
535 102 1
535 106 1
535 114 1
535 118 1
535 156 1
535 158 1
535 179 1
535 198 1
535 203 1
535 214 1
535 219 1
535 231 1
535 248 1
535 294 1
535 309 1
535 311 1
535 371 1
535 393 1
535 399 1
535 409 1
535 418 1
535 437 1
535 468 1
535 470 1
535 477 1
535 482 1
535 504 1
535 508 1
535 520 1
535 545 1
535 578 1
535 618 1
535 624 1
535 665 1
535 667 1
535 681 1
535 686 1
535 693 1
535 696 1
535 697 1
535 701 1
535 706 1
535 711 1
535 759 1
535 765 1
535 771 1
535 782 1
536 17 1
536 39 1
536 68 1
536 69 1
536 89 1
536 153 1
536 171 1
536 176 1
536 184 1
536 199 1
536 205 1
536 214 1
536 221 1
536 226 1
536 233 1
536 259 1
536 325 1
536 342 1
536 350 1
536 363 1
536 374 1
536 377 1
536 413 1
536 415 1
536 420 1
536 432 1
536 447 1
536 453 1
536 456 1
536 492 1
536 497 1
536 516 1
536 518 1
536 557 1
536 582 1
536 585 1
536 605 1
536 609 1
536 621 1
536 631 1
536 649 1
536 658 1
536 709 1
536 732 1
536 758 1
536 760 1
536 797 1
537 29 1
537 37 1
537 42 1
537 53 1
537 69 1
537 79 1
537 85 1
537 97 1
537 101 1
537 107 1
537 112 1
537 113 1
537 120 1
537 121 1
537 141 1
537 151 1
537 180 1
537 188 1
537 191 1
537 203 1
537 219 1
537 220 1
537 238 1
537 263 1
537 269 1
537 304 1
537 307 1
537 310 1
537 314 1
537 359 1
537 393 1
537 413 1
537 426 1
537 446 1
537 462 1
537 482 1
537 484 1
537 514 1
537 527 1
537 572 1
537 589 1
537 595 1
537 598 1
537 601 1
537 617 1
537 625 1
537 663 1
537 699 1
537 714 1
537 723 1
537 731 1
537 764 1
538 5 1
538 41 1
538 102 1
538 109 1
538 153 1
538 174 1
538 187 1
538 237 1
538 245 1
538 268 1
538 282 1
538 288 1
538 313 1
538 335 1
538 346 1
538 379 1
538 385 1
538 432 1
538 446 1
538 457 1
538 461 1
538 474 1
538 479 1
538 492 1
538 498 1
538 512 1
538 525 1
538 534 1
538 562 1
538 614 1
538 637 1
538 646 1
538 679 1
538 698 1
538 700 1
538 742 1
538 746 1
538 773 1
538 787 1
539 23 1
539 24 1
539 26 1
539 27 1
539 37 1
539 61 1
539 114 1
539 131 1
539 134 1
539 147 1
539 165 1
539 173 1
539 175 1
539 177 1
539 193 1
539 216 1
539 221 1
539 231 1
539 237 1
539 247 1
539 252 1
539 256 1
539 263 1
539 280 1
539 285 1
539 298 1
539 303 1
539 304 1
539 306 1
539 318 1
539 342 1
539 347 1
539 351 1
539 365 1
539 372 1
539 405 1
539 421 1
539 438 1
539 442 1
539 464 1
539 500 1
539 503 1
539 544 1
539 548 1
539 549 1
539 553 1
539 555 1
539 562 1
539 590 1
539 607 1
539 612 1
539 628 1
539 632 1
539 695 1
539 729 1
539 758 1
539 774 1
540 1 1
540 8 1
540 9 1
540 30 1
540 38 1
540 66 1
540 81 1
540 88 1
540 94 1
540 112 1
540 135 1
540 140 1
540 158 1
540 159 1
540 183 1
540 236 1
540 242 1
540 259 1
540 281 1
540 292 1
540 313 1
540 337 1
540 351 1
540 362 1
540 366 1
540 397 1
540 416 1
540 427 1
540 428 1
540 436 1
540 452 1
540 469 1
540 475 1
540 479 1
540 490 1
540 502 1
540 509 1
540 581 1
540 588 1
540 611 1
540 668 1
540 674 1
540 679 1
540 680 1
540 698 1
540 710 1
540 723 1
540 748 1
540 759 1
541 10 1
541 45 1
541 52 1
541 82 1
541 101 1
541 104 1
541 122 1
541 134 1
541 157 1
541 172 1
541 195 1
541 209 1
541 216 1
541 221 1
541 227 1
541 230 1
541 233 1
541 290 1
541 296 1
541 305 1
541 321 1
541 322 1
541 333 1
541 340 1
541 347 1
541 379 1
541 386 1
541 403 1
541 410 1
541 431 1
541 436 1
541 481 1
541 501 1
541 527 1
541 530 1
541 550 1
541 552 1
541 560 1
541 582 1
541 589 1
541 595 1
541 637 1
541 670 1
541 673 1
541 692 1
541 716 1
541 732 1
541 741 1
542 8 1
542 35 1
542 81 1
542 97 1
542 115 1
542 134 1
542 142 1
542 163 1
542 171 1
542 174 1
542 284 1
542 310 1
542 312 1
542 342 1
542 355 1
542 374 1
542 383 1
542 388 1
542 397 1
542 408 1
542 412 1
542 457 1
542 471 1
542 481 1
542 494 1
542 498 1
542 501 1
542 502 1
542 519 1
542 545 1
542 551 1
542 564 1
542 569 1
542 604 1
542 635 1
542 661 1
542 663 1
542 673 1
542 679 1
542 722 1
542 738 1
542 745 1
542 750 1
542 751 1
542 783 1
543 2 1
543 38 1
543 49 1
543 65 1
543 70 1
543 93 1
543 148 1
543 155 1
543 175 1
543 204 1
543 212 1
543 213 1
543 238 1
543 253 1
543 283 1
543 285 1
543 305 1
543 319 1
543 334 1
543 338 1
543 358 1
543 368 1
543 400 1
543 433 1
543 463 1
543 466 1
543 467 1
543 513 1
543 587 1
543 625 1
543 651 1
543 660 1
543 726 1
543 763 1
543 774 1
543 800 1
544 22 1
544 49 1
544 65 1
544 72 1
544 83 1
544 158 1
544 159 1
544 167 1
544 172 1
544 181 1
544 189 1
544 207 1
544 232 1
544 256 1
544 267 1
544 287 1
544 306 1
544 339 1
544 349 1
544 374 1
544 378 1
544 428 1
544 435 1
544 444 1
544 450 1
544 459 1
544 477 1
544 539 1
544 547 1
544 576 1
544 615 1
544 628 1
544 651 1
544 665 1
544 667 1
544 671 1
544 673 1
544 674 1
544 677 1
544 695 1
544 700 1
544 711 1
544 720 1
544 730 1
544 754 1
544 765 1
544 771 1
544 779 1
544 786 1
544 795 1
545 23 1
545 44 1
545 60 1
545 75 1
545 101 1
545 106 1
545 108 1
545 121 1
545 144 1
545 145 1
545 166 1
545 168 1
545 237 1
545 243 1
545 244 1
545 263 1
545 313 1
545 327 1
545 337 1
545 353 1
545 355 1
545 429 1
545 441 1
545 442 1
545 450 1
545 458 1
545 460 1
545 482 1
545 535 1
545 542 1
545 601 1
545 614 1
545 618 1
545 640 1
545 642 1
545 648 1
545 667 1
545 677 1
545 719 1
545 725 1
545 749 1
545 758 1
545 770 1
545 777 1
546 25 1
546 34 1
546 39 1
546 55 1
546 62 1
546 77 1
546 108 1
546 118 1
546 125 1
546 127 1
546 134 1
546 142 1
546 174 1
546 195 1
546 226 1
546 237 1
546 247 1
546 260 1
546 289 1
546 353 1
546 358 1
546 371 1
546 420 1
546 426 1
546 457 1
546 481 1
546 512 1
546 549 1
546 573 1
546 613 1
546 616 1
546 635 1
546 636 1
546 680 1
546 682 1
546 683 1
546 692 1
546 704 1
546 710 1
546 756 1
546 794 1
546 797 1
547 20 1
547 53 1
547 76 1
547 99 1
547 104 1
547 118 1
547 224 1
547 241 1
547 246 1
547 257 1
547 284 1
547 296 1
547 303 1
547 313 1
547 354 1
547 373 1
547 374 1
547 397 1
547 400 1
547 448 1
547 456 1
547 457 1
547 544 1
547 553 1
547 593 1
547 616 1
547 661 1
547 679 1
547 680 1
547 684 1
547 716 1
547 722 1
547 723 1
547 729 1
547 731 1
547 749 1
547 758 1
547 759 1
547 765 1
547 768 1
547 788 1
547 793 1
548 28 1
548 31 1
548 42 1
548 49 1
548 63 1
548 70 1
548 73 1
548 102 1
548 127 1
548 143 1
548 153 1
548 189 1
548 218 1
548 231 1
548 242 1
548 251 1
548 306 1
548 341 1
548 358 1
548 360 1
548 366 1
548 369 1
548 384 1
548 390 1
548 392 1
548 403 1
548 409 1
548 418 1
548 441 1
548 458 1
548 466 1
548 470 1
548 475 1
548 499 1
548 506 1
548 513 1
548 539 1
548 559 1
548 563 1
548 570 1
548 645 1
548 655 1
548 661 1
548 699 1
548 704 1
548 725 1
548 755 1
548 756 1
548 758 1
548 779 1
548 785 1
548 791 1
548 798 1
549 4 1
549 10 1
549 32 1
549 54 1
549 67 1
549 69 1
549 84 1
549 127 1
549 139 1
549 158 1
549 164 1
549 171 1
549 185 1
549 208 1
549 228 1
549 230 1
549 238 1
549 239 1
549 243 1
549 248 1
549 260 1
549 280 1
549 312 1
549 320 1
549 377 1
549 379 1
549 399 1
549 412 1
549 432 1
549 441 1
549 446 1
549 470 1
549 486 1
549 492 1
549 499 1
549 520 1
549 529 1
549 531 1
549 539 1
549 546 1
549 550 1
549 562 1
549 567 1
549 569 1
549 627 1
549 628 1
549 630 1
549 639 1
549 688 1
549 695 1
549 705 1
549 752 1
549 774 1
549 798 1
550 1 1
550 82 1
550 128 1
550 163 1
550 173 1
550 225 1
550 231 1
550 233 1
550 243 1
550 279 1
550 302 1
550 321 1
550 331 1
550 347 1
550 354 1
550 380 1
550 401 1
550 451 1
550 460 1
550 505 1
550 524 1
550 532 1
550 541 1
550 549 1
550 566 1
550 572 1
550 606 1
550 611 1
550 664 1
550 670 1
550 718 1
550 729 1
550 733 1
550 736 1
550 740 1
550 774 1
550 782 1
550 794 1
550 796 1
551 15 1
551 37 1
551 70 1
551 76 1
551 131 1
551 140 1
551 154 1
551 189 1
551 204 1
551 207 1
551 270 1
551 276 1
551 288 1
551 305 1
551 328 1
551 333 1
551 366 1
551 387 1
551 388 1
551 394 1
551 399 1
551 475 1
551 481 1
551 496 1
551 497 1
551 498 1
551 515 1
551 525 1
551 542 1
551 556 1
551 580 1
551 581 1
551 615 1
551 652 1
551 654 1
551 674 1
551 682 1
551 742 1
551 743 1
551 750 1
551 759 1
551 762 1
551 773 1
551 782 1
551 787 1
552 4 1
552 9 1
552 27 1
552 51 1
552 70 1
552 87 1
552 97 1
552 120 1
552 136 1
552 137 1
552 158 1
552 161 1
552 169 1
552 182 1
552 202 1
552 216 1
552 240 1
552 241 1
552 250 1
552 251 1
552 255 1
552 283 1
552 296 1
552 298 1
552 330 1
552 338 1
552 348 1
552 354 1
552 363 1
552 373 1
552 412 1
552 457 1
552 470 1
552 482 1
552 503 1
552 518 1
552 519 1
552 524 1
552 541 1
552 565 1
552 570 1
552 575 1
552 620 1
552 629 1
552 635 1
552 654 1
552 657 1
552 683 1
552 690 1
552 757 1
552 770 1
552 771 1
552 783 1
552 784 1
552 796 1
553 67 1
553 69 1
553 91 1
553 95 1
553 138 1
553 141 1
553 153 1
553 168 1
553 181 1
553 203 1
553 205 1
553 229 1
553 233 1
553 236 1
553 238 1
553 247 1
553 269 1
553 290 1
553 314 1
553 345 1
553 348 1
553 353 1
553 373 1
553 399 1
553 418 1
553 419 1
553 422 1
553 426 1
553 467 1
553 477 1
553 485 1
553 501 1
553 505 1
553 528 1
553 539 1
553 547 1
553 584 1
553 589 1
553 592 1
553 606 1
553 630 1
553 631 1
553 633 1
553 651 1
553 664 1
553 669 1
553 684 1
553 699 1
553 715 1
553 724 1
553 788 1
553 792 1
554 17 1
554 69 1
554 79 1
554 101 1
554 118 1
554 128 1
554 143 1
554 154 1
554 178 1
554 205 1
554 241 1
554 288 1
554 318 1
554 331 1
554 341 1
554 355 1
554 360 1
554 361 1
554 383 1
554 402 1
554 463 1
554 500 1
554 513 1
554 516 1
554 609 1
554 645 1
554 655 1
554 686 1
554 692 1
554 714 1
554 719 1
554 726 1
554 767 1
554 769 1
555 6 1
555 7 1
555 18 1
555 19 1
555 27 1
555 28 1
555 100 1
555 106 1
555 132 1
555 147 1
555 163 1
555 179 1
555 191 1
555 209 1
555 258 1
555 262 1
555 269 1
555 281 1
555 295 1
555 298 1
555 301 1
555 306 1
555 313 1
555 328 1
555 341 1
555 343 1
555 355 1
555 367 1
555 431 1
555 444 1
555 463 1
555 471 1
555 482 1
555 497 1
555 504 1
555 516 1
555 539 1
555 583 1
555 594 1
555 596 1
555 606 1
555 615 1
555 637 1
555 653 1
555 654 1
555 659 1
555 662 1
555 702 1
555 736 1
555 747 1
555 761 1
555 763 1
555 778 1
555 782 1
555 790 1
555 791 1
555 794 1
556 2 1
556 5 1
556 7 1
556 26 1
556 61 1
556 77 1
556 84 1
556 93 1
556 102 1
556 110 1
556 112 1
556 122 1
556 146 1
556 155 1
556 165 1
556 174 1
556 201 1
556 216 1
556 228 1
556 239 1
556 244 1
556 263 1
556 279 1
556 283 1
556 288 1
556 289 1
556 313 1
556 316 1
556 328 1
556 395 1
556 396 1
556 421 1
556 439 1
556 527 1
556 533 1
556 551 1
556 563 1
556 577 1
556 590 1
556 592 1
556 595 1
556 665 1
556 675 1
556 704 1
556 707 1
556 727 1
556 738 1
556 744 1
556 752 1
556 778 1
556 781 1
556 782 1
556 789 1
557 9 1
557 26 1
557 27 1
557 38 1
557 41 1
557 52 1
557 58 1
557 62 1
557 72 1
557 103 1
557 115 1
557 116 1
557 132 1
557 164 1
557 178 1
557 193 1
557 194 1
557 208 1
557 228 1
557 242 1
557 251 1
557 271 1
557 282 1
557 315 1
557 333 1
557 339 1
557 340 1
557 344 1
557 354 1
557 413 1
557 422 1
557 424 1
557 452 1
557 492 1
557 500 1
557 526 1
557 536 1
557 583 1
557 609 1
557 631 1
557 632 1
557 633 1
557 634 1
557 649 1
557 672 1
557 683 1
557 710 1
557 716 1
557 744 1
557 747 1
557 765 1
557 776 1
558 19 1
558 47 1
558 116 1
558 124 1
558 133 1
558 167 1
558 200 1
558 201 1
558 223 1
558 225 1
558 234 1
558 248 1
558 257 1
558 261 1
558 276 1
558 299 1
558 306 1
558 318 1
558 321 1
558 326 1
558 353 1
558 376 1
558 407 1
558 421 1
558 426 1
558 450 1
558 515 1
558 528 1
558 572 1
558 574 1
558 578 1
558 587 1
558 590 1
558 618 1
558 635 1
558 643 1
558 673 1
558 685 1
558 708 1
558 712 1
558 756 1
558 780 1
558 782 1
559 11 1
559 39 1
559 50 1
559 57 1
559 67 1
559 74 1
559 108 1
559 116 1
559 120 1
559 144 1
559 151 1
559 161 1
559 162 1
559 173 1
559 205 1
559 218 1
559 221 1
559 231 1
559 255 1
559 273 1
559 278 1
559 282 1
559 300 1
559 303 1
559 333 1
559 379 1
559 381 1
559 410 1
559 415 1
559 429 1
559 457 1
559 458 1
559 459 1
559 480 1
559 483 1
559 515 1
559 523 1
559 530 1
559 531 1
559 533 1
559 548 1
559 577 1
559 584 1
559 592 1
559 597 1
559 623 1
559 649 1
559 662 1
559 672 1
559 693 1
559 712 1
559 714 1
559 716 1
559 718 1
559 722 1
559 725 1
559 732 1
559 734 1
559 736 1
559 775 1
559 788 1
559 800 1
560 3 1
560 19 1
560 41 1
560 54 1
560 72 1
560 81 1
560 89 1
560 114 1
560 118 1
560 145 1
560 146 1
560 178 1
560 188 1
560 207 1
560 222 1
560 250 1
560 255 1
560 259 1
560 270 1
560 271 1
560 273 1
560 278 1
560 282 1
560 286 1
560 290 1
560 320 1
560 332 1
560 355 1
560 359 1
560 415 1
560 419 1
560 493 1
560 509 1
560 512 1
560 541 1
560 568 1
560 570 1
560 573 1
560 574 1
560 583 1
560 585 1
560 620 1
560 625 1
560 627 1
560 637 1
560 641 1
560 646 1
560 663 1
560 664 1
560 681 1
560 703 1
560 704 1
560 709 1
560 780 1
561 5 1
561 12 1
561 29 1
561 59 1
561 93 1
561 110 1
561 112 1
561 117 1
561 123 1
561 130 1
561 136 1
561 162 1
561 218 1
561 269 1
561 310 1
561 324 1
561 341 1
561 401 1
561 408 1
561 412 1
561 418 1
561 422 1
561 423 1
561 445 1
561 460 1
561 465 1
561 466 1
561 470 1
561 484 1
561 494 1
561 567 1
561 611 1
561 623 1
561 632 1
561 646 1
561 656 1
561 668 1
561 689 1
561 690 1
561 711 1
561 717 1
561 728 1
561 732 1
561 737 1
561 768 1
561 781 1
561 783 1
561 787 1
562 8 1
562 30 1
562 42 1
562 61 1
562 74 1
562 76 1
562 79 1
562 102 1
562 108 1
562 114 1
562 131 1
562 141 1
562 201 1
562 208 1
562 225 1
562 232 1
562 235 1
562 247 1
562 280 1
562 290 1
562 294 1
562 312 1
562 319 1
562 324 1
562 340 1
562 396 1
562 403 1
562 406 1
562 419 1
562 438 1
562 444 1
562 462 1
562 469 1
562 470 1
562 484 1
562 498 1
562 515 1
562 528 1
562 534 1
562 538 1
562 539 1
562 549 1
562 572 1
562 599 1
562 632 1
562 636 1
562 694 1
562 697 1
562 710 1
562 711 1
562 719 1
562 735 1
562 742 1
562 758 1
562 779 1
562 783 1
563 21 1
563 28 1
563 30 1
563 70 1
563 72 1
563 90 1
563 116 1
563 124 1
563 151 1
563 161 1
563 164 1
563 169 1
563 186 1
563 190 1
563 210 1
563 213 1
563 249 1
563 250 1
563 252 1
563 258 1
563 262 1
563 273 1
563 296 1
563 301 1
563 318 1
563 324 1
563 336 1
563 355 1
563 402 1
563 413 1
563 427 1
563 438 1
563 467 1
563 489 1
563 506 1
563 525 1
563 527 1
563 548 1
563 556 1
563 592 1
563 612 1
563 616 1
563 662 1
563 742 1
563 746 1
563 748 1
563 753 1
563 775 1
563 783 1
563 790 1
564 18 1
564 19 1
564 33 1
564 40 1
564 51 1
564 54 1
564 58 1
564 63 1
564 94 1
564 115 1
564 122 1
564 142 1
564 144 1
564 145 1
564 152 1
564 172 1
564 179 1
564 182 1
564 185 1
564 187 1
564 219 1
564 257 1
564 282 1
564 324 1
564 365 1
564 371 1
564 403 1
564 404 1
564 423 1
564 436 1
564 456 1
564 462 1
564 463 1
564 474 1
564 484 1
564 489 1
564 513 1
564 525 1
564 542 1
564 569 1
564 580 1
564 596 1
564 602 1
564 628 1
564 629 1
564 635 1
564 667 1
564 683 1
564 690 1
564 769 1
564 778 1
564 780 1
564 785 1
565 65 1
565 66 1
565 69 1
565 79 1
565 101 1
565 111 1
565 112 1
565 124 1
565 134 1
565 135 1
565 137 1
565 138 1
565 174 1
565 175 1
565 187 1
565 212 1
565 238 1
565 285 1
565 327 1
565 330 1
565 391 1
565 415 1
565 437 1
565 482 1
565 487 1
565 522 1
565 552 1
565 574 1
565 597 1
565 609 1
565 638 1
565 662 1
565 667 1
565 677 1
565 684 1
565 701 1
565 723 1
565 754 1
565 777 1
565 780 1
566 26 1
566 49 1
566 53 1
566 87 1
566 88 1
566 132 1
566 134 1
566 136 1
566 172 1
566 202 1
566 224 1
566 244 1
566 303 1
566 305 1
566 313 1
566 315 1
566 385 1
566 396 1
566 435 1
566 438 1
566 509 1
566 550 1
566 591 1
566 618 1
566 630 1
566 636 1
566 677 1
566 696 1
566 702 1
566 706 1
566 714 1
566 749 1
566 800 1
567 30 1
567 35 1
567 55 1
567 82 1
567 90 1
567 102 1
567 109 1
567 112 1
567 118 1
567 121 1
567 125 1
567 132 1
567 162 1
567 199 1
567 227 1
567 232 1
567 234 1
567 254 1
567 266 1
567 289 1
567 302 1
567 332 1
567 335 1
567 350 1
567 369 1
567 373 1
567 381 1
567 395 1
567 462 1
567 512 1
567 519 1
567 549 1
567 561 1
567 618 1
567 631 1
567 661 1
567 669 1
567 702 1
567 741 1
567 751 1
567 754 1
567 760 1
567 780 1
568 17 1
568 28 1
568 59 1
568 71 1
568 76 1
568 88 1
568 114 1
568 118 1
568 120 1
568 169 1
568 178 1
568 194 1
568 197 1
568 198 1
568 223 1
568 247 1
568 249 1
568 257 1
568 272 1
568 276 1
568 302 1
568 307 1
568 324 1
568 327 1
568 332 1
568 377 1
568 382 1
568 388 1
568 418 1
568 458 1
568 468 1
568 470 1
568 477 1
568 517 1
568 560 1
568 577 1
568 611 1
568 619 1
568 638 1
568 642 1
568 653 1
568 674 1
568 712 1
568 729 1
568 771 1
569 10 1
569 52 1
569 56 1
569 57 1
569 82 1
569 91 1
569 107 1
569 119 1
569 125 1
569 155 1
569 170 1
569 174 1
569 175 1
569 246 1
569 284 1
569 286 1
569 288 1
569 315 1
569 328 1
569 348 1
569 362 1
569 371 1
569 374 1
569 392 1
569 396 1
569 416 1
569 431 1
569 453 1
569 457 1
569 486 1
569 501 1
569 533 1
569 542 1
569 549 1
569 564 1
569 589 1
569 605 1
569 606 1
569 607 1
569 609 1
569 636 1
569 701 1
569 716 1
569 722 1
569 736 1
569 775 1
569 784 1
570 15 1
570 30 1
570 34 1
570 52 1
570 74 1
570 116 1
570 130 1
570 135 1
570 136 1
570 140 1
570 150 1
570 175 1
570 237 1
570 268 1
570 272 1
570 277 1
570 289 1
570 309 1
570 312 1
570 334 1
570 345 1
570 361 1
570 365 1
570 379 1
570 399 1
570 416 1
570 424 1
570 428 1
570 441 1
570 476 1
570 489 1
570 509 1
570 510 1
570 548 1
570 552 1
570 560 1
570 585 1
570 618 1
570 634 1
570 646 1
570 679 1
570 697 1
570 730 1
570 735 1
570 737 1
570 742 1
570 784 1
570 796 1
571 9 1
571 58 1
571 63 1
571 101 1
571 104 1
571 129 1
571 149 1
571 154 1
571 158 1
571 188 1
571 189 1
571 245 1
571 250 1
571 258 1
571 267 1
571 277 1
571 282 1
571 307 1
571 313 1
571 322 1
571 342 1
571 348 1
571 384 1
571 396 1
571 457 1
571 467 1
571 503 1
571 512 1
571 576 1
571 580 1
571 627 1
571 647 1
571 679 1
571 683 1
571 696 1
571 725 1
571 794 1
571 795 1
571 798 1
572 10 1
572 27 1
572 32 1
572 38 1
572 90 1
572 94 1
572 99 1
572 126 1
572 139 1
572 140 1
572 192 1
572 202 1
572 210 1
572 228 1
572 232 1
572 236 1
572 239 1
572 261 1
572 270 1
572 271 1
572 287 1
572 298 1
572 309 1
572 343 1
572 365 1
572 386 1
572 395 1
572 423 1
572 424 1
572 438 1
572 440 1
572 478 1
572 487 1
572 494 1
572 501 1
572 515 1
572 523 1
572 525 1
572 537 1
572 550 1
572 558 1
572 562 1
572 605 1
572 616 1
572 617 1
572 628 1
572 633 1
572 642 1
572 653 1
572 668 1
572 697 1
572 702 1
572 709 1
572 715 1
572 752 1
572 781 1
573 7 1
573 10 1
573 15 1
573 30 1
573 33 1
573 66 1
573 76 1
573 79 1
573 100 1
573 116 1
573 148 1
573 154 1
573 175 1
573 180 1
573 206 1
573 256 1
573 300 1
573 312 1
573 317 1
573 320 1
573 382 1
573 403 1
573 429 1
573 435 1
573 456 1
573 457 1
573 474 1
573 546 1
573 560 1
573 620 1
573 664 1
573 672 1
573 717 1
573 718 1
573 752 1
573 759 1
573 766 1
573 776 1
573 784 1
574 15 1
574 24 1
574 70 1
574 82 1
574 118 1
574 123 1
574 128 1
574 143 1
574 196 1
574 210 1
574 244 1
574 269 1
574 274 1
574 288 1
574 299 1
574 303 1
574 314 1
574 319 1
574 320 1
574 338 1
574 348 1
574 365 1
574 372 1
574 375 1
574 410 1
574 415 1
574 440 1
574 441 1
574 442 1
574 462 1
574 490 1
574 526 1
574 558 1
574 560 1
574 565 1
574 575 1
574 586 1
574 613 1
574 624 1
574 629 1
574 667 1
574 688 1
574 689 1
574 695 1
574 712 1
574 716 1
574 740 1
574 754 1
574 763 1
574 764 1
575 5 1
575 23 1
575 33 1
575 40 1
575 80 1
575 82 1
575 88 1
575 135 1
575 159 1
575 178 1
575 181 1
575 219 1
575 227 1
575 258 1
575 264 1
575 292 1
575 298 1
575 323 1
575 363 1
575 374 1
575 378 1
575 410 1
575 416 1
575 437 1
575 442 1
575 455 1
575 459 1
575 463 1
575 467 1
575 488 1
575 490 1
575 552 1
575 574 1
575 579 1
575 586 1
575 587 1
575 610 1
575 617 1
575 626 1
575 638 1
575 642 1
575 650 1
575 655 1
575 661 1
575 696 1
575 709 1
575 725 1
575 727 1
575 742 1
575 778 1
575 788 1
575 794 1
576 58 1
576 59 1
576 95 1
576 99 1
576 114 1
576 136 1
576 142 1
576 160 1
576 166 1
576 184 1
576 193 1
576 225 1
576 236 1
576 277 1
576 312 1
576 330 1
576 341 1
576 342 1
576 365 1
576 366 1
576 368 1
576 383 1
576 385 1
576 386 1
576 414 1
576 434 1
576 458 1
576 468 1
576 473 1
576 477 1
576 501 1
576 532 1
576 544 1
576 571 1
576 586 1
576 612 1
576 657 1
576 693 1
576 726 1
576 751 1
576 764 1
576 778 1
576 784 1
577 17 1
577 49 1
577 80 1
577 101 1
577 115 1
577 117 1
577 143 1
577 150 1
577 157 1
577 164 1
577 165 1
577 168 1
577 184 1
577 202 1
577 216 1
577 265 1
577 286 1
577 298 1
577 321 1
577 322 1
577 327 1
577 331 1
577 334 1
577 369 1
577 385 1
577 392 1
577 412 1
577 420 1
577 426 1
577 444 1
577 450 1
577 452 1
577 487 1
577 493 1
577 508 1
577 526 1
577 556 1
577 559 1
577 568 1
577 595 1
577 614 1
577 647 1
577 654 1
577 674 1
577 690 1
577 717 1
577 735 1
577 749 1
577 758 1
577 781 1
577 782 1
577 792 1
578 26 1
578 43 1
578 55 1
578 60 1
578 61 1
578 71 1
578 85 1
578 101 1
578 103 1
578 109 1
578 130 1
578 153 1
578 166 1
578 216 1
578 220 1
578 242 1
578 247 1
578 262 1
578 265 1
578 267 1
578 292 1
578 293 1
578 295 1
578 314 1
578 383 1
578 399 1
578 447 1
578 458 1
578 467 1
578 472 1
578 485 1
578 491 1
578 500 1
578 531 1
578 535 1
578 558 1
578 582 1
578 586 1
578 587 1
578 594 1
578 595 1
578 606 1
578 615 1
578 616 1
578 625 1
578 646 1
578 648 1
578 652 1
578 680 1
578 687 1
578 700 1
578 705 1
578 710 1
578 728 1
578 729 1
578 743 1
578 745 1
578 755 1
578 772 1
578 783 1
578 784 1
579 20 1
579 23 1
579 52 1
579 55 1
579 65 1
579 80 1
579 83 1
579 101 1
579 112 1
579 125 1
579 158 1
579 159 1
579 165 1
579 178 1
579 180 1
579 188 1
579 191 1
579 214 1
579 234 1
579 252 1
579 259 1
579 292 1
579 315 1
579 316 1
579 333 1
579 340 1
579 343 1
579 397 1
579 399 1
579 405 1
579 408 1
579 430 1
579 431 1
579 442 1
579 446 1
579 449 1
579 458 1
579 463 1
579 490 1
579 499 1
579 501 1
579 515 1
579 519 1
579 521 1
579 575 1
579 584 1
579 613 1
579 654 1
579 709 1
579 728 1
579 751 1
579 766 1
579 791 1
579 797 1
580 11 1
580 30 1
580 44 1
580 47 1
580 95 1
580 96 1
580 100 1
580 107 1
580 117 1
580 120 1
580 125 1
580 160 1
580 167 1
580 236 1
580 256 1
580 265 1
580 288 1
580 298 1
580 316 1
580 372 1
580 373 1
580 376 1
580 384 1
580 419 1
580 424 1
580 455 1
580 504 1
580 511 1
580 519 1
580 522 1
580 524 1
580 551 1
580 564 1
580 571 1
580 590 1
580 594 1
580 595 1
580 597 1
580 602 1
580 611 1
580 642 1
580 704 1
580 714 1
580 738 1
580 784 1
580 799 1
581 10 1
581 26 1
581 35 1
581 36 1
581 52 1
581 73 1
581 155 1
581 181 1
581 206 1
581 215 1
581 229 1
581 293 1
581 317 1
581 322 1
581 331 1
581 357 1
581 362 1
581 378 1
581 402 1
581 444 1
581 446 1
581 450 1
581 453 1
581 456 1
581 466 1
581 500 1
581 504 1
581 516 1
581 521 1
581 540 1
581 551 1
581 595 1
581 597 1
581 603 1
581 609 1
581 644 1
581 646 1
581 650 1
581 653 1
581 720 1
581 726 1
581 729 1
581 732 1
581 764 1
581 766 1
582 3 1
582 24 1
582 50 1
582 54 1
582 71 1
582 86 1
582 107 1
582 108 1
582 111 1
582 112 1
582 129 1
582 144 1
582 149 1
582 151 1
582 157 1
582 166 1
582 173 1
582 185 1
582 249 1
582 252 1
582 256 1
582 277 1
582 309 1
582 332 1
582 342 1
582 348 1
582 363 1
582 370 1
582 373 1
582 383 1
582 454 1
582 475 1
582 478 1
582 515 1
582 536 1
582 541 1
582 578 1
582 634 1
582 635 1
582 642 1
582 658 1
582 673 1
582 698 1
582 700 1
582 740 1
582 777 1
582 791 1
583 5 1
583 21 1
583 41 1
583 64 1
583 86 1
583 116 1
583 128 1
583 132 1
583 156 1
583 197 1
583 200 1
583 204 1
583 218 1
583 224 1
583 244 1
583 269 1
583 277 1
583 298 1
583 343 1
583 348 1
583 388 1
583 389 1
583 407 1
583 415 1
583 444 1
583 478 1
583 498 1
583 507 1
583 523 1
583 528 1
583 555 1
583 557 1
583 560 1
583 597 1
583 598 1
583 621 1
583 651 1
583 656 1
583 679 1
583 684 1
583 704 1
583 712 1
583 720 1
583 724 1
583 728 1
583 746 1
583 760 1
583 773 1
583 789 1
584 2 1
584 15 1
584 33 1
584 69 1
584 71 1
584 127 1
584 171 1
584 183 1
584 184 1
584 198 1
584 204 1
584 229 1
584 258 1
584 260 1
584 267 1
584 281 1
584 297 1
584 303 1
584 350 1
584 357 1
584 384 1
584 400 1
584 413 1
584 444 1
584 453 1
584 456 1
584 497 1
584 517 1
584 525 1
584 553 1
584 559 1
584 579 1
584 620 1
584 638 1
584 664 1
584 731 1
584 732 1
584 733 1
584 741 1
584 761 1
584 798 1
585 31 1
585 61 1
585 75 1
585 78 1
585 87 1
585 110 1
585 132 1
585 138 1
585 159 1
585 169 1
585 175 1
585 179 1
585 181 1
585 213 1
585 214 1
585 216 1
585 222 1
585 231 1
585 258 1
585 259 1
585 269 1
585 281 1
585 288 1
585 294 1
585 301 1
585 328 1
585 334 1
585 340 1
585 352 1
585 358 1
585 367 1
585 369 1
585 370 1
585 371 1
585 375 1
585 415 1
585 422 1
585 427 1
585 437 1
585 456 1
585 497 1
585 536 1
585 560 1
585 570 1
585 596 1
585 608 1
585 618 1
585 620 1
585 651 1
585 689 1
585 693 1
585 779 1
585 784 1
586 13 1
586 30 1
586 38 1
586 40 1
586 49 1
586 56 1
586 72 1
586 101 1
586 114 1
586 116 1
586 123 1
586 148 1
586 154 1
586 173 1
586 181 1
586 200 1
586 205 1
586 208 1
586 220 1
586 248 1
586 253 1
586 268 1
586 284 1
586 285 1
586 307 1
586 315 1
586 318 1
586 328 1
586 361 1
586 367 1
586 379 1
586 386 1
586 390 1
586 394 1
586 422 1
586 432 1
586 464 1
586 467 1
586 478 1
586 526 1
586 574 1
586 575 1
586 576 1
586 578 1
586 599 1
586 627 1
586 631 1
586 685 1
586 691 1
586 696 1
586 710 1
586 757 1
586 760 1
586 763 1
586 780 1
586 789 1
586 794 1
586 800 1
587 11 1
587 50 1
587 67 1
587 93 1
587 110 1
587 145 1
587 156 1
587 190 1
587 220 1
587 227 1
587 260 1
587 286 1
587 310 1
587 313 1
587 324 1
587 413 1
587 441 1
587 448 1
587 453 1
587 462 1
587 491 1
587 509 1
587 512 1
587 543 1
587 558 1
587 575 1
587 578 1
587 649 1
587 656 1
587 657 1
587 670 1
587 692 1
587 732 1
587 761 1
587 769 1
587 773 1
587 779 1
587 781 1
587 785 1
588 3 1
588 12 1
588 53 1
588 66 1
588 96 1
588 99 1
588 110 1
588 125 1
588 142 1
588 146 1
588 162 1
588 180 1
588 189 1
588 205 1
588 214 1
588 218 1
588 220 1
588 237 1
588 258 1
588 269 1
588 293 1
588 312 1
588 341 1
588 397 1
588 409 1
588 425 1
588 431 1
588 441 1
588 450 1
588 463 1
588 501 1
588 504 1
588 523 1
588 525 1
588 531 1
588 540 1
588 590 1
588 592 1
588 646 1
588 656 1
588 700 1
588 702 1
588 703 1
588 720 1
588 723 1
588 757 1
588 777 1
589 12 1
589 32 1
589 59 1
589 100 1
589 128 1
589 138 1
589 143 1
589 144 1
589 175 1
589 180 1
589 181 1
589 213 1
589 214 1
589 314 1
589 321 1
589 335 1
589 395 1
589 399 1
589 404 1
589 416 1
589 438 1
589 457 1
589 513 1
589 537 1
589 541 1
589 553 1
589 569 1
589 591 1
589 599 1
589 601 1
589 622 1
589 626 1
589 629 1
589 632 1
589 636 1
589 667 1
589 735 1
589 741 1
589 751 1
589 762 1
590 11 1
590 33 1
590 48 1
590 52 1
590 58 1
590 60 1
590 70 1
590 71 1
590 82 1
590 91 1
590 102 1
590 103 1
590 104 1
590 113 1
590 119 1
590 126 1
590 196 1
590 200 1
590 261 1
590 268 1
590 287 1
590 316 1
590 328 1
590 351 1
590 403 1
590 412 1
590 439 1
590 442 1
590 445 1
590 448 1
590 449 1
590 466 1
590 491 1
590 517 1
590 521 1
590 526 1
590 539 1
590 556 1
590 558 1
590 580 1
590 588 1
590 597 1
590 627 1
590 630 1
590 643 1
590 647 1
590 671 1
590 695 1
590 712 1
590 727 1
590 746 1
590 772 1
590 780 1
590 797 1
591 3 1
591 43 1
591 58 1
591 63 1
591 97 1
591 109 1
591 159 1
591 208 1
591 227 1
591 261 1
591 296 1
591 320 1
591 338 1
591 344 1
591 345 1
591 361 1
591 372 1
591 386 1
591 393 1
591 404 1
591 427 1
591 451 1
591 466 1
591 474 1
591 478 1
591 482 1
591 487 1
591 489 1
591 495 1
591 507 1
591 514 1
591 522 1
591 531 1
591 566 1
591 589 1
591 603 1
591 609 1
591 614 1
591 629 1
591 652 1
591 662 1
591 667 1
591 708 1
591 793 1
591 798 1
592 13 1
592 18 1
592 50 1
592 56 1
592 65 1
592 71 1
592 105 1
592 141 1
592 161 1
592 163 1
592 166 1
592 194 1
592 208 1
592 220 1
592 229 1
592 235 1
592 246 1
592 261 1
592 273 1
592 300 1
592 304 1
592 334 1
592 341 1
592 360 1
592 382 1
592 406 1
592 413 1
592 414 1
592 430 1
592 441 1
592 461 1
592 465 1
592 482 1
592 506 1
592 553 1
592 556 1
592 559 1
592 563 1
592 588 1
592 630 1
592 645 1
592 651 1
592 658 1
592 664 1
592 671 1
592 691 1
592 700 1
592 729 1
592 733 1
592 768 1
592 781 1
592 785 1
592 793 1
593 3 1
593 16 1
593 21 1
593 30 1
593 31 1
593 36 1
593 39 1
593 40 1
593 84 1
593 91 1
593 100 1
593 125 1
593 127 1
593 170 1
593 174 1
593 176 1
593 212 1
593 241 1
593 267 1
593 300 1
593 308 1
593 322 1
593 344 1
593 351 1
593 411 1
593 420 1
593 433 1
593 442 1
593 474 1
593 489 1
593 507 1
593 508 1
593 510 1
593 513 1
593 521 1
593 533 1
593 547 1
593 626 1
593 629 1
593 635 1
593 639 1
593 647 1
593 662 1
593 692 1
593 721 1
593 724 1
593 748 1
593 749 1
593 759 1
593 761 1
593 786 1
594 26 1
594 30 1
594 39 1
594 45 1
594 50 1
594 101 1
594 112 1
594 143 1
594 195 1
594 196 1
594 207 1
594 208 1
594 211 1
594 214 1
594 215 1
594 227 1
594 237 1
594 242 1
594 255 1
594 256 1
594 261 1
594 323 1
594 352 1
594 354 1
594 368 1
594 369 1
594 389 1
594 412 1
594 420 1
594 422 1
594 431 1
594 432 1
594 461 1
594 475 1
594 484 1
594 487 1
594 524 1
594 527 1
594 555 1
594 578 1
594 580 1
594 606 1
594 632 1
594 634 1
594 653 1
594 664 1
594 666 1
594 678 1
594 686 1
594 730 1
594 743 1
594 757 1
594 773 1
594 799 1
595 31 1
595 46 1
595 93 1
595 102 1
595 148 1
595 152 1
595 202 1
595 220 1
595 227 1
595 235 1
595 283 1
595 288 1
595 313 1
595 317 1
595 325 1
595 341 1
595 350 1
595 356 1
595 404 1
595 420 1
595 440 1
595 445 1
595 450 1
595 503 1
595 524 1
595 537 1
595 541 1
595 556 1
595 577 1
595 578 1
595 580 1
595 581 1
595 610 1
595 619 1
595 647 1
595 684 1
595 700 1
595 710 1
595 718 1
595 726 1
595 731 1
595 757 1
595 762 1
595 766 1
596 1 1
596 14 1
596 19 1
596 46 1
596 77 1
596 100 1
596 104 1
596 109 1
596 131 1
596 132 1
596 145 1
596 149 1
596 166 1
596 181 1
596 188 1
596 197 1
596 218 1
596 228 1
596 269 1
596 279 1
596 297 1
596 298 1
596 303 1
596 304 1
596 310 1
596 312 1
596 323 1
596 338 1
596 339 1
596 348 1
596 371 1
596 403 1
596 411 1
596 436 1
596 437 1
596 440 1
596 451 1
596 466 1
596 478 1
596 487 1
596 493 1
596 511 1
596 555 1
596 564 1
596 585 1
596 621 1
596 631 1
596 639 1
596 659 1
596 665 1
596 685 1
596 708 1
596 714 1
596 748 1
596 762 1
596 763 1
596 784 1
596 795 1
597 13 1
597 30 1
597 41 1
597 57 1
597 74 1
597 100 1
597 114 1
597 126 1
597 161 1
597 171 1
597 184 1
597 213 1
597 227 1
597 235 1
597 240 1
597 261 1
597 266 1
597 275 1
597 277 1
597 286 1
597 301 1
597 324 1
597 337 1
597 362 1
597 399 1
597 438 1
597 446 1
597 459 1
597 463 1
597 469 1
597 559 1
597 565 1
597 580 1
597 581 1
597 583 1
597 590 1
597 602 1
597 604 1
597 605 1
597 611 1
597 631 1
597 658 1
597 670 1
597 676 1
597 686 1
597 688 1
597 725 1
597 735 1
597 738 1
597 739 1
597 742 1
597 758 1
597 791 1
597 800 1
598 8 1
598 9 1
598 24 1
598 39 1
598 56 1
598 64 1
598 102 1
598 147 1
598 183 1
598 208 1
598 212 1
598 217 1
598 262 1
598 266 1
598 284 1
598 311 1
598 344 1
598 395 1
598 396 1
598 412 1
598 417 1
598 418 1
598 428 1
598 434 1
598 435 1
598 439 1
598 445 1
598 457 1
598 483 1
598 484 1
598 510 1
598 517 1
598 524 1
598 537 1
598 583 1
598 616 1
598 625 1
598 634 1
598 641 1
598 657 1
598 681 1
598 711 1
598 724 1
598 744 1
598 755 1
598 763 1
598 782 1
598 786 1
598 798 1
599 5 1
599 6 1
599 70 1
599 72 1
599 85 1
599 91 1
599 102 1
599 108 1
599 137 1
599 160 1
599 176 1
599 185 1
599 198 1
599 203 1
599 212 1
599 227 1
599 230 1
599 233 1
599 290 1
599 293 1
599 303 1
599 310 1
599 317 1
599 328 1
599 334 1
599 348 1
599 411 1
599 420 1
599 455 1
599 463 1
599 471 1
599 517 1
599 518 1
599 528 1
599 562 1
599 586 1
599 589 1
599 615 1
599 616 1
599 633 1
599 636 1
599 660 1
599 715 1
599 718 1
599 732 1
599 742 1
599 748 1
599 749 1
599 755 1
599 785 1
599 790 1
600 2 1
600 6 1
600 14 1
600 20 1
600 33 1
600 34 1
600 68 1
600 92 1
600 110 1
600 114 1
600 149 1
600 166 1
600 170 1
600 187 1
600 205 1
600 231 1
600 250 1
600 268 1
600 269 1
600 307 1
600 313 1
600 315 1
600 347 1
600 373 1
600 393 1
600 408 1
600 426 1
600 439 1
600 455 1
600 484 1
600 506 1
600 511 1
600 612 1
600 632 1
600 658 1
600 680 1
600 682 1
600 703 1
600 711 1
600 718 1
600 740 1
600 754 1
600 794 1
600 795 1
600 796 1
601 4 1
601 9 1
601 30 1
601 32 1
601 41 1
601 43 1
601 56 1
601 75 1
601 82 1
601 87 1
601 116 1
601 133 1
601 140 1
601 149 1
601 153 1
601 190 1
601 200 1
601 209 1
601 218 1
601 224 1
601 232 1
601 233 1
601 279 1
601 296 1
601 353 1
601 359 1
601 360 1
601 405 1
601 411 1
601 438 1
601 441 1
601 456 1
601 457 1
601 463 1
601 464 1
601 466 1
601 472 1
601 477 1
601 492 1
601 497 1
601 501 1
601 516 1
601 517 1
601 520 1
601 537 1
601 545 1
601 589 1
601 619 1
601 638 1
601 653 1
601 656 1
601 661 1
601 664 1
601 683 1
601 695 1
601 717 1
601 739 1
601 773 1
601 781 1
602 18 1
602 34 1
602 41 1
602 52 1
602 71 1
602 76 1
602 91 1
602 99 1
602 101 1
602 154 1
602 211 1
602 229 1
602 230 1
602 231 1
602 274 1
602 293 1
602 319 1
602 365 1
602 374 1
602 391 1
602 395 1
602 442 1
602 459 1
602 494 1
602 496 1
602 511 1
602 516 1
602 519 1
602 529 1
602 564 1
602 580 1
602 597 1
602 614 1
602 658 1
602 680 1
602 696 1
602 707 1
602 708 1
602 749 1
602 754 1
602 764 1
602 780 1
602 784 1
602 791 1
602 798 1
603 4 1
603 21 1
603 27 1
603 43 1
603 44 1
603 72 1
603 83 1
603 93 1
603 96 1
603 105 1
603 139 1
603 170 1
603 183 1
603 185 1
603 203 1
603 222 1
603 234 1
603 238 1
603 246 1
603 255 1
603 287 1
603 304 1
603 305 1
603 312 1
603 323 1
603 359 1
603 374 1
603 375 1
603 389 1
603 399 1
603 405 1
603 406 1
603 436 1
603 456 1
603 494 1
603 505 1
603 531 1
603 581 1
603 591 1
603 627 1
603 631 1
603 649 1
603 655 1
603 660 1
603 676 1
603 677 1
603 713 1
603 718 1
603 749 1
604 34 1
604 55 1
604 70 1
604 98 1
604 128 1
604 158 1
604 160 1
604 178 1
604 180 1
604 185 1
604 193 1
604 194 1
604 205 1
604 212 1
604 234 1
604 264 1
604 266 1
604 331 1
604 333 1
604 342 1
604 356 1
604 359 1
604 360 1
604 375 1
604 376 1
604 382 1
604 390 1
604 394 1
604 407 1
604 408 1
604 411 1
604 417 1
604 433 1
604 436 1
604 448 1
604 458 1
604 463 1
604 478 1
604 479 1
604 489 1
604 498 1
604 531 1
604 542 1
604 597 1
604 647 1
604 653 1
604 698 1
604 733 1
604 741 1
604 760 1
604 762 1
604 767 1
604 774 1
604 797 1
605 11 1
605 26 1
605 37 1
605 44 1
605 49 1
605 77 1
605 78 1
605 79 1
605 90 1
605 117 1
605 146 1
605 186 1
605 194 1
605 216 1
605 228 1
605 254 1
605 255 1
605 257 1
605 292 1
605 338 1
605 348 1
605 357 1
605 375 1
605 383 1
605 394 1
605 399 1
605 404 1
605 415 1
605 420 1
605 453 1
605 457 1
605 462 1
605 479 1
605 507 1
605 513 1
605 536 1
605 569 1
605 572 1
605 597 1
605 633 1
605 645 1
605 699 1
605 700 1
605 704 1
605 750 1
605 758 1
605 778 1
605 794 1
606 27 1
606 86 1
606 108 1
606 142 1
606 164 1
606 179 1
606 198 1
606 260 1
606 295 1
606 301 1
606 309 1
606 319 1
606 329 1
606 340 1
606 359 1
606 368 1
606 382 1
606 423 1
606 426 1
606 472 1
606 516 1
606 523 1
606 550 1
606 553 1
606 555 1
606 569 1
606 578 1
606 594 1
606 609 1
606 642 1
606 645 1
606 654 1
606 655 1
606 732 1
606 738 1
606 778 1
606 784 1
607 7 1
607 8 1
607 22 1
607 24 1
607 37 1
607 41 1
607 54 1
607 67 1
607 70 1
607 85 1
607 131 1
607 139 1
607 143 1
607 150 1
607 154 1
607 163 1
607 171 1
607 174 1
607 188 1
607 194 1
607 204 1
607 205 1
607 206 1
607 223 1
607 262 1
607 263 1
607 290 1
607 297 1
607 308 1
607 314 1
607 316 1
607 320 1
607 333 1
607 342 1
607 346 1
607 358 1
607 375 1
607 379 1
607 421 1
607 422 1
607 426 1
607 465 1
607 478 1
607 514 1
607 523 1
607 539 1
607 569 1
607 609 1
607 610 1
607 621 1
607 625 1
607 650 1
607 663 1
607 679 1
607 681 1
607 734 1
607 743 1
607 749 1
608 15 1
608 18 1
608 28 1
608 32 1
608 68 1
608 80 1
608 88 1
608 115 1
608 134 1
608 239 1
608 247 1
608 252 1
608 270 1
608 312 1
608 324 1
608 329 1
608 358 1
608 359 1
608 367 1
608 384 1
608 395 1
608 404 1
608 431 1
608 445 1
608 585 1
608 645 1
608 651 1
608 660 1
608 679 1
608 694 1
608 706 1
608 715 1
608 733 1
608 752 1
608 766 1
608 767 1
608 792 1
609 16 1
609 22 1
609 31 1
609 56 1
609 107 1
609 116 1
609 138 1
609 152 1
609 164 1
609 172 1
609 195 1
609 210 1
609 214 1
609 224 1
609 229 1
609 239 1
609 265 1
609 281 1
609 331 1
609 332 1
609 333 1
609 354 1
609 467 1
609 492 1
609 493 1
609 498 1
609 520 1
609 536 1
609 554 1
609 557 1
609 565 1
609 569 1
609 581 1
609 591 1
609 606 1
609 607 1
609 623 1
609 624 1
609 630 1
609 672 1
609 679 1
609 695 1
609 703 1
609 717 1
609 737 1
609 744 1
609 775 1
609 782 1
609 789 1
610 1 1
610 7 1
610 23 1
610 29 1
610 41 1
610 51 1
610 66 1
610 92 1
610 93 1
610 104 1
610 119 1
610 206 1
610 237 1
610 278 1
610 304 1
610 307 1
610 309 1
610 310 1
610 312 1
610 387 1
610 393 1
610 397 1
610 405 1
610 406 1
610 418 1
610 420 1
610 444 1
610 457 1
610 465 1
610 473 1
610 480 1
610 512 1
610 575 1
610 595 1
610 607 1
610 644 1
610 694 1
610 735 1
610 795 1
611 30 1
611 49 1
611 67 1
611 68 1
611 82 1
611 85 1
611 101 1
611 103 1
611 155 1
611 163 1
611 192 1
611 209 1
611 210 1
611 212 1
611 238 1
611 245 1
611 259 1
611 290 1
611 314 1
611 324 1
611 353 1
611 362 1
611 364 1
611 378 1
611 386 1
611 430 1
611 438 1
611 454 1
611 467 1
611 540 1
611 550 1
611 561 1
611 568 1
611 580 1
611 597 1
611 613 1
611 617 1
611 628 1
611 643 1
611 651 1
611 657 1
611 669 1
611 678 1
611 696 1
611 698 1
611 701 1
611 702 1
611 716 1
611 725 1
611 745 1
611 763 1
611 778 1
611 786 1
612 28 1
612 64 1
612 76 1
612 85 1
612 105 1
612 130 1
612 242 1
612 244 1
612 251 1
612 259 1
612 280 1
612 295 1
612 297 1
612 302 1
612 312 1
612 322 1
612 349 1
612 367 1
612 375 1
612 429 1
612 454 1
612 455 1
612 461 1
612 471 1
612 499 1
612 513 1
612 539 1
612 563 1
612 576 1
612 600 1
612 633 1
612 638 1
612 649 1
612 730 1
612 743 1
612 749 1
612 753 1
612 762 1
612 763 1
612 775 1
612 782 1
612 799 1
613 5 1
613 33 1
613 34 1
613 36 1
613 40 1
613 64 1
613 83 1
613 87 1
613 95 1
613 177 1
613 181 1
613 192 1
613 197 1
613 200 1
613 207 1
613 238 1
613 258 1
613 313 1
613 314 1
613 333 1
613 337 1
613 340 1
613 341 1
613 345 1
613 359 1
613 360 1
613 366 1
613 387 1
613 462 1
613 465 1
613 510 1
613 511 1
613 525 1
613 546 1
613 574 1
613 579 1
613 611 1
613 619 1
613 683 1
613 697 1
613 710 1
613 711 1
613 718 1
613 726 1
613 749 1
613 783 1
614 4 1
614 16 1
614 34 1
614 44 1
614 68 1
614 98 1
614 112 1
614 119 1
614 127 1
614 128 1
614 132 1
614 160 1
614 168 1
614 172 1
614 181 1
614 200 1
614 213 1
614 226 1
614 267 1
614 272 1
614 275 1
614 286 1
614 305 1
614 306 1
614 316 1
614 342 1
614 373 1
614 392 1
614 419 1
614 466 1
614 477 1
614 499 1
614 501 1
614 528 1
614 538 1
614 545 1
614 577 1
614 591 1
614 602 1
614 625 1
614 638 1
614 666 1
614 667 1
614 691 1
614 704 1
614 709 1
614 726 1
614 728 1
614 758 1
614 773 1
615 7 1
615 10 1
615 19 1
615 55 1
615 70 1
615 90 1
615 102 1
615 115 1
615 116 1
615 117 1
615 134 1
615 146 1
615 156 1
615 176 1
615 183 1
615 190 1
615 213 1
615 225 1
615 263 1
615 267 1
615 270 1
615 275 1
615 298 1
615 299 1
615 349 1
615 397 1
615 405 1
615 430 1
615 444 1
615 449 1
615 480 1
615 488 1
615 489 1
615 544 1
615 551 1
615 555 1
615 578 1
615 599 1
615 616 1
615 626 1
615 630 1
615 631 1
615 633 1
615 643 1
615 648 1
615 650 1
615 702 1
615 708 1
615 747 1
615 787 1
616 15 1
616 54 1
616 74 1
616 135 1
616 137 1
616 143 1
616 152 1
616 163 1
616 183 1
616 243 1
616 252 1
616 268 1
616 283 1
616 289 1
616 295 1
616 331 1
616 375 1
616 415 1
616 416 1
616 445 1
616 449 1
616 463 1
616 494 1
616 518 1
616 521 1
616 532 1
616 546 1
616 547 1
616 563 1
616 572 1
616 578 1
616 598 1
616 599 1
616 615 1
616 626 1
616 628 1
616 682 1
616 684 1
616 705 1
616 717 1
616 729 1
617 8 1
617 16 1
617 17 1
617 30 1
617 56 1
617 66 1
617 72 1
617 86 1
617 103 1
617 104 1
617 112 1
617 140 1
617 144 1
617 154 1
617 155 1
617 169 1
617 217 1
617 229 1
617 236 1
617 244 1
617 258 1
617 259 1
617 268 1
617 285 1
617 291 1
617 303 1
617 328 1
617 342 1
617 353 1
617 379 1
617 390 1
617 392 1
617 419 1
617 442 1
617 470 1
617 487 1
617 494 1
617 537 1
617 572 1
617 575 1
617 611 1
617 622 1
617 630 1
617 640 1
617 641 1
617 669 1
617 677 1
617 739 1
617 751 1
617 772 1
617 789 1
617 791 1
617 793 1
618 28 1
618 30 1
618 40 1
618 48 1
618 49 1
618 92 1
618 104 1
618 110 1
618 117 1
618 141 1
618 162 1
618 186 1
618 187 1
618 204 1
618 212 1
618 224 1
618 235 1
618 239 1
618 257 1
618 304 1
618 314 1
618 326 1
618 342 1
618 362 1
618 368 1
618 377 1
618 384 1
618 392 1
618 442 1
618 443 1
618 455 1
618 462 1
618 477 1
618 530 1
618 535 1
618 545 1
618 558 1
618 566 1
618 567 1
618 570 1
618 585 1
618 623 1
618 662 1
618 775 1
619 14 1
619 21 1
619 61 1
619 66 1
619 90 1
619 92 1
619 113 1
619 121 1
619 137 1
619 144 1
619 149 1
619 155 1
619 165 1
619 199 1
619 228 1
619 236 1
619 278 1
619 279 1
619 335 1
619 384 1
619 392 1
619 416 1
619 426 1
619 526 1
619 568 1
619 595 1
619 601 1
619 613 1
619 620 1
619 629 1
619 630 1
619 631 1
619 643 1
619 651 1
619 654 1
619 697 1
619 712 1
619 747 1
619 782 1
619 800 1
620 41 1
620 52 1
620 85 1
620 86 1
620 97 1
620 102 1
620 123 1
620 124 1
620 167 1
620 202 1
620 252 1
620 264 1
620 281 1
620 296 1
620 297 1
620 299 1
620 317 1
620 334 1
620 338 1
620 362 1
620 365 1
620 368 1
620 390 1
620 477 1
620 497 1
620 516 1
620 530 1
620 552 1
620 560 1
620 573 1
620 584 1
620 585 1
620 619 1
620 632 1
620 644 1
620 648 1
620 682 1
620 694 1
620 705 1
620 734 1
620 757 1
620 768 1
620 794 1
621 46 1
621 58 1
621 59 1
621 106 1
621 116 1
621 145 1
621 150 1
621 185 1
621 190 1
621 208 1
621 247 1
621 266 1
621 333 1
621 342 1
621 378 1
621 393 1
621 435 1
621 447 1
621 486 1
621 503 1
621 504 1
621 511 1
621 532 1
621 536 1
621 583 1
621 596 1
621 607 1
621 643 1
621 660 1
621 666 1
621 668 1
621 690 1
621 698 1
621 699 1
621 703 1
621 784 1
621 793 1
621 798 1
622 18 1
622 89 1
622 96 1
622 99 1
622 113 1
622 116 1
622 131 1
622 159 1
622 165 1
622 184 1
622 188 1
622 190 1
622 247 1
622 248 1
622 273 1
622 286 1
622 298 1
622 313 1
622 317 1
622 345 1
622 386 1
622 395 1
622 397 1
622 406 1
622 436 1
622 457 1
622 489 1
622 512 1
622 589 1
622 617 1
622 632 1
622 633 1
622 635 1
622 668 1
622 694 1
622 724 1
622 736 1
622 759 1
622 765 1
622 782 1
622 797 1
622 800 1
623 4 1
623 11 1
623 29 1
623 49 1
623 53 1
623 58 1
623 69 1
623 75 1
623 119 1
623 223 1
623 225 1
623 236 1
623 245 1
623 275 1
623 297 1
623 314 1
623 330 1
623 353 1
623 370 1
623 385 1
623 389 1
623 402 1
623 412 1
623 433 1
623 443 1
623 448 1
623 463 1
623 559 1
623 561 1
623 609 1
623 618 1
623 624 1
623 640 1
623 642 1
623 644 1
623 658 1
623 721 1
623 733 1
623 756 1
623 791 1
624 2 1
624 11 1
624 19 1
624 36 1
624 48 1
624 79 1
624 117 1
624 123 1
624 126 1
624 130 1
624 131 1
624 144 1
624 150 1
624 159 1
624 163 1
624 172 1
624 215 1
624 222 1
624 238 1
624 251 1
624 298 1
624 333 1
624 339 1
624 354 1
624 383 1
624 413 1
624 450 1
624 458 1
624 467 1
624 510 1
624 535 1
624 574 1
624 609 1
624 623 1
624 627 1
624 634 1
624 662 1
624 682 1
624 687 1
624 729 1
624 730 1
624 747 1
624 784 1
624 800 1
625 30 1
625 35 1
625 72 1
625 77 1
625 102 1
625 104 1
625 111 1
625 121 1
625 123 1
625 128 1
625 136 1
625 174 1
625 186 1
625 200 1
625 201 1
625 218 1
625 219 1
625 252 1
625 274 1
625 282 1
625 285 1
625 289 1
625 298 1
625 305 1
625 367 1
625 377 1
625 391 1
625 393 1
625 397 1
625 427 1
625 442 1
625 444 1
625 447 1
625 470 1
625 479 1
625 490 1
625 499 1
625 531 1
625 537 1
625 543 1
625 560 1
625 578 1
625 598 1
625 607 1
625 614 1
625 627 1
625 628 1
625 643 1
625 649 1
625 660 1
625 661 1
625 664 1
625 694 1
625 711 1
625 742 1
625 770 1
625 776 1
625 787 1
625 794 1
626 9 1
626 17 1
626 31 1
626 34 1
626 39 1
626 44 1
626 46 1
626 67 1
626 91 1
626 98 1
626 133 1
626 150 1
626 177 1
626 194 1
626 202 1
626 204 1
626 220 1
626 227 1
626 235 1
626 240 1
626 244 1
626 284 1
626 285 1
626 316 1
626 352 1
626 365 1
626 366 1
626 373 1
626 374 1
626 383 1
626 384 1
626 412 1
626 415 1
626 455 1
626 502 1
626 506 1
626 519 1
626 524 1
626 575 1
626 589 1
626 593 1
626 615 1
626 616 1
626 628 1
626 659 1
626 682 1
626 713 1
626 753 1
626 765 1
626 769 1
626 779 1
627 6 1
627 29 1
627 43 1
627 57 1
627 84 1
627 87 1
627 90 1
627 96 1
627 114 1
627 122 1
627 133 1
627 156 1
627 169 1
627 214 1
627 220 1
627 232 1
627 269 1
627 299 1
627 338 1
627 376 1
627 400 1
627 420 1
627 422 1
627 425 1
627 434 1
627 442 1
627 454 1
627 496 1
627 502 1
627 506 1
627 510 1
627 516 1
627 549 1
627 560 1
627 571 1
627 586 1
627 590 1
627 603 1
627 624 1
627 625 1
627 628 1
627 632 1
627 640 1
627 641 1
627 656 1
627 683 1
627 699 1
627 729 1
627 738 1
627 754 1
627 760 1
627 762 1
627 775 1
627 776 1
627 790 1
627 795 1
628 16 1
628 22 1
628 25 1
628 38 1
628 51 1
628 63 1
628 74 1
628 82 1
628 88 1
628 162 1
628 169 1
628 176 1
628 179 1
628 195 1
628 207 1
628 224 1
628 233 1
628 260 1
628 290 1
628 368 1
628 389 1
628 444 1
628 457 1
628 515 1
628 539 1
628 544 1
628 549 1
628 564 1
628 572 1
628 611 1
628 616 1
628 625 1
628 626 1
628 627 1
628 639 1
628 707 1
628 718 1
628 719 1
628 791 1
628 792 1
629 24 1
629 31 1
629 49 1
629 91 1
629 98 1
629 114 1
629 131 1
629 170 1
629 180 1
629 183 1
629 205 1
629 212 1
629 215 1
629 225 1
629 240 1
629 271 1
629 313 1
629 332 1
629 338 1
629 342 1
629 348 1
629 369 1
629 392 1
629 405 1
629 420 1
629 425 1
629 428 1
629 435 1
629 440 1
629 457 1
629 476 1
629 484 1
629 552 1
629 564 1
629 574 1
629 589 1
629 591 1
629 593 1
629 619 1
629 657 1
629 674 1
629 686 1
629 701 1
629 772 1
629 795 1
630 8 1
630 51 1
630 90 1
630 93 1
630 101 1
630 109 1
630 112 1
630 144 1
630 160 1
630 174 1
630 184 1
630 187 1
630 210 1
630 222 1
630 312 1
630 314 1
630 330 1
630 389 1
630 395 1
630 432 1
630 433 1
630 457 1
630 472 1
630 487 1
630 494 1
630 512 1
630 549 1
630 553 1
630 566 1
630 590 1
630 592 1
630 609 1
630 615 1
630 617 1
630 619 1
630 640 1
630 657 1
630 663 1
630 689 1
630 709 1
630 710 1
630 759 1
630 760 1
630 764 1
630 776 1
631 3 1
631 72 1
631 77 1
631 80 1
631 84 1
631 85 1
631 86 1
631 92 1
631 105 1
631 111 1
631 121 1
631 153 1
631 154 1
631 156 1
631 159 1
631 170 1
631 178 1
631 202 1
631 242 1
631 252 1
631 281 1
631 341 1
631 344 1
631 359 1
631 369 1
631 381 1
631 410 1
631 431 1
631 458 1
631 463 1
631 495 1
631 523 1
631 526 1
631 530 1
631 536 1
631 553 1
631 557 1
631 567 1
631 586 1
631 596 1
631 597 1
631 603 1
631 615 1
631 619 1
631 632 1
631 644 1
631 660 1
631 669 1
631 723 1
631 734 1
631 737 1
631 738 1
631 743 1
631 758 1
631 779 1
631 787 1
631 788 1
631 792 1
632 25 1
632 53 1
632 100 1
632 152 1
632 238 1
632 289 1
632 291 1
632 332 1
632 339 1
632 361 1
632 369 1
632 372 1
632 389 1
632 408 1
632 417 1
632 431 1
632 434 1
632 459 1
632 477 1
632 509 1
632 521 1
632 525 1
632 539 1
632 557 1
632 561 1
632 562 1
632 589 1
632 594 1
632 600 1
632 620 1
632 622 1
632 627 1
632 631 1
632 638 1
632 648 1
632 659 1
632 701 1
632 707 1
632 733 1
632 734 1
632 741 1
632 750 1
632 776 1
633 16 1
633 37 1
633 76 1
633 86 1
633 105 1
633 129 1
633 132 1
633 143 1
633 157 1
633 177 1
633 180 1
633 181 1
633 204 1
633 238 1
633 256 1
633 264 1
633 266 1
633 307 1
633 315 1
633 324 1
633 326 1
633 329 1
633 335 1
633 336 1
633 342 1
633 343 1
633 347 1
633 357 1
633 403 1
633 458 1
633 459 1
633 504 1
633 532 1
633 553 1
633 557 1
633 572 1
633 599 1
633 605 1
633 612 1
633 615 1
633 622 1
633 643 1
633 664 1
633 672 1
633 703 1
633 712 1
633 779 1
633 794 1
634 4 1
634 8 1
634 54 1
634 57 1
634 61 1
634 64 1
634 83 1
634 84 1
634 88 1
634 96 1
634 100 1
634 124 1
634 127 1
634 133 1
634 134 1
634 151 1
634 153 1
634 161 1
634 195 1
634 237 1
634 238 1
634 288 1
634 306 1
634 311 1
634 367 1
634 385 1
634 395 1
634 404 1
634 423 1
634 438 1
634 444 1
634 447 1
634 448 1
634 488 1
634 495 1
634 528 1
634 557 1
634 570 1
634 582 1
634 594 1
634 598 1
634 624 1
634 639 1
634 656 1
634 669 1
634 699 1
634 715 1
634 717 1
634 725 1
634 728 1
634 729 1
634 742 1
634 774 1
634 777 1
634 782 1
634 789 1
635 37 1
635 47 1
635 71 1
635 94 1
635 96 1
635 138 1
635 172 1
635 173 1
635 188 1
635 203 1
635 218 1
635 249 1
635 315 1
635 317 1
635 328 1
635 330 1
635 336 1
635 338 1
635 362 1
635 363 1
635 368 1
635 373 1
635 406 1
635 438 1
635 473 1
635 484 1
635 488 1
635 489 1
635 502 1
635 542 1
635 546 1
635 552 1
635 558 1
635 564 1
635 582 1
635 593 1
635 622 1
635 639 1
635 645 1
635 665 1
635 673 1
635 691 1
635 712 1
635 719 1
635 737 1
635 748 1
635 752 1
635 762 1
635 766 1
636 1 1
636 10 1
636 19 1
636 35 1
636 48 1
636 51 1
636 68 1
636 72 1
636 85 1
636 113 1
636 155 1
636 250 1
636 272 1
636 278 1
636 281 1
636 289 1
636 298 1
636 310 1
636 319 1
636 323 1
636 333 1
636 347 1
636 353 1
636 369 1
636 398 1
636 408 1
636 412 1
636 420 1
636 443 1
636 459 1
636 462 1
636 475 1
636 496 1
636 506 1
636 514 1
636 525 1
636 546 1
636 562 1
636 566 1
636 569 1
636 589 1
636 599 1
636 658 1
636 666 1
636 683 1
636 685 1
636 720 1
636 722 1
636 733 1
636 766 1
636 767 1
636 770 1
636 775 1
636 776 1
636 780 1
637 3 1
637 58 1
637 61 1
637 77 1
637 83 1
637 94 1
637 95 1
637 102 1
637 133 1
637 148 1
637 180 1
637 195 1
637 242 1
637 285 1
637 290 1
637 308 1
637 343 1
637 355 1
637 403 1
637 407 1
637 414 1
637 437 1
637 450 1
637 465 1
637 468 1
637 492 1
637 498 1
637 503 1
637 524 1
637 530 1
637 538 1
637 541 1
637 555 1
637 560 1
637 690 1
637 693 1
637 709 1
637 751 1
637 758 1
637 760 1
637 761 1
637 762 1
637 769 1
637 782 1
638 34 1
638 44 1
638 48 1
638 55 1
638 74 1
638 78 1
638 121 1
638 127 1
638 130 1
638 132 1
638 164 1
638 170 1
638 194 1
638 197 1
638 223 1
638 233 1
638 242 1
638 258 1
638 260 1
638 261 1
638 285 1
638 328 1
638 336 1
638 359 1
638 360 1
638 409 1
638 432 1
638 443 1
638 452 1
638 470 1
638 508 1
638 530 1
638 534 1
638 565 1
638 568 1
638 575 1
638 584 1
638 601 1
638 612 1
638 614 1
638 632 1
638 681 1
638 698 1
638 701 1
638 742 1
638 756 1
639 32 1
639 35 1
639 47 1
639 50 1
639 64 1
639 71 1
639 72 1
639 78 1
639 85 1
639 97 1
639 104 1
639 114 1
639 129 1
639 173 1
639 188 1
639 229 1
639 233 1
639 265 1
639 268 1
639 287 1
639 292 1
639 367 1
639 413 1
639 429 1
639 430 1
639 440 1
639 452 1
639 455 1
639 459 1
639 489 1
639 507 1
639 512 1
639 517 1
639 531 1
639 549 1
639 593 1
639 596 1
639 628 1
639 634 1
639 635 1
639 654 1
639 679 1
639 712 1
639 765 1
639 775 1
639 787 1
639 790 1
639 793 1
639 799 1
639 800 1
640 6 1
640 29 1
640 35 1
640 113 1
640 147 1
640 193 1
640 219 1
640 230 1
640 253 1
640 255 1
640 284 1
640 289 1
640 294 1
640 297 1
640 347 1
640 352 1
640 406 1
640 408 1
640 412 1
640 419 1
640 431 1
640 448 1
640 449 1
640 470 1
640 497 1
640 505 1
640 545 1
640 617 1
640 623 1
640 627 1
640 630 1
640 664 1
640 665 1
640 674 1
640 685 1
640 702 1
640 714 1
640 744 1
640 783 1
640 786 1
640 792 1
641 18 1
641 20 1
641 24 1
641 27 1
641 33 1
641 40 1
641 67 1
641 70 1
641 80 1
641 90 1
641 93 1
641 106 1
641 154 1
641 195 1
641 225 1
641 237 1
641 264 1
641 284 1
641 310 1
641 312 1
641 318 1
641 357 1
641 359 1
641 384 1
641 422 1
641 427 1
641 428 1
641 443 1
641 461 1
641 468 1
641 482 1
641 484 1
641 488 1
641 492 1
641 496 1
641 497 1
641 510 1
641 515 1
641 526 1
641 560 1
641 598 1
641 617 1
641 627 1
641 768 1
641 771 1
641 780 1
641 782 1
642 64 1
642 85 1
642 93 1
642 139 1
642 154 1
642 176 1
642 191 1
642 196 1
642 209 1
642 271 1
642 272 1
642 285 1
642 295 1
642 309 1
642 320 1
642 333 1
642 379 1
642 415 1
642 419 1
642 440 1
642 456 1
642 513 1
642 516 1
642 529 1
642 545 1
642 568 1
642 572 1
642 575 1
642 580 1
642 582 1
642 606 1
642 623 1
642 654 1
642 669 1
642 673 1
642 682 1
642 719 1
642 735 1
642 750 1
642 779 1
642 796 1
643 15 1
643 42 1
643 66 1
643 68 1
643 76 1
643 139 1
643 150 1
643 155 1
643 181 1
643 183 1
643 187 1
643 201 1
643 213 1
643 215 1
643 219 1
643 228 1
643 263 1
643 281 1
643 299 1
643 310 1
643 314 1
643 320 1
643 330 1
643 356 1
643 357 1
643 366 1
643 401 1
643 420 1
643 463 1
643 471 1
643 485 1
643 497 1
643 522 1
643 530 1
643 558 1
643 590 1
643 611 1
643 615 1
643 619 1
643 621 1
643 625 1
643 633 1
643 675 1
643 679 1
643 716 1
643 740 1
644 35 1
644 38 1
644 43 1
644 71 1
644 73 1
644 75 1
644 76 1
644 96 1
644 114 1
644 122 1
644 131 1
644 138 1
644 149 1
644 176 1
644 180 1
644 197 1
644 218 1
644 221 1
644 222 1
644 225 1
644 253 1
644 313 1
644 324 1
644 364 1
644 368 1
644 371 1
644 420 1
644 475 1
644 478 1
644 516 1
644 518 1
644 522 1
644 581 1
644 610 1
644 620 1
644 623 1
644 631 1
644 655 1
644 658 1
644 685 1
644 711 1
644 714 1
644 749 1
644 754 1
644 772 1
644 774 1
644 791 1
645 15 1
645 19 1
645 37 1
645 41 1
645 47 1
645 63 1
645 75 1
645 79 1
645 140 1
645 143 1
645 144 1
645 147 1
645 182 1
645 192 1
645 200 1
645 220 1
645 246 1
645 262 1
645 264 1
645 286 1
645 294 1
645 315 1
645 322 1
645 339 1
645 342 1
645 368 1
645 369 1
645 427 1
645 430 1
645 453 1
645 492 1
645 497 1
645 509 1
645 511 1
645 521 1
645 526 1
645 534 1
645 548 1
645 554 1
645 592 1
645 605 1
645 606 1
645 608 1
645 635 1
645 681 1
645 737 1
645 773 1
646 10 1
646 29 1
646 41 1
646 49 1
646 59 1
646 71 1
646 78 1
646 121 1
646 127 1
646 133 1
646 152 1
646 157 1
646 165 1
646 196 1
646 200 1
646 204 1
646 218 1
646 253 1
646 259 1
646 262 1
646 272 1
646 279 1
646 285 1
646 294 1
646 302 1
646 313 1
646 324 1
646 332 1
646 345 1
646 365 1
646 370 1
646 398 1
646 414 1
646 418 1
646 426 1
646 444 1
646 452 1
646 472 1
646 496 1
646 503 1
646 519 1
646 521 1
646 529 1
646 538 1
646 560 1
646 561 1
646 570 1
646 578 1
646 581 1
646 588 1
646 647 1
646 719 1
646 736 1
646 737 1
646 738 1
646 747 1
646 748 1
646 753 1
647 12 1
647 21 1
647 22 1
647 27 1
647 34 1
647 50 1
647 62 1
647 67 1
647 75 1
647 82 1
647 91 1
647 99 1
647 108 1
647 110 1
647 113 1
647 121 1
647 168 1
647 174 1
647 206 1
647 218 1
647 230 1
647 240 1
647 278 1
647 281 1
647 316 1
647 382 1
647 388 1
647 393 1
647 418 1
647 452 1
647 459 1
647 471 1
647 473 1
647 485 1
647 486 1
647 488 1
647 571 1
647 577 1
647 590 1
647 593 1
647 595 1
647 604 1
647 646 1
647 649 1
647 672 1
647 676 1
647 697 1
647 703 1
647 743 1
648 6 1
648 36 1
648 52 1
648 57 1
648 63 1
648 78 1
648 81 1
648 111 1
648 133 1
648 135 1
648 172 1
648 223 1
648 226 1
648 250 1
648 264 1
648 281 1
648 311 1
648 371 1
648 387 1
648 405 1
648 422 1
648 437 1
648 456 1
648 462 1
648 469 1
648 489 1
648 517 1
648 521 1
648 523 1
648 545 1
648 578 1
648 615 1
648 620 1
648 632 1
648 670 1
648 682 1
648 698 1
648 722 1
648 770 1
648 785 1
648 793 1
648 794 1
649 10 1
649 28 1
649 77 1
649 104 1
649 113 1
649 120 1
649 122 1
649 131 1
649 140 1
649 155 1
649 183 1
649 187 1
649 195 1
649 243 1
649 263 1
649 296 1
649 309 1
649 313 1
649 320 1
649 324 1
649 340 1
649 401 1
649 408 1
649 416 1
649 417 1
649 418 1
649 419 1
649 428 1
649 478 1
649 484 1
649 490 1
649 533 1
649 536 1
649 557 1
649 559 1
649 587 1
649 603 1
649 612 1
649 625 1
649 647 1
649 655 1
649 662 1
649 675 1
649 696 1
649 724 1
649 734 1
649 787 1
649 789 1
649 790 1
650 7 1
650 9 1
650 22 1
650 31 1
650 40 1
650 100 1
650 103 1
650 104 1
650 109 1
650 144 1
650 148 1
650 150 1
650 169 1
650 176 1
650 213 1
650 218 1
650 271 1
650 272 1
650 285 1
650 287 1
650 319 1
650 336 1
650 354 1
650 366 1
650 399 1
650 414 1
650 433 1
650 453 1
650 457 1
650 458 1
650 468 1
650 470 1
650 487 1
650 490 1
650 523 1
650 575 1
650 581 1
650 607 1
650 615 1
650 658 1
650 659 1
650 667 1
650 746 1
650 748 1
650 755 1
651 21 1
651 42 1
651 46 1
651 58 1
651 73 1
651 96 1
651 98 1
651 106 1
651 111 1
651 152 1
651 165 1
651 175 1
651 191 1
651 205 1
651 243 1
651 345 1
651 361 1
651 387 1
651 390 1
651 412 1
651 420 1
651 428 1
651 441 1
651 445 1
651 463 1
651 465 1
651 489 1
651 505 1
651 516 1
651 521 1
651 543 1
651 544 1
651 553 1
651 583 1
651 585 1
651 592 1
651 608 1
651 611 1
651 619 1
651 670 1
651 704 1
651 733 1
651 740 1
651 744 1
651 752 1
651 760 1
651 764 1
651 767 1
651 796 1
652 21 1
652 33 1
652 53 1
652 109 1
652 113 1
652 126 1
652 133 1
652 139 1
652 147 1
652 154 1
652 180 1
652 189 1
652 206 1
652 219 1
652 220 1
652 233 1
652 274 1
652 277 1
652 282 1
652 283 1
652 290 1
652 323 1
652 332 1
652 335 1
652 341 1
652 370 1
652 397 1
652 400 1
652 414 1
652 433 1
652 438 1
652 441 1
652 444 1
652 455 1
652 461 1
652 487 1
652 494 1
652 551 1
652 578 1
652 591 1
652 653 1
652 668 1
652 700 1
652 703 1
652 715 1
652 760 1
652 766 1
652 792 1
653 11 1
653 16 1
653 19 1
653 42 1
653 64 1
653 67 1
653 97 1
653 119 1
653 166 1
653 179 1
653 185 1
653 190 1
653 214 1
653 228 1
653 246 1
653 257 1
653 279 1
653 325 1
653 359 1
653 363 1
653 369 1
653 439 1
653 478 1
653 525 1
653 533 1
653 555 1
653 568 1
653 572 1
653 581 1
653 594 1
653 601 1
653 604 1
653 652 1
653 658 1
653 671 1
653 673 1
653 677 1
653 684 1
653 731 1
653 769 1
653 781 1
653 789 1
653 800 1
654 31 1
654 44 1
654 61 1
654 74 1
654 79 1
654 86 1
654 87 1
654 88 1
654 89 1
654 95 1
654 102 1
654 106 1
654 132 1
654 146 1
654 160 1
654 169 1
654 177 1
654 182 1
654 190 1
654 193 1
654 220 1
654 222 1
654 237 1
654 251 1
654 287 1
654 288 1
654 297 1
654 305 1
654 311 1
654 316 1
654 338 1
654 339 1
654 349 1
654 350 1
654 386 1
654 391 1
654 396 1
654 398 1
654 415 1
654 442 1
654 472 1
654 509 1
654 533 1
654 534 1
654 551 1
654 552 1
654 555 1
654 577 1
654 579 1
654 606 1
654 619 1
654 639 1
654 642 1
654 668 1
654 687 1
654 704 1
654 714 1
654 715 1
654 724 1
654 727 1
654 734 1
654 740 1
654 774 1
654 787 1
655 7 1
655 22 1
655 44 1
655 52 1
655 68 1
655 94 1
655 95 1
655 99 1
655 154 1
655 184 1
655 190 1
655 193 1
655 201 1
655 214 1
655 216 1
655 218 1
655 225 1
655 236 1
655 264 1
655 277 1
655 302 1
655 327 1
655 335 1
655 349 1
655 350 1
655 354 1
655 362 1
655 364 1
655 371 1
655 384 1
655 394 1
655 397 1
655 406 1
655 432 1
655 490 1
655 510 1
655 548 1
655 554 1
655 575 1
655 603 1
655 606 1
655 644 1
655 649 1
655 676 1
655 710 1
655 713 1
655 728 1
655 765 1
655 770 1
655 771 1
655 780 1
655 782 1
656 18 1
656 48 1
656 68 1
656 111 1
656 149 1
656 166 1
656 167 1
656 173 1
656 180 1
656 187 1
656 188 1
656 203 1
656 215 1
656 222 1
656 239 1
656 250 1
656 256 1
656 264 1
656 295 1
656 315 1
656 341 1
656 369 1
656 401 1
656 406 1
656 425 1
656 432 1
656 443 1
656 469 1
656 473 1
656 508 1
656 513 1
656 522 1
656 534 1
656 561 1
656 583 1
656 587 1
656 588 1
656 601 1
656 627 1
656 634 1
656 689 1
656 707 1
656 728 1
656 739 1
656 744 1
656 751 1
657 40 1
657 71 1
657 86 1
657 92 1
657 128 1
657 142 1
657 148 1
657 154 1
657 159 1
657 160 1
657 188 1
657 208 1
657 210 1
657 211 1
657 233 1
657 234 1
657 237 1
657 261 1
657 267 1
657 301 1
657 318 1
657 329 1
657 343 1
657 349 1
657 406 1
657 413 1
657 429 1
657 472 1
657 499 1
657 512 1
657 552 1
657 576 1
657 587 1
657 598 1
657 611 1
657 629 1
657 630 1
657 658 1
657 665 1
657 667 1
657 677 1
657 714 1
657 722 1
657 723 1
657 747 1
657 771 1
657 788 1
658 4 1
658 39 1
658 43 1
658 47 1
658 67 1
658 83 1
658 92 1
658 104 1
658 105 1
658 124 1
658 125 1
658 129 1
658 138 1
658 150 1
658 155 1
658 184 1
658 187 1
658 211 1
658 216 1
658 238 1
658 270 1
658 281 1
658 292 1
658 333 1
658 334 1
658 350 1
658 359 1
658 394 1
658 395 1
658 411 1
658 417 1
658 443 1
658 447 1
658 458 1
658 492 1
658 531 1
658 536 1
658 582 1
658 592 1
658 597 1
658 600 1
658 602 1
658 623 1
658 636 1
658 644 1
658 650 1
658 653 1
658 657 1
658 670 1
658 680 1
658 681 1
658 690 1
658 692 1
658 746 1
659 2 1
659 6 1
659 9 1
659 15 1
659 23 1
659 37 1
659 42 1
659 48 1
659 78 1
659 92 1
659 130 1
659 153 1
659 166 1
659 185 1
659 187 1
659 202 1
659 226 1
659 277 1
659 279 1
659 286 1
659 300 1
659 305 1
659 307 1
659 310 1
659 323 1
659 356 1
659 359 1
659 379 1
659 384 1
659 405 1
659 408 1
659 420 1
659 437 1
659 443 1
659 498 1
659 516 1
659 520 1
659 555 1
659 596 1
659 626 1
659 632 1
659 650 1
659 698 1
659 711 1
659 717 1
659 735 1
659 737 1
659 751 1
659 781 1
660 34 1
660 36 1
660 47 1
660 75 1
660 87 1
660 95 1
660 109 1
660 129 1
660 138 1
660 154 1
660 176 1
660 212 1
660 231 1
660 245 1
660 264 1
660 298 1
660 306 1
660 342 1
660 368 1
660 373 1
660 386 1
660 422 1
660 430 1
660 439 1
660 464 1
660 475 1
660 508 1
660 525 1
660 543 1
660 599 1
660 603 1
660 608 1
660 621 1
660 625 1
660 631 1
660 675 1
660 681 1
660 698 1
660 714 1
660 717 1
660 719 1
660 739 1
660 741 1
660 754 1
660 755 1
660 760 1
660 765 1
660 778 1
660 782 1
660 799 1
660 800 1
661 3 1
661 10 1
661 12 1
661 34 1
661 47 1
661 66 1
661 95 1
661 103 1
661 153 1
661 156 1
661 183 1
661 194 1
661 210 1
661 211 1
661 230 1
661 231 1
661 232 1
661 240 1
661 261 1
661 307 1
661 315 1
661 330 1
661 353 1
661 370 1
661 386 1
661 436 1
661 443 1
661 490 1
661 494 1
661 542 1
661 547 1
661 548 1
661 567 1
661 575 1
661 601 1
661 625 1
661 664 1
661 688 1
661 697 1
661 704 1
661 706 1
661 721 1
661 745 1
662 3 1
662 6 1
662 12 1
662 15 1
662 28 1
662 39 1
662 49 1
662 50 1
662 68 1
662 73 1
662 97 1
662 110 1
662 112 1
662 119 1
662 139 1
662 159 1
662 261 1
662 265 1
662 266 1
662 271 1
662 307 1
662 342 1
662 348 1
662 367 1
662 377 1
662 383 1
662 395 1
662 402 1
662 405 1
662 416 1
662 418 1
662 422 1
662 423 1
662 425 1
662 426 1
662 432 1
662 444 1
662 457 1
662 473 1
662 474 1
662 491 1
662 555 1
662 559 1
662 563 1
662 565 1
662 591 1
662 593 1
662 618 1
662 624 1
662 649 1
662 732 1
662 768 1
662 772 1
662 787 1
663 6 1
663 36 1
663 43 1
663 53 1
663 61 1
663 81 1
663 102 1
663 119 1
663 134 1
663 191 1
663 198 1
663 206 1
663 207 1
663 214 1
663 236 1
663 277 1
663 297 1
663 302 1
663 303 1
663 308 1
663 310 1
663 320 1
663 332 1
663 346 1
663 347 1
663 377 1
663 379 1
663 409 1
663 422 1
663 423 1
663 456 1
663 497 1
663 510 1
663 524 1
663 526 1
663 537 1
663 542 1
663 560 1
663 607 1
663 630 1
663 683 1
663 721 1
663 755 1
663 756 1
663 779 1
663 780 1
663 792 1
664 3 1
664 10 1
664 28 1
664 30 1
664 75 1
664 83 1
664 90 1
664 127 1
664 139 1
664 142 1
664 151 1
664 155 1
664 168 1
664 175 1
664 183 1
664 249 1
664 263 1
664 268 1
664 269 1
664 282 1
664 294 1
664 305 1
664 316 1
664 344 1
664 356 1
664 373 1
664 419 1
664 443 1
664 444 1
664 450 1
664 452 1
664 484 1
664 486 1
664 487 1
664 517 1
664 527 1
664 530 1
664 550 1
664 553 1
664 560 1
664 573 1
664 584 1
664 592 1
664 594 1
664 601 1
664 625 1
664 633 1
664 640 1
664 661 1
664 691 1
664 719 1
664 726 1
664 733 1
664 735 1
664 749 1
664 756 1
664 773 1
665 15 1
665 45 1
665 46 1
665 57 1
665 106 1
665 128 1
665 130 1
665 139 1
665 172 1
665 175 1
665 197 1
665 216 1
665 264 1
665 289 1
665 290 1
665 292 1
665 299 1
665 300 1
665 329 1
665 332 1
665 341 1
665 383 1
665 400 1
665 403 1
665 407 1
665 424 1
665 433 1
665 451 1
665 467 1
665 472 1
665 487 1
665 499 1
665 509 1
665 535 1
665 544 1
665 556 1
665 596 1
665 635 1
665 640 1
665 657 1
665 672 1
665 705 1
665 767 1
665 796 1
665 798 1
666 28 1
666 35 1
666 46 1
666 89 1
666 101 1
666 110 1
666 113 1
666 129 1
666 170 1
666 174 1
666 190 1
666 191 1
666 195 1
666 223 1
666 243 1
666 269 1
666 301 1
666 325 1
666 343 1
666 366 1
666 374 1
666 376 1
666 410 1
666 431 1
666 448 1
666 464 1
666 471 1
666 494 1
666 594 1
666 614 1
666 621 1
666 636 1
666 686 1
666 730 1
666 755 1
666 783 1
666 795 1
667 22 1
667 23 1
667 35 1
667 42 1
667 72 1
667 76 1
667 80 1
667 110 1
667 116 1
667 126 1
667 152 1
667 179 1
667 214 1
667 226 1
667 241 1
667 246 1
667 271 1
667 295 1
667 348 1
667 354 1
667 360 1
667 379 1
667 390 1
667 403 1
667 437 1
667 448 1
667 462 1
667 493 1
667 513 1
667 520 1
667 525 1
667 526 1
667 531 1
667 532 1
667 535 1
667 544 1
667 545 1
667 564 1
667 565 1
667 574 1
667 589 1
667 591 1
667 614 1
667 650 1
667 657 1
667 677 1
667 692 1
667 712 1
667 714 1
667 764 1
668 10 1
668 15 1
668 16 1
668 58 1
668 85 1
668 98 1
668 99 1
668 127 1
668 169 1
668 189 1
668 194 1
668 199 1
668 206 1
668 213 1
668 226 1
668 260 1
668 283 1
668 301 1
668 313 1
668 325 1
668 336 1
668 343 1
668 352 1
668 384 1
668 435 1
668 447 1
668 468 1
668 527 1
668 540 1
668 561 1
668 572 1
668 621 1
668 622 1
668 652 1
668 654 1
668 711 1
668 713 1
668 714 1
668 723 1
668 726 1
668 728 1
668 736 1
668 780 1
668 783 1
669 4 1
669 90 1
669 94 1
669 125 1
669 129 1
669 138 1
669 158 1
669 170 1
669 185 1
669 186 1
669 209 1
669 237 1
669 257 1
669 265 1
669 269 1
669 273 1
669 285 1
669 291 1
669 344 1
669 364 1
669 373 1
669 384 1
669 419 1
669 421 1
669 427 1
669 437 1
669 452 1
669 466 1
669 470 1
669 510 1
669 525 1
669 553 1
669 567 1
669 611 1
669 617 1
669 631 1
669 634 1
669 642 1
669 701 1
669 769 1
669 776 1
670 11 1
670 23 1
670 69 1
670 71 1
670 72 1
670 74 1
670 90 1
670 97 1
670 105 1
670 115 1
670 119 1
670 147 1
670 167 1
670 174 1
670 203 1
670 230 1
670 236 1
670 237 1
670 249 1
670 258 1
670 275 1
670 281 1
670 282 1
670 292 1
670 295 1
670 296 1
670 297 1
670 299 1
670 317 1
670 334 1
670 354 1
670 369 1
670 413 1
670 425 1
670 439 1
670 448 1
670 450 1
670 468 1
670 480 1
670 495 1
670 496 1
670 500 1
670 541 1
670 550 1
670 587 1
670 597 1
670 648 1
670 651 1
670 658 1
670 693 1
670 694 1
670 701 1
670 706 1
670 718 1
670 719 1
670 726 1
670 740 1
670 761 1
670 785 1
670 794 1
671 12 1
671 16 1
671 27 1
671 28 1
671 64 1
671 67 1
671 105 1
671 121 1
671 127 1
671 139 1
671 145 1
671 160 1
671 182 1
671 184 1
671 188 1
671 201 1
671 208 1
671 237 1
671 239 1
671 262 1
671 277 1
671 291 1
671 304 1
671 342 1
671 344 1
671 359 1
671 361 1
671 365 1
671 367 1
671 428 1
671 443 1
671 471 1
671 478 1
671 481 1
671 488 1
671 492 1
671 510 1
671 544 1
671 590 1
671 592 1
671 653 1
671 675 1
671 688 1
671 717 1
671 724 1
671 735 1
671 763 1
671 772 1
671 774 1
672 5 1
672 15 1
672 31 1
672 41 1
672 42 1
672 59 1
672 79 1
672 151 1
672 157 1
672 161 1
672 174 1
672 206 1
672 222 1
672 225 1
672 238 1
672 276 1
672 323 1
672 331 1
672 334 1
672 402 1
672 405 1
672 408 1
672 428 1
672 452 1
672 458 1
672 485 1
672 509 1
672 527 1
672 557 1
672 559 1
672 573 1
672 609 1
672 633 1
672 647 1
672 665 1
672 685 1
672 688 1
672 700 1
672 703 1
672 732 1
672 753 1
672 754 1
672 759 1
672 787 1
672 793 1
672 796 1
673 9 1
673 31 1
673 43 1
673 44 1
673 88 1
673 107 1
673 130 1
673 156 1
673 195 1
673 197 1
673 200 1
673 208 1
673 223 1
673 266 1
673 280 1
673 304 1
673 350 1
673 372 1
673 388 1
673 420 1
673 444 1
673 458 1
673 479 1
673 499 1
673 512 1
673 526 1
673 541 1
673 542 1
673 544 1
673 558 1
673 582 1
673 635 1
673 642 1
673 653 1
673 681 1
673 690 1
673 710 1
673 714 1
673 760 1
673 782 1
673 798 1
674 11 1
674 29 1
674 35 1
674 69 1
674 70 1
674 71 1
674 74 1
674 80 1
674 85 1
674 127 1
674 188 1
674 198 1
674 202 1
674 209 1
674 215 1
674 233 1
674 256 1
674 293 1
674 300 1
674 312 1
674 313 1
674 324 1
674 325 1
674 327 1
674 330 1
674 340 1
674 344 1
674 372 1
674 394 1
674 407 1
674 425 1
674 443 1
674 455 1
674 485 1
674 524 1
674 526 1
674 540 1
674 544 1
674 551 1
674 568 1
674 577 1
674 629 1
674 640 1
674 700 1
674 704 1
674 725 1
674 768 1
674 788 1
674 789 1
674 797 1
675 3 1
675 22 1
675 24 1
675 42 1
675 72 1
675 108 1
675 109 1
675 112 1
675 121 1
675 199 1
675 215 1
675 232 1
675 233 1
675 239 1
675 246 1
675 255 1
675 295 1
675 310 1
675 325 1
675 329 1
675 353 1
675 436 1
675 441 1
675 464 1
675 471 1
675 486 1
675 490 1
675 527 1
675 532 1
675 556 1
675 643 1
675 649 1
675 660 1
675 671 1
675 676 1
675 679 1
675 688 1
675 693 1
675 706 1
675 722 1
675 786 1
676 61 1
676 83 1
676 85 1
676 104 1
676 111 1
676 154 1
676 168 1
676 170 1
676 176 1
676 180 1
676 200 1
676 213 1
676 219 1
676 269 1
676 270 1
676 277 1
676 418 1
676 426 1
676 457 1
676 521 1
676 525 1
676 526 1
676 597 1
676 603 1
676 647 1
676 655 1
676 675 1
676 678 1
676 695 1
676 715 1
676 739 1
676 741 1
676 767 1
677 25 1
677 40 1
677 41 1
677 47 1
677 79 1
677 84 1
677 93 1
677 100 1
677 103 1
677 121 1
677 136 1
677 180 1
677 184 1
677 198 1
677 230 1
677 245 1
677 270 1
677 288 1
677 290 1
677 326 1
677 361 1
677 402 1
677 443 1
677 447 1
677 455 1
677 489 1
677 491 1
677 494 1
677 524 1
677 525 1
677 544 1
677 545 1
677 565 1
677 566 1
677 603 1
677 617 1
677 653 1
677 657 1
677 667 1
677 682 1
677 699 1
677 713 1
677 724 1
677 728 1
677 747 1
677 749 1
677 773 1
677 795 1
678 3 1
678 5 1
678 7 1
678 8 1
678 15 1
678 17 1
678 23 1
678 24 1
678 70 1
678 72 1
678 75 1
678 76 1
678 94 1
678 101 1
678 114 1
678 131 1
678 136 1
678 143 1
678 184 1
678 191 1
678 194 1
678 221 1
678 243 1
678 261 1
678 290 1
678 295 1
678 308 1
678 312 1
678 420 1
678 422 1
678 453 1
678 462 1
678 483 1
678 519 1
678 521 1
678 525 1
678 532 1
678 594 1
678 611 1
678 676 1
678 693 1
678 707 1
678 757 1
678 773 1
678 784 1
679 2 1
679 8 1
679 15 1
679 29 1
679 114 1
679 155 1
679 164 1
679 166 1
679 176 1
679 183 1
679 192 1
679 212 1
679 226 1
679 283 1
679 312 1
679 344 1
679 355 1
679 357 1
679 374 1
679 384 1
679 403 1
679 430 1
679 440 1
679 453 1
679 458 1
679 463 1
679 478 1
679 493 1
679 534 1
679 538 1
679 540 1
679 542 1
679 547 1
679 570 1
679 571 1
679 583 1
679 607 1
679 608 1
679 609 1
679 639 1
679 643 1
679 675 1
679 732 1
679 763 1
679 770 1
679 799 1
680 5 1
680 22 1
680 32 1
680 41 1
680 48 1
680 61 1
680 65 1
680 70 1
680 83 1
680 104 1
680 113 1
680 131 1
680 146 1
680 171 1
680 176 1
680 200 1
680 211 1
680 230 1
680 244 1
680 252 1
680 269 1
680 274 1
680 279 1
680 280 1
680 287 1
680 288 1
680 295 1
680 324 1
680 341 1
680 343 1
680 349 1
680 351 1
680 378 1
680 403 1
680 406 1
680 409 1
680 453 1
680 494 1
680 525 1
680 531 1
680 540 1
680 546 1
680 547 1
680 578 1
680 600 1
680 602 1
680 658 1
680 709 1
680 718 1
680 723 1
680 729 1
680 748 1
680 749 1
681 42 1
681 69 1
681 86 1
681 90 1
681 99 1
681 108 1
681 123 1
681 132 1
681 137 1
681 148 1
681 149 1
681 179 1
681 213 1
681 219 1
681 230 1
681 324 1
681 329 1
681 331 1
681 350 1
681 351 1
681 361 1
681 371 1
681 385 1
681 389 1
681 394 1
681 402 1
681 417 1
681 435 1
681 454 1
681 479 1
681 503 1
681 511 1
681 530 1
681 533 1
681 535 1
681 560 1
681 598 1
681 607 1
681 638 1
681 645 1
681 658 1
681 660 1
681 673 1
681 688 1
681 706 1
681 715 1
681 735 1
681 736 1
681 770 1
681 789 1
682 3 1
682 19 1
682 43 1
682 70 1
682 75 1
682 80 1
682 81 1
682 133 1
682 153 1
682 154 1
682 182 1
682 226 1
682 231 1
682 232 1
682 237 1
682 256 1
682 267 1
682 269 1
682 270 1
682 277 1
682 326 1
682 357 1
682 367 1
682 373 1
682 378 1
682 380 1
682 387 1
682 394 1
682 400 1
682 428 1
682 431 1
682 434 1
682 440 1
682 444 1
682 455 1
682 461 1
682 466 1
682 469 1
682 497 1
682 516 1
682 521 1
682 546 1
682 551 1
682 600 1
682 616 1
682 620 1
682 624 1
682 626 1
682 642 1
682 648 1
682 677 1
682 714 1
682 725 1
682 732 1
682 737 1
682 752 1
682 758 1
683 41 1
683 43 1
683 58 1
683 66 1
683 88 1
683 144 1
683 145 1
683 154 1
683 155 1
683 179 1
683 180 1
683 198 1
683 199 1
683 216 1
683 243 1
683 256 1
683 271 1
683 276 1
683 278 1
683 287 1
683 291 1
683 348 1
683 349 1
683 354 1
683 355 1
683 371 1
683 375 1
683 376 1
683 417 1
683 428 1
683 430 1
683 431 1
683 439 1
683 452 1
683 466 1
683 474 1
683 476 1
683 485 1
683 498 1
683 502 1
683 517 1
683 523 1
683 546 1
683 552 1
683 557 1
683 564 1
683 571 1
683 601 1
683 613 1
683 627 1
683 636 1
683 663 1
683 691 1
683 761 1
683 769 1
683 796 1
684 8 1
684 17 1
684 30 1
684 42 1
684 54 1
684 56 1
684 69 1
684 73 1
684 81 1
684 105 1
684 147 1
684 165 1
684 224 1
684 230 1
684 257 1
684 258 1
684 282 1
684 309 1
684 319 1
684 333 1
684 348 1
684 415 1
684 448 1
684 470 1
684 475 1
684 484 1
684 489 1
684 499 1
684 524 1
684 547 1
684 553 1
684 565 1
684 583 1
684 595 1
684 616 1
684 653 1
684 695 1
684 696 1
684 703 1
684 714 1
684 716 1
684 717 1
684 740 1
684 743 1
684 779 1
684 790 1
684 795 1
685 5 1
685 6 1
685 14 1
685 24 1
685 32 1
685 62 1
685 64 1
685 68 1
685 69 1
685 72 1
685 108 1
685 115 1
685 122 1
685 139 1
685 149 1
685 156 1
685 173 1
685 175 1
685 205 1
685 220 1
685 301 1
685 303 1
685 312 1
685 314 1
685 353 1
685 364 1
685 371 1
685 389 1
685 418 1
685 423 1
685 442 1
685 444 1
685 470 1
685 471 1
685 485 1
685 486 1
685 498 1
685 508 1
685 509 1
685 515 1
685 522 1
685 524 1
685 533 1
685 534 1
685 558 1
685 586 1
685 596 1
685 636 1
685 640 1
685 644 1
685 672 1
685 700 1
685 720 1
685 723 1
685 724 1
685 733 1
685 747 1
685 752 1
685 777 1
686 6 1
686 42 1
686 90 1
686 117 1
686 125 1
686 164 1
686 179 1
686 210 1
686 223 1
686 231 1
686 257 1
686 325 1
686 336 1
686 337 1
686 354 1
686 402 1
686 419 1
686 439 1
686 454 1
686 460 1
686 462 1
686 472 1
686 480 1
686 484 1
686 485 1
686 535 1
686 554 1
686 594 1
686 597 1
686 629 1
686 666 1
686 689 1
686 692 1
686 724 1
686 729 1
686 736 1
686 751 1
686 774 1
686 782 1
686 786 1
687 6 1
687 10 1
687 17 1
687 27 1
687 49 1
687 52 1
687 70 1
687 72 1
687 83 1
687 88 1
687 89 1
687 93 1
687 95 1
687 104 1
687 107 1
687 133 1
687 136 1
687 164 1
687 188 1
687 263 1
687 266 1
687 278 1
687 315 1
687 369 1
687 373 1
687 385 1
687 428 1
687 432 1
687 435 1
687 449 1
687 474 1
687 484 1
687 490 1
687 501 1
687 531 1
687 532 1
687 533 1
687 578 1
687 624 1
687 654 1
687 712 1
687 722 1
687 727 1
687 731 1
687 745 1
687 754 1
687 763 1
687 787 1
688 24 1
688 40 1
688 42 1
688 65 1
688 70 1
688 87 1
688 90 1
688 102 1
688 118 1
688 136 1
688 157 1
688 160 1
688 163 1
688 165 1
688 169 1
688 174 1
688 178 1
688 196 1
688 197 1
688 255 1
688 270 1
688 288 1
688 295 1
688 312 1
688 313 1
688 325 1
688 403 1
688 409 1
688 430 1
688 475 1
688 498 1
688 506 1
688 549 1
688 574 1
688 597 1
688 661 1
688 671 1
688 672 1
688 675 1
688 681 1
688 692 1
688 722 1
688 737 1
688 744 1
688 760 1
688 777 1
688 778 1
688 782 1
688 800 1
689 4 1
689 39 1
689 68 1
689 100 1
689 110 1
689 133 1
689 139 1
689 146 1
689 148 1
689 168 1
689 178 1
689 198 1
689 201 1
689 209 1
689 214 1
689 249 1
689 273 1
689 279 1
689 321 1
689 322 1
689 358 1
689 361 1
689 394 1
689 421 1
689 428 1
689 448 1
689 451 1
689 455 1
689 523 1
689 528 1
689 533 1
689 561 1
689 574 1
689 585 1
689 630 1
689 656 1
689 686 1
689 734 1
689 749 1
689 750 1
689 758 1
689 783 1
690 17 1
690 46 1
690 49 1
690 59 1
690 65 1
690 141 1
690 144 1
690 150 1
690 155 1
690 159 1
690 172 1
690 182 1
690 214 1
690 242 1
690 248 1
690 264 1
690 272 1
690 289 1
690 291 1
690 320 1
690 333 1
690 336 1
690 350 1
690 363 1
690 382 1
690 383 1
690 407 1
690 424 1
690 444 1
690 448 1
690 466 1
690 480 1
690 499 1
690 524 1
690 552 1
690 561 1
690 564 1
690 577 1
690 621 1
690 637 1
690 658 1
690 673 1
690 699 1
690 715 1
690 718 1
690 728 1
690 771 1
691 8 1
691 42 1
691 114 1
691 120 1
691 130 1
691 133 1
691 137 1
691 163 1
691 171 1
691 251 1
691 303 1
691 309 1
691 315 1
691 328 1
691 334 1
691 356 1
691 400 1
691 410 1
691 419 1
691 439 1
691 464 1
691 479 1
691 496 1
691 503 1
691 586 1
691 592 1
691 614 1
691 635 1
691 664 1
691 683 1
691 696 1
691 710 1
691 713 1
691 751 1
691 795 1
691 797 1
692 1 1
692 7 1
692 29 1
692 35 1
692 102 1
692 115 1
692 138 1
692 145 1
692 155 1
692 162 1
692 189 1
692 248 1
692 274 1
692 277 1
692 359 1
692 388 1
692 399 1
692 450 1
692 452 1
692 478 1
692 480 1
692 488 1
692 503 1
692 522 1
692 528 1
692 541 1
692 546 1
692 554 1
692 587 1
692 593 1
692 658 1
692 667 1
692 686 1
692 688 1
692 695 1
692 721 1
692 739 1
692 760 1
692 780 1
692 788 1
692 796 1
692 797 1
693 1 1
693 6 1
693 10 1
693 20 1
693 41 1
693 47 1
693 68 1
693 82 1
693 87 1
693 90 1
693 91 1
693 106 1
693 112 1
693 125 1
693 127 1
693 148 1
693 162 1
693 171 1
693 175 1
693 231 1
693 244 1
693 255 1
693 260 1
693 275 1
693 280 1
693 324 1
693 370 1
693 390 1
693 405 1
693 409 1
693 437 1
693 460 1
693 474 1
693 510 1
693 535 1
693 559 1
693 576 1
693 585 1
693 637 1
693 670 1
693 675 1
693 678 1
693 702 1
693 724 1
693 745 1
693 798 1
694 1 1
694 32 1
694 33 1
694 43 1
694 69 1
694 101 1
694 104 1
694 109 1
694 117 1
694 137 1
694 152 1
694 180 1
694 186 1
694 191 1
694 228 1
694 255 1
694 264 1
694 277 1
694 303 1
694 331 1
694 352 1
694 364 1
694 366 1
694 370 1
694 384 1
694 469 1
694 474 1
694 485 1
694 499 1
694 513 1
694 562 1
694 608 1
694 610 1
694 620 1
694 622 1
694 625 1
694 670 1
694 699 1
694 707 1
694 714 1
694 725 1
694 738 1
694 760 1
694 781 1
694 794 1
695 10 1
695 46 1
695 87 1
695 118 1
695 194 1
695 219 1
695 223 1
695 224 1
695 243 1
695 246 1
695 263 1
695 272 1
695 278 1
695 279 1
695 289 1
695 292 1
695 365 1
695 382 1
695 387 1
695 410 1
695 415 1
695 428 1
695 447 1
695 462 1
695 470 1
695 477 1
695 481 1
695 499 1
695 520 1
695 539 1
695 544 1
695 549 1
695 574 1
695 590 1
695 601 1
695 609 1
695 676 1
695 684 1
695 692 1
695 720 1
695 757 1
695 791 1
696 7 1
696 23 1
696 65 1
696 114 1
696 115 1
696 116 1
696 132 1
696 133 1
696 153 1
696 166 1
696 169 1
696 195 1
696 208 1
696 215 1
696 226 1
696 228 1
696 237 1
696 241 1
696 244 1
696 253 1
696 259 1
696 260 1
696 265 1
696 267 1
696 294 1
696 299 1
696 316 1
696 327 1
696 355 1
696 361 1
696 373 1
696 409 1
696 415 1
696 434 1
696 437 1
696 445 1
696 469 1
696 522 1
696 527 1
696 528 1
696 535 1
696 566 1
696 571 1
696 575 1
696 586 1
696 602 1
696 611 1
696 649 1
696 684 1
696 691 1
696 739 1
696 744 1
696 757 1
696 787 1
697 29 1
697 48 1
697 50 1
697 66 1
697 72 1
697 83 1
697 114 1
697 128 1
697 129 1
697 144 1
697 189 1
697 202 1
697 209 1
697 215 1
697 220 1
697 245 1
697 262 1
697 272 1
697 274 1
697 290 1
697 298 1
697 316 1
697 321 1
697 330 1
697 343 1
697 357 1
697 387 1
697 389 1
697 405 1
697 416 1
697 437 1
697 457 1
697 459 1
697 476 1
697 482 1
697 489 1
697 506 1
697 509 1
697 510 1
697 527 1
697 535 1
697 562 1
697 570 1
697 572 1
697 613 1
697 619 1
697 647 1
697 661 1
697 708 1
697 717 1
697 723 1
697 746 1
697 766 1
697 771 1
697 781 1
697 783 1
697 788 1
698 9 1
698 16 1
698 17 1
698 27 1
698 60 1
698 72 1
698 73 1
698 102 1
698 141 1
698 146 1
698 161 1
698 165 1
698 204 1
698 244 1
698 257 1
698 277 1
698 298 1
698 304 1
698 307 1
698 341 1
698 344 1
698 365 1
698 369 1
698 386 1
698 387 1
698 413 1
698 428 1
698 461 1
698 479 1
698 488 1
698 491 1
698 510 1
698 529 1
698 538 1
698 540 1
698 582 1
698 604 1
698 611 1
698 621 1
698 638 1
698 648 1
698 659 1
698 660 1
698 712 1
698 713 1
698 717 1
698 751 1
698 780 1
698 800 1
699 22 1
699 60 1
699 79 1
699 83 1
699 98 1
699 100 1
699 143 1
699 167 1
699 189 1
699 201 1
699 204 1
699 226 1
699 276 1
699 302 1
699 308 1
699 342 1
699 347 1
699 358 1
699 383 1
699 402 1
699 410 1
699 411 1
699 432 1
699 433 1
699 471 1
699 478 1
699 482 1
699 484 1
699 495 1
699 537 1
699 548 1
699 553 1
699 605 1
699 621 1
699 627 1
699 634 1
699 677 1
699 690 1
699 694 1
699 700 1
699 715 1
699 738 1
699 746 1
699 763 1
700 19 1
700 33 1
700 70 1
700 71 1
700 81 1
700 82 1
700 89 1
700 93 1
700 101 1
700 109 1
700 202 1
700 208 1
700 212 1
700 226 1
700 242 1
700 244 1
700 247 1
700 268 1
700 273 1
700 287 1
700 289 1
700 311 1
700 313 1
700 359 1
700 362 1
700 381 1
700 383 1
700 394 1
700 400 1
700 415 1
700 418 1
700 457 1
700 459 1
700 475 1
700 481 1
700 506 1
700 530 1
700 538 1
700 544 1
700 578 1
700 582 1
700 588 1
700 592 1
700 595 1
700 605 1
700 652 1
700 672 1
700 674 1
700 685 1
700 699 1
700 722 1
700 727 1
700 742 1
700 791 1
701 26 1
701 52 1
701 59 1
701 63 1
701 79 1
701 100 1
701 102 1
701 104 1
701 136 1
701 138 1
701 139 1
701 170 1
701 172 1
701 178 1
701 206 1
701 208 1
701 239 1
701 245 1
701 249 1
701 271 1
701 295 1
701 309 1
701 335 1
701 338 1
701 351 1
701 352 1
701 364 1
701 379 1
701 388 1
701 395 1
701 410 1
701 426 1
701 457 1
701 459 1
701 494 1
701 495 1
701 498 1
701 535 1
701 565 1
701 569 1
701 611 1
701 629 1
701 632 1
701 638 1
701 669 1
701 670 1
701 719 1
701 746 1
701 747 1
701 755 1
701 760 1
701 762 1
701 791 1
701 796 1
702 5 1
702 9 1
702 10 1
702 26 1
702 46 1
702 62 1
702 94 1
702 103 1
702 123 1
702 138 1
702 148 1
702 152 1
702 166 1
702 177 1
702 208 1
702 210 1
702 215 1
702 229 1
702 238 1
702 240 1
702 289 1
702 293 1
702 303 1
702 312 1
702 319 1
702 322 1
702 325 1
702 338 1
702 346 1
702 348 1
702 351 1
702 369 1
702 374 1
702 391 1
702 412 1
702 413 1
702 437 1
702 462 1
702 482 1
702 555 1
702 566 1
702 567 1
702 572 1
702 588 1
702 611 1
702 615 1
702 640 1
702 693 1
702 705 1
702 726 1
702 756 1
702 758 1
703 23 1
703 57 1
703 77 1
703 90 1
703 92 1
703 101 1
703 122 1
703 134 1
703 135 1
703 138 1
703 147 1
703 157 1
703 159 1
703 169 1
703 182 1
703 194 1
703 229 1
703 238 1
703 242 1
703 252 1
703 270 1
703 283 1
703 297 1
703 316 1
703 322 1
703 326 1
703 337 1
703 351 1
703 377 1
703 379 1
703 387 1
703 393 1
703 427 1
703 432 1
703 452 1
703 503 1
703 560 1
703 588 1
703 600 1
703 609 1
703 621 1
703 633 1
703 647 1
703 652 1
703 672 1
703 684 1
703 705 1
703 745 1
703 749 1
703 793 1
704 8 1
704 56 1
704 65 1
704 83 1
704 96 1
704 99 1
704 118 1
704 128 1
704 148 1
704 173 1
704 200 1
704 223 1
704 235 1
704 240 1
704 275 1
704 278 1
704 294 1
704 298 1
704 330 1
704 337 1
704 353 1
704 371 1
704 398 1
704 441 1
704 446 1
704 450 1
704 482 1
704 509 1
704 524 1
704 546 1
704 548 1
704 556 1
704 560 1
704 580 1
704 583 1
704 605 1
704 614 1
704 651 1
704 654 1
704 661 1
704 674 1
704 705 1
704 712 1
704 728 1
704 738 1
704 763 1
704 770 1
704 772 1
704 788 1
704 795 1
705 2 1
705 5 1
705 20 1
705 35 1
705 44 1
705 48 1
705 52 1
705 76 1
705 149 1
705 188 1
705 230 1
705 258 1
705 267 1
705 282 1
705 285 1
705 332 1
705 397 1
705 426 1
705 434 1
705 453 1
705 496 1
705 501 1
705 502 1
705 520 1
705 521 1
705 549 1
705 578 1
705 616 1
705 620 1
705 665 1
705 702 1
705 703 1
705 704 1
705 716 1
705 753 1
705 758 1
705 780 1
705 792 1
705 797 1
706 8 1
706 24 1
706 96 1
706 128 1
706 148 1
706 170 1
706 171 1
706 206 1
706 226 1
706 266 1
706 286 1
706 343 1
706 348 1
706 373 1
706 374 1
706 398 1
706 400 1
706 425 1
706 431 1
706 449 1
706 473 1
706 482 1
706 504 1
706 525 1
706 535 1
706 566 1
706 608 1
706 661 1
706 670 1
706 675 1
706 681 1
706 738 1
706 761 1
706 773 1
706 775 1
706 782 1
707 29 1
707 33 1
707 79 1
707 81 1
707 83 1
707 85 1
707 96 1
707 101 1
707 118 1
707 122 1
707 135 1
707 157 1
707 169 1
707 172 1
707 176 1
707 179 1
707 211 1
707 232 1
707 267 1
707 284 1
707 291 1
707 299 1
707 311 1
707 333 1
707 338 1
707 355 1
707 378 1
707 380 1
707 418 1
707 424 1
707 432 1
707 434 1
707 437 1
707 468 1
707 476 1
707 477 1
707 478 1
707 482 1
707 492 1
707 494 1
707 495 1
707 501 1
707 522 1
707 556 1
707 602 1
707 628 1
707 632 1
707 656 1
707 678 1
707 694 1
707 728 1
707 732 1
707 768 1
707 772 1
707 788 1
708 4 1
708 26 1
708 56 1
708 58 1
708 67 1
708 85 1
708 97 1
708 110 1
708 124 1
708 131 1
708 169 1
708 173 1
708 182 1
708 192 1
708 211 1
708 222 1
708 230 1
708 241 1
708 257 1
708 264 1
708 267 1
708 308 1
708 397 1
708 408 1
708 459 1
708 467 1
708 478 1
708 483 1
708 511 1
708 516 1
708 529 1
708 533 1
708 558 1
708 591 1
708 596 1
708 602 1
708 615 1
708 697 1
708 711 1
708 755 1
708 795 1
709 13 1
709 69 1
709 71 1
709 99 1
709 125 1
709 127 1
709 146 1
709 149 1
709 160 1
709 166 1
709 188 1
709 191 1
709 196 1
709 203 1
709 208 1
709 231 1
709 234 1
709 258 1
709 276 1
709 302 1
709 313 1
709 346 1
709 360 1
709 362 1
709 367 1
709 375 1
709 386 1
709 426 1
709 448 1
709 485 1
709 488 1
709 512 1
709 522 1
709 536 1
709 560 1
709 572 1
709 575 1
709 579 1
709 614 1
709 630 1
709 637 1
709 680 1
709 721 1
709 745 1
709 746 1
709 747 1
709 768 1
709 796 1
710 4 1
710 27 1
710 31 1
710 36 1
710 47 1
710 56 1
710 73 1
710 82 1
710 84 1
710 123 1
710 128 1
710 131 1
710 134 1
710 160 1
710 169 1
710 217 1
710 234 1
710 235 1
710 244 1
710 272 1
710 281 1
710 286 1
710 349 1
710 352 1
710 371 1
710 377 1
710 380 1
710 390 1
710 405 1
710 435 1
710 444 1
710 469 1
710 471 1
710 472 1
710 503 1
710 515 1
710 520 1
710 540 1
710 546 1
710 557 1
710 562 1
710 578 1
710 586 1
710 595 1
710 613 1
710 630 1
710 655 1
710 673 1
710 691 1
710 711 1
710 715 1
710 760 1
710 773 1
710 782 1
710 790 1
711 74 1
711 77 1
711 79 1
711 90 1
711 102 1
711 117 1
711 126 1
711 158 1
711 180 1
711 190 1
711 200 1
711 207 1
711 217 1
711 224 1
711 257 1
711 258 1
711 261 1
711 262 1
711 301 1
711 327 1
711 335 1
711 336 1
711 368 1
711 370 1
711 382 1
711 429 1
711 444 1
711 453 1
711 472 1
711 513 1
711 521 1
711 535 1
711 544 1
711 561 1
711 562 1
711 598 1
711 600 1
711 613 1
711 625 1
711 644 1
711 659 1
711 668 1
711 708 1
711 710 1
711 754 1
711 781 1
712 13 1
712 64 1
712 67 1
712 79 1
712 80 1
712 95 1
712 101 1
712 118 1
712 125 1
712 127 1
712 141 1
712 143 1
712 155 1
712 187 1
712 204 1
712 210 1
712 230 1
712 241 1
712 243 1
712 244 1
712 264 1
712 280 1
712 319 1
712 322 1
712 325 1
712 326 1
712 333 1
712 334 1
712 337 1
712 360 1
712 369 1
712 398 1
712 413 1
712 417 1
712 558 1
712 559 1
712 568 1
712 574 1
712 583 1
712 590 1
712 619 1
712 633 1
712 635 1
712 639 1
712 667 1
712 687 1
712 698 1
712 704 1
712 716 1
712 759 1
712 762 1
712 800 1
713 7 1
713 18 1
713 50 1
713 51 1
713 73 1
713 117 1
713 128 1
713 155 1
713 164 1
713 186 1
713 236 1
713 243 1
713 253 1
713 280 1
713 331 1
713 346 1
713 349 1
713 381 1
713 400 1
713 421 1
713 423 1
713 476 1
713 499 1
713 508 1
713 514 1
713 531 1
713 534 1
713 603 1
713 626 1
713 655 1
713 668 1
713 677 1
713 691 1
713 698 1
713 736 1
713 777 1
713 798 1
714 16 1
714 52 1
714 91 1
714 122 1
714 141 1
714 145 1
714 147 1
714 216 1
714 274 1
714 287 1
714 289 1
714 326 1
714 339 1
714 340 1
714 366 1
714 377 1
714 378 1
714 450 1
714 461 1
714 482 1
714 501 1
714 504 1
714 537 1
714 554 1
714 559 1
714 566 1
714 580 1
714 596 1
714 640 1
714 644 1
714 654 1
714 657 1
714 660 1
714 667 1
714 668 1
714 673 1
714 682 1
714 684 1
714 694 1
714 721 1
714 723 1
714 782 1
715 3 1
715 7 1
715 25 1
715 38 1
715 46 1
715 54 1
715 57 1
715 77 1
715 88 1
715 108 1
715 115 1
715 119 1
715 138 1
715 156 1
715 163 1
715 165 1
715 172 1
715 198 1
715 202 1
715 271 1
715 282 1
715 291 1
715 310 1
715 326 1
715 327 1
715 353 1
715 381 1
715 397 1
715 404 1
715 406 1
715 413 1
715 416 1
715 419 1
715 440 1
715 453 1
715 457 1
715 467 1
715 485 1
715 495 1
715 507 1
715 510 1
715 517 1
715 532 1
715 553 1
715 572 1
715 599 1
715 608 1
715 634 1
715 652 1
715 654 1
715 676 1
715 681 1
715 690 1
715 699 1
715 710 1
715 750 1
715 765 1
715 776 1
716 19 1
716 25 1
716 37 1
716 43 1
716 58 1
716 92 1
716 107 1
716 154 1
716 155 1
716 157 1
716 159 1
716 160 1
716 162 1
716 173 1
716 187 1
716 192 1
716 198 1
716 203 1
716 218 1
716 235 1
716 264 1
716 271 1
716 277 1
716 310 1
716 329 1
716 345 1
716 373 1
716 377 1
716 381 1
716 405 1
716 459 1
716 467 1
716 486 1
716 487 1
716 502 1
716 509 1
716 521 1
716 541 1
716 547 1
716 557 1
716 559 1
716 569 1
716 574 1
716 611 1
716 643 1
716 684 1
716 705 1
716 712 1
716 722 1
716 726 1
716 735 1
716 776 1
717 11 1
717 19 1
717 36 1
717 111 1
717 116 1
717 182 1
717 201 1
717 210 1
717 227 1
717 248 1
717 250 1
717 261 1
717 262 1
717 278 1
717 286 1
717 346 1
717 391 1
717 394 1
717 395 1
717 396 1
717 403 1
717 443 1
717 451 1
717 467 1
717 471 1
717 487 1
717 491 1
717 495 1
717 497 1
717 508 1
717 561 1
717 573 1
717 577 1
717 601 1
717 609 1
717 616 1
717 634 1
717 659 1
717 660 1
717 671 1
717 684 1
717 697 1
717 698 1
717 734 1
717 763 1
717 767 1
717 788 1
718 7 1
718 8 1
718 13 1
718 23 1
718 24 1
718 29 1
718 55 1
718 71 1
718 75 1
718 78 1
718 94 1
718 99 1
718 109 1
718 116 1
718 138 1
718 139 1
718 142 1
718 172 1
718 181 1
718 206 1
718 221 1
718 237 1
718 240 1
718 266 1
718 305 1
718 310 1
718 328 1
718 341 1
718 370 1
718 428 1
718 439 1
718 450 1
718 463 1
718 491 1
718 504 1
718 506 1
718 516 1
718 518 1
718 519 1
718 523 1
718 550 1
718 559 1
718 573 1
718 595 1
718 599 1
718 600 1
718 603 1
718 613 1
718 628 1
718 670 1
718 680 1
718 690 1
718 720 1
718 722 1
718 732 1
718 735 1
718 744 1
718 786 1
719 26 1
719 30 1
719 34 1
719 47 1
719 52 1
719 53 1
719 57 1
719 87 1
719 103 1
719 120 1
719 132 1
719 144 1
719 164 1
719 170 1
719 194 1
719 243 1
719 247 1
719 267 1
719 271 1
719 279 1
719 294 1
719 299 1
719 348 1
719 358 1
719 364 1
719 380 1
719 390 1
719 393 1
719 442 1
719 482 1
719 485 1
719 492 1
719 496 1
719 498 1
719 516 1
719 534 1
719 545 1
719 554 1
719 562 1
719 628 1
719 635 1
719 642 1
719 646 1
719 660 1
719 664 1
719 670 1
719 701 1
719 727 1
719 736 1
719 755 1
719 760 1
719 770 1
719 774 1
719 778 1
719 796 1
720 25 1
720 72 1
720 75 1
720 78 1
720 84 1
720 87 1
720 114 1
720 174 1
720 191 1
720 237 1
720 253 1
720 262 1
720 282 1
720 291 1
720 313 1
720 325 1
720 389 1
720 390 1
720 392 1
720 433 1
720 482 1
720 486 1
720 520 1
720 544 1
720 581 1
720 583 1
720 588 1
720 636 1
720 685 1
720 695 1
720 718 1
720 723 1
720 776 1
720 786 1
721 61 1
721 64 1
721 74 1
721 90 1
721 93 1
721 107 1
721 121 1
721 131 1
721 157 1
721 173 1
721 188 1
721 234 1
721 248 1
721 265 1
721 290 1
721 310 1
721 342 1
721 418 1
721 421 1
721 436 1
721 438 1
721 442 1
721 443 1
721 450 1
721 469 1
721 475 1
721 482 1
721 486 1
721 501 1
721 521 1
721 523 1
721 593 1
721 623 1
721 661 1
721 663 1
721 692 1
721 709 1
721 714 1
721 753 1
721 770 1
721 783 1
721 795 1
722 13 1
722 47 1
722 54 1
722 62 1
722 76 1
722 115 1
722 130 1
722 170 1
722 174 1
722 186 1
722 217 1
722 232 1
722 247 1
722 253 1
722 254 1
722 257 1
722 293 1
722 306 1
722 312 1
722 317 1
722 330 1
722 342 1
722 348 1
722 365 1
722 403 1
722 422 1
722 427 1
722 452 1
722 486 1
722 500 1
722 522 1
722 528 1
722 542 1
722 547 1
722 559 1
722 569 1
722 636 1
722 648 1
722 657 1
722 675 1
722 687 1
722 688 1
722 700 1
722 716 1
722 718 1
722 726 1
722 745 1
722 790 1
722 800 1
723 4 1
723 15 1
723 21 1
723 25 1
723 29 1
723 44 1
723 59 1
723 136 1
723 147 1
723 155 1
723 170 1
723 190 1
723 198 1
723 204 1
723 223 1
723 240 1
723 262 1
723 295 1
723 308 1
723 313 1
723 339 1
723 381 1
723 392 1
723 439 1
723 450 1
723 453 1
723 475 1
723 487 1
723 537 1
723 540 1
723 547 1
723 565 1
723 588 1
723 631 1
723 657 1
723 668 1
723 680 1
723 685 1
723 697 1
723 714 1
723 720 1
723 724 1
723 754 1
723 761 1
723 783 1
723 791 1
724 46 1
724 50 1
724 76 1
724 88 1
724 91 1
724 107 1
724 114 1
724 136 1
724 160 1
724 161 1
724 168 1
724 173 1
724 179 1
724 208 1
724 213 1
724 220 1
724 231 1
724 232 1
724 308 1
724 321 1
724 331 1
724 351 1
724 352 1
724 389 1
724 393 1
724 406 1
724 431 1
724 449 1
724 452 1
724 456 1
724 530 1
724 553 1
724 583 1
724 593 1
724 598 1
724 622 1
724 649 1
724 654 1
724 671 1
724 677 1
724 685 1
724 686 1
724 693 1
724 723 1
724 735 1
724 739 1
724 745 1
724 752 1
724 760 1
724 791 1
724 796 1
724 800 1
725 20 1
725 42 1
725 101 1
725 136 1
725 137 1
725 141 1
725 153 1
725 168 1
725 206 1
725 212 1
725 256 1
725 270 1
725 272 1
725 276 1
725 292 1
725 344 1
725 383 1
725 425 1
725 429 1
725 440 1
725 523 1
725 526 1
725 545 1
725 548 1
725 559 1
725 571 1
725 575 1
725 597 1
725 611 1
725 634 1
725 674 1
725 682 1
725 694 1
725 732 1
725 734 1
725 738 1
725 762 1
725 774 1
725 787 1
726 25 1
726 57 1
726 76 1
726 91 1
726 97 1
726 102 1
726 110 1
726 114 1
726 148 1
726 184 1
726 233 1
726 249 1
726 268 1
726 276 1
726 280 1
726 352 1
726 381 1
726 386 1
726 395 1
726 398 1
726 410 1
726 427 1
726 477 1
726 510 1
726 543 1
726 554 1
726 576 1
726 581 1
726 595 1
726 613 1
726 614 1
726 664 1
726 668 1
726 670 1
726 702 1
726 716 1
726 722 1
726 727 1
726 741 1
726 762 1
726 771 1
726 783 1
726 787 1
726 791 1
727 25 1
727 32 1
727 44 1
727 49 1
727 51 1
727 67 1
727 75 1
727 85 1
727 92 1
727 93 1
727 115 1
727 143 1
727 183 1
727 205 1
727 222 1
727 250 1
727 254 1
727 257 1
727 284 1
727 285 1
727 304 1
727 307 1
727 378 1
727 380 1
727 384 1
727 386 1
727 402 1
727 408 1
727 417 1
727 420 1
727 435 1
727 444 1
727 453 1
727 472 1
727 476 1
727 482 1
727 496 1
727 524 1
727 530 1
727 556 1
727 575 1
727 590 1
727 654 1
727 687 1
727 700 1
727 719 1
727 726 1
727 750 1
728 12 1
728 16 1
728 20 1
728 23 1
728 28 1
728 57 1
728 75 1
728 110 1
728 113 1
728 117 1
728 119 1
728 146 1
728 183 1
728 194 1
728 259 1
728 267 1
728 314 1
728 320 1
728 321 1
728 326 1
728 352 1
728 354 1
728 355 1
728 435 1
728 442 1
728 450 1
728 465 1
728 469 1
728 474 1
728 479 1
728 482 1
728 498 1
728 503 1
728 515 1
728 518 1
728 522 1
728 561 1
728 578 1
728 579 1
728 583 1
728 614 1
728 634 1
728 655 1
728 656 1
728 668 1
728 677 1
728 690 1
728 704 1
728 707 1
728 749 1
728 762 1
728 766 1
729 6 1
729 8 1
729 18 1
729 29 1
729 38 1
729 45 1
729 46 1
729 57 1
729 64 1
729 67 1
729 70 1
729 81 1
729 169 1
729 172 1
729 184 1
729 190 1
729 218 1
729 221 1
729 227 1
729 235 1
729 273 1
729 293 1
729 318 1
729 321 1
729 322 1
729 351 1
729 366 1
729 374 1
729 406 1
729 421 1
729 440 1
729 455 1
729 464 1
729 482 1
729 498 1
729 514 1
729 524 1
729 539 1
729 547 1
729 550 1
729 568 1
729 578 1
729 581 1
729 592 1
729 616 1
729 624 1
729 627 1
729 634 1
729 680 1
729 686 1
729 744 1
729 747 1
729 752 1
729 767 1
729 776 1
729 777 1
730 25 1
730 27 1
730 40 1
730 50 1
730 68 1
730 72 1
730 85 1
730 107 1
730 114 1
730 124 1
730 125 1
730 161 1
730 243 1
730 251 1
730 277 1
730 317 1
730 322 1
730 325 1
730 353 1
730 363 1
730 413 1
730 438 1
730 459 1
730 463 1
730 497 1
730 509 1
730 515 1
730 517 1
730 523 1
730 526 1
730 544 1
730 570 1
730 594 1
730 612 1
730 624 1
730 666 1
730 759 1
730 783 1
730 793 1
731 36 1
731 56 1
731 84 1
731 99 1
731 103 1
731 113 1
731 118 1
731 132 1
731 139 1
731 161 1
731 176 1
731 190 1
731 248 1
731 264 1
731 265 1
731 279 1
731 284 1
731 287 1
731 296 1
731 297 1
731 305 1
731 346 1
731 367 1
731 385 1
731 408 1
731 428 1
731 434 1
731 456 1
731 475 1
731 481 1
731 495 1
731 537 1
731 547 1
731 584 1
731 595 1
731 653 1
731 687 1
731 748 1
731 763 1
731 772 1
731 787 1
732 7 1
732 13 1
732 18 1
732 26 1
732 36 1
732 51 1
732 93 1
732 116 1
732 130 1
732 143 1
732 151 1
732 156 1
732 164 1
732 165 1
732 208 1
732 229 1
732 230 1
732 232 1
732 235 1
732 242 1
732 245 1
732 249 1
732 267 1
732 273 1
732 281 1
732 308 1
732 311 1
732 330 1
732 350 1
732 391 1
732 413 1
732 421 1
732 424 1
732 442 1
732 464 1
732 511 1
732 514 1
732 524 1
732 536 1
732 541 1
732 559 1
732 561 1
732 581 1
732 584 1
732 587 1
732 599 1
732 606 1
732 662 1
732 672 1
732 679 1
732 682 1
732 707 1
732 718 1
732 725 1
732 737 1
732 750 1
732 751 1
732 768 1
732 781 1
732 790 1
733 20 1
733 26 1
733 32 1
733 102 1
733 110 1
733 111 1
733 120 1
733 124 1
733 159 1
733 162 1
733 163 1
733 172 1
733 179 1
733 188 1
733 194 1
733 201 1
733 213 1
733 233 1
733 242 1
733 257 1
733 292 1
733 296 1
733 311 1
733 357 1
733 371 1
733 383 1
733 394 1
733 443 1
733 456 1
733 476 1
733 489 1
733 498 1
733 499 1
733 506 1
733 520 1
733 523 1
733 550 1
733 584 1
733 592 1
733 604 1
733 608 1
733 623 1
733 632 1
733 636 1
733 651 1
733 664 1
733 685 1
733 735 1
733 752 1
734 21 1
734 31 1
734 35 1
734 39 1
734 56 1
734 91 1
734 92 1
734 94 1
734 122 1
734 149 1
734 155 1
734 160 1
734 161 1
734 183 1
734 206 1
734 219 1
734 237 1
734 258 1
734 260 1
734 273 1
734 334 1
734 358 1
734 362 1
734 383 1
734 386 1
734 469 1
734 470 1
734 477 1
734 509 1
734 559 1
734 607 1
734 620 1
734 631 1
734 632 1
734 649 1
734 654 1
734 689 1
734 717 1
734 725 1
734 750 1
734 751 1
734 769 1
735 23 1
735 39 1
735 76 1
735 90 1
735 126 1
735 166 1
735 207 1
735 216 1
735 225 1
735 232 1
735 241 1
735 242 1
735 270 1
735 286 1
735 308 1
735 313 1
735 334 1
735 366 1
735 398 1
735 402 1
735 430 1
735 438 1
735 460 1
735 472 1
735 516 1
735 562 1
735 570 1
735 577 1
735 589 1
735 597 1
735 610 1
735 642 1
735 659 1
735 664 1
735 671 1
735 681 1
735 716 1
735 718 1
735 724 1
735 733 1
735 740 1
735 747 1
735 752 1
735 757 1
736 8 1
736 46 1
736 53 1
736 60 1
736 133 1
736 158 1
736 176 1
736 186 1
736 201 1
736 238 1
736 253 1
736 255 1
736 271 1
736 272 1
736 278 1
736 293 1
736 305 1
736 306 1
736 318 1
736 339 1
736 340 1
736 341 1
736 387 1
736 418 1
736 432 1
736 434 1
736 436 1
736 445 1
736 455 1
736 486 1
736 497 1
736 499 1
736 501 1
736 508 1
736 520 1
736 550 1
736 555 1
736 559 1
736 569 1
736 622 1
736 646 1
736 668 1
736 681 1
736 686 1
736 713 1
736 719 1
736 740 1
736 745 1
736 766 1
736 787 1
737 3 1
737 5 1
737 7 1
737 31 1
737 53 1
737 58 1
737 129 1
737 131 1
737 157 1
737 172 1
737 176 1
737 212 1
737 219 1
737 244 1
737 249 1
737 278 1
737 315 1
737 318 1
737 327 1
737 328 1
737 355 1
737 358 1
737 361 1
737 372 1
737 381 1
737 389 1
737 421 1
737 436 1
737 503 1
737 510 1
737 561 1
737 570 1
737 609 1
737 631 1
737 635 1
737 645 1
737 646 1
737 659 1
737 682 1
737 688 1
737 732 1
737 761 1
737 769 1
737 774 1
737 788 1
737 794 1
737 800 1
738 2 1
738 19 1
738 37 1
738 52 1
738 65 1
738 74 1
738 108 1
738 145 1
738 147 1
738 163 1
738 170 1
738 173 1
738 182 1
738 196 1
738 197 1
738 201 1
738 219 1
738 229 1
738 230 1
738 250 1
738 251 1
738 254 1
738 255 1
738 274 1
738 295 1
738 350 1
738 355 1
738 383 1
738 396 1
738 405 1
738 426 1
738 429 1
738 439 1
738 440 1
738 453 1
738 477 1
738 478 1
738 493 1
738 501 1
738 503 1
738 509 1
738 542 1
738 556 1
738 580 1
738 597 1
738 606 1
738 627 1
738 631 1
738 646 1
738 694 1
738 699 1
738 704 1
738 706 1
738 725 1
738 741 1
738 756 1
738 765 1
738 774 1
738 790 1
738 800 1
739 14 1
739 33 1
739 104 1
739 134 1
739 140 1
739 159 1
739 160 1
739 185 1
739 216 1
739 225 1
739 253 1
739 254 1
739 277 1
739 286 1
739 294 1
739 301 1
739 312 1
739 313 1
739 314 1
739 357 1
739 365 1
739 370 1
739 371 1
739 379 1
739 433 1
739 449 1
739 451 1
739 464 1
739 488 1
739 502 1
739 516 1
739 521 1
739 531 1
739 597 1
739 601 1
739 617 1
739 656 1
739 660 1
739 676 1
739 692 1
739 696 1
739 724 1
739 756 1
739 777 1
739 795 1
740 23 1
740 27 1
740 45 1
740 46 1
740 48 1
740 51 1
740 67 1
740 68 1
740 72 1
740 78 1
740 111 1
740 129 1
740 144 1
740 157 1
740 210 1
740 214 1
740 219 1
740 221 1
740 228 1
740 233 1
740 241 1
740 247 1
740 254 1
740 257 1
740 266 1
740 271 1
740 289 1
740 303 1
740 339 1
740 398 1
740 415 1
740 430 1
740 431 1
740 458 1
740 464 1
740 482 1
740 495 1
740 522 1
740 550 1
740 574 1
740 582 1
740 600 1
740 643 1
740 651 1
740 654 1
740 670 1
740 684 1
740 735 1
740 736 1
740 761 1
740 762 1
740 777 1
740 782 1
740 798 1
741 28 1
741 42 1
741 66 1
741 148 1
741 174 1
741 194 1
741 242 1
741 253 1
741 298 1
741 312 1
741 336 1
741 338 1
741 340 1
741 385 1
741 391 1
741 392 1
741 406 1
741 411 1
741 423 1
741 429 1
741 492 1
741 494 1
741 498 1
741 541 1
741 567 1
741 584 1
741 589 1
741 604 1
741 632 1
741 660 1
741 676 1
741 726 1
741 738 1
741 797 1
742 37 1
742 43 1
742 48 1
742 55 1
742 56 1
742 60 1
742 67 1
742 70 1
742 71 1
742 101 1
742 102 1
742 103 1
742 109 1
742 111 1
742 132 1
742 163 1
742 172 1
742 196 1
742 221 1
742 245 1
742 247 1
742 277 1
742 280 1
742 324 1
742 333 1
742 339 1
742 367 1
742 372 1
742 377 1
742 381 1
742 416 1
742 429 1
742 491 1
742 492 1
742 508 1
742 538 1
742 551 1
742 562 1
742 563 1
742 570 1
742 575 1
742 597 1
742 599 1
742 625 1
742 634 1
742 638 1
742 700 1
742 743 1
742 763 1
742 775 1
742 777 1
742 784 1
742 800 1
743 2 1
743 10 1
743 20 1
743 66 1
743 85 1
743 163 1
743 188 1
743 204 1
743 231 1
743 244 1
743 250 1
743 325 1
743 331 1
743 347 1
743 370 1
743 378 1
743 389 1
743 398 1
743 425 1
743 426 1
743 434 1
743 437 1
743 457 1
743 474 1
743 478 1
743 490 1
743 496 1
743 551 1
743 578 1
743 594 1
743 607 1
743 612 1
743 631 1
743 647 1
743 684 1
743 742 1
743 762 1
743 767 1
743 788 1
743 797 1
744 39 1
744 43 1
744 96 1
744 97 1
744 163 1
744 170 1
744 218 1
744 230 1
744 287 1
744 317 1
744 331 1
744 336 1
744 337 1
744 345 1
744 349 1
744 378 1
744 380 1
744 400 1
744 401 1
744 434 1
744 440 1
744 445 1
744 476 1
744 532 1
744 556 1
744 557 1
744 598 1
744 609 1
744 640 1
744 651 1
744 656 1
744 688 1
744 696 1
744 718 1
744 729 1
744 750 1
744 752 1
744 783 1
744 791 1
744 800 1
745 28 1
745 32 1
745 61 1
745 65 1
745 68 1
745 86 1
745 118 1
745 124 1
745 139 1
745 157 1
745 161 1
745 165 1
745 188 1
745 195 1
745 201 1
745 205 1
745 234 1
745 236 1
745 249 1
745 251 1
745 275 1
745 281 1
745 284 1
745 316 1
745 329 1
745 339 1
745 360 1
745 372 1
745 382 1
745 419 1
745 427 1
745 433 1
745 439 1
745 442 1
745 469 1
745 487 1
745 517 1
745 526 1
745 532 1
745 542 1
745 578 1
745 611 1
745 661 1
745 687 1
745 693 1
745 703 1
745 709 1
745 722 1
745 724 1
745 736 1
745 778 1
745 796 1
746 7 1
746 13 1
746 69 1
746 73 1
746 77 1
746 114 1
746 130 1
746 165 1
746 189 1
746 215 1
746 227 1
746 238 1
746 261 1
746 290 1
746 293 1
746 302 1
746 308 1
746 311 1
746 361 1
746 371 1
746 381 1
746 382 1
746 387 1
746 389 1
746 392 1
746 396 1
746 397 1
746 403 1
746 463 1
746 468 1
746 473 1
746 494 1
746 497 1
746 517 1
746 523 1
746 530 1
746 538 1
746 563 1
746 583 1
746 590 1
746 650 1
746 658 1
746 697 1
746 699 1
746 701 1
746 709 1
746 756 1
746 772 1
746 794 1
747 8 1
747 16 1
747 25 1
747 44 1
747 48 1
747 49 1
747 68 1
747 69 1
747 74 1
747 81 1
747 87 1
747 98 1
747 104 1
747 124 1
747 128 1
747 155 1
747 196 1
747 202 1
747 245 1
747 252 1
747 268 1
747 304 1
747 353 1
747 354 1
747 359 1
747 362 1
747 366 1
747 369 1
747 383 1
747 392 1
747 393 1
747 449 1
747 479 1
747 491 1
747 504 1
747 515 1
747 523 1
747 533 1
747 555 1
747 557 1
747 615 1
747 619 1
747 624 1
747 646 1
747 657 1
747 677 1
747 685 1
747 701 1
747 709 1
747 729 1
747 735 1
747 751 1
747 752 1
747 770 1
748 14 1
748 45 1
748 48 1
748 50 1
748 66 1
748 69 1
748 104 1
748 118 1
748 136 1
748 137 1
748 150 1
748 156 1
748 167 1
748 196 1
748 234 1
748 244 1
748 259 1
748 268 1
748 313 1
748 370 1
748 378 1
748 386 1
748 388 1
748 415 1
748 437 1
748 445 1
748 487 1
748 489 1
748 512 1
748 527 1
748 540 1
748 563 1
748 593 1
748 596 1
748 599 1
748 635 1
748 646 1
748 650 1
748 680 1
748 731 1
748 752 1
748 768 1
748 779 1
748 790 1
749 57 1
749 80 1
749 83 1
749 101 1
749 111 1
749 143 1
749 153 1
749 157 1
749 159 1
749 170 1
749 172 1
749 195 1
749 230 1
749 241 1
749 247 1
749 253 1
749 272 1
749 301 1
749 369 1
749 414 1
749 432 1
749 446 1
749 459 1
749 471 1
749 479 1
749 501 1
749 503 1
749 515 1
749 530 1
749 545 1
749 547 1
749 566 1
749 577 1
749 593 1
749 599 1
749 602 1
749 603 1
749 607 1
749 612 1
749 613 1
749 644 1
749 664 1
749 677 1
749 680 1
749 689 1
749 703 1
749 728 1
750 6 1
750 37 1
750 46 1
750 81 1
750 99 1
750 122 1
750 130 1
750 136 1
750 147 1
750 152 1
750 168 1
750 213 1
750 220 1
750 267 1
750 285 1
750 306 1
750 309 1
750 313 1
750 331 1
750 336 1
750 348 1
750 371 1
750 376 1
750 377 1
750 406 1
750 414 1
750 436 1
750 454 1
750 455 1
750 485 1
750 510 1
750 542 1
750 551 1
750 605 1
750 632 1
750 642 1
750 689 1
750 715 1
750 727 1
750 732 1
750 734 1
750 744 1
750 787 1
751 14 1
751 49 1
751 53 1
751 153 1
751 168 1
751 177 1
751 182 1
751 201 1
751 202 1
751 204 1
751 213 1
751 233 1
751 251 1
751 260 1
751 267 1
751 271 1
751 295 1
751 311 1
751 320 1
751 322 1
751 330 1
751 333 1
751 359 1
751 445 1
751 465 1
751 500 1
751 542 1
751 567 1
751 576 1
751 579 1
751 589 1
751 617 1
751 637 1
751 656 1
751 659 1
751 686 1
751 691 1
751 698 1
751 732 1
751 734 1
751 747 1
751 755 1
751 779 1
751 796 1
751 798 1
752 3 1
752 42 1
752 66 1
752 70 1
752 85 1
752 86 1
752 147 1
752 149 1
752 153 1
752 162 1
752 176 1
752 190 1
752 200 1
752 238 1
752 241 1
752 249 1
752 255 1
752 256 1
752 285 1
752 307 1
752 333 1
752 335 1
752 337 1
752 368 1
752 396 1
752 399 1
752 402 1
752 419 1
752 424 1
752 457 1
752 462 1
752 520 1
752 522 1
752 526 1
752 549 1
752 556 1
752 572 1
752 573 1
752 608 1
752 635 1
752 651 1
752 682 1
752 685 1
752 724 1
752 729 1
752 733 1
752 735 1
752 744 1
752 747 1
752 748 1
752 769 1
753 60 1
753 80 1
753 88 1
753 97 1
753 100 1
753 104 1
753 113 1
753 149 1
753 151 1
753 163 1
753 198 1
753 213 1
753 229 1
753 234 1
753 247 1
753 261 1
753 287 1
753 299 1
753 315 1
753 355 1
753 362 1
753 439 1
753 441 1
753 462 1
753 509 1
753 563 1
753 612 1
753 626 1
753 646 1
753 672 1
753 705 1
753 721 1
753 789 1
754 11 1
754 15 1
754 66 1
754 81 1
754 99 1
754 102 1
754 115 1
754 146 1
754 171 1
754 174 1
754 175 1
754 195 1
754 206 1
754 238 1
754 243 1
754 249 1
754 252 1
754 273 1
754 278 1
754 283 1
754 299 1
754 302 1
754 307 1
754 321 1
754 328 1
754 349 1
754 353 1
754 361 1
754 390 1
754 419 1
754 425 1
754 447 1
754 461 1
754 484 1
754 522 1
754 524 1
754 544 1
754 565 1
754 567 1
754 574 1
754 600 1
754 602 1
754 627 1
754 644 1
754 660 1
754 672 1
754 687 1
754 711 1
754 723 1
754 756 1
754 768 1
754 772 1
754 778 1
754 791 1
754 800 1
755 2 1
755 39 1
755 49 1
755 53 1
755 76 1
755 118 1
755 127 1
755 143 1
755 174 1
755 177 1
755 179 1
755 197 1
755 257 1
755 262 1
755 283 1
755 310 1
755 321 1
755 324 1
755 333 1
755 349 1
755 353 1
755 355 1
755 377 1
755 415 1
755 419 1
755 445 1
755 452 1
755 458 1
755 488 1
755 507 1
755 530 1
755 548 1
755 578 1
755 598 1
755 599 1
755 650 1
755 660 1
755 663 1
755 666 1
755 701 1
755 708 1
755 719 1
755 751 1
755 766 1
755 776 1
755 784 1
755 793 1
756 12 1
756 33 1
756 59 1
756 67 1
756 68 1
756 90 1
756 91 1
756 107 1
756 129 1
756 131 1
756 141 1
756 148 1
756 159 1
756 160 1
756 164 1
756 166 1
756 186 1
756 228 1
756 246 1
756 268 1
756 281 1
756 295 1
756 298 1
756 309 1
756 329 1
756 341 1
756 344 1
756 354 1
756 357 1
756 358 1
756 369 1
756 370 1
756 379 1
756 382 1
756 386 1
756 401 1
756 404 1
756 416 1
756 423 1
756 432 1
756 454 1
756 508 1
756 546 1
756 548 1
756 558 1
756 623 1
756 638 1
756 663 1
756 664 1
756 702 1
756 738 1
756 739 1
756 746 1
756 754 1
756 770 1
756 792 1
757 5 1
757 9 1
757 19 1
757 39 1
757 89 1
757 95 1
757 105 1
757 106 1
757 107 1
757 116 1
757 118 1
757 122 1
757 123 1
757 135 1
757 156 1
757 232 1
757 255 1
757 259 1
757 298 1
757 308 1
757 340 1
757 362 1
757 372 1
757 411 1
757 443 1
757 449 1
757 475 1
757 504 1
757 513 1
757 519 1
757 526 1
757 552 1
757 586 1
757 588 1
757 594 1
757 595 1
757 620 1
757 678 1
757 695 1
757 696 1
757 735 1
757 770 1
757 775 1
757 785 1
758 63 1
758 84 1
758 86 1
758 92 1
758 104 1
758 114 1
758 144 1
758 159 1
758 203 1
758 229 1
758 263 1
758 284 1
758 293 1
758 300 1
758 316 1
758 320 1
758 357 1
758 363 1
758 379 1
758 389 1
758 409 1
758 417 1
758 427 1
758 453 1
758 462 1
758 471 1
758 488 1
758 513 1
758 536 1
758 539 1
758 545 1
758 547 1
758 548 1
758 562 1
758 577 1
758 597 1
758 605 1
758 614 1
758 631 1
758 637 1
758 682 1
758 689 1
758 702 1
758 705 1
758 761 1
758 764 1
758 789 1
759 14 1
759 24 1
759 35 1
759 40 1
759 44 1
759 49 1
759 84 1
759 90 1
759 129 1
759 137 1
759 139 1
759 146 1
759 147 1
759 154 1
759 168 1
759 183 1
759 202 1
759 214 1
759 258 1
759 259 1
759 278 1
759 280 1
759 306 1
759 347 1
759 354 1
759 376 1
759 399 1
759 402 1
759 404 1
759 408 1
759 417 1
759 421 1
759 425 1
759 433 1
759 459 1
759 491 1
759 495 1
759 535 1
759 540 1
759 547 1
759 551 1
759 573 1
759 593 1
759 622 1
759 630 1
759 672 1
759 712 1
759 730 1
759 784 1
759 786 1
759 793 1
760 14 1
760 25 1
760 71 1
760 96 1
760 152 1
760 158 1
760 163 1
760 188 1
760 192 1
760 206 1
760 214 1
760 219 1
760 220 1
760 267 1
760 270 1
760 271 1
760 277 1
760 303 1
760 310 1
760 311 1
760 315 1
760 322 1
760 424 1
760 463 1
760 487 1
760 495 1
760 496 1
760 511 1
760 528 1
760 536 1
760 567 1
760 583 1
760 586 1
760 604 1
760 627 1
760 630 1
760 637 1
760 651 1
760 652 1
760 660 1
760 673 1
760 688 1
760 692 1
760 694 1
760 701 1
760 710 1
760 719 1
760 724 1
760 773 1
760 778 1
761 4 1
761 18 1
761 38 1
761 49 1
761 50 1
761 54 1
761 66 1
761 86 1
761 96 1
761 141 1
761 143 1
761 151 1
761 182 1
761 195 1
761 220 1
761 247 1
761 264 1
761 266 1
761 289 1
761 298 1
761 315 1
761 349 1
761 379 1
761 424 1
761 427 1
761 434 1
761 458 1
761 491 1
761 494 1
761 498 1
761 511 1
761 529 1
761 555 1
761 584 1
761 587 1
761 593 1
761 637 1
761 670 1
761 683 1
761 706 1
761 723 1
761 737 1
761 740 1
761 758 1
761 765 1
761 770 1
761 785 1
761 794 1
762 30 1
762 42 1
762 61 1
762 72 1
762 86 1
762 97 1
762 119 1
762 150 1
762 157 1
762 166 1
762 182 1
762 192 1
762 213 1
762 215 1
762 232 1
762 301 1
762 312 1
762 320 1
762 322 1
762 323 1
762 330 1
762 391 1
762 461 1
762 467 1
762 487 1
762 507 1
762 515 1
762 534 1
762 551 1
762 589 1
762 595 1
762 596 1
762 604 1
762 612 1
762 627 1
762 635 1
762 637 1
762 701 1
762 712 1
762 725 1
762 726 1
762 728 1
762 740 1
762 743 1
762 768 1
762 787 1
763 30 1
763 94 1
763 120 1
763 134 1
763 141 1
763 165 1
763 166 1
763 170 1
763 214 1
763 223 1
763 252 1
763 265 1
763 277 1
763 292 1
763 294 1
763 306 1
763 311 1
763 325 1
763 367 1
763 387 1
763 407 1
763 409 1
763 411 1
763 413 1
763 429 1
763 435 1
763 444 1
763 460 1
763 476 1
763 491 1
763 493 1
763 506 1
763 507 1
763 543 1
763 555 1
763 574 1
763 586 1
763 596 1
763 598 1
763 611 1
763 612 1
763 671 1
763 679 1
763 687 1
763 699 1
763 704 1
763 717 1
763 731 1
763 742 1
763 768 1
763 773 1
763 785 1
763 790 1
763 800 1
764 4 1
764 11 1
764 27 1
764 34 1
764 50 1
764 87 1
764 115 1
764 129 1
764 150 1
764 205 1
764 213 1
764 215 1
764 222 1
764 235 1
764 247 1
764 282 1
764 302 1
764 306 1
764 326 1
764 367 1
764 373 1
764 380 1
764 382 1
764 399 1
764 404 1
764 428 1
764 433 1
764 435 1
764 467 1
764 479 1
764 485 1
764 497 1
764 500 1
764 512 1
764 526 1
764 528 1
764 529 1
764 537 1
764 574 1
764 576 1
764 581 1
764 602 1
764 630 1
764 651 1
764 667 1
764 758 1
764 776 1
765 10 1
765 16 1
765 18 1
765 49 1
765 89 1
765 106 1
765 176 1
765 179 1
765 189 1
765 213 1
765 226 1
765 292 1
765 314 1
765 335 1
765 347 1
765 361 1
765 383 1
765 389 1
765 450 1
765 470 1
765 487 1
765 508 1
765 510 1
765 521 1
765 535 1
765 544 1
765 547 1
765 557 1
765 622 1
765 626 1
765 639 1
765 655 1
765 660 1
765 715 1
765 738 1
765 761 1
765 787 1
766 75 1
766 88 1
766 97 1
766 102 1
766 111 1
766 155 1
766 187 1
766 195 1
766 200 1
766 204 1
766 205 1
766 225 1
766 229 1
766 260 1
766 284 1
766 313 1
766 314 1
766 327 1
766 329 1
766 352 1
766 369 1
766 372 1
766 375 1
766 376 1
766 396 1
766 426 1
766 443 1
766 452 1
766 472 1
766 493 1
766 510 1
766 515 1
766 573 1
766 579 1
766 581 1
766 595 1
766 608 1
766 635 1
766 636 1
766 652 1
766 697 1
766 728 1
766 736 1
766 755 1
766 771 1
766 795 1
766 798 1
767 2 1
767 50 1
767 54 1
767 56 1
767 62 1
767 83 1
767 87 1
767 95 1
767 98 1
767 105 1
767 108 1
767 112 1
767 123 1
767 126 1
767 135 1
767 143 1
767 171 1
767 172 1
767 184 1
767 247 1
767 248 1
767 249 1
767 292 1
767 298 1
767 319 1
767 324 1
767 371 1
767 397 1
767 413 1
767 456 1
767 487 1
767 495 1
767 501 1
767 517 1
767 519 1
767 523 1
767 533 1
767 554 1
767 604 1
767 608 1
767 636 1
767 651 1
767 665 1
767 676 1
767 717 1
767 729 1
767 743 1
767 769 1
767 771 1
768 8 1
768 10 1
768 36 1
768 43 1
768 44 1
768 49 1
768 62 1
768 103 1
768 106 1
768 131 1
768 161 1
768 181 1
768 189 1
768 214 1
768 236 1
768 270 1
768 290 1
768 292 1
768 297 1
768 307 1
768 311 1
768 312 1
768 337 1
768 342 1
768 378 1
768 396 1
768 419 1
768 435 1
768 469 1
768 514 1
768 547 1
768 561 1
768 592 1
768 620 1
768 641 1
768 662 1
768 674 1
768 707 1
768 709 1
768 732 1
768 748 1
768 754 1
768 762 1
768 763 1
768 773 1
768 790 1
769 5 1
769 26 1
769 56 1
769 69 1
769 71 1
769 76 1
769 106 1
769 128 1
769 143 1
769 186 1
769 193 1
769 194 1
769 202 1
769 212 1
769 219 1
769 225 1
769 243 1
769 267 1
769 278 1
769 287 1
769 298 1
769 339 1
769 345 1
769 360 1
769 404 1
769 409 1
769 413 1
769 432 1
769 434 1
769 450 1
769 482 1
769 504 1
769 554 1
769 564 1
769 587 1
769 626 1
769 637 1
769 653 1
769 669 1
769 683 1
769 734 1
769 737 1
769 752 1
769 767 1
769 792 1
770 16 1
770 18 1
770 19 1
770 36 1
770 56 1
770 71 1
770 98 1
770 106 1
770 107 1
770 115 1
770 124 1
770 125 1
770 174 1
770 201 1
770 203 1
770 268 1
770 278 1
770 299 1
770 318 1
770 330 1
770 334 1
770 340 1
770 372 1
770 420 1
770 432 1
770 443 1
770 468 1
770 477 1
770 484 1
770 490 1
770 498 1
770 499 1
770 503 1
770 514 1
770 545 1
770 552 1
770 625 1
770 636 1
770 648 1
770 655 1
770 679 1
770 681 1
770 704 1
770 719 1
770 721 1
770 747 1
770 756 1
770 757 1
770 761 1
770 771 1
770 772 1
770 782 1
771 64 1
771 91 1
771 110 1
771 113 1
771 142 1
771 147 1
771 148 1
771 164 1
771 201 1
771 207 1
771 240 1
771 283 1
771 333 1
771 348 1
771 350 1
771 361 1
771 370 1
771 379 1
771 408 1
771 419 1
771 458 1
771 465 1
771 492 1
771 504 1
771 535 1
771 544 1
771 552 1
771 568 1
771 641 1
771 655 1
771 657 1
771 690 1
771 697 1
771 726 1
771 766 1
771 767 1
771 770 1
771 794 1
772 9 1
772 10 1
772 72 1
772 84 1
772 123 1
772 128 1
772 131 1
772 146 1
772 156 1
772 206 1
772 208 1
772 210 1
772 220 1
772 257 1
772 258 1
772 260 1
772 266 1
772 285 1
772 291 1
772 304 1
772 310 1
772 321 1
772 329 1
772 333 1
772 367 1
772 409 1
772 426 1
772 442 1
772 456 1
772 464 1
772 475 1
772 500 1
772 523 1
772 525 1
772 526 1
772 578 1
772 590 1
772 617 1
772 629 1
772 644 1
772 662 1
772 671 1
772 704 1
772 707 1
772 731 1
772 746 1
772 754 1
772 770 1
772 788 1
773 8 1
773 42 1
773 44 1
773 51 1
773 62 1
773 67 1
773 73 1
773 117 1
773 129 1
773 131 1
773 160 1
773 183 1
773 184 1
773 185 1
773 194 1
773 240 1
773 259 1
773 265 1
773 275 1
773 280 1
773 303 1
773 311 1
773 326 1
773 346 1
773 356 1
773 372 1
773 381 1
773 382 1
773 384 1
773 414 1
773 415 1
773 435 1
773 458 1
773 479 1
773 481 1
773 493 1
773 510 1
773 520 1
773 525 1
773 538 1
773 551 1
773 583 1
773 587 1
773 594 1
773 601 1
773 614 1
773 645 1
773 664 1
773 677 1
773 678 1
773 706 1
773 710 1
773 760 1
773 763 1
773 768 1
773 774 1
774 11 1
774 23 1
774 56 1
774 65 1
774 76 1
774 78 1
774 103 1
774 134 1
774 139 1
774 142 1
774 152 1
774 170 1
774 172 1
774 201 1
774 213 1
774 242 1
774 260 1
774 263 1
774 293 1
774 304 1
774 310 1
774 334 1
774 348 1
774 381 1
774 392 1
774 398 1
774 434 1
774 446 1
774 451 1
774 468 1
774 475 1
774 517 1
774 539 1
774 543 1
774 549 1
774 550 1
774 604 1
774 634 1
774 644 1
774 654 1
774 671 1
774 686 1
774 719 1
774 725 1
774 737 1
774 738 1
774 773 1
775 14 1
775 22 1
775 71 1
775 79 1
775 89 1
775 91 1
775 95 1
775 97 1
775 106 1
775 107 1
775 116 1
775 129 1
775 171 1
775 173 1
775 178 1
775 227 1
775 269 1
775 277 1
775 333 1
775 345 1
775 358 1
775 412 1
775 419 1
775 431 1
775 453 1
775 456 1
775 464 1
775 472 1
775 477 1
775 516 1
775 559 1
775 563 1
775 569 1
775 609 1
775 612 1
775 618 1
775 627 1
775 636 1
775 639 1
775 706 1
775 742 1
775 757 1
775 786 1
775 799 1
776 7 1
776 10 1
776 28 1
776 31 1
776 41 1
776 47 1
776 59 1
776 66 1
776 69 1
776 75 1
776 78 1
776 80 1
776 81 1
776 89 1
776 101 1
776 115 1
776 120 1
776 127 1
776 162 1
776 169 1
776 215 1
776 217 1
776 240 1
776 244 1
776 282 1
776 283 1
776 285 1
776 304 1
776 308 1
776 317 1
776 322 1
776 325 1
776 328 1
776 331 1
776 344 1
776 350 1
776 409 1
776 413 1
776 423 1
776 440 1
776 463 1
776 481 1
776 503 1
776 508 1
776 509 1
776 517 1
776 557 1
776 573 1
776 625 1
776 627 1
776 630 1
776 632 1
776 636 1
776 669 1
776 715 1
776 716 1
776 720 1
776 729 1
776 755 1
776 764 1
776 778 1
776 780 1
776 794 1
777 17 1
777 80 1
777 96 1
777 128 1
777 134 1
777 137 1
777 138 1
777 147 1
777 157 1
777 165 1
777 229 1
777 261 1
777 325 1
777 338 1
777 344 1
777 348 1
777 370 1
777 381 1
777 394 1
777 413 1
777 429 1
777 485 1
777 497 1
777 512 1
777 518 1
777 524 1
777 545 1
777 565 1
777 582 1
777 588 1
777 634 1
777 685 1
777 688 1
777 713 1
777 729 1
777 739 1
777 740 1
777 742 1
777 779 1
777 780 1
778 9 1
778 19 1
778 52 1
778 53 1
778 78 1
778 79 1
778 97 1
778 112 1
778 117 1
778 120 1
778 127 1
778 156 1
778 177 1
778 207 1
778 226 1
778 233 1
778 244 1
778 249 1
778 250 1
778 276 1
778 286 1
778 296 1
778 305 1
778 333 1
778 352 1
778 374 1
778 408 1
778 415 1
778 420 1
778 446 1
778 458 1
778 459 1
778 460 1
778 475 1
778 477 1
778 479 1
778 480 1
778 487 1
778 504 1
778 507 1
778 519 1
778 524 1
778 555 1
778 556 1
778 564 1
778 575 1
778 576 1
778 605 1
778 606 1
778 611 1
778 660 1
778 688 1
778 719 1
778 745 1
778 754 1
778 760 1
778 776 1
778 781 1
778 792 1
778 794 1
778 799 1
779 3 1
779 25 1
779 52 1
779 55 1
779 83 1
779 85 1
779 117 1
779 140 1
779 144 1
779 154 1
779 166 1
779 178 1
779 197 1
779 203 1
779 236 1
779 259 1
779 268 1
779 288 1
779 290 1
779 304 1
779 317 1
779 346 1
779 359 1
779 364 1
779 382 1
779 443 1
779 505 1
779 512 1
779 513 1
779 529 1
779 544 1
779 548 1
779 562 1
779 585 1
779 587 1
779 626 1
779 631 1
779 633 1
779 642 1
779 663 1
779 684 1
779 748 1
779 751 1
779 777 1
779 792 1
779 798 1
780 14 1
780 30 1
780 73 1
780 74 1
780 79 1
780 87 1
780 106 1
780 126 1
780 127 1
780 175 1
780 213 1
780 276 1
780 282 1
780 322 1
780 413 1
780 417 1
780 422 1
780 429 1
780 441 1
780 448 1
780 457 1
780 459 1
780 468 1
780 478 1
780 487 1
780 493 1
780 505 1
780 558 1
780 560 1
780 564 1
780 565 1
780 567 1
780 586 1
780 590 1
780 602 1
780 636 1
780 641 1
780 655 1
780 663 1
780 668 1
780 692 1
780 698 1
780 705 1
780 776 1
780 777 1
780 788 1
781 6 1
781 46 1
781 95 1
781 104 1
781 108 1
781 128 1
781 149 1
781 160 1
781 176 1
781 180 1
781 183 1
781 185 1
781 209 1
781 217 1
781 229 1
781 253 1
781 256 1
781 278 1
781 295 1
781 301 1
781 319 1
781 344 1
781 350 1
781 385 1
781 398 1
781 415 1
781 439 1
781 445 1
781 469 1
781 495 1
781 513 1
781 518 1
781 519 1
781 525 1
781 527 1
781 556 1
781 561 1
781 572 1
781 577 1
781 587 1
781 592 1
781 601 1
781 653 1
781 659 1
781 694 1
781 697 1
781 711 1
781 732 1
781 778 1
781 787 1
781 792 1
782 14 1
782 15 1
782 35 1
782 41 1
782 90 1
782 97 1
782 117 1
782 124 1
782 140 1
782 143 1
782 162 1
782 163 1
782 169 1
782 186 1
782 200 1
782 203 1
782 263 1
782 275 1
782 277 1
782 291 1
782 295 1
782 298 1
782 308 1
782 311 1
782 318 1
782 319 1
782 324 1
782 361 1
782 387 1
782 391 1
782 400 1
782 407 1
782 416 1
782 425 1
782 433 1
782 499 1
782 523 1
782 524 1
782 535 1
782 550 1
782 551 1
782 555 1
782 556 1
782 558 1
782 577 1
782 598 1
782 609 1
782 612 1
782 619 1
782 622 1
782 634 1
782 637 1
782 641 1
782 655 1
782 660 1
782 673 1
782 686 1
782 688 1
782 706 1
782 710 1
782 714 1
782 740 1
782 770 1
783 26 1
783 47 1
783 50 1
783 52 1
783 71 1
783 108 1
783 139 1
783 171 1
783 179 1
783 186 1
783 192 1
783 203 1
783 205 1
783 207 1
783 220 1
783 235 1
783 243 1
783 247 1
783 281 1
783 291 1
783 293 1
783 301 1
783 311 1
783 317 1
783 322 1
783 333 1
783 361 1
783 388 1
783 389 1
783 410 1
783 411 1
783 419 1
783 441 1
783 442 1
783 451 1
783 493 1
783 508 1
783 509 1
783 511 1
783 519 1
783 520 1
783 526 1
783 533 1
783 542 1
783 552 1
783 561 1
783 562 1
783 563 1
783 578 1
783 613 1
783 640 1
783 666 1
783 668 1
783 689 1
783 697 1
783 721 1
783 723 1
783 726 1
783 730 1
783 744 1
783 797 1
783 799 1
784 46 1
784 49 1
784 50 1
784 63 1
784 64 1
784 127 1
784 141 1
784 192 1
784 205 1
784 219 1
784 220 1
784 251 1
784 265 1
784 266 1
784 296 1
784 306 1
784 317 1
784 326 1
784 369 1
784 378 1
784 390 1
784 466 1
784 469 1
784 480 1
784 523 1
784 526 1
784 534 1
784 552 1
784 569 1
784 570 1
784 573 1
784 576 1
784 578 1
784 580 1
784 585 1
784 596 1
784 602 1
784 606 1
784 621 1
784 624 1
784 678 1
784 742 1
784 755 1
784 759 1
784 790 1
785 6 1
785 11 1
785 25 1
785 34 1
785 76 1
785 77 1
785 79 1
785 105 1
785 124 1
785 181 1
785 189 1
785 208 1
785 219 1
785 235 1
785 236 1
785 242 1
785 261 1
785 295 1
785 322 1
785 343 1
785 361 1
785 363 1
785 388 1
785 410 1
785 414 1
785 419 1
785 442 1
785 457 1
785 465 1
785 471 1
785 476 1
785 484 1
785 516 1
785 548 1
785 564 1
785 587 1
785 592 1
785 599 1
785 648 1
785 670 1
785 757 1
785 761 1
785 763 1
785 791 1
785 793 1
786 11 1
786 15 1
786 46 1
786 54 1
786 56 1
786 73 1
786 99 1
786 107 1
786 133 1
786 146 1
786 212 1
786 234 1
786 257 1
786 330 1
786 353 1
786 355 1
786 425 1
786 439 1
786 448 1
786 461 1
786 464 1
786 483 1
786 498 1
786 534 1
786 544 1
786 593 1
786 598 1
786 611 1
786 640 1
786 675 1
786 686 1
786 718 1
786 720 1
786 759 1
786 775 1
786 792 1
786 796 1
787 36 1
787 85 1
787 93 1
787 95 1
787 102 1
787 114 1
787 120 1
787 146 1
787 155 1
787 176 1
787 186 1
787 193 1
787 220 1
787 272 1
787 276 1
787 285 1
787 338 1
787 345 1
787 356 1
787 360 1
787 367 1
787 415 1
787 427 1
787 447 1
787 467 1
787 475 1
787 482 1
787 538 1
787 551 1
787 561 1
787 615 1
787 625 1
787 631 1
787 639 1
787 649 1
787 654 1
787 662 1
787 672 1
787 687 1
787 696 1
787 725 1
787 726 1
787 731 1
787 736 1
787 750 1
787 762 1
787 765 1
787 781 1
787 788 1
787 799 1
788 5 1
788 29 1
788 40 1
788 93 1
788 109 1
788 117 1
788 125 1
788 128 1
788 162 1
788 199 1
788 204 1
788 216 1
788 225 1
788 229 1
788 275 1
788 288 1
788 296 1
788 306 1
788 308 1
788 339 1
788 385 1
788 395 1
788 413 1
788 432 1
788 436 1
788 447 1
788 448 1
788 459 1
788 497 1
788 515 1
788 522 1
788 525 1
788 530 1
788 547 1
788 553 1
788 559 1
788 575 1
788 631 1
788 657 1
788 674 1
788 692 1
788 697 1
788 704 1
788 707 1
788 717 1
788 737 1
788 743 1
788 772 1
788 780 1
788 787 1
788 790 1
788 798 1
789 22 1
789 25 1
789 30 1
789 85 1
789 94 1
789 103 1
789 123 1
789 142 1
789 145 1
789 210 1
789 219 1
789 220 1
789 259 1
789 271 1
789 284 1
789 303 1
789 310 1
789 329 1
789 367 1
789 371 1
789 380 1
789 392 1
789 393 1
789 396 1
789 397 1
789 405 1
789 413 1
789 435 1
789 445 1
789 457 1
789 463 1
789 486 1
789 497 1
789 499 1
789 517 1
789 518 1
789 556 1
789 583 1
789 586 1
789 609 1
789 617 1
789 634 1
789 649 1
789 653 1
789 674 1
789 681 1
789 753 1
789 758 1
790 6 1
790 85 1
790 115 1
790 200 1
790 216 1
790 220 1
790 222 1
790 245 1
790 247 1
790 292 1
790 316 1
790 354 1
790 368 1
790 372 1
790 374 1
790 382 1
790 387 1
790 395 1
790 436 1
790 447 1
790 449 1
790 450 1
790 471 1
790 511 1
790 525 1
790 555 1
790 563 1
790 599 1
790 627 1
790 639 1
790 649 1
790 684 1
790 710 1
790 722 1
790 732 1
790 738 1
790 748 1
790 763 1
790 768 1
790 784 1
790 788 1
790 795 1
791 17 1
791 73 1
791 78 1
791 100 1
791 145 1
791 159 1
791 168 1
791 198 1
791 221 1
791 225 1
791 250 1
791 270 1
791 302 1
791 315 1
791 334 1
791 345 1
791 349 1
791 350 1
791 378 1
791 387 1
791 397 1
791 414 1
791 426 1
791 432 1
791 449 1
791 475 1
791 481 1
791 485 1
791 509 1
791 517 1
791 522 1
791 534 1
791 548 1
791 555 1
791 579 1
791 582 1
791 597 1
791 602 1
791 617 1
791 623 1
791 628 1
791 644 1
791 695 1
791 700 1
791 701 1
791 723 1
791 724 1
791 726 1
791 744 1
791 754 1
791 785 1
792 2 1
792 5 1
792 6 1
792 18 1
792 36 1
792 39 1
792 45 1
792 83 1
792 106 1
792 125 1
792 146 1
792 151 1
792 174 1
792 175 1
792 199 1
792 223 1
792 257 1
792 276 1
792 296 1
792 303 1
792 326 1
792 328 1
792 331 1
792 345 1
792 358 1
792 366 1
792 384 1
792 386 1
792 422 1
792 428 1
792 443 1
792 452 1
792 469 1
792 502 1
792 510 1
792 532 1
792 553 1
792 577 1
792 608 1
792 628 1
792 631 1
792 640 1
792 652 1
792 663 1
792 705 1
792 756 1
792 769 1
792 778 1
792 779 1
792 781 1
792 786 1
793 4 1
793 13 1
793 45 1
793 50 1
793 55 1
793 79 1
793 107 1
793 114 1
793 117 1
793 125 1
793 143 1
793 168 1
793 195 1
793 203 1
793 209 1
793 215 1
793 251 1
793 260 1
793 271 1
793 285 1
793 301 1
793 303 1
793 337 1
793 352 1
793 384 1
793 394 1
793 400 1
793 413 1
793 418 1
793 442 1
793 445 1
793 447 1
793 482 1
793 489 1
793 495 1
793 508 1
793 515 1
793 527 1
793 547 1
793 591 1
793 592 1
793 617 1
793 621 1
793 639 1
793 648 1
793 672 1
793 703 1
793 730 1
793 755 1
793 759 1
793 785 1
794 8 1
794 17 1
794 28 1
794 77 1
794 124 1
794 143 1
794 159 1
794 190 1
794 202 1
794 237 1
794 255 1
794 283 1
794 285 1
794 296 1
794 305 1
794 309 1
794 319 1
794 352 1
794 423 1
794 455 1
794 469 1
794 489 1
794 500 1
794 517 1
794 528 1
794 534 1
794 546 1
794 550 1
794 555 1
794 571 1
794 575 1
794 586 1
794 600 1
794 605 1
794 620 1
794 625 1
794 633 1
794 648 1
794 670 1
794 694 1
794 737 1
794 746 1
794 761 1
794 771 1
794 776 1
794 778 1
794 796 1
794 797 1
794 799 1
795 1 1
795 6 1
795 17 1
795 26 1
795 75 1
795 96 1
795 97 1
795 103 1
795 110 1
795 114 1
795 128 1
795 169 1
795 191 1
795 199 1
795 260 1
795 263 1
795 267 1
795 308 1
795 325 1
795 332 1
795 335 1
795 344 1
795 388 1
795 418 1
795 424 1
795 440 1
795 483 1
795 530 1
795 544 1
795 571 1
795 596 1
795 600 1
795 610 1
795 627 1
795 629 1
795 666 1
795 677 1
795 684 1
795 691 1
795 704 1
795 708 1
795 721 1
795 739 1
795 766 1
795 790 1
796 8 1
796 13 1
796 29 1
796 77 1
796 90 1
796 133 1
796 146 1
796 191 1
796 203 1
796 225 1
796 231 1
796 233 1
796 236 1
796 254 1
796 272 1
796 280 1
796 289 1
796 291 1
796 317 1
796 321 1
796 336 1
796 385 1
796 387 1
796 389 1
796 401 1
796 415 1
796 449 1
796 450 1
796 457 1
796 462 1
796 481 1
796 482 1
796 483 1
796 509 1
796 534 1
796 550 1
796 552 1
796 570 1
796 600 1
796 642 1
796 651 1
796 665 1
796 672 1
796 683 1
796 692 1
796 701 1
796 709 1
796 719 1
796 724 1
796 745 1
796 751 1
796 786 1
796 794 1
797 46 1
797 62 1
797 65 1
797 66 1
797 88 1
797 98 1
797 116 1
797 204 1
797 213 1
797 215 1
797 218 1
797 232 1
797 281 1
797 326 1
797 341 1
797 409 1
797 417 1
797 477 1
797 495 1
797 499 1
797 531 1
797 536 1
797 546 1
797 579 1
797 590 1
797 604 1
797 622 1
797 674 1
797 691 1
797 692 1
797 705 1
797 741 1
797 743 1
797 783 1
797 794 1
798 34 1
798 37 1
798 43 1
798 55 1
798 61 1
798 72 1
798 103 1
798 131 1
798 138 1
798 144 1
798 175 1
798 176 1
798 179 1
798 211 1
798 213 1
798 214 1
798 256 1
798 257 1
798 268 1
798 304 1
798 322 1
798 333 1
798 339 1
798 368 1
798 376 1
798 508 1
798 525 1
798 548 1
798 549 1
798 571 1
798 584 1
798 591 1
798 598 1
798 602 1
798 621 1
798 665 1
798 673 1
798 693 1
798 713 1
798 740 1
798 751 1
798 766 1
798 779 1
798 788 1
799 12 1
799 16 1
799 29 1
799 37 1
799 60 1
799 176 1
799 179 1
799 252 1
799 275 1
799 309 1
799 323 1
799 325 1
799 331 1
799 354 1
799 360 1
799 376 1
799 424 1
799 451 1
799 462 1
799 476 1
799 482 1
799 492 1
799 580 1
799 594 1
799 612 1
799 639 1
799 660 1
799 679 1
799 775 1
799 778 1
799 783 1
799 787 1
799 794 1
800 2 1
800 17 1
800 32 1
800 97 1
800 118 1
800 164 1
800 182 1
800 201 1
800 207 1
800 237 1
800 239 1
800 259 1
800 266 1
800 276 1
800 285 1
800 346 1
800 379 1
800 390 1
800 405 1
800 408 1
800 432 1
800 438 1
800 454 1
800 494 1
800 500 1
800 528 1
800 543 1
800 559 1
800 566 1
800 586 1
800 597 1
800 619 1
800 622 1
800 624 1
800 639 1
800 653 1
800 660 1
800 688 1
800 698 1
800 712 1
800 722 1
800 724 1
800 737 1
800 738 1
800 742 1
800 744 1
800 754 1
800 763 1
