%%MatrixMarket matrix coordinate real general
%
800 800 38352
1 24 1
1 55 1
1 101 1
1 107 1
1 129 1
1 140 1
1 147 1
1 163 1
1 180 1
1 189 1
1 195 1
1 202 1
1 241 1
1 247 1
1 251 1
1 268 1
1 291 1
1 297 1
1 312 1
1 329 1
1 342 1
1 361 1
1 367 1
1 370 1
1 394 1
1 419 1
1 445 1
1 464 1
1 482 1
1 541 1
1 576 1
1 577 1
1 599 1
1 626 1
1 637 1
1 686 1
1 738 1
1 762 1
1 776 1
1 793 1
1 794 1
2 38 1
2 53 1
2 63 1
2 70 1
2 80 1
2 81 1
2 94 1
2 168 1
2 184 1
2 213 1
2 236 1
2 253 1
2 283 1
2 296 1
2 298 1
2 311 1
2 319 1
2 340 1
2 364 1
2 409 1
2 434 1
2 466 1
2 470 1
2 476 1
2 501 1
2 508 1
2 510 1
2 511 1
2 555 1
2 573 1
2 577 1
2 587 1
2 596 1
2 611 1
2 650 1
2 670 1
2 685 1
2 690 1
2 722 1
2 727 1
2 753 1
3 28 1
3 45 1
3 55 1
3 91 1
3 102 1
3 107 1
3 110 1
3 111 1
3 113 1
3 121 1
3 129 1
3 145 1
3 228 1
3 239 1
3 241 1
3 280 1
3 311 1
3 315 1
3 322 1
3 353 1
3 364 1
3 380 1
3 381 1
3 402 1
3 428 1
3 434 1
3 444 1
3 449 1
3 452 1
3 495 1
3 513 1
3 523 1
3 528 1
3 562 1
3 588 1
3 604 1
3 611 1
3 631 1
3 645 1
3 666 1
3 679 1
3 697 1
3 712 1
3 727 1
3 762 1
3 778 1
3 782 1
4 14 1
4 39 1
4 41 1
4 51 1
4 55 1
4 88 1
4 90 1
4 92 1
4 99 1
4 109 1
4 125 1
4 127 1
4 131 1
4 152 1
4 166 1
4 169 1
4 188 1
4 207 1
4 210 1
4 215 1
4 222 1
4 286 1
4 297 1
4 304 1
4 321 1
4 351 1
4 358 1
4 400 1
4 403 1
4 409 1
4 416 1
4 440 1
4 457 1
4 496 1
4 535 1
4 550 1
4 562 1
4 570 1
4 574 1
4 587 1
4 604 1
4 609 1
4 620 1
4 639 1
4 694 1
4 700 1
4 719 1
4 723 1
4 736 1
4 747 1
4 769 1
5 29 1
5 30 1
5 70 1
5 71 1
5 83 1
5 97 1
5 110 1
5 121 1
5 195 1
5 203 1
5 206 1
5 215 1
5 233 1
5 236 1
5 244 1
5 260 1
5 271 1
5 276 1
5 279 1
5 281 1
5 282 1
5 283 1
5 289 1
5 296 1
5 301 1
5 302 1
5 363 1
5 365 1
5 388 1
5 391 1
5 433 1
5 439 1
5 449 1
5 451 1
5 482 1
5 496 1
5 516 1
5 533 1
5 560 1
5 613 1
5 622 1
5 634 1
5 649 1
5 664 1
5 669 1
5 673 1
5 685 1
5 689 1
5 696 1
5 706 1
5 721 1
5 727 1
5 745 1
5 764 1
5 793 1
6 28 1
6 49 1
6 89 1
6 96 1
6 102 1
6 109 1
6 136 1
6 144 1
6 150 1
6 154 1
6 156 1
6 157 1
6 208 1
6 213 1
6 223 1
6 225 1
6 227 1
6 263 1
6 281 1
6 286 1
6 311 1
6 334 1
6 348 1
6 368 1
6 402 1
6 410 1
6 411 1
6 436 1
6 438 1
6 451 1
6 453 1
6 465 1
6 488 1
6 490 1
6 500 1
6 511 1
6 548 1
6 558 1
6 591 1
6 596 1
6 612 1
6 623 1
6 639 1
6 681 1
6 682 1
6 723 1
6 727 1
6 754 1
6 764 1
6 765 1
6 771 1
6 772 1
6 780 1
6 783 1
7 12 1
7 38 1
7 40 1
7 60 1
7 77 1
7 102 1
7 113 1
7 143 1
7 167 1
7 172 1
7 184 1
7 185 1
7 221 1
7 231 1
7 254 1
7 283 1
7 289 1
7 333 1
7 338 1
7 365 1
7 412 1
7 431 1
7 448 1
7 534 1
7 536 1
7 557 1
7 558 1
7 566 1
7 591 1
7 612 1
7 644 1
7 658 1
7 669 1
7 706 1
7 716 1
7 738 1
7 750 1
7 768 1
7 774 1
8 30 1
8 40 1
8 50 1
8 61 1
8 71 1
8 75 1
8 92 1
8 129 1
8 148 1
8 167 1
8 178 1
8 181 1
8 227 1
8 242 1
8 247 1
8 257 1
8 280 1
8 286 1
8 314 1
8 315 1
8 339 1
8 344 1
8 348 1
8 350 1
8 363 1
8 384 1
8 389 1
8 412 1
8 447 1
8 450 1
8 508 1
8 530 1
8 575 1
8 582 1
8 636 1
8 644 1
8 645 1
8 685 1
8 694 1
8 776 1
8 784 1
8 800 1
9 47 1
9 51 1
9 106 1
9 109 1
9 116 1
9 138 1
9 151 1
9 156 1
9 178 1
9 179 1
9 202 1
9 206 1
9 222 1
9 227 1
9 235 1
9 242 1
9 270 1
9 283 1
9 288 1
9 315 1
9 317 1
9 363 1
9 376 1
9 403 1
9 408 1
9 415 1
9 416 1
9 423 1
9 433 1
9 468 1
9 473 1
9 503 1
9 537 1
9 544 1
9 567 1
9 575 1
9 593 1
9 602 1
9 614 1
9 630 1
9 705 1
9 730 1
9 739 1
9 740 1
9 742 1
9 746 1
9 774 1
9 775 1
10 65 1
10 74 1
10 86 1
10 93 1
10 95 1
10 105 1
10 108 1
10 124 1
10 127 1
10 131 1
10 138 1
10 145 1
10 148 1
10 171 1
10 240 1
10 249 1
10 261 1
10 272 1
10 297 1
10 320 1
10 326 1
10 330 1
10 372 1
10 374 1
10 392 1
10 417 1
10 441 1
10 443 1
10 498 1
10 503 1
10 508 1
10 540 1
10 566 1
10 573 1
10 577 1
10 607 1
10 614 1
10 616 1
10 662 1
10 692 1
10 710 1
10 717 1
10 734 1
10 736 1
10 752 1
10 753 1
10 774 1
10 777 1
10 783 1
10 787 1
11 33 1
11 45 1
11 52 1
11 70 1
11 113 1
11 125 1
11 140 1
11 150 1
11 172 1
11 184 1
11 188 1
11 212 1
11 271 1
11 312 1
11 348 1
11 355 1
11 359 1
11 367 1
11 423 1
11 427 1
11 434 1
11 468 1
11 469 1
11 473 1
11 483 1
11 522 1
11 535 1
11 548 1
11 550 1
11 606 1
11 620 1
11 625 1
11 629 1
11 635 1
11 661 1
11 678 1
11 695 1
11 697 1
11 706 1
11 721 1
11 722 1
11 731 1
11 784 1
11 787 1
12 7 1
12 32 1
12 38 1
12 54 1
12 72 1
12 79 1
12 137 1
12 142 1
12 143 1
12 145 1
12 154 1
12 177 1
12 202 1
12 209 1
12 238 1
12 239 1
12 320 1
12 388 1
12 396 1
12 446 1
12 458 1
12 470 1
12 478 1
12 483 1
12 485 1
12 504 1
12 510 1
12 512 1
12 518 1
12 542 1
12 587 1
12 596 1
12 611 1
12 614 1
12 650 1
12 679 1
12 697 1
12 735 1
12 742 1
12 766 1
12 775 1
13 30 1
13 42 1
13 47 1
13 75 1
13 80 1
13 81 1
13 98 1
13 113 1
13 120 1
13 133 1
13 135 1
13 149 1
13 182 1
13 199 1
13 209 1
13 233 1
13 236 1
13 248 1
13 266 1
13 269 1
13 280 1
13 295 1
13 303 1
13 327 1
13 331 1
13 362 1
13 375 1
13 385 1
13 393 1
13 408 1
13 414 1
13 455 1
13 462 1
13 468 1
13 472 1
13 502 1
13 505 1
13 513 1
13 525 1
13 528 1
13 533 1
13 556 1
13 565 1
13 573 1
13 577 1
13 578 1
13 579 1
13 627 1
13 630 1
13 657 1
13 663 1
13 691 1
13 695 1
13 698 1
13 745 1
13 792 1
13 796 1
14 4 1
14 17 1
14 48 1
14 84 1
14 94 1
14 116 1
14 138 1
14 143 1
14 157 1
14 195 1
14 199 1
14 235 1
14 270 1
14 295 1
14 313 1
14 322 1
14 326 1
14 329 1
14 331 1
14 340 1
14 369 1
14 388 1
14 410 1
14 426 1
14 493 1
14 495 1
14 506 1
14 541 1
14 555 1
14 556 1
14 563 1
14 578 1
14 590 1
14 600 1
14 650 1
14 667 1
14 693 1
14 697 1
14 711 1
14 736 1
14 745 1
14 787 1
15 21 1
15 38 1
15 68 1
15 72 1
15 108 1
15 119 1
15 146 1
15 160 1
15 178 1
15 183 1
15 186 1
15 208 1
15 235 1
15 243 1
15 253 1
15 257 1
15 263 1
15 303 1
15 336 1
15 341 1
15 343 1
15 344 1
15 387 1
15 393 1
15 417 1
15 477 1
15 478 1
15 483 1
15 519 1
15 591 1
15 601 1
15 611 1
15 637 1
15 653 1
15 673 1
15 686 1
15 724 1
15 725 1
15 736 1
15 762 1
15 779 1
15 785 1
15 789 1
15 794 1
16 28 1
16 29 1
16 40 1
16 46 1
16 62 1
16 65 1
16 119 1
16 121 1
16 126 1
16 128 1
16 149 1
16 155 1
16 159 1
16 162 1
16 188 1
16 193 1
16 245 1
16 246 1
16 247 1
16 255 1
16 269 1
16 273 1
16 297 1
16 300 1
16 309 1
16 311 1
16 316 1
16 317 1
16 320 1
16 327 1
16 330 1
16 343 1
16 360 1
16 369 1
16 376 1
16 392 1
16 404 1
16 415 1
16 453 1
16 455 1
16 474 1
16 480 1
16 481 1
16 482 1
16 496 1
16 543 1
16 615 1
16 643 1
16 654 1
16 666 1
16 675 1
16 700 1
16 710 1
16 713 1
16 765 1
16 769 1
16 797 1
17 14 1
17 18 1
17 31 1
17 36 1
17 91 1
17 92 1
17 137 1
17 144 1
17 159 1
17 165 1
17 166 1
17 189 1
17 208 1
17 212 1
17 224 1
17 233 1
17 279 1
17 283 1
17 293 1
17 337 1
17 341 1
17 361 1
17 363 1
17 370 1
17 373 1
17 417 1
17 430 1
17 439 1
17 440 1
17 442 1
17 453 1
17 457 1
17 459 1
17 466 1
17 496 1
17 515 1
17 545 1
17 554 1
17 556 1
17 562 1
17 571 1
17 572 1
17 576 1
17 584 1
17 593 1
17 604 1
17 607 1
17 612 1
17 618 1
17 620 1
17 633 1
17 665 1
17 666 1
17 675 1
17 682 1
17 707 1
17 732 1
17 735 1
17 767 1
18 17 1
18 21 1
18 36 1
18 90 1
18 120 1
18 126 1
18 134 1
18 137 1
18 165 1
18 168 1
18 211 1
18 212 1
18 221 1
18 244 1
18 248 1
18 252 1
18 262 1
18 267 1
18 276 1
18 314 1
18 327 1
18 358 1
18 378 1
18 399 1
18 401 1
18 402 1
18 411 1
18 420 1
18 437 1
18 440 1
18 447 1
18 458 1
18 459 1
18 469 1
18 529 1
18 538 1
18 546 1
18 557 1
18 562 1
18 604 1
18 611 1
18 612 1
18 637 1
18 672 1
18 681 1
18 701 1
18 706 1
18 736 1
18 741 1
18 743 1
18 760 1
18 769 1
18 776 1
18 789 1
18 790 1
19 25 1
19 53 1
19 131 1
19 146 1
19 152 1
19 165 1
19 205 1
19 228 1
19 240 1
19 249 1
19 252 1
19 256 1
19 282 1
19 302 1
19 304 1
19 308 1
19 369 1
19 431 1
19 459 1
19 513 1
19 520 1
19 553 1
19 571 1
19 573 1
19 579 1
19 596 1
19 617 1
19 618 1
19 624 1
19 680 1
19 692 1
19 706 1
19 714 1
19 728 1
19 729 1
19 749 1
19 783 1
19 784 1
19 792 1
20 32 1
20 39 1
20 74 1
20 123 1
20 203 1
20 210 1
20 213 1
20 239 1
20 243 1
20 251 1
20 254 1
20 260 1
20 294 1
20 296 1
20 349 1
20 357 1
20 377 1
20 452 1
20 455 1
20 461 1
20 475 1
20 492 1
20 533 1
20 560 1
20 577 1
20 580 1
20 582 1
20 611 1
20 619 1
20 623 1
20 642 1
20 643 1
20 645 1
20 673 1
20 695 1
20 707 1
20 719 1
20 772 1
20 788 1
21 15 1
21 18 1
21 31 1
21 60 1
21 77 1
21 104 1
21 125 1
21 139 1
21 150 1
21 155 1
21 172 1
21 182 1
21 209 1
21 218 1
21 226 1
21 254 1
21 305 1
21 339 1
21 348 1
21 358 1
21 361 1
21 368 1
21 392 1
21 411 1
21 422 1
21 434 1
21 441 1
21 464 1
21 470 1
21 471 1
21 489 1
21 516 1
21 519 1
21 528 1
21 536 1
21 537 1
21 543 1
21 578 1
21 591 1
21 613 1
21 616 1
21 628 1
21 646 1
21 655 1
21 664 1
21 665 1
21 668 1
21 672 1
21 674 1
21 685 1
21 706 1
21 747 1
21 757 1
21 768 1
22 48 1
22 137 1
22 143 1
22 182 1
22 188 1
22 200 1
22 203 1
22 266 1
22 283 1
22 284 1
22 285 1
22 297 1
22 305 1
22 321 1
22 322 1
22 325 1
22 327 1
22 342 1
22 401 1
22 409 1
22 412 1
22 420 1
22 430 1
22 434 1
22 456 1
22 464 1
22 468 1
22 474 1
22 512 1
22 530 1
22 554 1
22 555 1
22 570 1
22 621 1
22 640 1
22 687 1
22 703 1
22 709 1
22 746 1
22 759 1
22 776 1
23 37 1
23 38 1
23 74 1
23 76 1
23 92 1
23 100 1
23 105 1
23 110 1
23 152 1
23 153 1
23 183 1
23 215 1
23 235 1
23 242 1
23 251 1
23 278 1
23 349 1
23 361 1
23 369 1
23 395 1
23 415 1
23 417 1
23 483 1
23 494 1
23 506 1
23 512 1
23 526 1
23 527 1
23 528 1
23 539 1
23 583 1
23 585 1
23 675 1
23 692 1
23 695 1
23 704 1
23 712 1
23 724 1
23 759 1
23 781 1
23 783 1
23 785 1
23 787 1
23 800 1
24 1 1
24 41 1
24 83 1
24 90 1
24 140 1
24 145 1
24 146 1
24 163 1
24 177 1
24 201 1
24 208 1
24 262 1
24 263 1
24 274 1
24 311 1
24 344 1
24 348 1
24 372 1
24 377 1
24 378 1
24 379 1
24 389 1
24 391 1
24 395 1
24 419 1
24 436 1
24 440 1
24 488 1
24 496 1
24 497 1
24 506 1
24 516 1
24 517 1
24 530 1
24 534 1
24 552 1
24 567 1
24 581 1
24 583 1
24 601 1
24 628 1
24 662 1
24 703 1
24 727 1
24 729 1
24 742 1
24 765 1
24 773 1
24 788 1
25 19 1
25 31 1
25 104 1
25 117 1
25 124 1
25 135 1
25 142 1
25 153 1
25 162 1
25 169 1
25 205 1
25 220 1
25 224 1
25 261 1
25 279 1
25 311 1
25 314 1
25 323 1
25 325 1
25 353 1
25 376 1
25 394 1
25 415 1
25 431 1
25 451 1
25 464 1
25 501 1
25 552 1
25 554 1
25 567 1
25 571 1
25 573 1
25 582 1
25 621 1
25 628 1
25 629 1
25 644 1
25 669 1
25 673 1
25 678 1
25 679 1
25 702 1
25 705 1
25 714 1
25 738 1
25 760 1
25 762 1
25 783 1
26 49 1
26 52 1
26 53 1
26 75 1
26 79 1
26 85 1
26 149 1
26 152 1
26 153 1
26 184 1
26 197 1
26 198 1
26 257 1
26 338 1
26 341 1
26 352 1
26 371 1
26 416 1
26 425 1
26 434 1
26 450 1
26 464 1
26 466 1
26 502 1
26 529 1
26 568 1
26 587 1
26 590 1
26 630 1
26 640 1
26 657 1
26 678 1
26 725 1
26 779 1
26 781 1
26 789 1
26 799 1
27 31 1
27 33 1
27 68 1
27 84 1
27 88 1
27 97 1
27 113 1
27 122 1
27 129 1
27 135 1
27 160 1
27 231 1
27 262 1
27 264 1
27 277 1
27 283 1
27 309 1
27 337 1
27 373 1
27 374 1
27 399 1
27 405 1
27 419 1
27 430 1
27 449 1
27 452 1
27 459 1
27 511 1
27 512 1
27 521 1
27 529 1
27 538 1
27 571 1
27 581 1
27 603 1
27 604 1
27 609 1
27 631 1
27 632 1
27 637 1
27 638 1
27 643 1
27 670 1
27 674 1
27 682 1
27 691 1
27 697 1
27 708 1
27 712 1
27 726 1
27 755 1
27 763 1
27 785 1
27 796 1
27 797 1
28 3 1
28 6 1
28 16 1
28 43 1
28 47 1
28 81 1
28 90 1
28 96 1
28 114 1
28 141 1
28 143 1
28 147 1
28 154 1
28 174 1
28 177 1
28 189 1
28 192 1
28 209 1
28 213 1
28 244 1
28 298 1
28 344 1
28 353 1
28 372 1
28 373 1
28 378 1
28 396 1
28 441 1
28 462 1
28 510 1
28 525 1
28 592 1
28 622 1
28 628 1
28 632 1
28 642 1
28 647 1
28 660 1
28 694 1
28 705 1
28 712 1
28 717 1
28 725 1
28 763 1
28 796 1
29 5 1
29 16 1
29 54 1
29 57 1
29 84 1
29 91 1
29 160 1
29 187 1
29 200 1
29 225 1
29 237 1
29 317 1
29 330 1
29 352 1
29 375 1
29 389 1
29 442 1
29 448 1
29 458 1
29 463 1
29 481 1
29 500 1
29 509 1
29 512 1
29 526 1
29 536 1
29 545 1
29 550 1
29 567 1
29 570 1
29 572 1
29 573 1
29 579 1
29 590 1
29 603 1
29 611 1
29 623 1
29 626 1
29 628 1
29 650 1
29 666 1
29 668 1
29 670 1
29 673 1
29 697 1
29 701 1
29 713 1
29 740 1
29 746 1
29 751 1
29 752 1
29 769 1
29 788 1
30 5 1
30 8 1
30 13 1
30 51 1
30 76 1
30 85 1
30 106 1
30 120 1
30 144 1
30 148 1
30 170 1
30 188 1
30 195 1
30 206 1
30 217 1
30 218 1
30 225 1
30 228 1
30 235 1
30 240 1
30 257 1
30 264 1
30 267 1
30 284 1
30 314 1
30 346 1
30 354 1
30 379 1
30 397 1
30 413 1
30 425 1
30 432 1
30 442 1
30 444 1
30 452 1
30 456 1
30 468 1
30 488 1
30 495 1
30 498 1
30 519 1
30 523 1
30 537 1
30 567 1
30 587 1
30 592 1
30 620 1
30 626 1
30 635 1
30 680 1
30 724 1
30 729 1
30 737 1
30 761 1
31 17 1
31 21 1
31 25 1
31 27 1
31 34 1
31 45 1
31 130 1
31 154 1
31 160 1
31 195 1
31 199 1
31 215 1
31 254 1
31 281 1
31 288 1
31 289 1
31 309 1
31 316 1
31 319 1
31 326 1
31 382 1
31 393 1
31 399 1
31 420 1
31 493 1
31 504 1
31 515 1
31 524 1
31 572 1
31 612 1
31 649 1
31 650 1
31 660 1
31 662 1
31 663 1
31 681 1
31 699 1
31 726 1
31 741 1
32 12 1
32 20 1
32 44 1
32 53 1
32 59 1
32 74 1
32 86 1
32 106 1
32 127 1
32 136 1
32 147 1
32 149 1
32 154 1
32 156 1
32 173 1
32 206 1
32 208 1
32 245 1
32 284 1
32 341 1
32 343 1
32 361 1
32 374 1
32 392 1
32 395 1
32 416 1
32 431 1
32 433 1
32 441 1
32 442 1
32 472 1
32 473 1
32 499 1
32 517 1
32 575 1
32 580 1
32 605 1
32 626 1
32 641 1
32 646 1
32 651 1
32 658 1
32 707 1
32 714 1
32 721 1
32 788 1
33 11 1
33 27 1
33 43 1
33 56 1
33 66 1
33 80 1
33 98 1
33 104 1
33 108 1
33 115 1
33 121 1
33 152 1
33 197 1
33 202 1
33 211 1
33 213 1
33 229 1
33 266 1
33 277 1
33 297 1
33 312 1
33 339 1
33 341 1
33 343 1
33 347 1
33 363 1
33 378 1
33 413 1
33 442 1
33 460 1
33 461 1
33 468 1
33 476 1
33 484 1
33 499 1
33 502 1
33 512 1
33 514 1
33 530 1
33 540 1
33 545 1
33 556 1
33 561 1
33 566 1
33 585 1
33 587 1
33 617 1
33 682 1
33 730 1
33 744 1
33 750 1
33 776 1
34 31 1
34 39 1
34 47 1
34 51 1
34 55 1
34 80 1
34 86 1
34 87 1
34 104 1
34 117 1
34 119 1
34 131 1
34 132 1
34 143 1
34 152 1
34 174 1
34 215 1
34 260 1
34 265 1
34 271 1
34 274 1
34 275 1
34 276 1
34 286 1
34 300 1
34 349 1
34 400 1
34 427 1
34 441 1
34 455 1
34 469 1
34 492 1
34 500 1
34 532 1
34 535 1
34 546 1
34 549 1
34 575 1
34 628 1
34 633 1
34 648 1
34 652 1
34 657 1
34 687 1
34 691 1
34 711 1
34 731 1
34 746 1
34 759 1
34 761 1
34 800 1
35 41 1
35 51 1
35 63 1
35 65 1
35 81 1
35 84 1
35 139 1
35 142 1
35 201 1
35 210 1
35 253 1
35 261 1
35 269 1
35 291 1
35 358 1
35 410 1
35 413 1
35 416 1
35 446 1
35 465 1
35 470 1
35 532 1
35 559 1
35 589 1
35 592 1
35 613 1
35 624 1
35 629 1
35 641 1
35 646 1
35 647 1
35 649 1
35 705 1
35 714 1
35 766 1
35 799 1
36 17 1
36 18 1
36 40 1
36 48 1
36 61 1
36 87 1
36 141 1
36 167 1
36 173 1
36 179 1
36 198 1
36 210 1
36 222 1
36 225 1
36 233 1
36 254 1
36 263 1
36 283 1
36 284 1
36 287 1
36 296 1
36 304 1
36 319 1
36 320 1
36 344 1
36 353 1
36 362 1
36 363 1
36 367 1
36 394 1
36 434 1
36 445 1
36 450 1
36 452 1
36 561 1
36 634 1
36 642 1
36 682 1
36 689 1
36 716 1
36 753 1
36 790 1
36 793 1
37 23 1
37 92 1
37 102 1
37 163 1
37 187 1
37 223 1
37 247 1
37 285 1
37 300 1
37 314 1
37 336 1
37 338 1
37 343 1
37 357 1
37 365 1
37 371 1
37 380 1
37 397 1
37 409 1
37 411 1
37 422 1
37 432 1
37 437 1
37 442 1
37 460 1
37 467 1
37 496 1
37 509 1
37 542 1
37 547 1
37 551 1
37 590 1
37 592 1
37 597 1
37 604 1
37 650 1
37 663 1
37 667 1
37 670 1
37 682 1
37 712 1
37 750 1
37 758 1
37 769 1
37 773 1
37 775 1
37 785 1
38 2 1
38 7 1
38 12 1
38 15 1
38 23 1
38 48 1
38 49 1
38 86 1
38 90 1
38 118 1
38 142 1
38 160 1
38 167 1
38 170 1
38 202 1
38 207 1
38 236 1
38 257 1
38 278 1
38 280 1
38 295 1
38 315 1
38 321 1
38 328 1
38 339 1
38 355 1
38 398 1
38 407 1
38 424 1
38 439 1
38 444 1
38 468 1
38 483 1
38 491 1
38 565 1
38 582 1
38 596 1
38 606 1
38 616 1
38 636 1
38 655 1
38 658 1
38 666 1
38 672 1
38 692 1
38 713 1
38 717 1
38 747 1
38 759 1
38 760 1
38 775 1
38 779 1
38 793 1
39 4 1
39 20 1
39 34 1
39 61 1
39 116 1
39 138 1
39 182 1
39 210 1
39 246 1
39 253 1
39 269 1
39 296 1
39 311 1
39 317 1
39 320 1
39 370 1
39 374 1
39 397 1
39 400 1
39 410 1
39 436 1
39 442 1
39 466 1
39 482 1
39 517 1
39 551 1
39 552 1
39 555 1
39 587 1
39 593 1
39 598 1
39 602 1
39 627 1
39 641 1
39 650 1
39 653 1
39 655 1
39 662 1
39 682 1
39 698 1
39 705 1
39 717 1
39 746 1
39 747 1
39 750 1
39 757 1
39 761 1
40 7 1
40 8 1
40 16 1
40 36 1
40 45 1
40 51 1
40 92 1
40 101 1
40 102 1
40 107 1
40 124 1
40 128 1
40 138 1
40 139 1
40 149 1
40 164 1
40 179 1
40 193 1
40 218 1
40 238 1
40 247 1
40 249 1
40 259 1
40 271 1
40 303 1
40 340 1
40 351 1
40 353 1
40 360 1
40 363 1
40 381 1
40 403 1
40 405 1
40 413 1
40 417 1
40 440 1
40 450 1
40 472 1
40 494 1
40 499 1
40 528 1
40 530 1
40 535 1
40 542 1
40 544 1
40 548 1
40 554 1
40 597 1
40 602 1
40 614 1
40 632 1
40 650 1
40 652 1
40 660 1
40 681 1
40 685 1
40 702 1
40 704 1
40 706 1
40 718 1
40 731 1
40 742 1
40 744 1
40 772 1
41 4 1
41 24 1
41 35 1
41 49 1
41 69 1
41 73 1
41 118 1
41 128 1
41 133 1
41 137 1
41 147 1
41 156 1
41 181 1
41 191 1
41 199 1
41 202 1
41 209 1
41 215 1
41 231 1
41 237 1
41 258 1
41 266 1
41 288 1
41 317 1
41 356 1
41 361 1
41 364 1
41 367 1
41 388 1
41 393 1
41 426 1
41 449 1
41 455 1
41 467 1
41 487 1
41 502 1
41 527 1
41 551 1
41 599 1
41 618 1
41 651 1
41 716 1
41 756 1
41 760 1
41 795 1
42 13 1
42 46 1
42 57 1
42 79 1
42 84 1
42 110 1
42 115 1
42 134 1
42 148 1
42 174 1
42 177 1
42 180 1
42 191 1
42 200 1
42 207 1
42 210 1
42 212 1
42 217 1
42 228 1
42 234 1
42 235 1
42 238 1
42 272 1
42 294 1
42 316 1
42 355 1
42 356 1
42 364 1
42 387 1
42 388 1
42 393 1
42 401 1
42 441 1
42 460 1
42 462 1
42 468 1
42 489 1
42 529 1
42 531 1
42 556 1
42 557 1
42 588 1
42 595 1
42 600 1
42 617 1
42 619 1
42 646 1
42 650 1
42 660 1
42 661 1
42 684 1
42 701 1
42 703 1
42 708 1
42 709 1
42 726 1
42 740 1
42 752 1
42 753 1
42 770 1
42 772 1
42 775 1
43 28 1
43 33 1
43 54 1
43 55 1
43 59 1
43 67 1
43 74 1
43 78 1
43 116 1
43 121 1
43 122 1
43 124 1
43 136 1
43 138 1
43 140 1
43 147 1
43 167 1
43 220 1
43 224 1
43 229 1
43 233 1
43 247 1
43 251 1
43 258 1
43 275 1
43 292 1
43 296 1
43 329 1
43 333 1
43 342 1
43 366 1
43 376 1
43 412 1
43 433 1
43 449 1
43 467 1
43 472 1
43 478 1
43 488 1
43 491 1
43 504 1
43 543 1
43 545 1
43 554 1
43 557 1
43 596 1
43 609 1
43 610 1
43 629 1
43 635 1
43 667 1
43 699 1
43 706 1
43 713 1
43 745 1
43 782 1
43 788 1
44 32 1
44 60 1
44 74 1
44 121 1
44 125 1
44 132 1
44 142 1
44 147 1
44 188 1
44 209 1
44 215 1
44 224 1
44 257 1
44 266 1
44 310 1
44 317 1
44 335 1
44 336 1
44 342 1
44 361 1
44 384 1
44 412 1
44 425 1
44 430 1
44 439 1
44 456 1
44 467 1
44 479 1
44 483 1
44 488 1
44 490 1
44 493 1
44 535 1
44 546 1
44 575 1
44 579 1
44 603 1
44 609 1
44 634 1
44 650 1
44 656 1
44 665 1
44 670 1
44 695 1
44 698 1
44 726 1
44 733 1
44 742 1
44 763 1
44 767 1
44 786 1
45 3 1
45 11 1
45 31 1
45 40 1
45 71 1
45 81 1
45 84 1
45 104 1
45 119 1
45 122 1
45 155 1
45 163 1
45 164 1
45 174 1
45 212 1
45 221 1
45 238 1
45 250 1
45 257 1
45 300 1
45 309 1
45 345 1
45 355 1
45 434 1
45 442 1
45 452 1
45 467 1
45 491 1
45 505 1
45 516 1
45 519 1
45 535 1
45 571 1
45 594 1
45 599 1
45 619 1
45 629 1
45 634 1
45 636 1
45 647 1
45 648 1
45 659 1
45 684 1
45 696 1
45 707 1
45 719 1
45 769 1
45 791 1
46 16 1
46 42 1
46 63 1
46 66 1
46 95 1
46 114 1
46 125 1
46 129 1
46 136 1
46 145 1
46 148 1
46 164 1
46 179 1
46 199 1
46 237 1
46 267 1
46 277 1
46 289 1
46 313 1
46 324 1
46 329 1
46 366 1
46 445 1
46 454 1
46 471 1
46 507 1
46 511 1
46 530 1
46 536 1
46 537 1
46 549 1
46 562 1
46 587 1
46 608 1
46 617 1
46 643 1
46 647 1
46 649 1
46 659 1
46 661 1
46 666 1
46 676 1
46 684 1
46 699 1
46 710 1
46 730 1
46 735 1
46 742 1
47 9 1
47 13 1
47 28 1
47 34 1
47 98 1
47 120 1
47 121 1
47 142 1
47 162 1
47 165 1
47 171 1
47 194 1
47 228 1
47 271 1
47 287 1
47 321 1
47 394 1
47 398 1
47 425 1
47 431 1
47 442 1
47 488 1
47 525 1
47 527 1
47 571 1
47 584 1
47 585 1
47 590 1
47 592 1
47 602 1
47 631 1
47 649 1
47 652 1
47 653 1
47 654 1
47 662 1
47 663 1
47 675 1
47 676 1
47 717 1
47 779 1
48 14 1
48 22 1
48 36 1
48 38 1
48 58 1
48 84 1
48 88 1
48 89 1
48 108 1
48 141 1
48 143 1
48 151 1
48 168 1
48 171 1
48 184 1
48 212 1
48 239 1
48 272 1
48 283 1
48 288 1
48 293 1
48 296 1
48 310 1
48 322 1
48 332 1
48 363 1
48 394 1
48 397 1
48 427 1
48 440 1
48 444 1
48 461 1
48 470 1
48 522 1
48 556 1
48 578 1
48 585 1
48 600 1
48 609 1
48 612 1
48 614 1
48 646 1
48 655 1
48 707 1
48 721 1
48 722 1
48 725 1
48 727 1
48 752 1
48 786 1
48 790 1
49 6 1
49 26 1
49 38 1
49 41 1
49 50 1
49 56 1
49 76 1
49 81 1
49 90 1
49 101 1
49 110 1
49 133 1
49 134 1
49 145 1
49 147 1
49 171 1
49 243 1
49 287 1
49 300 1
49 302 1
49 345 1
49 355 1
49 359 1
49 372 1
49 382 1
49 389 1
49 390 1
49 408 1
49 427 1
49 448 1
49 452 1
49 490 1
49 511 1
49 519 1
49 583 1
49 633 1
49 634 1
49 656 1
49 759 1
49 774 1
49 790 1
50 8 1
50 49 1
50 59 1
50 61 1
50 62 1
50 84 1
50 98 1
50 102 1
50 144 1
50 158 1
50 169 1
50 172 1
50 174 1
50 225 1
50 253 1
50 268 1
50 271 1
50 283 1
50 298 1
50 325 1
50 333 1
50 334 1
50 347 1
50 358 1
50 380 1
50 381 1
50 424 1
50 446 1
50 452 1
50 466 1
50 494 1
50 495 1
50 499 1
50 511 1
50 518 1
50 533 1
50 541 1
50 546 1
50 553 1
50 559 1
50 562 1
50 573 1
50 606 1
50 624 1
50 661 1
50 689 1
50 690 1
50 703 1
50 715 1
50 720 1
50 754 1
50 755 1
50 780 1
50 786 1
51 4 1
51 9 1
51 30 1
51 34 1
51 35 1
51 40 1
51 64 1
51 72 1
51 93 1
51 106 1
51 110 1
51 128 1
51 132 1
51 136 1
51 137 1
51 141 1
51 149 1
51 170 1
51 203 1
51 206 1
51 220 1
51 227 1
51 245 1
51 256 1
51 270 1
51 275 1
51 287 1
51 302 1
51 340 1
51 357 1
51 365 1
51 371 1
51 374 1
51 380 1
51 382 1
51 385 1
51 401 1
51 413 1
51 416 1
51 423 1
51 425 1
51 452 1
51 453 1
51 456 1
51 466 1
51 476 1
51 492 1
51 495 1
51 504 1
51 506 1
51 521 1
51 551 1
51 554 1
51 571 1
51 592 1
51 605 1
51 645 1
51 649 1
51 661 1
51 669 1
51 670 1
51 672 1
51 711 1
51 714 1
51 749 1
51 750 1
52 11 1
52 26 1
52 63 1
52 70 1
52 71 1
52 80 1
52 87 1
52 118 1
52 133 1
52 140 1
52 160 1
52 162 1
52 168 1
52 170 1
52 211 1
52 220 1
52 221 1
52 239 1
52 243 1
52 270 1
52 294 1
52 302 1
52 343 1
52 367 1
52 394 1
52 400 1
52 413 1
52 418 1
52 425 1
52 432 1
52 435 1
52 459 1
52 516 1
52 517 1
52 525 1
52 553 1
52 606 1
52 607 1
52 646 1
52 661 1
52 662 1
52 687 1
52 716 1
52 747 1
52 749 1
52 751 1
52 774 1
52 792 1
52 797 1
53 2 1
53 19 1
53 26 1
53 32 1
53 74 1
53 103 1
53 121 1
53 147 1
53 149 1
53 168 1
53 172 1
53 194 1
53 204 1
53 214 1
53 218 1
53 220 1
53 255 1
53 268 1
53 298 1
53 302 1
53 304 1
53 307 1
53 340 1
53 341 1
53 383 1
53 396 1
53 404 1
53 409 1
53 410 1
53 414 1
53 416 1
53 446 1
53 447 1
53 464 1
53 469 1
53 474 1
53 507 1
53 509 1
53 552 1
53 561 1
53 638 1
53 656 1
53 669 1
53 687 1
53 690 1
53 705 1
53 708 1
53 709 1
53 713 1
53 722 1
53 753 1
53 760 1
53 761 1
54 12 1
54 29 1
54 43 1
54 67 1
54 101 1
54 104 1
54 130 1
54 135 1
54 148 1
54 200 1
54 229 1
54 235 1
54 249 1
54 262 1
54 268 1
54 279 1
54 280 1
54 322 1
54 342 1
54 343 1
54 359 1
54 380 1
54 388 1
54 390 1
54 396 1
54 398 1
54 420 1
54 434 1
54 443 1
54 457 1
54 479 1
54 483 1
54 519 1
54 537 1
54 543 1
54 560 1
54 573 1
54 583 1
54 671 1
54 686 1
54 697 1
54 722 1
54 780 1
54 782 1
54 795 1
55 1 1
55 3 1
55 4 1
55 34 1
55 43 1
55 58 1
55 69 1
55 155 1
55 192 1
55 194 1
55 203 1
55 208 1
55 216 1
55 240 1
55 257 1
55 264 1
55 275 1
55 287 1
55 311 1
55 350 1
55 372 1
55 374 1
55 388 1
55 399 1
55 416 1
55 421 1
55 432 1
55 434 1
55 462 1
55 481 1
55 495 1
55 499 1
55 510 1
55 515 1
55 519 1
55 520 1
55 532 1
55 555 1
55 572 1
55 573 1
55 592 1
55 597 1
55 629 1
55 667 1
55 670 1
55 689 1
55 694 1
55 698 1
55 712 1
55 757 1
55 772 1
55 778 1
55 795 1
55 799 1
56 33 1
56 49 1
56 67 1
56 71 1
56 72 1
56 98 1
56 125 1
56 149 1
56 165 1
56 202 1
56 224 1
56 243 1
56 247 1
56 262 1
56 266 1
56 291 1
56 298 1
56 332 1
56 352 1
56 370 1
56 400 1
56 407 1
56 424 1
56 512 1
56 529 1
56 535 1
56 546 1
56 548 1
56 553 1
56 554 1
56 562 1
56 570 1
56 581 1
56 582 1
56 634 1
56 655 1
56 656 1
56 659 1
56 725 1
56 729 1
56 730 1
57 29 1
57 42 1
57 82 1
57 87 1
57 116 1
57 131 1
57 138 1
57 162 1
57 184 1
57 242 1
57 265 1
57 266 1
57 267 1
57 285 1
57 294 1
57 304 1
57 320 1
57 328 1
57 361 1
57 387 1
57 412 1
57 442 1
57 444 1
57 489 1
57 538 1
57 540 1
57 541 1
57 547 1
57 581 1
57 585 1
57 669 1
57 681 1
57 687 1
57 707 1
57 763 1
57 772 1
58 48 1
58 55 1
58 67 1
58 73 1
58 76 1
58 81 1
58 87 1
58 125 1
58 141 1
58 165 1
58 179 1
58 183 1
58 197 1
58 202 1
58 221 1
58 246 1
58 280 1
58 284 1
58 293 1
58 307 1
58 318 1
58 329 1
58 336 1
58 347 1
58 359 1
58 368 1
58 395 1
58 396 1
58 404 1
58 438 1
58 479 1
58 488 1
58 515 1
58 583 1
58 616 1
58 625 1
58 657 1
58 666 1
58 739 1
58 793 1
59 32 1
59 43 1
59 50 1
59 94 1
59 104 1
59 141 1
59 144 1
59 151 1
59 161 1
59 162 1
59 188 1
59 200 1
59 213 1
59 249 1
59 264 1
59 290 1
59 292 1
59 299 1
59 367 1
59 392 1
59 422 1
59 430 1
59 434 1
59 449 1
59 456 1
59 477 1
59 491 1
59 546 1
59 559 1
59 561 1
59 562 1
59 571 1
59 574 1
59 585 1
59 587 1
59 591 1
59 596 1
59 599 1
59 620 1
59 625 1
59 630 1
59 631 1
59 645 1
59 671 1
59 707 1
59 714 1
59 739 1
59 752 1
59 758 1
59 759 1
59 780 1
59 793 1
60 7 1
60 21 1
60 44 1
60 106 1
60 111 1
60 112 1
60 113 1
60 130 1
60 133 1
60 140 1
60 164 1
60 186 1
60 188 1
60 209 1
60 213 1
60 215 1
60 251 1
60 260 1
60 277 1
60 297 1
60 351 1
60 358 1
60 373 1
60 375 1
60 377 1
60 378 1
60 382 1
60 392 1
60 394 1
60 417 1
60 431 1
60 444 1
60 468 1
60 470 1
60 504 1
60 514 1
60 526 1
60 533 1
60 540 1
60 559 1
60 564 1
60 569 1
60 577 1
60 592 1
60 612 1
60 641 1
60 657 1
60 707 1
60 709 1
60 710 1
60 722 1
60 727 1
60 729 1
60 737 1
60 774 1
60 779 1
60 791 1
60 795 1
61 8 1
61 36 1
61 39 1
61 50 1
61 72 1
61 73 1
61 82 1
61 89 1
61 122 1
61 137 1
61 168 1
61 206 1
61 211 1
61 213 1
61 258 1
61 316 1
61 328 1
61 333 1
61 342 1
61 369 1
61 422 1
61 455 1
61 472 1
61 477 1
61 495 1
61 505 1
61 542 1
61 546 1
61 561 1
61 582 1
61 660 1
61 682 1
61 714 1
61 722 1
61 728 1
61 729 1
61 731 1
61 767 1
61 780 1
61 785 1
61 788 1
61 797 1
62 16 1
62 50 1
62 63 1
62 65 1
62 70 1
62 80 1
62 81 1
62 85 1
62 91 1
62 110 1
62 126 1
62 172 1
62 197 1
62 213 1
62 244 1
62 248 1
62 250 1
62 256 1
62 264 1
62 265 1
62 292 1
62 335 1
62 339 1
62 350 1
62 359 1
62 400 1
62 407 1
62 431 1
62 462 1
62 464 1
62 488 1
62 510 1
62 524 1
62 537 1
62 543 1
62 558 1
62 564 1
62 603 1
62 616 1
62 635 1
62 667 1
62 679 1
62 696 1
62 704 1
62 706 1
62 762 1
63 2 1
63 35 1
63 46 1
63 52 1
63 62 1
63 87 1
63 93 1
63 105 1
63 110 1
63 111 1
63 114 1
63 123 1
63 156 1
63 157 1
63 195 1
63 215 1
63 221 1
63 222 1
63 252 1
63 274 1
63 279 1
63 299 1
63 308 1
63 327 1
63 331 1
63 332 1
63 340 1
63 349 1
63 436 1
63 439 1
63 443 1
63 459 1
63 460 1
63 474 1
63 483 1
63 509 1
63 525 1
63 530 1
63 557 1
63 576 1
63 582 1
63 598 1
63 665 1
63 703 1
63 734 1
63 746 1
63 751 1
63 752 1
63 774 1
63 796 1
64 51 1
64 108 1
64 122 1
64 139 1
64 141 1
64 201 1
64 205 1
64 221 1
64 228 1
64 329 1
64 335 1
64 354 1
64 358 1
64 365 1
64 379 1
64 412 1
64 413 1
64 439 1
64 454 1
64 466 1
64 530 1
64 543 1
64 546 1
64 565 1
64 574 1
64 618 1
64 631 1
64 634 1
64 645 1
64 654 1
64 658 1
64 665 1
64 669 1
64 670 1
64 691 1
64 698 1
64 707 1
64 710 1
64 724 1
64 748 1
64 750 1
64 753 1
64 789 1
64 798 1
65 10 1
65 16 1
65 35 1
65 62 1
65 66 1
65 77 1
65 104 1
65 108 1
65 113 1
65 120 1
65 137 1
65 138 1
65 165 1
65 182 1
65 191 1
65 192 1
65 201 1
65 338 1
65 346 1
65 360 1
65 365 1
65 366 1
65 367 1
65 382 1
65 388 1
65 404 1
65 455 1
65 608 1
65 618 1
65 621 1
65 624 1
65 647 1
65 654 1
65 660 1
65 674 1
65 683 1
65 716 1
65 740 1
65 743 1
65 749 1
65 762 1
65 775 1
65 786 1
65 787 1
66 33 1
66 46 1
66 65 1
66 100 1
66 106 1
66 112 1
66 136 1
66 143 1
66 160 1
66 224 1
66 226 1
66 248 1
66 254 1
66 260 1
66 300 1
66 329 1
66 348 1
66 349 1
66 365 1
66 383 1
66 421 1
66 424 1
66 438 1
66 475 1
66 488 1
66 489 1
66 524 1
66 529 1
66 562 1
66 584 1
66 589 1
66 594 1
66 598 1
66 606 1
66 613 1
66 619 1
66 641 1
66 648 1
66 689 1
66 738 1
66 762 1
66 766 1
67 43 1
67 54 1
67 56 1
67 58 1
67 72 1
67 83 1
67 90 1
67 104 1
67 107 1
67 116 1
67 149 1
67 153 1
67 160 1
67 188 1
67 210 1
67 222 1
67 231 1
67 256 1
67 261 1
67 287 1
67 298 1
67 300 1
67 306 1
67 366 1
67 371 1
67 375 1
67 379 1
67 389 1
67 400 1
67 402 1
67 412 1
67 416 1
67 421 1
67 423 1
67 429 1
67 440 1
67 453 1
67 479 1
67 485 1
67 497 1
67 506 1
67 509 1
67 534 1
67 561 1
67 562 1
67 571 1
67 579 1
67 591 1
67 641 1
67 651 1
67 694 1
67 713 1
67 715 1
67 788 1
67 791 1
67 793 1
68 15 1
68 27 1
68 76 1
68 101 1
68 116 1
68 123 1
68 163 1
68 168 1
68 169 1
68 179 1
68 208 1
68 241 1
68 267 1
68 295 1
68 319 1
68 334 1
68 352 1
68 365 1
68 374 1
68 379 1
68 395 1
68 396 1
68 405 1
68 409 1
68 438 1
68 448 1
68 467 1
68 471 1
68 473 1
68 475 1
68 486 1
68 491 1
68 501 1
68 515 1
68 613 1
68 619 1
68 636 1
68 695 1
68 700 1
68 711 1
68 717 1
68 732 1
68 757 1
68 767 1
68 796 1
69 41 1
69 55 1
69 71 1
69 83 1
69 129 1
69 130 1
69 188 1
69 205 1
69 214 1
69 221 1
69 247 1
69 250 1
69 260 1
69 265 1
69 281 1
69 285 1
69 288 1
69 302 1
69 331 1
69 347 1
69 356 1
69 378 1
69 393 1
69 409 1
69 425 1
69 451 1
69 462 1
69 491 1
69 534 1
69 536 1
69 561 1
69 563 1
69 594 1
69 600 1
69 636 1
69 646 1
69 676 1
69 678 1
69 694 1
69 704 1
69 708 1
69 716 1
69 736 1
70 2 1
70 5 1
70 11 1
70 52 1
70 62 1
70 83 1
70 134 1
70 138 1
70 177 1
70 180 1
70 194 1
70 207 1
70 215 1
70 223 1
70 227 1
70 244 1
70 247 1
70 253 1
70 264 1
70 265 1
70 270 1
70 275 1
70 284 1
70 285 1
70 291 1
70 326 1
70 335 1
70 354 1
70 393 1
70 411 1
70 417 1
70 422 1
70 424 1
70 435 1
70 440 1
70 455 1
70 509 1
70 523 1
70 553 1
70 571 1
70 599 1
70 606 1
70 613 1
70 616 1
70 631 1
70 652 1
70 655 1
70 667 1
70 668 1
70 683 1
70 697 1
70 720 1
70 728 1
70 743 1
70 746 1
70 749 1
70 773 1
70 787 1
70 797 1
71 5 1
71 8 1
71 45 1
71 52 1
71 56 1
71 69 1
71 76 1
71 99 1
71 101 1
71 143 1
71 172 1
71 215 1
71 220 1
71 226 1
71 233 1
71 246 1
71 268 1
71 278 1
71 288 1
71 314 1
71 326 1
71 358 1
71 361 1
71 369 1
71 397 1
71 406 1
71 413 1
71 444 1
71 476 1
71 484 1
71 492 1
71 526 1
71 549 1
71 558 1
71 563 1
71 570 1
71 584 1
71 601 1
71 603 1
71 613 1
71 614 1
71 615 1
71 631 1
71 635 1
71 639 1
71 650 1
71 661 1
71 662 1
71 682 1
71 684 1
71 703 1
71 733 1
71 734 1
71 737 1
71 743 1
71 746 1
71 769 1
71 789 1
71 793 1
72 12 1
72 15 1
72 51 1
72 56 1
72 61 1
72 67 1
72 109 1
72 110 1
72 141 1
72 143 1
72 148 1
72 151 1
72 164 1
72 184 1
72 188 1
72 192 1
72 193 1
72 274 1
72 309 1
72 312 1
72 349 1
72 352 1
72 366 1
72 376 1
72 394 1
72 397 1
72 408 1
72 412 1
72 430 1
72 462 1
72 473 1
72 528 1
72 533 1
72 536 1
72 545 1
72 549 1
72 554 1
72 580 1
72 612 1
72 626 1
72 635 1
72 690 1
72 706 1
72 717 1
72 744 1
72 749 1
72 764 1
72 767 1
72 789 1
72 791 1
72 799 1
73 41 1
73 58 1
73 61 1
73 81 1
73 124 1
73 166 1
73 182 1
73 187 1
73 195 1
73 288 1
73 307 1
73 329 1
73 340 1
73 384 1
73 385 1
73 394 1
73 422 1
73 429 1
73 434 1
73 440 1
73 451 1
73 486 1
73 518 1
73 522 1
73 550 1
73 565 1
73 584 1
73 591 1
73 595 1
73 611 1
73 628 1
73 630 1
73 631 1
73 637 1
73 645 1
73 667 1
73 713 1
73 727 1
73 737 1
73 739 1
73 740 1
73 751 1
73 770 1
73 771 1
73 779 1
74 10 1
74 20 1
74 23 1
74 32 1
74 43 1
74 44 1
74 53 1
74 122 1
74 145 1
74 147 1
74 172 1
74 180 1
74 183 1
74 195 1
74 201 1
74 218 1
74 245 1
74 247 1
74 251 1
74 274 1
74 277 1
74 282 1
74 290 1
74 308 1
74 310 1
74 311 1
74 324 1
74 356 1
74 370 1
74 382 1
74 390 1
74 392 1
74 397 1
74 415 1
74 447 1
74 470 1
74 477 1
74 508 1
74 545 1
74 546 1
74 548 1
74 564 1
74 576 1
74 616 1
74 626 1
74 655 1
74 663 1
74 704 1
74 707 1
74 735 1
74 738 1
74 764 1
74 772 1
74 775 1
74 782 1
74 791 1
75 8 1
75 13 1
75 26 1
75 87 1
75 95 1
75 105 1
75 108 1
75 126 1
75 135 1
75 140 1
75 143 1
75 144 1
75 147 1
75 176 1
75 185 1
75 191 1
75 223 1
75 261 1
75 278 1
75 322 1
75 333 1
75 352 1
75 357 1
75 359 1
75 366 1
75 367 1
75 386 1
75 407 1
75 409 1
75 423 1
75 427 1
75 432 1
75 435 1
75 473 1
75 479 1
75 480 1
75 497 1
75 516 1
75 526 1
75 542 1
75 552 1
75 574 1
75 586 1
75 599 1
75 612 1
75 622 1
75 625 1
75 663 1
75 672 1
75 724 1
75 732 1
75 747 1
75 773 1
75 785 1
75 787 1
75 792 1
76 23 1
76 30 1
76 49 1
76 58 1
76 68 1
76 71 1
76 77 1
76 117 1
76 119 1
76 148 1
76 163 1
76 166 1
76 175 1
76 181 1
76 208 1
76 244 1
76 265 1
76 270 1
76 276 1
76 297 1
76 325 1
76 330 1
76 342 1
76 349 1
76 352 1
76 363 1
76 384 1
76 405 1
76 407 1
76 425 1
76 438 1
76 465 1
76 469 1
76 510 1
76 513 1
76 518 1
76 566 1
76 567 1
76 568 1
76 593 1
76 596 1
76 600 1
76 645 1
76 668 1
76 670 1
76 692 1
76 699 1
76 717 1
76 739 1
76 771 1
77 7 1
77 21 1
77 65 1
77 76 1
77 107 1
77 120 1
77 125 1
77 134 1
77 141 1
77 169 1
77 206 1
77 247 1
77 273 1
77 284 1
77 291 1
77 305 1
77 336 1
77 358 1
77 365 1
77 380 1
77 385 1
77 416 1
77 436 1
77 458 1
77 497 1
77 502 1
77 538 1
77 553 1
77 568 1
77 576 1
77 620 1
77 642 1
77 706 1
77 720 1
77 723 1
77 725 1
77 726 1
77 730 1
77 742 1
77 773 1
77 796 1
77 798 1
77 799 1
78 43 1
78 85 1
78 91 1
78 119 1
78 120 1
78 122 1
78 132 1
78 136 1
78 146 1
78 148 1
78 151 1
78 168 1
78 180 1
78 194 1
78 232 1
78 245 1
78 249 1
78 251 1
78 252 1
78 265 1
78 272 1
78 293 1
78 323 1
78 340 1
78 369 1
78 375 1
78 405 1
78 439 1
78 440 1
78 481 1
78 483 1
78 523 1
78 544 1
78 545 1
78 557 1
78 563 1
78 570 1
78 580 1
78 592 1
78 593 1
78 596 1
78 606 1
78 616 1
78 634 1
78 652 1
78 666 1
78 760 1
78 783 1
79 12 1
79 26 1
79 42 1
79 84 1
79 91 1
79 114 1
79 127 1
79 134 1
79 135 1
79 152 1
79 189 1
79 199 1
79 201 1
79 204 1
79 292 1
79 300 1
79 302 1
79 318 1
79 320 1
79 361 1
79 372 1
79 376 1
79 380 1
79 382 1
79 385 1
79 408 1
79 436 1
79 454 1
79 480 1
79 485 1
79 506 1
79 528 1
79 539 1
79 569 1
79 574 1
79 580 1
79 590 1
79 606 1
79 660 1
79 679 1
79 704 1
79 716 1
79 730 1
79 762 1
79 764 1
79 766 1
79 767 1
80 2 1
80 13 1
80 33 1
80 34 1
80 52 1
80 62 1
80 131 1
80 134 1
80 137 1
80 138 1
80 140 1
80 144 1
80 164 1
80 172 1
80 214 1
80 215 1
80 230 1
80 239 1
80 252 1
80 275 1
80 284 1
80 292 1
80 316 1
80 350 1
80 359 1
80 360 1
80 489 1
80 499 1
80 505 1
80 510 1
80 525 1
80 526 1
80 552 1
80 564 1
80 570 1
80 576 1
80 582 1
80 604 1
80 608 1
80 634 1
80 673 1
80 676 1
80 695 1
80 732 1
80 763 1
80 782 1
81 2 1
81 13 1
81 28 1
81 35 1
81 45 1
81 49 1
81 58 1
81 62 1
81 73 1
81 180 1
81 182 1
81 199 1
81 226 1
81 235 1
81 282 1
81 291 1
81 314 1
81 321 1
81 325 1
81 334 1
81 345 1
81 359 1
81 384 1
81 405 1
81 418 1
81 445 1
81 457 1
81 474 1
81 478 1
81 483 1
81 490 1
81 518 1
81 520 1
81 531 1
81 553 1
81 571 1
81 586 1
81 619 1
81 635 1
81 686 1
81 734 1
81 751 1
81 756 1
81 775 1
81 792 1
82 57 1
82 61 1
82 84 1
82 148 1
82 151 1
82 184 1
82 191 1
82 196 1
82 220 1
82 253 1
82 254 1
82 283 1
82 295 1
82 329 1
82 335 1
82 349 1
82 363 1
82 400 1
82 419 1
82 421 1
82 423 1
82 447 1
82 455 1
82 467 1
82 483 1
82 486 1
82 488 1
82 504 1
82 511 1
82 519 1
82 524 1
82 527 1
82 532 1
82 586 1
82 637 1
82 687 1
82 724 1
82 733 1
82 751 1
82 762 1
82 768 1
82 791 1
83 5 1
83 24 1
83 67 1
83 69 1
83 70 1
83 85 1
83 91 1
83 100 1
83 112 1
83 119 1
83 123 1
83 146 1
83 157 1
83 163 1
83 173 1
83 177 1
83 212 1
83 218 1
83 221 1
83 224 1
83 234 1
83 238 1
83 248 1
83 275 1
83 307 1
83 313 1
83 341 1
83 351 1
83 362 1
83 363 1
83 370 1
83 376 1
83 377 1
83 381 1
83 399 1
83 407 1
83 430 1
83 470 1
83 472 1
83 477 1
83 478 1
83 489 1
83 500 1
83 523 1
83 528 1
83 533 1
83 535 1
83 547 1
83 558 1
83 581 1
83 623 1
83 648 1
83 663 1
83 668 1
83 684 1
83 689 1
83 705 1
83 713 1
83 718 1
83 723 1
83 733 1
83 739 1
83 742 1
83 746 1
83 799 1
84 14 1
84 27 1
84 29 1
84 35 1
84 42 1
84 45 1
84 48 1
84 50 1
84 79 1
84 82 1
84 93 1
84 104 1
84 138 1
84 161 1
84 179 1
84 213 1
84 219 1
84 237 1
84 239 1
84 246 1
84 300 1
84 307 1
84 312 1
84 319 1
84 354 1
84 365 1
84 410 1
84 421 1
84 431 1
84 447 1
84 453 1
84 463 1
84 502 1
84 521 1
84 539 1
84 566 1
84 576 1
84 583 1
84 596 1
84 616 1
84 618 1
84 627 1
84 634 1
84 637 1
84 638 1
84 652 1
84 660 1
84 661 1
84 664 1
84 671 1
84 675 1
84 697 1
84 700 1
84 704 1
84 710 1
84 723 1
84 767 1
84 769 1
84 777 1
84 786 1
84 787 1
85 26 1
85 30 1
85 62 1
85 78 1
85 83 1
85 101 1
85 113 1
85 133 1
85 150 1
85 152 1
85 153 1
85 186 1
85 195 1
85 199 1
85 216 1
85 217 1
85 228 1
85 232 1
85 289 1
85 309 1
85 312 1
85 318 1
85 338 1
85 344 1
85 352 1
85 367 1
85 382 1
85 387 1
85 401 1
85 412 1
85 431 1
85 457 1
85 458 1
85 461 1
85 468 1
85 489 1
85 514 1
85 531 1
85 541 1
85 543 1
85 547 1
85 550 1
85 567 1
85 574 1
85 602 1
85 655 1
85 671 1
85 678 1
85 699 1
85 716 1
85 725 1
85 726 1
85 764 1
85 766 1
85 768 1
85 779 1
85 780 1
85 783 1
86 10 1
86 32 1
86 34 1
86 38 1
86 114 1
86 127 1
86 141 1
86 165 1
86 174 1
86 186 1
86 187 1
86 204 1
86 228 1
86 238 1
86 300 1
86 302 1
86 329 1
86 330 1
86 379 1
86 398 1
86 404 1
86 408 1
86 420 1
86 425 1
86 427 1
86 456 1
86 466 1
86 475 1
86 479 1
86 482 1
86 484 1
86 510 1
86 563 1
86 577 1
86 597 1
86 623 1
86 637 1
86 650 1
86 688 1
86 696 1
86 702 1
86 711 1
86 744 1
86 774 1
86 776 1
86 782 1
87 34 1
87 36 1
87 52 1
87 57 1
87 58 1
87 63 1
87 75 1
87 95 1
87 102 1
87 130 1
87 143 1
87 154 1
87 163 1
87 168 1
87 172 1
87 184 1
87 191 1
87 200 1
87 215 1
87 226 1
87 243 1
87 251 1
87 262 1
87 268 1
87 280 1
87 282 1
87 299 1
87 303 1
87 322 1
87 368 1
87 381 1
87 416 1
87 425 1
87 474 1
87 490 1
87 498 1
87 507 1
87 517 1
87 563 1
87 596 1
87 628 1
87 635 1
87 664 1
87 665 1
87 711 1
87 715 1
87 767 1
87 794 1
88 4 1
88 27 1
88 48 1
88 104 1
88 111 1
88 180 1
88 203 1
88 209 1
88 219 1
88 228 1
88 235 1
88 238 1
88 240 1
88 244 1
88 255 1
88 261 1
88 268 1
88 279 1
88 288 1
88 304 1
88 306 1
88 310 1
88 326 1
88 334 1
88 345 1
88 353 1
88 373 1
88 377 1
88 435 1
88 452 1
88 458 1
88 461 1
88 466 1
88 473 1
88 478 1
88 495 1
88 510 1
88 529 1
88 530 1
88 533 1
88 549 1
88 551 1
88 596 1
88 627 1
88 628 1
88 637 1
88 662 1
88 665 1
88 672 1
88 680 1
88 685 1
88 686 1
88 689 1
88 694 1
88 732 1
88 758 1
88 770 1
88 772 1
88 795 1
89 6 1
89 48 1
89 61 1
89 121 1
89 157 1
89 179 1
89 191 1
89 220 1
89 225 1
89 247 1
89 282 1
89 306 1
89 339 1
89 350 1
89 375 1
89 390 1
89 419 1
89 421 1
89 436 1
89 443 1
89 499 1
89 507 1
89 540 1
89 546 1
89 571 1
89 590 1
89 614 1
89 630 1
89 631 1
89 638 1
89 644 1
89 645 1
89 651 1
89 728 1
89 745 1
89 746 1
89 761 1
89 775 1
89 797 1
90 4 1
90 18 1
90 24 1
90 28 1
90 38 1
90 49 1
90 67 1
90 117 1
90 118 1
90 127 1
90 136 1
90 143 1
90 148 1
90 149 1
90 158 1
90 170 1
90 174 1
90 175 1
90 184 1
90 186 1
90 196 1
90 199 1
90 205 1
90 213 1
90 220 1
90 222 1
90 236 1
90 245 1
90 256 1
90 258 1
90 283 1
90 314 1
90 341 1
90 347 1
90 361 1
90 386 1
90 442 1
90 457 1
90 458 1
90 459 1
90 472 1
90 506 1
90 511 1
90 524 1
90 528 1
90 535 1
90 543 1
90 563 1
90 591 1
90 597 1
90 621 1
90 625 1
90 656 1
90 666 1
90 686 1
90 711 1
90 716 1
90 738 1
90 760 1
90 782 1
91 3 1
91 17 1
91 29 1
91 62 1
91 78 1
91 79 1
91 83 1
91 136 1
91 168 1
91 209 1
91 269 1
91 279 1
91 310 1
91 318 1
91 323 1
91 325 1
91 326 1
91 353 1
91 378 1
91 381 1
91 383 1
91 390 1
91 395 1
91 401 1
91 426 1
91 444 1
91 457 1
91 566 1
91 589 1
91 635 1
91 692 1
91 693 1
91 714 1
91 720 1
91 722 1
91 762 1
91 767 1
91 768 1
91 772 1
91 781 1
91 785 1
92 4 1
92 8 1
92 17 1
92 23 1
92 37 1
92 40 1
92 94 1
92 100 1
92 110 1
92 111 1
92 128 1
92 157 1
92 182 1
92 184 1
92 194 1
92 208 1
92 263 1
92 270 1
92 277 1
92 303 1
92 305 1
92 320 1
92 331 1
92 473 1
92 492 1
92 497 1
92 508 1
92 516 1
92 524 1
92 546 1
92 555 1
92 577 1
92 606 1
92 614 1
92 643 1
92 659 1
92 679 1
92 693 1
92 695 1
92 722 1
92 725 1
92 740 1
92 780 1
92 791 1
92 795 1
92 799 1
93 10 1
93 51 1
93 63 1
93 84 1
93 98 1
93 108 1
93 149 1
93 155 1
93 178 1
93 187 1
93 198 1
93 200 1
93 204 1
93 264 1
93 270 1
93 325 1
93 331 1
93 332 1
93 365 1
93 373 1
93 379 1
93 427 1
93 446 1
93 450 1
93 477 1
93 478 1
93 523 1
93 526 1
93 535 1
93 548 1
93 584 1
93 587 1
93 589 1
93 608 1
93 642 1
93 649 1
93 653 1
93 685 1
93 699 1
93 717 1
93 721 1
93 729 1
93 740 1
93 764 1
93 786 1
93 796 1
93 799 1
94 2 1
94 14 1
94 59 1
94 92 1
94 110 1
94 115 1
94 142 1
94 186 1
94 214 1
94 237 1
94 244 1
94 280 1
94 286 1
94 294 1
94 324 1
94 330 1
94 346 1
94 360 1
94 369 1
94 398 1
94 406 1
94 452 1
94 461 1
94 486 1
94 487 1
94 540 1
94 548 1
94 557 1
94 583 1
94 599 1
94 609 1
94 623 1
94 631 1
94 653 1
94 701 1
94 710 1
95 10 1
95 46 1
95 75 1
95 87 1
95 126 1
95 143 1
95 165 1
95 168 1
95 170 1
95 220 1
95 234 1
95 249 1
95 255 1
95 265 1
95 332 1
95 360 1
95 366 1
95 370 1
95 386 1
95 397 1
95 430 1
95 437 1
95 442 1
95 457 1
95 462 1
95 488 1
95 527 1
95 547 1
95 563 1
95 566 1
95 573 1
95 618 1
95 620 1
95 641 1
95 659 1
95 680 1
95 690 1
95 698 1
95 700 1
95 708 1
95 731 1
95 763 1
95 781 1
95 784 1
95 787 1
95 794 1
96 6 1
96 28 1
96 108 1
96 118 1
96 126 1
96 160 1
96 176 1
96 203 1
96 221 1
96 230 1
96 233 1
96 268 1
96 300 1
96 306 1
96 312 1
96 321 1
96 332 1
96 356 1
96 370 1
96 433 1
96 435 1
96 441 1
96 459 1
96 470 1
96 493 1
96 510 1
96 515 1
96 517 1
96 519 1
96 537 1
96 628 1
96 644 1
96 687 1
96 691 1
96 692 1
96 696 1
96 705 1
96 714 1
96 746 1
96 749 1
96 771 1
96 777 1
96 793 1
96 794 1
96 799 1
97 5 1
97 27 1
97 104 1
97 159 1
97 164 1
97 174 1
97 180 1
97 225 1
97 244 1
97 253 1
97 295 1
97 297 1
97 340 1
97 350 1
97 365 1
97 372 1
97 394 1
97 409 1
97 439 1
97 480 1
97 538 1
97 553 1
97 565 1
97 579 1
97 617 1
97 621 1
97 662 1
97 666 1
97 721 1
97 722 1
97 726 1
97 780 1
97 782 1
98 13 1
98 33 1
98 47 1
98 50 1
98 56 1
98 93 1
98 104 1
98 142 1
98 147 1
98 151 1
98 200 1
98 224 1
98 230 1
98 237 1
98 259 1
98 302 1
98 305 1
98 342 1
98 343 1
98 361 1
98 390 1
98 391 1
98 406 1
98 412 1
98 414 1
98 420 1
98 428 1
98 463 1
98 475 1
98 482 1
98 483 1
98 505 1
98 506 1
98 509 1
98 540 1
98 549 1
98 563 1
98 571 1
98 581 1
98 587 1
98 619 1
98 637 1
98 656 1
98 684 1
98 697 1
98 712 1
98 739 1
98 742 1
98 752 1
98 753 1
98 765 1
98 772 1
98 788 1
98 791 1
98 800 1
99 4 1
99 71 1
99 121 1
99 132 1
99 155 1
99 164 1
99 215 1
99 219 1
99 247 1
99 287 1
99 290 1
99 294 1
99 304 1
99 306 1
99 311 1
99 313 1
99 318 1
99 328 1
99 340 1
99 343 1
99 344 1
99 346 1
99 347 1
99 348 1
99 353 1
99 361 1
99 374 1
99 404 1
99 409 1
99 416 1
99 454 1
99 455 1
99 481 1
99 496 1
99 498 1
99 504 1
99 509 1
99 517 1
99 533 1
99 535 1
99 541 1
99 546 1
99 554 1
99 560 1
99 562 1
99 569 1
99 661 1
99 673 1
99 714 1
99 797 1
100 23 1
100 66 1
100 83 1
100 92 1
100 108 1
100 115 1
100 126 1
100 138 1
100 169 1
100 187 1
100 190 1
100 221 1
100 235 1
100 258 1
100 261 1
100 269 1
100 280 1
100 289 1
100 295 1
100 303 1
100 305 1
100 317 1
100 341 1
100 345 1
100 357 1
100 380 1
100 383 1
100 464 1
100 524 1
100 526 1
100 531 1
100 532 1
100 589 1
100 592 1
100 619 1
100 669 1
100 707 1
100 724 1
100 747 1
100 753 1
101 1 1
101 40 1
101 49 1
101 54 1
101 68 1
101 71 1
101 85 1
101 110 1
101 119 1
101 121 1
101 122 1
101 161 1
101 166 1
101 169 1
101 180 1
101 192 1
101 211 1
101 214 1
101 224 1
101 228 1
101 242 1
101 255 1
101 285 1
101 310 1
101 322 1
101 352 1
101 398 1
101 403 1
101 415 1
101 434 1
101 437 1
101 445 1
101 454 1
101 470 1
101 482 1
101 489 1
101 502 1
101 526 1
101 560 1
101 596 1
101 645 1
101 653 1
101 659 1
101 682 1
101 711 1
101 747 1
101 753 1
101 773 1
101 793 1
102 3 1
102 6 1
102 7 1
102 37 1
102 40 1
102 50 1
102 87 1
102 109 1
102 115 1
102 157 1
102 166 1
102 171 1
102 196 1
102 233 1
102 243 1
102 252 1
102 278 1
102 311 1
102 337 1
102 338 1
102 351 1
102 359 1
102 364 1
102 387 1
102 456 1
102 470 1
102 503 1
102 528 1
102 535 1
102 538 1
102 546 1
102 582 1
102 589 1
102 646 1
102 663 1
102 712 1
102 717 1
102 723 1
102 777 1
102 780 1
102 783 1
102 789 1
102 799 1
103 53 1
103 116 1
103 117 1
103 144 1
103 155 1
103 191 1
103 224 1
103 254 1
103 308 1
103 319 1
103 342 1
103 354 1
103 364 1
103 377 1
103 382 1
103 391 1
103 471 1
103 486 1
103 524 1
103 537 1
103 541 1
103 588 1
103 591 1
103 609 1
103 619 1
103 653 1
103 738 1
103 741 1
103 794 1
103 800 1
104 21 1
104 25 1
104 33 1
104 34 1
104 45 1
104 54 1
104 59 1
104 65 1
104 67 1
104 84 1
104 88 1
104 97 1
104 98 1
104 138 1
104 151 1
104 181 1
104 200 1
104 215 1
104 218 1
104 222 1
104 242 1
104 259 1
104 261 1
104 295 1
104 299 1
104 300 1
104 323 1
104 327 1
104 343 1
104 359 1
104 363 1
104 407 1
104 408 1
104 410 1
104 467 1
104 488 1
104 503 1
104 504 1
104 506 1
104 523 1
104 541 1
104 574 1
104 606 1
104 614 1
104 629 1
104 659 1
104 669 1
104 670 1
104 718 1
104 734 1
104 751 1
104 752 1
104 758 1
104 762 1
104 770 1
104 777 1
104 780 1
104 782 1
104 800 1
105 10 1
105 23 1
105 63 1
105 75 1
105 110 1
105 120 1
105 147 1
105 150 1
105 165 1
105 171 1
105 185 1
105 196 1
105 239 1
105 245 1
105 258 1
105 285 1
105 291 1
105 300 1
105 331 1
105 345 1
105 439 1
105 514 1
105 590 1
105 591 1
105 644 1
105 652 1
105 662 1
105 667 1
105 696 1
105 700 1
105 730 1
105 738 1
105 746 1
105 758 1
105 774 1
105 787 1
106 9 1
106 30 1
106 32 1
106 51 1
106 60 1
106 66 1
106 114 1
106 115 1
106 134 1
106 143 1
106 161 1
106 178 1
106 189 1
106 230 1
106 249 1
106 282 1
106 293 1
106 315 1
106 324 1
106 327 1
106 330 1
106 338 1
106 339 1
106 376 1
106 380 1
106 391 1
106 400 1
106 417 1
106 430 1
106 480 1
106 508 1
106 537 1
106 542 1
106 548 1
106 590 1
106 599 1
106 644 1
106 657 1
106 696 1
106 714 1
106 746 1
106 758 1
106 759 1
106 766 1
106 800 1
107 1 1
107 3 1
107 40 1
107 67 1
107 77 1
107 129 1
107 166 1
107 185 1
107 206 1
107 207 1
107 209 1
107 223 1
107 230 1
107 233 1
107 263 1
107 266 1
107 276 1
107 277 1
107 286 1
107 318 1
107 322 1
107 331 1
107 353 1
107 396 1
107 470 1
107 517 1
107 522 1
107 548 1
107 568 1
107 672 1
107 701 1
107 711 1
107 739 1
107 741 1
107 744 1
107 757 1
107 770 1
107 772 1
107 777 1
107 781 1
107 782 1
108 10 1
108 15 1
108 33 1
108 48 1
108 64 1
108 65 1
108 75 1
108 93 1
108 96 1
108 100 1
108 126 1
108 141 1
108 148 1
108 155 1
108 170 1
108 180 1
108 183 1
108 193 1
108 202 1
108 294 1
108 296 1
108 322 1
108 337 1
108 346 1
108 368 1
108 371 1
108 396 1
108 399 1
108 423 1
108 572 1
108 580 1
108 582 1
108 591 1
108 607 1
108 611 1
108 614 1
108 620 1
108 632 1
108 644 1
108 672 1
108 700 1
108 701 1
108 705 1
108 717 1
108 725 1
108 779 1
108 786 1
108 788 1
109 4 1
109 6 1
109 9 1
109 72 1
109 102 1
109 124 1
109 179 1
109 192 1
109 226 1
109 227 1
109 229 1
109 234 1
109 253 1
109 259 1
109 269 1
109 289 1
109 307 1
109 309 1
109 320 1
109 332 1
109 336 1
109 339 1
109 346 1
109 389 1
109 401 1
109 406 1
109 410 1
109 432 1
109 453 1
109 460 1
109 475 1
109 495 1
109 586 1
109 624 1
109 633 1
109 668 1
109 723 1
109 736 1
110 3 1
110 5 1
110 23 1
110 42 1
110 49 1
110 51 1
110 62 1
110 63 1
110 72 1
110 92 1
110 94 1
110 101 1
110 105 1
110 115 1
110 120 1
110 128 1
110 157 1
110 165 1
110 167 1
110 178 1
110 182 1
110 222 1
110 250 1
110 254 1
110 281 1
110 283 1
110 313 1
110 341 1
110 345 1
110 359 1
110 379 1
110 393 1
110 400 1
110 404 1
110 418 1
110 443 1
110 458 1
110 493 1
110 539 1
110 542 1
110 554 1
110 593 1
110 613 1
110 618 1
110 627 1
110 636 1
110 641 1
110 677 1
110 734 1
110 764 1
110 780 1
110 785 1
110 795 1
110 798 1
111 3 1
111 60 1
111 63 1
111 88 1
111 92 1
111 112 1
111 139 1
111 144 1
111 146 1
111 150 1
111 151 1
111 190 1
111 203 1
111 211 1
111 225 1
111 229 1
111 279 1
111 298 1
111 312 1
111 337 1
111 353 1
111 366 1
111 371 1
111 380 1
111 401 1
111 428 1
111 430 1
111 436 1
111 451 1
111 456 1
111 468 1
111 470 1
111 472 1
111 475 1
111 505 1
111 506 1
111 519 1
111 541 1
111 557 1
111 564 1
111 578 1
111 598 1
111 605 1
111 621 1
111 637 1
111 676 1
111 690 1
111 701 1
111 732 1
111 735 1
111 767 1
111 775 1
111 796 1
112 60 1
112 66 1
112 83 1
112 111 1
112 115 1
112 128 1
112 151 1
112 186 1
112 202 1
112 216 1
112 219 1
112 250 1
112 263 1
112 290 1
112 294 1
112 299 1
112 304 1
112 311 1
112 330 1
112 335 1
112 342 1
112 381 1
112 397 1
112 424 1
112 440 1
112 452 1
112 460 1
112 462 1
112 475 1
112 499 1
112 576 1
112 591 1
112 595 1
112 643 1
112 667 1
112 683 1
112 740 1
112 743 1
112 752 1
112 767 1
112 771 1
112 783 1
113 3 1
113 7 1
113 11 1
113 13 1
113 27 1
113 60 1
113 65 1
113 85 1
113 127 1
113 130 1
113 132 1
113 156 1
113 163 1
113 174 1
113 182 1
113 199 1
113 215 1
113 218 1
113 220 1
113 233 1
113 239 1
113 245 1
113 273 1
113 279 1
113 324 1
113 355 1
113 356 1
113 408 1
113 409 1
113 411 1
113 424 1
113 444 1
113 463 1
113 465 1
113 490 1
113 502 1
113 506 1
113 507 1
113 526 1
113 556 1
113 564 1
113 572 1
113 574 1
113 597 1
113 599 1
113 608 1
113 631 1
113 640 1
113 648 1
113 651 1
113 658 1
113 682 1
113 683 1
113 701 1
113 706 1
113 738 1
113 759 1
113 769 1
113 772 1
113 793 1
113 800 1
114 28 1
114 46 1
114 63 1
114 79 1
114 86 1
114 106 1
114 115 1
114 120 1
114 128 1
114 130 1
114 164 1
114 172 1
114 178 1
114 209 1
114 225 1
114 235 1
114 278 1
114 284 1
114 293 1
114 300 1
114 329 1
114 376 1
114 385 1
114 389 1
114 405 1
114 419 1
114 425 1
114 460 1
114 467 1
114 469 1
114 485 1
114 488 1
114 495 1
114 498 1
114 522 1
114 541 1
114 583 1
114 604 1
114 646 1
114 673 1
114 714 1
114 731 1
114 756 1
114 787 1
115 33 1
115 42 1
115 94 1
115 100 1
115 102 1
115 106 1
115 110 1
115 112 1
115 114 1
115 155 1
115 178 1
115 210 1
115 220 1
115 265 1
115 336 1
115 357 1
115 374 1
115 375 1
115 406 1
115 407 1
115 438 1
115 443 1
115 447 1
115 455 1
115 492 1
115 494 1
115 546 1
115 578 1
115 582 1
115 634 1
115 666 1
115 667 1
115 699 1
115 738 1
115 761 1
115 776 1
116 9 1
116 14 1
116 39 1
116 43 1
116 57 1
116 67 1
116 68 1
116 103 1
116 123 1
116 134 1
116 138 1
116 159 1
116 198 1
116 207 1
116 219 1
116 230 1
116 242 1
116 296 1
116 342 1
116 361 1
116 381 1
116 390 1
116 418 1
116 419 1
116 423 1
116 443 1
116 445 1
116 448 1
116 463 1
116 480 1
116 488 1
116 525 1
116 530 1
116 540 1
116 618 1
116 673 1
116 680 1
116 705 1
116 708 1
116 765 1
117 25 1
117 34 1
117 76 1
117 90 1
117 103 1
117 119 1
117 147 1
117 151 1
117 154 1
117 162 1
117 169 1
117 172 1
117 178 1
117 197 1
117 206 1
117 207 1
117 209 1
117 272 1
117 276 1
117 296 1
117 328 1
117 340 1
117 347 1
117 351 1
117 352 1
117 367 1
117 374 1
117 426 1
117 464 1
117 512 1
117 548 1
117 568 1
117 586 1
117 587 1
117 593 1
117 595 1
117 601 1
117 655 1
117 705 1
117 741 1
117 770 1
117 790 1
117 793 1
118 38 1
118 41 1
118 52 1
118 90 1
118 96 1
118 130 1
118 134 1
118 156 1
118 167 1
118 174 1
118 180 1
118 193 1
118 217 1
118 250 1
118 262 1
118 271 1
118 297 1
118 311 1
118 321 1
118 363 1
118 375 1
118 376 1
118 381 1
118 417 1
118 439 1
118 477 1
118 509 1
118 528 1
118 530 1
118 573 1
118 579 1
118 580 1
118 584 1
118 621 1
118 627 1
118 633 1
118 636 1
118 640 1
118 686 1
118 773 1
118 783 1
118 787 1
118 789 1
118 799 1
119 15 1
119 16 1
119 34 1
119 45 1
119 76 1
119 78 1
119 83 1
119 101 1
119 117 1
119 148 1
119 179 1
119 205 1
119 259 1
119 312 1
119 317 1
119 342 1
119 349 1
119 381 1
119 506 1
119 533 1
119 548 1
119 552 1
119 564 1
119 598 1
119 640 1
119 643 1
119 681 1
119 722 1
119 786 1
119 793 1
119 795 1
119 796 1
119 797 1
120 13 1
120 18 1
120 30 1
120 47 1
120 65 1
120 77 1
120 78 1
120 105 1
120 110 1
120 114 1
120 125 1
120 130 1
120 153 1
120 175 1
120 177 1
120 182 1
120 196 1
120 253 1
120 267 1
120 309 1
120 323 1
120 383 1
120 401 1
120 494 1
120 505 1
120 528 1
120 618 1
120 645 1
120 655 1
120 661 1
120 672 1
120 702 1
120 705 1
120 737 1
120 758 1
120 759 1
120 769 1
120 770 1
120 792 1
121 3 1
121 5 1
121 16 1
121 33 1
121 43 1
121 44 1
121 47 1
121 53 1
121 89 1
121 99 1
121 101 1
121 131 1
121 135 1
121 156 1
121 201 1
121 233 1
121 254 1
121 258 1
121 270 1
121 279 1
121 285 1
121 307 1
121 314 1
121 326 1
121 328 1
121 343 1
121 357 1
121 358 1
121 365 1
121 383 1
121 401 1
121 411 1
121 489 1
121 518 1
121 545 1
121 555 1
121 559 1
121 563 1
121 568 1
121 580 1
121 601 1
121 644 1
121 650 1
121 655 1
121 665 1
121 753 1
121 764 1
121 791 1
121 798 1
122 27 1
122 43 1
122 45 1
122 61 1
122 64 1
122 74 1
122 78 1
122 101 1
122 135 1
122 157 1
122 163 1
122 173 1
122 187 1
122 207 1
122 233 1
122 241 1
122 244 1
122 270 1
122 281 1
122 298 1
122 302 1
122 312 1
122 319 1
122 334 1
122 349 1
122 378 1
122 407 1
122 497 1
122 514 1
122 517 1
122 536 1
122 549 1
122 553 1
122 561 1
122 566 1
122 568 1
122 592 1
122 602 1
122 617 1
122 625 1
122 630 1
122 636 1
122 644 1
122 686 1
122 708 1
122 729 1
122 737 1
122 747 1
122 767 1
122 778 1
122 797 1
123 20 1
123 63 1
123 68 1
123 83 1
123 116 1
123 126 1
123 138 1
123 151 1
123 166 1
123 190 1
123 220 1
123 227 1
123 233 1
123 244 1
123 276 1
123 283 1
123 293 1
123 307 1
123 330 1
123 364 1
123 366 1
123 371 1
123 385 1
123 406 1
123 410 1
123 422 1
123 425 1
123 472 1
123 476 1
123 478 1
123 491 1
123 494 1
123 503 1
123 585 1
123 595 1
123 609 1
123 624 1
123 651 1
123 659 1
123 671 1
123 693 1
123 700 1
123 704 1
123 719 1
123 742 1
123 756 1
123 775 1
124 10 1
124 25 1
124 40 1
124 43 1
124 73 1
124 109 1
124 160 1
124 170 1
124 189 1
124 217 1
124 218 1
124 220 1
124 255 1
124 268 1
124 269 1
124 307 1
124 324 1
124 368 1
124 404 1
124 417 1
124 433 1
124 452 1
124 477 1
124 496 1
124 526 1
124 547 1
124 571 1
124 574 1
124 600 1
124 602 1
124 610 1
124 616 1
124 628 1
124 696 1
124 700 1
124 718 1
124 766 1
125 4 1
125 11 1
125 21 1
125 44 1
125 46 1
125 56 1
125 58 1
125 77 1
125 120 1
125 164 1
125 172 1
125 173 1
125 177 1
125 227 1
125 241 1
125 256 1
125 261 1
125 274 1
125 284 1
125 290 1
125 294 1
125 324 1
125 328 1
125 336 1
125 366 1
125 369 1
125 370 1
125 390 1
125 409 1
125 415 1
125 417 1
125 421 1
125 422 1
125 431 1
125 440 1
125 462 1
125 463 1
125 474 1
125 503 1
125 505 1
125 511 1
125 537 1
125 549 1
125 552 1
125 557 1
125 560 1
125 594 1
125 600 1
125 607 1
125 611 1
125 620 1
125 622 1
125 626 1
125 660 1
125 664 1
125 671 1
125 674 1
125 682 1
125 761 1
125 763 1
125 791 1
125 792 1
125 800 1
126 16 1
126 18 1
126 62 1
126 75 1
126 95 1
126 96 1
126 100 1
126 108 1
126 123 1
126 130 1
126 141 1
126 152 1
126 155 1
126 163 1
126 198 1
126 213 1
126 278 1
126 303 1
126 312 1
126 322 1
126 330 1
126 369 1
126 371 1
126 373 1
126 400 1
126 402 1
126 412 1
126 415 1
126 457 1
126 458 1
126 533 1
126 551 1
126 580 1
126 584 1
126 622 1
126 625 1
126 646 1
126 667 1
126 679 1
126 695 1
126 712 1
126 737 1
126 744 1
126 756 1
126 774 1
126 784 1
126 785 1
126 792 1
126 800 1
127 4 1
127 10 1
127 32 1
127 79 1
127 86 1
127 90 1
127 113 1
127 138 1
127 152 1
127 163 1
127 182 1
127 186 1
127 204 1
127 223 1
127 251 1
127 263 1
127 276 1
127 311 1
127 313 1
127 315 1
127 330 1
127 344 1
127 362 1
127 367 1
127 379 1
127 383 1
127 387 1
127 428 1
127 442 1
127 445 1
127 450 1
127 455 1
127 460 1
127 524 1
127 530 1
127 544 1
127 596 1
127 600 1
127 612 1
127 639 1
127 656 1
127 677 1
127 680 1
127 710 1
127 739 1
128 16 1
128 40 1
128 41 1
128 51 1
128 92 1
128 110 1
128 112 1
128 114 1
128 141 1
128 166 1
128 172 1
128 211 1
128 213 1
128 225 1
128 228 1
128 252 1
128 278 1
128 288 1
128 301 1
128 321 1
128 332 1
128 339 1
128 346 1
128 347 1
128 358 1
128 364 1
128 403 1
128 414 1
128 425 1
128 428 1
128 431 1
128 460 1
128 499 1
128 506 1
128 528 1
128 536 1
128 592 1
128 612 1
128 618 1
128 620 1
128 621 1
128 623 1
128 705 1
128 718 1
128 731 1
128 759 1
128 764 1
128 769 1
128 774 1
128 777 1
129 1 1
129 3 1
129 8 1
129 27 1
129 46 1
129 69 1
129 107 1
129 137 1
129 153 1
129 160 1
129 162 1
129 194 1
129 196 1
129 198 1
129 245 1
129 271 1
129 274 1
129 310 1
129 331 1
129 341 1
129 343 1
129 346 1
129 349 1
129 354 1
129 356 1
129 360 1
129 362 1
129 367 1
129 372 1
129 383 1
129 385 1
129 389 1
129 395 1
129 401 1
129 404 1
129 418 1
129 462 1
129 470 1
129 481 1
129 493 1
129 516 1
129 521 1
129 526 1
129 535 1
129 541 1
129 557 1
129 575 1
129 615 1
129 635 1
129 643 1
129 646 1
129 648 1
129 658 1
129 660 1
129 690 1
129 709 1
129 718 1
129 720 1
129 729 1
129 735 1
129 737 1
129 759 1
129 760 1
129 774 1
130 31 1
130 54 1
130 60 1
130 69 1
130 87 1
130 113 1
130 114 1
130 118 1
130 120 1
130 126 1
130 137 1
130 145 1
130 160 1
130 181 1
130 184 1
130 185 1
130 207 1
130 253 1
130 261 1
130 264 1
130 336 1
130 358 1
130 379 1
130 382 1
130 387 1
130 452 1
130 491 1
130 514 1
130 526 1
130 534 1
130 545 1
130 551 1
130 571 1
130 622 1
130 637 1
130 701 1
130 727 1
130 737 1
130 751 1
130 754 1
130 774 1
130 792 1
131 4 1
131 10 1
131 19 1
131 34 1
131 57 1
131 80 1
131 121 1
131 169 1
131 287 1
131 289 1
131 307 1
131 328 1
131 379 1
131 393 1
131 424 1
131 486 1
131 514 1
131 519 1
131 523 1
131 534 1
131 551 1
131 553 1
131 560 1
131 574 1
131 596 1
131 645 1
131 691 1
131 692 1
131 702 1
131 722 1
131 729 1
131 755 1
131 794 1
132 34 1
132 44 1
132 51 1
132 78 1
132 99 1
132 113 1
132 137 1
132 141 1
132 160 1
132 161 1
132 196 1
132 204 1
132 216 1
132 261 1
132 285 1
132 286 1
132 312 1
132 328 1
132 342 1
132 371 1
132 377 1
132 393 1
132 413 1
132 414 1
132 437 1
132 441 1
132 460 1
132 492 1
132 505 1
132 588 1
132 602 1
132 621 1
132 632 1
132 642 1
132 644 1
132 648 1
132 685 1
132 687 1
132 708 1
132 759 1
132 778 1
132 800 1
133 13 1
133 41 1
133 49 1
133 52 1
133 60 1
133 85 1
133 134 1
133 178 1
133 179 1
133 184 1
133 244 1
133 263 1
133 282 1
133 307 1
133 318 1
133 324 1
133 382 1
133 386 1
133 389 1
133 393 1
133 420 1
133 441 1
133 454 1
133 462 1
133 464 1
133 465 1
133 483 1
133 494 1
133 507 1
133 508 1
133 545 1
133 549 1
133 561 1
133 606 1
133 638 1
133 664 1
133 683 1
133 712 1
133 743 1
133 759 1
133 761 1
133 798 1
134 18 1
134 42 1
134 49 1
134 70 1
134 77 1
134 79 1
134 80 1
134 106 1
134 116 1
134 118 1
134 133 1
134 193 1
134 206 1
134 220 1
134 242 1
134 244 1
134 249 1
134 279 1
134 288 1
134 291 1
134 319 1
134 327 1
134 366 1
134 401 1
134 404 1
134 435 1
134 448 1
134 482 1
134 497 1
134 512 1
134 515 1
134 535 1
134 568 1
134 582 1
134 643 1
134 653 1
134 663 1
134 674 1
134 704 1
134 718 1
134 726 1
134 754 1
134 757 1
134 760 1
134 781 1
135 13 1
135 25 1
135 27 1
135 54 1
135 75 1
135 79 1
135 121 1
135 122 1
135 144 1
135 151 1
135 152 1
135 173 1
135 183 1
135 195 1
135 201 1
135 236 1
135 267 1
135 271 1
135 272 1
135 287 1
135 317 1
135 329 1
135 357 1
135 378 1
135 419 1
135 423 1
135 427 1
135 481 1
135 483 1
135 504 1
135 526 1
135 528 1
135 534 1
135 542 1
135 575 1
135 644 1
135 649 1
135 670 1
135 675 1
135 678 1
135 697 1
135 699 1
135 716 1
135 727 1
135 735 1
135 762 1
135 786 1
135 792 1
136 6 1
136 32 1
136 43 1
136 46 1
136 51 1
136 66 1
136 78 1
136 90 1
136 91 1
136 140 1
136 141 1
136 145 1
136 182 1
136 184 1
136 198 1
136 253 1
136 283 1
136 315 1
136 354 1
136 366 1
136 368 1
136 384 1
136 392 1
136 405 1
136 407 1
136 411 1
136 417 1
136 418 1
136 452 1
136 459 1
136 486 1
136 490 1
136 496 1
136 504 1
136 529 1
136 572 1
136 620 1
136 622 1
136 624 1
136 636 1
136 642 1
136 659 1
136 677 1
136 731 1
136 766 1
136 768 1
136 770 1
136 778 1
136 783 1
136 796 1
137 12 1
137 17 1
137 18 1
137 22 1
137 41 1
137 51 1
137 61 1
137 65 1
137 80 1
137 129 1
137 130 1
137 132 1
137 156 1
137 161 1
137 162 1
137 166 1
137 184 1
137 187 1
137 231 1
137 246 1
137 253 1
137 272 1
137 297 1
137 303 1
137 316 1
137 319 1
137 320 1
137 330 1
137 336 1
137 339 1
137 368 1
137 469 1
137 494 1
137 495 1
137 501 1
137 516 1
137 526 1
137 534 1
137 538 1
137 539 1
137 544 1
137 545 1
137 575 1
137 582 1
137 590 1
137 596 1
137 597 1
137 602 1
137 608 1
137 609 1
137 611 1
137 674 1
137 683 1
137 696 1
137 759 1
137 763 1
137 789 1
137 795 1
137 798 1
138 9 1
138 10 1
138 14 1
138 39 1
138 40 1
138 43 1
138 57 1
138 65 1
138 70 1
138 80 1
138 84 1
138 100 1
138 104 1
138 116 1
138 123 1
138 127 1
138 141 1
138 161 1
138 174 1
138 178 1
138 213 1
138 240 1
138 247 1
138 264 1
138 275 1
138 291 1
138 306 1
138 307 1
138 326 1
138 338 1
138 361 1
138 382 1
138 383 1
138 415 1
138 423 1
138 446 1
138 462 1
138 479 1
138 508 1
138 511 1
138 545 1
138 551 1
138 560 1
138 581 1
138 603 1
138 610 1
138 644 1
138 657 1
138 710 1
138 745 1
138 770 1
138 790 1
138 799 1
139 21 1
139 35 1
139 40 1
139 64 1
139 111 1
139 148 1
139 151 1
139 176 1
139 189 1
139 203 1
139 224 1
139 338 1
139 360 1
139 374 1
139 395 1
139 425 1
139 451 1
139 458 1
139 476 1
139 482 1
139 492 1
139 496 1
139 502 1
139 520 1
139 521 1
139 529 1
139 590 1
139 635 1
139 669 1
139 678 1
139 685 1
139 700 1
139 701 1
139 702 1
139 711 1
139 715 1
139 717 1
139 729 1
139 763 1
139 765 1
139 768 1
139 769 1
139 780 1
140 1 1
140 11 1
140 24 1
140 43 1
140 52 1
140 60 1
140 75 1
140 80 1
140 136 1
140 155 1
140 181 1
140 197 1
140 216 1
140 217 1
140 238 1
140 239 1
140 245 1
140 246 1
140 264 1
140 266 1
140 275 1
140 295 1
140 330 1
140 349 1
140 362 1
140 366 1
140 367 1
140 390 1
140 399 1
140 452 1
140 461 1
140 476 1
140 500 1
140 516 1
140 545 1
140 587 1
140 592 1
140 593 1
140 596 1
140 659 1
140 678 1
140 689 1
140 715 1
140 734 1
140 747 1
140 769 1
140 780 1
141 28 1
141 36 1
141 48 1
141 51 1
141 58 1
141 59 1
141 64 1
141 72 1
141 77 1
141 86 1
141 108 1
141 126 1
141 128 1
141 132 1
141 136 1
141 138 1
141 170 1
141 199 1
141 217 1
141 251 1
141 264 1
141 269 1
141 302 1
141 304 1
141 315 1
141 316 1
141 317 1
141 371 1
141 383 1
141 391 1
141 400 1
141 404 1
141 423 1
141 439 1
141 452 1
141 453 1
141 462 1
141 492 1
141 504 1
141 512 1
141 523 1
141 548 1
141 569 1
141 592 1
141 597 1
141 653 1
141 710 1
141 758 1
141 770 1
141 783 1
141 789 1
141 798 1
142 12 1
142 25 1
142 35 1
142 38 1
142 44 1
142 47 1
142 94 1
142 98 1
142 147 1
142 163 1
142 190 1
142 214 1
142 217 1
142 259 1
142 265 1
142 280 1
142 285 1
142 347 1
142 353 1
142 387 1
142 404 1
142 427 1
142 442 1
142 450 1
142 467 1
142 470 1
142 502 1
142 525 1
142 536 1
142 555 1
142 581 1
142 597 1
142 615 1
142 620 1
142 647 1
142 673 1
142 676 1
142 706 1
142 745 1
142 750 1
142 752 1
142 772 1
142 788 1
143 7 1
143 12 1
143 14 1
143 22 1
143 28 1
143 34 1
143 48 1
143 66 1
143 71 1
143 72 1
143 75 1
143 87 1
143 90 1
143 95 1
143 106 1
143 157 1
143 182 1
143 201 1
143 222 1
143 264 1
143 276 1
143 278 1
143 280 1
143 285 1
143 286 1
143 292 1
143 316 1
143 348 1
143 353 1
143 354 1
143 382 1
143 383 1
143 422 1
143 442 1
143 452 1
143 457 1
143 464 1
143 483 1
143 495 1
143 505 1
143 567 1
143 580 1
143 591 1
143 593 1
143 603 1
143 614 1
143 616 1
143 653 1
143 672 1
143 687 1
143 691 1
143 709 1
143 725 1
143 740 1
143 744 1
143 751 1
143 761 1
143 768 1
143 784 1
143 786 1
144 6 1
144 17 1
144 30 1
144 50 1
144 59 1
144 75 1
144 80 1
144 103 1
144 111 1
144 135 1
144 186 1
144 193 1
144 214 1
144 246 1
144 268 1
144 283 1
144 295 1
144 312 1
144 320 1
144 330 1
144 336 1
144 343 1
144 364 1
144 374 1
144 388 1
144 436 1
144 455 1
144 456 1
144 493 1
144 496 1
144 516 1
144 540 1
144 544 1
144 557 1
144 581 1
144 588 1
144 595 1
144 618 1
144 623 1
144 634 1
144 642 1
144 657 1
144 660 1
144 689 1
144 714 1
144 746 1
144 770 1
145 3 1
145 10 1
145 12 1
145 24 1
145 46 1
145 49 1
145 74 1
145 130 1
145 136 1
145 166 1
145 169 1
145 178 1
145 200 1
145 201 1
145 227 1
145 307 1
145 310 1
145 316 1
145 337 1
145 382 1
145 434 1
145 436 1
145 444 1
145 470 1
145 478 1
145 488 1
145 489 1
145 506 1
145 512 1
145 518 1
145 521 1
145 568 1
145 593 1
145 603 1
145 678 1
145 679 1
145 688 1
145 708 1
145 756 1
145 764 1
145 778 1
146 15 1
146 19 1
146 24 1
146 78 1
146 83 1
146 111 1
146 185 1
146 186 1
146 214 1
146 222 1
146 233 1
146 235 1
146 272 1
146 274 1
146 279 1
146 281 1
146 303 1
146 306 1
146 320 1
146 321 1
146 336 1
146 355 1
146 357 1
146 358 1
146 370 1
146 444 1
146 445 1
146 455 1
146 462 1
146 518 1
146 560 1
146 564 1
146 576 1
146 599 1
146 652 1
146 681 1
146 707 1
146 709 1
146 733 1
146 740 1
146 763 1
146 769 1
147 1 1
147 28 1
147 32 1
147 41 1
147 43 1
147 44 1
147 49 1
147 53 1
147 74 1
147 75 1
147 98 1
147 105 1
147 117 1
147 142 1
147 150 1
147 151 1
147 164 1
147 181 1
147 196 1
147 197 1
147 203 1
147 211 1
147 258 1
147 262 1
147 285 1
147 288 1
147 289 1
147 302 1
147 332 1
147 345 1
147 346 1
147 383 1
147 422 1
147 445 1
147 470 1
147 477 1
147 504 1
147 507 1
147 510 1
147 543 1
147 563 1
147 566 1
147 574 1
147 595 1
147 611 1
147 627 1
147 636 1
147 638 1
147 639 1
147 660 1
147 661 1
147 709 1
147 727 1
147 738 1
147 773 1
147 799 1
148 8 1
148 10 1
148 30 1
148 42 1
148 46 1
148 54 1
148 72 1
148 76 1
148 78 1
148 82 1
148 90 1
148 108 1
148 119 1
148 139 1
148 152 1
148 161 1
148 164 1
148 165 1
148 186 1
148 227 1
148 246 1
148 267 1
148 279 1
148 289 1
148 321 1
148 351 1
148 404 1
148 415 1
148 426 1
148 440 1
148 442 1
148 464 1
148 476 1
148 502 1
148 523 1
148 527 1
148 563 1
148 573 1
148 586 1
148 596 1
148 651 1
148 655 1
148 683 1
148 687 1
148 694 1
148 707 1
148 708 1
148 739 1
148 740 1
148 759 1
149 13 1
149 16 1
149 26 1
149 32 1
149 40 1
149 51 1
149 53 1
149 56 1
149 67 1
149 90 1
149 93 1
149 156 1
149 160 1
149 163 1
149 182 1
149 203 1
149 241 1
149 247 1
149 263 1
149 297 1
149 303 1
149 321 1
149 336 1
149 342 1
149 391 1
149 399 1
149 431 1
149 439 1
149 463 1
149 467 1
149 511 1
149 534 1
149 573 1
149 575 1
149 587 1
149 599 1
149 606 1
149 613 1
149 650 1
149 670 1
149 680 1
149 703 1
149 728 1
149 767 1
149 778 1
149 799 1
150 6 1
150 11 1
150 21 1
150 85 1
150 105 1
150 111 1
150 147 1
150 160 1
150 171 1
150 185 1
150 187 1
150 193 1
150 213 1
150 241 1
150 256 1
150 264 1
150 274 1
150 284 1
150 292 1
150 298 1
150 345 1
150 353 1
150 381 1
150 410 1
150 425 1
150 427 1
150 436 1
150 493 1
150 496 1
150 515 1
150 548 1
150 564 1
150 565 1
150 567 1
150 570 1
150 594 1
150 616 1
150 622 1
150 628 1
150 639 1
150 644 1
150 693 1
150 714 1
150 718 1
150 722 1
150 732 1
150 742 1
150 743 1
150 745 1
150 762 1
150 780 1
151 9 1
151 48 1
151 59 1
151 72 1
151 78 1
151 82 1
151 98 1
151 104 1
151 111 1
151 112 1
151 117 1
151 123 1
151 135 1
151 139 1
151 147 1
151 155 1
151 166 1
151 195 1
151 201 1
151 203 1
151 213 1
151 235 1
151 243 1
151 263 1
151 265 1
151 290 1
151 291 1
151 317 1
151 351 1
151 352 1
151 365 1
151 369 1
151 374 1
151 382 1
151 399 1
151 440 1
151 442 1
151 520 1
151 522 1
151 547 1
151 563 1
151 566 1
151 578 1
151 584 1
151 602 1
151 651 1
151 655 1
151 665 1
151 671 1
151 704 1
151 721 1
151 737 1
151 746 1
151 754 1
151 758 1
151 767 1
151 774 1
151 777 1
151 784 1
151 790 1
152 4 1
152 19 1
152 23 1
152 26 1
152 33 1
152 34 1
152 79 1
152 85 1
152 126 1
152 127 1
152 135 1
152 148 1
152 155 1
152 176 1
152 179 1
152 194 1
152 205 1
152 230 1
152 262 1
152 281 1
152 290 1
152 296 1
152 301 1
152 306 1
152 327 1
152 336 1
152 368 1
152 408 1
152 425 1
152 456 1
152 463 1
152 493 1
152 498 1
152 519 1
152 536 1
152 546 1
152 561 1
152 580 1
152 587 1
152 590 1
152 592 1
152 619 1
152 645 1
152 678 1
152 688 1
152 694 1
152 698 1
152 712 1
152 713 1
152 714 1
152 719 1
152 734 1
152 759 1
152 798 1
153 23 1
153 25 1
153 26 1
153 67 1
153 85 1
153 120 1
153 129 1
153 172 1
153 189 1
153 191 1
153 203 1
153 213 1
153 220 1
153 224 1
153 244 1
153 257 1
153 271 1
153 275 1
153 297 1
153 312 1
153 349 1
153 350 1
153 375 1
153 377 1
153 423 1
153 466 1
153 473 1
153 524 1
153 543 1
153 555 1
153 574 1
153 577 1
153 595 1
153 605 1
153 613 1
153 625 1
153 641 1
153 663 1
153 667 1
153 695 1
153 710 1
153 741 1
153 753 1
153 773 1
153 786 1
154 6 1
154 12 1
154 28 1
154 31 1
154 32 1
154 87 1
154 117 1
154 180 1
154 209 1
154 222 1
154 229 1
154 230 1
154 270 1
154 310 1
154 316 1
154 341 1
154 381 1
154 401 1
154 413 1
154 468 1
154 475 1
154 478 1
154 497 1
154 518 1
154 563 1
154 570 1
154 630 1
154 638 1
154 641 1
154 672 1
154 719 1
154 723 1
154 738 1
154 746 1
154 784 1
154 794 1
155 16 1
155 21 1
155 45 1
155 55 1
155 93 1
155 99 1
155 103 1
155 108 1
155 115 1
155 126 1
155 140 1
155 151 1
155 152 1
155 164 1
155 171 1
155 178 1
155 188 1
155 209 1
155 214 1
155 225 1
155 237 1
155 241 1
155 251 1
155 253 1
155 256 1
155 259 1
155 263 1
155 274 1
155 281 1
155 290 1
155 294 1
155 329 1
155 360 1
155 362 1
155 375 1
155 446 1
155 453 1
155 475 1
155 517 1
155 542 1
155 549 1
155 550 1
155 597 1
155 612 1
155 613 1
155 628 1
155 640 1
155 663 1
155 672 1
155 694 1
155 716 1
155 741 1
155 772 1
155 793 1
156 6 1
156 9 1
156 32 1
156 41 1
156 63 1
156 113 1
156 118 1
156 121 1
156 137 1
156 149 1
156 179 1
156 185 1
156 203 1
156 248 1
156 260 1
156 281 1
156 297 1
156 301 1
156 322 1
156 328 1
156 353 1
156 363 1
156 365 1
156 402 1
156 413 1
156 427 1
156 428 1
156 437 1
156 469 1
156 474 1
156 490 1
156 533 1
156 546 1
156 579 1
156 583 1
156 593 1
156 610 1
156 614 1
156 675 1
156 725 1
156 768 1
157 6 1
157 14 1
157 63 1
157 83 1
157 89 1
157 92 1
157 102 1
157 110 1
157 122 1
157 143 1
157 176 1
157 191 1
157 194 1
157 200 1
157 208 1
157 276 1
157 282 1
157 287 1
157 289 1
157 303 1
157 331 1
157 345 1
157 359 1
157 410 1
157 420 1
157 426 1
157 434 1
157 473 1
157 491 1
157 504 1
157 516 1
157 524 1
157 560 1
157 572 1
157 581 1
157 585 1
157 588 1
157 631 1
157 634 1
157 638 1
157 653 1
157 685 1
157 698 1
157 701 1
157 727 1
157 737 1
157 751 1
157 794 1
157 797 1
158 50 1
158 90 1
158 181 1
158 197 1
158 201 1
158 203 1
158 232 1
158 263 1
158 297 1
158 302 1
158 339 1
158 341 1
158 355 1
158 358 1
158 382 1
158 383 1
158 407 1
158 430 1
158 448 1
158 484 1
158 504 1
158 578 1
158 641 1
158 663 1
158 666 1
158 695 1
158 698 1
158 703 1
158 738 1
158 764 1
158 772 1
159 16 1
159 17 1
159 97 1
159 116 1
159 167 1
159 193 1
159 195 1
159 224 1
159 232 1
159 241 1
159 249 1
159 289 1
159 296 1
159 320 1
159 344 1
159 353 1
159 357 1
159 371 1
159 374 1
159 377 1
159 384 1
159 409 1
159 414 1
159 416 1
159 441 1
159 451 1
159 452 1
159 504 1
159 541 1
159 583 1
159 594 1
159 602 1
159 603 1
159 621 1
159 631 1
159 656 1
159 659 1
159 697 1
159 702 1
159 747 1
159 756 1
159 760 1
159 763 1
159 791 1
160 15 1
160 27 1
160 29 1
160 31 1
160 38 1
160 52 1
160 66 1
160 67 1
160 96 1
160 124 1
160 129 1
160 130 1
160 132 1
160 149 1
160 150 1
160 203 1
160 226 1
160 231 1
160 259 1
160 278 1
160 281 1
160 363 1
160 371 1
160 410 1
160 416 1
160 448 1
160 450 1
160 453 1
160 459 1
160 507 1
160 544 1
160 619 1
160 622 1
160 641 1
160 642 1
160 644 1
160 680 1
160 686 1
160 691 1
160 696 1
160 711 1
160 715 1
160 740 1
160 743 1
160 748 1
160 766 1
160 767 1
160 769 1
160 770 1
160 774 1
161 59 1
161 84 1
161 101 1
161 106 1
161 132 1
161 137 1
161 138 1
161 148 1
161 167 1
161 185 1
161 206 1
161 210 1
161 217 1
161 256 1
161 259 1
161 268 1
161 314 1
161 321 1
161 424 1
161 474 1
161 477 1
161 479 1
161 481 1
161 485 1
161 496 1
161 505 1
161 511 1
161 513 1
161 516 1
161 573 1
161 700 1
161 724 1
161 757 1
161 767 1
161 773 1
161 783 1
161 791 1
161 798 1
162 16 1
162 25 1
162 47 1
162 52 1
162 57 1
162 59 1
162 117 1
162 129 1
162 137 1
162 172 1
162 193 1
162 195 1
162 205 1
162 216 1
162 219 1
162 235 1
162 281 1
162 292 1
162 294 1
162 297 1
162 317 1
162 328 1
162 329 1
162 336 1
162 339 1
162 345 1
162 363 1
162 386 1
162 390 1
162 392 1
162 398 1
162 402 1
162 404 1
162 417 1
162 430 1
162 431 1
162 501 1
162 507 1
162 544 1
162 552 1
162 589 1
162 592 1
162 595 1
162 596 1
162 599 1
162 604 1
162 606 1
162 621 1
162 626 1
162 630 1
162 632 1
162 654 1
162 660 1
162 676 1
162 693 1
162 707 1
162 728 1
162 736 1
162 737 1
162 763 1
162 794 1
163 1 1
163 24 1
163 37 1
163 45 1
163 68 1
163 76 1
163 83 1
163 87 1
163 113 1
163 122 1
163 126 1
163 127 1
163 142 1
163 149 1
163 185 1
163 209 1
163 210 1
163 226 1
163 232 1
163 258 1
163 260 1
163 261 1
163 262 1
163 269 1
163 277 1
163 290 1
163 324 1
163 357 1
163 365 1
163 393 1
163 395 1
163 413 1
163 414 1
163 424 1
163 454 1
163 460 1
163 502 1
163 529 1
163 541 1
163 544 1
163 589 1
163 609 1
163 610 1
163 615 1
163 616 1
163 629 1
163 641 1
163 645 1
163 659 1
163 660 1
163 669 1
163 683 1
163 693 1
163 695 1
163 708 1
163 730 1
164 40 1
164 45 1
164 46 1
164 60 1
164 72 1
164 80 1
164 97 1
164 99 1
164 114 1
164 125 1
164 147 1
164 148 1
164 155 1
164 211 1
164 237 1
164 250 1
164 273 1
164 281 1
164 290 1
164 341 1
164 366 1
164 372 1
164 397 1
164 437 1
164 440 1
164 460 1
164 468 1
164 497 1
164 501 1
164 511 1
164 523 1
164 595 1
164 629 1
164 631 1
164 661 1
164 674 1
164 682 1
164 695 1
164 704 1
164 714 1
164 752 1
165 17 1
165 18 1
165 19 1
165 47 1
165 56 1
165 58 1
165 65 1
165 86 1
165 95 1
165 105 1
165 110 1
165 148 1
165 173 1
165 181 1
165 184 1
165 246 1
165 279 1
165 291 1
165 292 1
165 294 1
165 322 1
165 331 1
165 350 1
165 366 1
165 382 1
165 384 1
165 403 1
165 405 1
165 406 1
165 428 1
165 431 1
165 436 1
165 438 1
165 446 1
165 453 1
165 454 1
165 455 1
165 462 1
165 478 1
165 479 1
165 488 1
165 489 1
165 513 1
165 528 1
165 535 1
165 540 1
165 550 1
165 562 1
165 580 1
165 583 1
165 593 1
165 599 1
165 608 1
165 663 1
165 673 1
165 680 1
165 694 1
165 741 1
165 783 1
165 792 1
166 4 1
166 17 1
166 73 1
166 76 1
166 101 1
166 102 1
166 107 1
166 123 1
166 128 1
166 137 1
166 145 1
166 151 1
166 203 1
166 227 1
166 259 1
166 265 1
166 274 1
166 290 1
166 313 1
166 323 1
166 356 1
166 376 1
166 453 1
166 459 1
166 460 1
166 483 1
166 485 1
166 513 1
166 585 1
166 641 1
166 713 1
166 724 1
166 728 1
166 729 1
166 740 1
166 742 1
166 751 1
166 757 1
166 763 1
166 773 1
166 790 1
166 798 1
167 7 1
167 8 1
167 36 1
167 38 1
167 43 1
167 110 1
167 118 1
167 159 1
167 161 1
167 187 1
167 221 1
167 298 1
167 341 1
167 346 1
167 375 1
167 379 1
167 429 1
167 435 1
167 449 1
167 451 1
167 456 1
167 471 1
167 483 1
167 489 1
167 495 1
167 509 1
167 521 1
167 541 1
167 611 1
167 642 1
167 657 1
167 669 1
167 672 1
167 676 1
167 677 1
167 683 1
167 690 1
167 696 1
167 707 1
167 713 1
167 717 1
167 728 1
167 730 1
167 755 1
167 757 1
167 770 1
167 799 1
168 2 1
168 18 1
168 48 1
168 52 1
168 53 1
168 61 1
168 68 1
168 78 1
168 87 1
168 91 1
168 95 1
168 178 1
168 182 1
168 227 1
168 253 1
168 298 1
168 302 1
168 303 1
168 305 1
168 314 1
168 327 1
168 334 1
168 398 1
168 404 1
168 419 1
168 432 1
168 452 1
168 453 1
168 457 1
168 515 1
168 520 1
168 528 1
168 538 1
168 543 1
168 549 1
168 571 1
168 581 1
168 582 1
168 593 1
168 594 1
168 598 1
168 644 1
168 654 1
168 661 1
168 678 1
168 685 1
168 714 1
168 763 1
168 769 1
168 787 1
169 4 1
169 25 1
169 50 1
169 68 1
169 77 1
169 100 1
169 101 1
169 117 1
169 131 1
169 145 1
169 183 1
169 191 1
169 203 1
169 222 1
169 241 1
169 243 1
169 291 1
169 292 1
169 311 1
169 331 1
169 344 1
169 357 1
169 377 1
169 402 1
169 404 1
169 452 1
169 468 1
169 518 1
169 548 1
169 594 1
169 605 1
169 612 1
169 621 1
169 675 1
169 677 1
169 692 1
169 700 1
169 726 1
169 727 1
169 733 1
169 761 1
169 780 1
170 30 1
170 38 1
170 51 1
170 52 1
170 90 1
170 95 1
170 108 1
170 124 1
170 141 1
170 187 1
170 196 1
170 204 1
170 235 1
170 237 1
170 290 1
170 296 1
170 301 1
170 309 1
170 345 1
170 351 1
170 369 1
170 390 1
170 417 1
170 423 1
170 426 1
170 478 1
170 501 1
170 505 1
170 516 1
170 540 1
170 555 1
170 582 1
170 590 1
170 599 1
170 615 1
170 652 1
170 658 1
170 660 1
170 661 1
170 676 1
170 727 1
170 734 1
170 739 1
170 770 1
170 788 1
171 10 1
171 47 1
171 48 1
171 49 1
171 102 1
171 105 1
171 150 1
171 155 1
171 175 1
171 213 1
171 234 1
171 236 1
171 249 1
171 251 1
171 265 1
171 280 1
171 285 1
171 290 1
171 291 1
171 299 1
171 301 1
171 310 1
171 312 1
171 322 1
171 337 1
171 362 1
171 396 1
171 424 1
171 440 1
171 460 1
171 488 1
171 500 1
171 513 1
171 518 1
171 525 1
171 535 1
171 542 1
171 582 1
171 605 1
171 621 1
171 623 1
171 624 1
171 628 1
171 630 1
171 635 1
171 650 1
171 678 1
171 706 1
171 776 1
171 783 1
171 795 1
172 7 1
172 11 1
172 21 1
172 50 1
172 53 1
172 62 1
172 71 1
172 74 1
172 80 1
172 87 1
172 114 1
172 117 1
172 125 1
172 128 1
172 153 1
172 162 1
172 196 1
172 246 1
172 250 1
172 265 1
172 281 1
172 313 1
172 317 1
172 354 1
172 367 1
172 376 1
172 377 1
172 388 1
172 432 1
172 463 1
172 471 1
172 474 1
172 480 1
172 491 1
172 495 1
172 527 1
172 528 1
172 554 1
172 578 1
172 641 1
172 662 1
172 666 1
172 669 1
172 677 1
172 685 1
172 711 1
172 713 1
172 720 1
172 744 1
172 746 1
173 32 1
173 36 1
173 83 1
173 122 1
173 125 1
173 135 1
173 165 1
173 185 1
173 231 1
173 270 1
173 295 1
173 301 1
173 309 1
173 320 1
173 336 1
173 362 1
173 386 1
173 393 1
173 396 1
173 402 1
173 471 1
173 482 1
173 494 1
173 501 1
173 540 1
173 552 1
173 559 1
173 602 1
173 609 1
173 630 1
173 670 1
173 712 1
173 723 1
173 730 1
173 733 1
173 780 1
173 788 1
174 28 1
174 34 1
174 42 1
174 45 1
174 50 1
174 86 1
174 90 1
174 97 1
174 113 1
174 118 1
174 138 1
174 176 1
174 193 1
174 200 1
174 214 1
174 221 1
174 237 1
174 306 1
174 321 1
174 325 1
174 329 1
174 339 1
174 362 1
174 380 1
174 431 1
174 453 1
174 469 1
174 483 1
174 484 1
174 528 1
174 548 1
174 550 1
174 576 1
174 598 1
174 606 1
174 663 1
174 731 1
174 745 1
174 765 1
174 766 1
174 776 1
174 784 1
175 76 1
175 90 1
175 120 1
175 171 1
175 199 1
175 213 1
175 224 1
175 247 1
175 255 1
175 256 1
175 266 1
175 275 1
175 291 1
175 330 1
175 339 1
175 341 1
175 345 1
175 457 1
175 493 1
175 496 1
175 508 1
175 519 1
175 532 1
175 539 1
175 581 1
175 633 1
175 641 1
175 664 1
175 666 1
175 704 1
175 711 1
175 716 1
175 735 1
175 751 1
175 763 1
175 776 1
175 785 1
176 75 1
176 96 1
176 139 1
176 152 1
176 157 1
176 174 1
176 211 1
176 282 1
176 284 1
176 320 1
176 326 1
176 331 1
176 333 1
176 335 1
176 340 1
176 380 1
176 390 1
176 418 1
176 419 1
176 422 1
176 425 1
176 443 1
176 448 1
176 453 1
176 476 1
176 485 1
176 492 1
176 497 1
176 503 1
176 525 1
176 585 1
176 596 1
176 616 1
176 650 1
176 663 1
176 669 1
176 673 1
176 688 1
176 692 1
176 753 1
176 776 1
177 12 1
177 24 1
177 28 1
177 42 1
177 70 1
177 83 1
177 120 1
177 125 1
177 207 1
177 225 1
177 263 1
177 264 1
177 272 1
177 282 1
177 286 1
177 305 1
177 334 1
177 389 1
177 408 1
177 429 1
177 435 1
177 442 1
177 445 1
177 450 1
177 453 1
177 456 1
177 462 1
177 465 1
177 471 1
177 481 1
177 505 1
177 530 1
177 548 1
177 618 1
177 623 1
177 629 1
177 637 1
177 651 1
177 653 1
177 660 1
177 672 1
177 679 1
177 697 1
177 748 1
177 749 1
177 755 1
177 778 1
177 784 1
178 8 1
178 9 1
178 15 1
178 93 1
178 106 1
178 110 1
178 114 1
178 115 1
178 117 1
178 133 1
178 138 1
178 145 1
178 155 1
178 168 1
178 286 1
178 318 1
178 321 1
178 323 1
178 333 1
178 334 1
178 340 1
178 371 1
178 373 1
178 391 1
178 428 1
178 444 1
178 451 1
178 461 1
178 468 1
178 471 1
178 508 1
178 513 1
178 515 1
178 527 1
178 543 1
178 545 1
178 547 1
178 548 1
178 550 1
178 582 1
178 586 1
178 622 1
178 630 1
178 662 1
178 666 1
178 669 1
178 680 1
178 690 1
178 695 1
178 749 1
178 764 1
178 786 1
179 9 1
179 36 1
179 40 1
179 46 1
179 58 1
179 68 1
179 84 1
179 89 1
179 109 1
179 119 1
179 133 1
179 152 1
179 156 1
179 206 1
179 238 1
179 249 1
179 251 1
179 292 1
179 293 1
179 329 1
179 344 1
179 348 1
179 360 1
179 362 1
179 375 1
179 377 1
179 378 1
179 392 1
179 401 1
179 404 1
179 414 1
179 415 1
179 418 1
179 419 1
179 440 1
179 441 1
179 447 1
179 497 1
179 498 1
179 522 1
179 529 1
179 539 1
179 574 1
179 606 1
179 615 1
179 620 1
179 683 1
179 705 1
179 772 1
180 1 1
180 42 1
180 70 1
180 74 1
180 78 1
180 81 1
180 88 1
180 97 1
180 101 1
180 108 1
180 118 1
180 154 1
180 197 1
180 198 1
180 229 1
180 250 1
180 264 1
180 282 1
180 288 1
180 293 1
180 306 1
180 317 1
180 332 1
180 344 1
180 346 1
180 349 1
180 350 1
180 368 1
180 395 1
180 429 1
180 438 1
180 445 1
180 474 1
180 490 1
180 509 1
180 516 1
180 522 1
180 572 1
180 575 1
180 605 1
180 621 1
180 631 1
180 636 1
180 646 1
180 652 1
180 666 1
180 674 1
180 675 1
180 682 1
180 714 1
180 716 1
180 733 1
180 737 1
180 741 1
180 749 1
180 755 1
180 758 1
180 778 1
180 793 1
180 794 1
181 8 1
181 41 1
181 76 1
181 104 1
181 130 1
181 140 1
181 147 1
181 158 1
181 165 1
181 189 1
181 227 1
181 230 1
181 234 1
181 250 1
181 255 1
181 276 1
181 284 1
181 286 1
181 307 1
181 317 1
181 324 1
181 335 1
181 343 1
181 399 1
181 407 1
181 410 1
181 425 1
181 434 1
181 478 1
181 496 1
181 503 1
181 533 1
181 538 1
181 568 1
181 569 1
181 576 1
181 577 1
181 581 1
181 597 1
181 642 1
181 650 1
181 662 1
181 675 1
181 677 1
181 679 1
181 695 1
181 704 1
181 731 1
181 753 1
181 773 1
182 13 1
182 21 1
182 22 1
182 39 1
182 65 1
182 73 1
182 81 1
182 92 1
182 110 1
182 113 1
182 120 1
182 127 1
182 136 1
182 143 1
182 149 1
182 168 1
182 184 1
182 193 1
182 208 1
182 256 1
182 296 1
182 312 1
182 315 1
182 325 1
182 340 1
182 361 1
182 370 1
182 375 1
182 381 1
182 385 1
182 432 1
182 439 1
182 462 1
182 484 1
182 489 1
182 495 1
182 499 1
182 503 1
182 543 1
182 553 1
182 554 1
182 569 1
182 606 1
182 649 1
182 656 1
182 704 1
182 721 1
182 747 1
182 768 1
182 778 1
182 794 1
182 796 1
182 799 1
183 15 1
183 23 1
183 58 1
183 74 1
183 108 1
183 135 1
183 169 1
183 202 1
183 241 1
183 254 1
183 285 1
183 289 1
183 291 1
183 321 1
183 326 1
183 330 1
183 332 1
183 334 1
183 355 1
183 364 1
183 367 1
183 421 1
183 439 1
183 460 1
183 483 1
183 494 1
183 500 1
183 505 1
183 512 1
183 517 1
183 624 1
183 628 1
183 639 1
183 675 1
183 712 1
183 723 1
183 737 1
183 744 1
183 747 1
183 754 1
183 784 1
184 2 1
184 7 1
184 11 1
184 26 1
184 48 1
184 57 1
184 72 1
184 82 1
184 87 1
184 90 1
184 92 1
184 130 1
184 133 1
184 136 1
184 137 1
184 165 1
184 182 1
184 196 1
184 229 1
184 245 1
184 246 1
184 255 1
184 256 1
184 264 1
184 269 1
184 274 1
184 291 1
184 347 1
184 379 1
184 422 1
184 426 1
184 437 1
184 449 1
184 463 1
184 474 1
184 500 1
184 508 1
184 514 1
184 566 1
184 571 1
184 584 1
184 606 1
184 639 1
184 657 1
184 698 1
184 722 1
184 726 1
184 728 1
184 732 1
184 744 1
184 764 1
184 773 1
184 779 1
184 793 1
185 7 1
185 75 1
185 105 1
185 107 1
185 130 1
185 146 1
185 150 1
185 156 1
185 161 1
185 163 1
185 173 1
185 188 1
185 210 1
185 228 1
185 233 1
185 271 1
185 299 1
185 311 1
185 348 1
185 369 1
185 387 1
185 390 1
185 395 1
185 411 1
185 440 1
185 458 1
185 471 1
185 473 1
185 492 1
185 493 1
185 508 1
185 540 1
185 545 1
185 572 1
185 576 1
185 602 1
185 610 1
185 634 1
185 636 1
185 659 1
185 665 1
185 666 1
185 667 1
185 672 1
185 680 1
185 712 1
185 718 1
185 724 1
185 751 1
185 770 1
185 772 1
185 800 1
186 15 1
186 60 1
186 85 1
186 86 1
186 90 1
186 94 1
186 112 1
186 127 1
186 144 1
186 146 1
186 148 1
186 213 1
186 218 1
186 227 1
186 228 1
186 232 1
186 252 1
186 267 1
186 275 1
186 277 1
186 289 1
186 298 1
186 395 1
186 406 1
186 413 1
186 434 1
186 464 1
186 495 1
186 499 1
186 500 1
186 505 1
186 509 1
186 555 1
186 576 1
186 582 1
186 595 1
186 658 1
186 665 1
186 668 1
186 680 1
186 690 1
186 692 1
186 709 1
186 718 1
186 719 1
186 721 1
186 754 1
186 763 1
187 29 1
187 37 1
187 73 1
187 86 1
187 93 1
187 100 1
187 122 1
187 137 1
187 150 1
187 167 1
187 170 1
187 244 1
187 246 1
187 267 1
187 281 1
187 293 1
187 304 1
187 309 1
187 321 1
187 329 1
187 332 1
187 349 1
187 371 1
187 385 1
187 386 1
187 396 1
187 399 1
187 405 1
187 417 1
187 423 1
187 454 1
187 558 1
187 569 1
187 573 1
187 577 1
187 586 1
187 595 1
187 609 1
187 616 1
187 647 1
187 657 1
187 662 1
187 666 1
187 716 1
187 725 1
187 773 1
187 796 1
188 4 1
188 11 1
188 16 1
188 22 1
188 30 1
188 44 1
188 59 1
188 60 1
188 67 1
188 69 1
188 72 1
188 155 1
188 185 1
188 214 1
188 233 1
188 246 1
188 259 1
188 266 1
188 280 1
188 284 1
188 292 1
188 300 1
188 303 1
188 307 1
188 318 1
188 354 1
188 356 1
188 371 1
188 408 1
188 441 1
188 456 1
188 484 1
188 487 1
188 498 1
188 512 1
188 514 1
188 536 1
188 546 1
188 556 1
188 559 1
188 569 1
188 576 1
188 620 1
188 623 1
188 652 1
188 663 1
188 699 1
188 705 1
188 733 1
188 762 1
188 789 1
189 1 1
189 17 1
189 28 1
189 79 1
189 106 1
189 124 1
189 139 1
189 153 1
189 181 1
189 191 1
189 207 1
189 220 1
189 224 1
189 251 1
189 279 1
189 286 1
189 293 1
189 305 1
189 352 1
189 365 1
189 369 1
189 374 1
189 381 1
189 385 1
189 413 1
189 417 1
189 420 1
189 429 1
189 443 1
189 478 1
189 483 1
189 485 1
189 491 1
189 517 1
189 524 1
189 580 1
189 662 1
189 664 1
189 673 1
189 675 1
189 682 1
189 693 1
189 712 1
189 752 1
189 763 1
189 783 1
189 787 1
190 100 1
190 111 1
190 123 1
190 142 1
190 202 1
190 234 1
190 235 1
190 236 1
190 252 1
190 267 1
190 292 1
190 310 1
190 336 1
190 350 1
190 351 1
190 372 1
190 374 1
190 379 1
190 385 1
190 394 1
190 413 1
190 454 1
190 465 1
190 469 1
190 484 1
190 485 1
190 489 1
190 497 1
190 511 1
190 520 1
190 530 1
190 544 1
190 590 1
190 604 1
190 605 1
190 620 1
190 621 1
190 666 1
190 681 1
190 693 1
190 717 1
190 722 1
190 769 1
190 781 1
191 41 1
191 42 1
191 65 1
191 75 1
191 82 1
191 87 1
191 89 1
191 103 1
191 153 1
191 157 1
191 169 1
191 189 1
191 194 1
191 222 1
191 226 1
191 248 1
191 268 1
191 269 1
191 273 1
191 314 1
191 320 1
191 365 1
191 378 1
191 382 1
191 385 1
191 387 1
191 406 1
191 423 1
191 460 1
191 484 1
191 486 1
191 492 1
191 504 1
191 540 1
191 543 1
191 561 1
191 599 1
191 605 1
191 607 1
191 624 1
191 643 1
191 654 1
191 669 1
191 697 1
191 705 1
191 723 1
191 724 1
191 734 1
191 738 1
191 770 1
192 28 1
192 55 1
192 65 1
192 72 1
192 101 1
192 109 1
192 208 1
192 216 1
192 218 1
192 223 1
192 231 1
192 239 1
192 245 1
192 274 1
192 301 1
192 326 1
192 348 1
192 372 1
192 383 1
192 393 1
192 419 1
192 426 1
192 429 1
192 442 1
192 456 1
192 463 1
192 495 1
192 501 1
192 506 1
192 528 1
192 533 1
192 547 1
192 563 1
192 569 1
192 570 1
192 582 1
192 588 1
192 589 1
192 612 1
192 621 1
192 635 1
192 661 1
192 665 1
192 690 1
192 695 1
192 697 1
192 698 1
192 708 1
192 709 1
192 714 1
192 716 1
192 722 1
192 734 1
192 742 1
192 743 1
193 16 1
193 40 1
193 72 1
193 108 1
193 118 1
193 134 1
193 144 1
193 150 1
193 159 1
193 162 1
193 174 1
193 182 1
193 195 1
193 204 1
193 208 1
193 222 1
193 239 1
193 250 1
193 255 1
193 262 1
193 272 1
193 275 1
193 300 1
193 331 1
193 393 1
193 394 1
193 399 1
193 405 1
193 425 1
193 445 1
193 460 1
193 463 1
193 469 1
193 488 1
193 539 1
193 594 1
193 597 1
193 600 1
193 622 1
193 643 1
193 650 1
193 653 1
193 717 1
193 731 1
193 782 1
193 793 1
194 47 1
194 53 1
194 55 1
194 70 1
194 78 1
194 92 1
194 129 1
194 152 1
194 157 1
194 191 1
194 195 1
194 254 1
194 274 1
194 282 1
194 289 1
194 304 1
194 306 1
194 311 1
194 323 1
194 324 1
194 338 1
194 347 1
194 377 1
194 389 1
194 404 1
194 422 1
194 432 1
194 444 1
194 455 1
194 461 1
194 483 1
194 492 1
194 501 1
194 530 1
194 534 1
194 554 1
194 555 1
194 567 1
194 569 1
194 585 1
194 587 1
194 636 1
194 649 1
194 660 1
194 696 1
194 709 1
194 724 1
194 754 1
195 1 1
195 5 1
195 14 1
195 30 1
195 31 1
195 63 1
195 73 1
195 74 1
195 85 1
195 135 1
195 151 1
195 159 1
195 162 1
195 193 1
195 194 1
195 206 1
195 229 1
195 237 1
195 260 1
195 273 1
195 278 1
195 282 1
195 288 1
195 291 1
195 320 1
195 335 1
195 360 1
195 364 1
195 379 1
195 404 1
195 418 1
195 430 1
195 437 1
195 456 1
195 478 1
195 493 1
195 537 1
195 552 1
195 586 1
195 591 1
195 609 1
195 612 1
195 634 1
195 641 1
195 662 1
195 666 1
195 689 1
195 703 1
195 706 1
195 724 1
195 739 1
195 759 1
195 783 1
196 82 1
196 90 1
196 102 1
196 105 1
196 120 1
196 129 1
196 132 1
196 147 1
196 170 1
196 172 1
196 184 1
196 197 1
196 224 1
196 227 1
196 234 1
196 245 1
196 273 1
196 332 1
196 333 1
196 334 1
196 384 1
196 441 1
196 486 1
196 523 1
196 538 1
196 552 1
196 579 1
196 581 1
196 607 1
196 624 1
196 628 1
196 656 1
196 663 1
196 664 1
196 685 1
196 696 1
196 701 1
196 736 1
196 739 1
196 756 1
196 776 1
196 780 1
197 26 1
197 33 1
197 58 1
197 62 1
197 117 1
197 140 1
197 147 1
197 158 1
197 180 1
197 196 1
197 214 1
197 276 1
197 278 1
197 320 1
197 326 1
197 348 1
197 350 1
197 364 1
197 369 1
197 394 1
197 407 1
197 408 1
197 412 1
197 429 1
197 434 1
197 452 1
197 456 1
197 482 1
197 496 1
197 518 1
197 535 1
197 547 1
197 592 1
197 603 1
197 605 1
197 624 1
197 634 1
197 638 1
197 659 1
197 674 1
197 678 1
197 704 1
197 733 1
197 754 1
197 770 1
197 773 1
197 797 1
197 799 1
198 26 1
198 36 1
198 93 1
198 116 1
198 126 1
198 129 1
198 136 1
198 180 1
198 201 1
198 255 1
198 257 1
198 263 1
198 275 1
198 289 1
198 307 1
198 315 1
198 340 1
198 347 1
198 391 1
198 397 1
198 421 1
198 462 1
198 477 1
198 478 1
198 520 1
198 525 1
198 537 1
198 546 1
198 556 1
198 557 1
198 563 1
198 579 1
198 593 1
198 616 1
198 619 1
198 626 1
198 646 1
198 654 1
198 658 1
198 659 1
198 746 1
198 787 1
198 798 1
199 13 1
199 14 1
199 31 1
199 41 1
199 46 1
199 79 1
199 81 1
199 85 1
199 90 1
199 113 1
199 141 1
199 175 1
199 225 1
199 229 1
199 232 1
199 247 1
199 272 1
199 278 1
199 310 1
199 324 1
199 349 1
199 387 1
199 395 1
199 416 1
199 441 1
199 450 1
199 473 1
199 500 1
199 506 1
199 515 1
199 525 1
199 530 1
199 555 1
199 586 1
199 620 1
199 621 1
199 677 1
199 681 1
199 703 1
199 711 1
199 717 1
199 727 1
199 732 1
199 734 1
199 751 1
199 795 1
199 797 1
200 22 1
200 29 1
200 42 1
200 54 1
200 59 1
200 87 1
200 93 1
200 98 1
200 104 1
200 145 1
200 157 1
200 174 1
200 219 1
200 220 1
200 221 1
200 261 1
200 286 1
200 305 1
200 309 1
200 329 1
200 374 1
200 386 1
200 405 1
200 415 1
200 439 1
200 448 1
200 453 1
200 454 1
200 478 1
200 509 1
200 528 1
200 538 1
200 557 1
200 577 1
200 580 1
200 581 1
200 630 1
200 631 1
200 635 1
200 662 1
200 670 1
200 673 1
200 702 1
200 716 1
200 723 1
200 751 1
200 778 1
200 792 1
201 24 1
201 35 1
201 64 1
201 65 1
201 74 1
201 79 1
201 121 1
201 135 1
201 143 1
201 145 1
201 151 1
201 158 1
201 198 1
201 221 1
201 240 1
201 245 1
201 248 1
201 253 1
201 255 1
201 280 1
201 364 1
201 383 1
201 384 1
201 393 1
201 418 1
201 493 1
201 499 1
201 508 1
201 528 1
201 599 1
201 606 1
201 613 1
201 636 1
201 639 1
201 642 1
201 672 1
201 707 1
201 726 1
201 733 1
201 738 1
201 761 1
201 765 1
201 800 1
202 1 1
202 9 1
202 12 1
202 33 1
202 38 1
202 41 1
202 56 1
202 58 1
202 108 1
202 112 1
202 183 1
202 190 1
202 248 1
202 276 1
202 319 1
202 325 1
202 328 1
202 357 1
202 373 1
202 392 1
202 398 1
202 399 1
202 415 1
202 421 1
202 438 1
202 443 1
202 450 1
202 453 1
202 464 1
202 474 1
202 483 1
202 538 1
202 541 1
202 551 1
202 577 1
202 583 1
202 586 1
202 594 1
202 606 1
202 612 1
202 621 1
202 631 1
202 658 1
202 667 1
202 669 1
202 682 1
202 696 1
202 697 1
202 703 1
202 705 1
202 711 1
202 721 1
202 722 1
202 725 1
202 743 1
202 752 1
202 773 1
202 786 1
202 787 1
203 5 1
203 20 1
203 22 1
203 51 1
203 55 1
203 88 1
203 96 1
203 111 1
203 139 1
203 147 1
203 149 1
203 151 1
203 153 1
203 156 1
203 158 1
203 160 1
203 166 1
203 169 1
203 223 1
203 285 1
203 298 1
203 336 1
203 341 1
203 351 1
203 356 1
203 357 1
203 360 1
203 363 1
203 369 1
203 378 1
203 380 1
203 388 1
203 441 1
203 450 1
203 474 1
203 514 1
203 524 1
203 535 1
203 616 1
203 622 1
203 664 1
203 696 1
203 697 1
203 705 1
203 707 1
203 710 1
203 718 1
203 737 1
203 738 1
203 749 1
203 751 1
203 753 1
203 768 1
203 776 1
204 53 1
204 79 1
204 86 1
204 93 1
204 127 1
204 132 1
204 170 1
204 193 1
204 233 1
204 252 1
204 258 1
204 269 1
204 276 1
204 286 1
204 403 1
204 413 1
204 453 1
204 458 1
204 485 1
204 510 1
204 544 1
204 564 1
204 592 1
204 605 1
204 610 1
204 616 1
204 642 1
204 654 1
204 694 1
204 706 1
204 740 1
204 751 1
204 760 1
204 793 1
204 795 1
205 19 1
205 25 1
205 64 1
205 69 1
205 90 1
205 119 1
205 152 1
205 162 1
205 207 1
205 273 1
205 279 1
205 293 1
205 311 1
205 316 1
205 317 1
205 323 1
205 346 1
205 372 1
205 387 1
205 395 1
205 464 1
205 470 1
205 472 1
205 533 1
205 566 1
205 567 1
205 602 1
205 619 1
205 625 1
205 638 1
205 642 1
205 664 1
205 674 1
205 675 1
205 682 1
205 687 1
205 735 1
205 746 1
205 767 1
205 774 1
205 790 1
206 5 1
206 9 1
206 30 1
206 32 1
206 51 1
206 61 1
206 77 1
206 107 1
206 117 1
206 134 1
206 161 1
206 179 1
206 195 1
206 267 1
206 275 1
206 286 1
206 297 1
206 306 1
206 312 1
206 325 1
206 326 1
206 347 1
206 381 1
206 394 1
206 424 1
206 469 1
206 476 1
206 499 1
206 503 1
206 506 1
206 509 1
206 511 1
206 517 1
206 542 1
206 601 1
206 612 1
206 618 1
206 626 1
206 636 1
206 646 1
206 655 1
206 678 1
206 692 1
206 697 1
206 725 1
206 726 1
206 755 1
206 760 1
206 779 1
207 4 1
207 38 1
207 42 1
207 70 1
207 107 1
207 116 1
207 117 1
207 122 1
207 130 1
207 177 1
207 189 1
207 205 1
207 223 1
207 225 1
207 300 1
207 318 1
207 362 1
207 380 1
207 391 1
207 417 1
207 420 1
207 442 1
207 462 1
207 474 1
207 514 1
207 518 1
207 532 1
207 542 1
207 545 1
207 556 1
207 561 1
207 598 1
207 607 1
207 631 1
207 760 1
207 768 1
207 777 1
207 783 1
207 795 1
208 6 1
208 15 1
208 17 1
208 24 1
208 32 1
208 55 1
208 68 1
208 76 1
208 92 1
208 157 1
208 182 1
208 192 1
208 193 1
208 219 1
208 223 1
208 242 1
208 243 1
208 247 1
208 258 1
208 277 1
208 284 1
208 286 1
208 318 1
208 324 1
208 370 1
208 406 1
208 407 1
208 413 1
208 444 1
208 449 1
208 456 1
208 472 1
208 474 1
208 490 1
208 509 1
208 510 1
208 535 1
208 537 1
208 584 1
208 596 1
208 598 1
208 612 1
208 630 1
208 636 1
208 642 1
208 675 1
208 693 1
208 725 1
208 739 1
208 744 1
208 766 1
208 795 1
208 799 1
209 12 1
209 13 1
209 21 1
209 28 1
209 41 1
209 44 1
209 60 1
209 88 1
209 91 1
209 107 1
209 114 1
209 117 1
209 154 1
209 155 1
209 163 1
209 223 1
209 248 1
209 258 1
209 276 1
209 280 1
209 320 1
209 324 1
209 346 1
209 347 1
209 379 1
209 420 1
209 458 1
209 495 1
209 500 1
209 537 1
209 540 1
209 546 1
209 553 1
209 571 1
209 576 1
209 601 1
209 641 1
209 642 1
209 667 1
209 694 1
209 705 1
209 719 1
209 727 1
209 732 1
209 758 1
209 765 1
209 772 1
209 777 1
209 787 1
210 4 1
210 20 1
210 35 1
210 36 1
210 39 1
210 42 1
210 67 1
210 115 1
210 161 1
210 163 1
210 185 1
210 220 1
210 237 1
210 238 1
210 249 1
210 255 1
210 299 1
210 305 1
210 318 1
210 323 1
210 327 1
210 361 1
210 403 1
210 404 1
210 430 1
210 459 1
210 461 1
210 522 1
210 533 1
210 537 1
210 557 1
210 571 1
210 575 1
210 618 1
210 648 1
210 657 1
210 676 1
210 710 1
210 714 1
210 715 1
210 721 1
210 731 1
210 743 1
210 754 1
210 790 1
210 794 1
211 18 1
211 33 1
211 52 1
211 61 1
211 101 1
211 111 1
211 128 1
211 147 1
211 164 1
211 176 1
211 215 1
211 220 1
211 226 1
211 273 1
211 276 1
211 284 1
211 300 1
211 303 1
211 308 1
211 324 1
211 360 1
211 374 1
211 417 1
211 421 1
211 436 1
211 438 1
211 440 1
211 466 1
211 472 1
211 478 1
211 481 1
211 484 1
211 505 1
211 512 1
211 514 1
211 521 1
211 527 1
211 532 1
211 571 1
211 606 1
211 625 1
211 661 1
211 664 1
211 671 1
211 690 1
211 694 1
211 744 1
211 748 1
211 791 1
212 11 1
212 17 1
212 18 1
212 42 1
212 45 1
212 48 1
212 83 1
212 233 1
212 270 1
212 302 1
212 304 1
212 330 1
212 335 1
212 339 1
212 343 1
212 370 1
212 398 1
212 402 1
212 413 1
212 419 1
212 456 1
212 463 1
212 471 1
212 522 1
212 546 1
212 547 1
212 554 1
212 556 1
212 560 1
212 584 1
212 635 1
212 645 1
212 648 1
212 653 1
212 658 1
212 678 1
212 682 1
212 683 1
212 693 1
212 710 1
212 723 1
212 729 1
212 735 1
212 772 1
212 778 1
212 783 1
212 794 1
213 2 1
213 6 1
213 20 1
213 28 1
213 33 1
213 59 1
213 60 1
213 61 1
213 62 1
213 84 1
213 90 1
213 126 1
213 128 1
213 138 1
213 150 1
213 151 1
213 153 1
213 171 1
213 175 1
213 186 1
213 225 1
213 231 1
213 241 1
213 246 1
213 259 1
213 262 1
213 290 1
213 307 1
213 339 1
213 344 1
213 347 1
213 362 1
213 364 1
213 370 1
213 383 1
213 402 1
213 442 1
213 462 1
213 471 1
213 510 1
213 511 1
213 526 1
213 558 1
213 564 1
213 590 1
213 596 1
213 616 1
213 618 1
213 627 1
213 629 1
213 642 1
213 646 1
213 649 1
213 663 1
213 684 1
213 693 1
213 695 1
213 699 1
213 703 1
213 724 1
213 728 1
213 730 1
213 764 1
213 769 1
214 53 1
214 69 1
214 80 1
214 94 1
214 101 1
214 142 1
214 144 1
214 146 1
214 155 1
214 174 1
214 188 1
214 197 1
214 229 1
214 243 1
214 251 1
214 313 1
214 314 1
214 334 1
214 357 1
214 362 1
214 383 1
214 390 1
214 417 1
214 428 1
214 431 1
214 447 1
214 448 1
214 456 1
214 465 1
214 494 1
214 495 1
214 500 1
214 533 1
214 537 1
214 539 1
214 540 1
214 553 1
214 559 1
214 564 1
214 597 1
214 601 1
214 613 1
214 619 1
214 637 1
214 652 1
214 655 1
214 659 1
214 662 1
214 669 1
214 672 1
214 691 1
214 698 1
214 703 1
214 725 1
214 744 1
214 753 1
214 767 1
215 4 1
215 5 1
215 23 1
215 31 1
215 34 1
215 41 1
215 44 1
215 60 1
215 63 1
215 70 1
215 71 1
215 80 1
215 87 1
215 99 1
215 104 1
215 113 1
215 211 1
215 218 1
215 222 1
215 235 1
215 254 1
215 259 1
215 265 1
215 299 1
215 305 1
215 323 1
215 329 1
215 331 1
215 350 1
215 356 1
215 358 1
215 373 1
215 377 1
215 395 1
215 467 1
215 480 1
215 509 1
215 515 1
215 548 1
215 550 1
215 588 1
215 605 1
215 630 1
215 642 1
215 679 1
215 695 1
215 698 1
215 703 1
215 714 1
215 715 1
215 731 1
215 733 1
215 769 1
215 785 1
215 789 1
215 797 1
216 55 1
216 85 1
216 112 1
216 132 1
216 140 1
216 162 1
216 192 1
216 222 1
216 230 1
216 241 1
216 248 1
216 266 1
216 277 1
216 284 1
216 289 1
216 294 1
216 295 1
216 315 1
216 334 1
216 341 1
216 358 1
216 364 1
216 374 1
216 375 1
216 385 1
216 401 1
216 407 1
216 411 1
216 412 1
216 423 1
216 431 1
216 432 1
216 481 1
216 507 1
216 514 1
216 527 1
216 529 1
216 540 1
216 541 1
216 550 1
216 569 1
216 571 1
216 617 1
216 635 1
216 692 1
216 699 1
216 729 1
216 751 1
216 770 1
216 778 1
216 791 1
217 30 1
217 42 1
217 85 1
217 118 1
217 124 1
217 140 1
217 141 1
217 142 1
217 161 1
217 219 1
217 229 1
217 266 1
217 268 1
217 274 1
217 275 1
217 282 1
217 286 1
217 306 1
217 350 1
217 358 1
217 372 1
217 408 1
217 419 1
217 455 1
217 459 1
217 482 1
217 495 1
217 551 1
217 553 1
217 564 1
217 570 1
217 597 1
217 608 1
217 630 1
217 663 1
217 666 1
217 686 1
217 714 1
217 753 1
217 757 1
217 777 1
218 21 1
218 30 1
218 40 1
218 53 1
218 74 1
218 83 1
218 104 1
218 113 1
218 124 1
218 186 1
218 192 1
218 215 1
218 231 1
218 248 1
218 266 1
218 275 1
218 281 1
218 322 1
218 334 1
218 346 1
218 359 1
218 382 1
218 383 1
218 385 1
218 414 1
218 435 1
218 442 1
218 458 1
218 473 1
218 479 1
218 517 1
218 533 1
218 552 1
218 589 1
218 629 1
218 635 1
218 642 1
218 647 1
218 733 1
218 742 1
218 786 1
218 791 1
218 792 1
218 795 1
219 84 1
219 88 1
219 99 1
219 112 1
219 116 1
219 162 1
219 200 1
219 208 1
219 217 1
219 254 1
219 289 1
219 342 1
219 354 1
219 362 1
219 384 1
219 420 1
219 428 1
219 430 1
219 441 1
219 471 1
219 480 1
219 489 1
219 501 1
219 535 1
219 578 1
219 580 1
219 585 1
219 598 1
219 600 1
219 606 1
219 609 1
219 618 1
219 631 1
219 636 1
219 655 1
219 671 1
219 697 1
219 712 1
219 720 1
219 766 1
219 772 1
219 800 1
220 25 1
220 43 1
220 51 1
220 52 1
220 53 1
220 71 1
220 82 1
220 89 1
220 90 1
220 95 1
220 113 1
220 115 1
220 123 1
220 124 1
220 134 1
220 153 1
220 189 1
220 200 1
220 210 1
220 211 1
220 222 1
220 239 1
220 270 1
220 272 1
220 295 1
220 353 1
220 389 1
220 398 1
220 404 1
220 412 1
220 450 1
220 478 1
220 498 1
220 506 1
220 507 1
220 526 1
220 537 1
220 538 1
220 562 1
220 568 1
220 571 1
220 573 1
220 603 1
220 624 1
220 625 1
220 656 1
220 681 1
220 686 1
220 698 1
220 721 1
220 750 1
220 767 1
220 770 1
220 784 1
220 798 1
221 7 1
221 18 1
221 45 1
221 52 1
221 58 1
221 63 1
221 64 1
221 69 1
221 83 1
221 96 1
221 100 1
221 167 1
221 174 1
221 200 1
221 201 1
221 237 1
221 249 1
221 253 1
221 268 1
221 311 1
221 313 1
221 319 1
221 335 1
221 340 1
221 344 1
221 351 1
221 355 1
221 368 1
221 372 1
221 377 1
221 390 1
221 395 1
221 414 1
221 420 1
221 434 1
221 445 1
221 455 1
221 475 1
221 489 1
221 505 1
221 527 1
221 528 1
221 529 1
221 544 1
221 555 1
221 575 1
221 577 1
221 578 1
221 593 1
221 624 1
221 632 1
221 637 1
221 754 1
221 776 1
221 785 1
222 4 1
222 9 1
222 36 1
222 63 1
222 67 1
222 90 1
222 104 1
222 110 1
222 143 1
222 146 1
222 154 1
222 169 1
222 191 1
222 193 1
222 215 1
222 216 1
222 220 1
222 235 1
222 238 1
222 242 1
222 261 1
222 264 1
222 295 1
222 375 1
222 397 1
222 420 1
222 425 1
222 456 1
222 478 1
222 491 1
222 527 1
222 530 1
222 535 1
222 546 1
222 552 1
222 555 1
222 574 1
222 596 1
222 637 1
222 659 1
222 660 1
222 661 1
222 669 1
222 691 1
222 693 1
222 716 1
222 725 1
222 730 1
222 751 1
222 772 1
223 6 1
223 37 1
223 70 1
223 75 1
223 107 1
223 127 1
223 192 1
223 203 1
223 207 1
223 208 1
223 209 1
223 230 1
223 232 1
223 254 1
223 269 1
223 290 1
223 293 1
223 299 1
223 314 1
223 319 1
223 328 1
223 363 1
223 390 1
223 391 1
223 396 1
223 419 1
223 474 1
223 515 1
223 570 1
223 581 1
223 586 1
223 598 1
223 601 1
223 604 1
223 605 1
223 611 1
223 615 1
223 623 1
223 641 1
223 663 1
223 679 1
223 692 1
223 700 1
223 732 1
223 752 1
223 778 1
223 789 1
223 800 1
224 17 1
224 25 1
224 43 1
224 44 1
224 56 1
224 66 1
224 83 1
224 98 1
224 101 1
224 103 1
224 139 1
224 153 1
224 159 1
224 175 1
224 189 1
224 196 1
224 236 1
224 243 1
224 251 1
224 277 1
224 307 1
224 311 1
224 316 1
224 318 1
224 323 1
224 330 1
224 389 1
224 396 1
224 417 1
224 429 1
224 464 1
224 467 1
224 484 1
224 546 1
224 556 1
224 569 1
224 635 1
224 647 1
224 658 1
224 671 1
224 680 1
224 701 1
224 706 1
224 713 1
224 726 1
224 733 1
224 734 1
224 749 1
224 766 1
224 770 1
224 780 1
224 798 1
225 6 1
225 29 1
225 30 1
225 36 1
225 50 1
225 89 1
225 97 1
225 111 1
225 114 1
225 128 1
225 155 1
225 177 1
225 199 1
225 207 1
225 213 1
225 229 1
225 274 1
225 299 1
225 314 1
225 318 1
225 348 1
225 353 1
225 373 1
225 409 1
225 412 1
225 481 1
225 500 1
225 511 1
225 520 1
225 545 1
225 557 1
225 565 1
225 587 1
225 601 1
225 659 1
225 683 1
225 728 1
225 729 1
225 755 1
225 756 1
225 770 1
225 789 1
225 794 1
226 21 1
226 66 1
226 71 1
226 81 1
226 87 1
226 109 1
226 160 1
226 163 1
226 191 1
226 211 1
226 240 1
226 266 1
226 314 1
226 352 1
226 374 1
226 395 1
226 401 1
226 428 1
226 436 1
226 461 1
226 497 1
226 544 1
226 552 1
226 560 1
226 645 1
226 663 1
226 676 1
226 715 1
226 731 1
226 739 1
226 740 1
226 746 1
226 792 1
227 6 1
227 8 1
227 9 1
227 51 1
227 70 1
227 109 1
227 123 1
227 125 1
227 145 1
227 148 1
227 166 1
227 168 1
227 181 1
227 186 1
227 196 1
227 255 1
227 273 1
227 291 1
227 292 1
227 296 1
227 297 1
227 325 1
227 326 1
227 342 1
227 348 1
227 415 1
227 425 1
227 430 1
227 441 1
227 442 1
227 474 1
227 483 1
227 503 1
227 514 1
227 518 1
227 533 1
227 549 1
227 583 1
227 652 1
227 653 1
227 655 1
227 683 1
227 690 1
227 700 1
227 721 1
227 728 1
227 731 1
227 766 1
227 800 1
228 3 1
228 19 1
228 30 1
228 42 1
228 47 1
228 64 1
228 85 1
228 86 1
228 88 1
228 101 1
228 128 1
228 185 1
228 186 1
228 246 1
228 248 1
228 255 1
228 263 1
228 278 1
228 297 1
228 309 1
228 314 1
228 403 1
228 407 1
228 419 1
228 454 1
228 484 1
228 516 1
228 523 1
228 528 1
228 532 1
228 546 1
228 604 1
228 616 1
228 643 1
228 669 1
228 746 1
228 750 1
228 751 1
228 763 1
228 775 1
229 33 1
229 43 1
229 54 1
229 109 1
229 111 1
229 154 1
229 180 1
229 184 1
229 195 1
229 199 1
229 214 1
229 217 1
229 225 1
229 240 1
229 259 1
229 283 1
229 284 1
229 290 1
229 293 1
229 312 1
229 323 1
229 339 1
229 350 1
229 353 1
229 359 1
229 385 1
229 447 1
229 454 1
229 524 1
229 619 1
229 646 1
229 673 1
229 686 1
229 705 1
229 707 1
229 715 1
229 717 1
229 727 1
229 741 1
229 747 1
229 766 1
230 80 1
230 96 1
230 98 1
230 106 1
230 107 1
230 116 1
230 152 1
230 154 1
230 181 1
230 216 1
230 223 1
230 232 1
230 236 1
230 240 1
230 251 1
230 272 1
230 300 1
230 359 1
230 383 1
230 384 1
230 420 1
230 466 1
230 482 1
230 492 1
230 517 1
230 529 1
230 539 1
230 542 1
230 551 1
230 568 1
230 572 1
230 592 1
230 604 1
230 616 1
230 618 1
230 623 1
230 652 1
230 662 1
230 697 1
230 708 1
230 713 1
230 727 1
230 734 1
230 737 1
230 744 1
230 792 1
231 7 1
231 27 1
231 41 1
231 67 1
231 137 1
231 160 1
231 173 1
231 192 1
231 213 1
231 218 1
231 244 1
231 285 1
231 289 1
231 322 1
231 332 1
231 342 1
231 374 1
231 377 1
231 406 1
231 408 1
231 414 1
231 423 1
231 426 1
231 454 1
231 495 1
231 516 1
231 520 1
231 534 1
231 550 1
231 552 1
231 625 1
231 635 1
231 639 1
231 709 1
231 711 1
231 717 1
231 725 1
231 728 1
231 735 1
231 753 1
232 78 1
232 85 1
232 158 1
232 159 1
232 163 1
232 186 1
232 199 1
232 223 1
232 230 1
232 242 1
232 253 1
232 281 1
232 297 1
232 314 1
232 317 1
232 334 1
232 352 1
232 356 1
232 364 1
232 366 1
232 371 1
232 377 1
232 385 1
232 392 1
232 415 1
232 473 1
232 498 1
232 501 1
232 506 1
232 514 1
232 531 1
232 546 1
232 576 1
232 577 1
232 596 1
232 608 1
232 652 1
232 659 1
232 668 1
232 684 1
232 685 1
232 701 1
232 712 1
232 769 1
232 773 1
233 5 1
233 13 1
233 17 1
233 36 1
233 43 1
233 71 1
233 96 1
233 102 1
233 107 1
233 113 1
233 121 1
233 122 1
233 123 1
233 146 1
233 185 1
233 188 1
233 204 1
233 212 1
233 259 1
233 262 1
233 300 1
233 308 1
233 371 1
233 395 1
233 397 1
233 398 1
233 409 1
233 416 1
233 418 1
233 443 1
233 468 1
233 470 1
233 521 1
233 525 1
233 575 1
233 600 1
233 611 1
233 614 1
233 633 1
233 640 1
233 663 1
233 668 1
233 677 1
233 754 1
234 42 1
234 83 1
234 95 1
234 109 1
234 171 1
234 181 1
234 190 1
234 196 1
234 246 1
234 251 1
234 253 1
234 275 1
234 292 1
234 298 1
234 300 1
234 338 1
234 349 1
234 366 1
234 369 1
234 399 1
234 403 1
234 433 1
234 440 1
234 448 1
234 499 1
234 502 1
234 506 1
234 520 1
234 536 1
234 539 1
234 558 1
234 572 1
234 588 1
234 600 1
234 632 1
234 635 1
234 646 1
234 681 1
234 691 1
234 717 1
234 724 1
234 746 1
234 772 1
234 779 1
234 784 1
235 9 1
235 14 1
235 15 1
235 23 1
235 30 1
235 42 1
235 54 1
235 81 1
235 88 1
235 100 1
235 114 1
235 146 1
235 151 1
235 162 1
235 170 1
235 190 1
235 215 1
235 222 1
235 252 1
235 259 1
235 278 1
235 303 1
235 307 1
235 317 1
235 364 1
235 396 1
235 434 1
235 444 1
235 464 1
235 473 1
235 480 1
235 487 1
235 489 1
235 529 1
235 534 1
235 535 1
235 564 1
235 577 1
235 580 1
235 590 1
235 595 1
235 596 1
235 604 1
235 608 1
235 720 1
235 739 1
235 752 1
235 760 1
236 2 1
236 5 1
236 13 1
236 38 1
236 90 1
236 135 1
236 171 1
236 190 1
236 224 1
236 230 1
236 242 1
236 285 1
236 286 1
236 293 1
236 299 1
236 307 1
236 318 1
236 326 1
236 340 1
236 352 1
236 376 1
236 390 1
236 414 1
236 419 1
236 431 1
236 432 1
236 437 1
236 440 1
236 447 1
236 496 1
236 499 1
236 501 1
236 507 1
236 535 1
236 557 1
236 563 1
236 565 1
236 584 1
236 592 1
236 605 1
236 622 1
236 634 1
236 671 1
236 686 1
236 689 1
236 712 1
236 715 1
236 726 1
236 761 1
237 29 1
237 41 1
237 46 1
237 84 1
237 94 1
237 98 1
237 155 1
237 164 1
237 170 1
237 174 1
237 195 1
237 210 1
237 221 1
237 241 1
237 264 1
237 266 1
237 279 1
237 304 1
237 309 1
237 320 1
237 338 1
237 394 1
237 415 1
237 417 1
237 433 1
237 444 1
237 477 1
237 484 1
237 485 1
237 512 1
237 543 1
237 546 1
237 553 1
237 557 1
237 560 1
237 561 1
237 589 1
237 604 1
237 626 1
237 631 1
237 638 1
237 670 1
237 671 1
237 696 1
237 718 1
237 723 1
237 749 1
237 758 1
237 776 1
237 781 1
237 796 1
238 12 1
238 40 1
238 42 1
238 45 1
238 83 1
238 86 1
238 88 1
238 140 1
238 179 1
238 210 1
238 222 1
238 249 1
238 251 1
238 252 1
238 253 1
238 263 1
238 265 1
238 266 1
238 293 1
238 311 1
238 316 1
238 345 1
238 355 1
238 413 1
238 420 1
238 457 1
238 467 1
238 477 1
238 516 1
238 541 1
238 559 1
238 588 1
238 595 1
238 604 1
238 605 1
238 622 1
238 625 1
238 659 1
238 665 1
238 669 1
238 683 1
238 688 1
238 704 1
238 737 1
238 747 1
238 762 1
238 772 1
238 775 1
238 800 1
239 3 1
239 12 1
239 20 1
239 48 1
239 52 1
239 80 1
239 84 1
239 105 1
239 113 1
239 140 1
239 192 1
239 193 1
239 220 1
239 246 1
239 260 1
239 265 1
239 275 1
239 276 1
239 313 1
239 355 1
239 369 1
239 386 1
239 412 1
239 426 1
239 434 1
239 446 1
239 468 1
239 470 1
239 474 1
239 501 1
239 529 1
239 560 1
239 612 1
239 641 1
239 657 1
239 658 1
239 661 1
239 670 1
239 688 1
239 704 1
239 737 1
239 746 1
239 752 1
240 10 1
240 19 1
240 30 1
240 55 1
240 88 1
240 138 1
240 201 1
240 226 1
240 229 1
240 230 1
240 258 1
240 292 1
240 308 1
240 332 1
240 339 1
240 345 1
240 383 1
240 421 1
240 426 1
240 436 1
240 450 1
240 453 1
240 455 1
240 478 1
240 494 1
240 498 1
240 525 1
240 536 1
240 550 1
240 563 1
240 579 1
240 628 1
240 675 1
240 677 1
240 687 1
240 692 1
240 705 1
240 710 1
240 752 1
240 763 1
240 773 1
240 796 1
241 1 1
241 3 1
241 68 1
241 122 1
241 125 1
241 149 1
241 150 1
241 155 1
241 159 1
241 169 1
241 183 1
241 213 1
241 216 1
241 237 1
241 259 1
241 274 1
241 292 1
241 322 1
241 329 1
241 342 1
241 346 1
241 358 1
241 362 1
241 370 1
241 389 1
241 438 1
241 448 1
241 465 1
241 482 1
241 523 1
241 527 1
241 537 1
241 575 1
241 590 1
241 599 1
241 604 1
241 617 1
241 628 1
241 697 1
241 733 1
241 743 1
241 751 1
241 755 1
241 756 1
241 757 1
241 767 1
241 797 1
242 8 1
242 9 1
242 23 1
242 57 1
242 101 1
242 104 1
242 116 1
242 134 1
242 208 1
242 222 1
242 232 1
242 236 1
242 251 1
242 258 1
242 292 1
242 329 1
242 366 1
242 389 1
242 397 1
242 412 1
242 417 1
242 451 1
242 464 1
242 467 1
242 478 1
242 504 1
242 512 1
242 529 1
242 537 1
242 543 1
242 548 1
242 557 1
242 563 1
242 590 1
242 641 1
242 645 1
242 668 1
242 763 1
242 784 1
242 794 1
243 15 1
243 20 1
243 49 1
243 52 1
243 56 1
243 87 1
243 102 1
243 151 1
243 169 1
243 208 1
243 214 1
243 224 1
243 258 1
243 265 1
243 269 1
243 280 1
243 282 1
243 303 1
243 317 1
243 338 1
243 359 1
243 369 1
243 391 1
243 394 1
243 402 1
243 422 1
243 430 1
243 437 1
243 465 1
243 482 1
243 488 1
243 491 1
243 493 1
243 518 1
243 519 1
243 520 1
243 564 1
243 576 1
243 606 1
243 607 1
243 647 1
243 652 1
243 667 1
243 697 1
243 698 1
243 731 1
243 734 1
243 756 1
243 773 1
243 797 1
244 5 1
244 18 1
244 28 1
244 62 1
244 70 1
244 76 1
244 88 1
244 94 1
244 97 1
244 122 1
244 123 1
244 133 1
244 134 1
244 153 1
244 187 1
244 231 1
244 275 1
244 277 1
244 318 1
244 324 1
244 331 1
244 344 1
244 347 1
244 354 1
244 387 1
244 400 1
244 424 1
244 428 1
244 450 1
244 452 1
244 455 1
244 482 1
244 485 1
244 521 1
244 536 1
244 548 1
244 551 1
244 576 1
244 592 1
244 606 1
244 636 1
244 648 1
244 661 1
244 666 1
244 673 1
244 674 1
244 683 1
244 691 1
244 694 1
244 699 1
244 706 1
244 716 1
244 770 1
244 791 1
244 799 1
245 16 1
245 32 1
245 51 1
245 74 1
245 78 1
245 90 1
245 105 1
245 113 1
245 129 1
245 140 1
245 184 1
245 192 1
245 196 1
245 201 1
245 257 1
245 284 1
245 286 1
245 292 1
245 317 1
245 332 1
245 340 1
245 351 1
245 360 1
245 367 1
245 422 1
245 430 1
245 432 1
245 440 1
245 463 1
245 475 1
245 486 1
245 502 1
245 524 1
245 532 1
245 548 1
245 550 1
245 583 1
245 613 1
245 632 1
245 694 1
245 703 1
245 704 1
245 729 1
245 737 1
245 745 1
245 774 1
245 780 1
245 782 1
246 16 1
246 39 1
246 58 1
246 71 1
246 84 1
246 137 1
246 140 1
246 144 1
246 148 1
246 165 1
246 172 1
246 184 1
246 187 1
246 188 1
246 213 1
246 228 1
246 234 1
246 239 1
246 306 1
246 339 1
246 363 1
246 398 1
246 420 1
246 421 1
246 452 1
246 454 1
246 457 1
246 464 1
246 465 1
246 472 1
246 477 1
246 487 1
246 514 1
246 525 1
246 549 1
246 569 1
246 604 1
246 613 1
246 625 1
246 681 1
246 698 1
246 700 1
246 703 1
246 719 1
246 754 1
246 783 1
246 785 1
247 1 1
247 8 1
247 16 1
247 37 1
247 40 1
247 43 1
247 56 1
247 69 1
247 70 1
247 74 1
247 77 1
247 89 1
247 99 1
247 138 1
247 149 1
247 175 1
247 199 1
247 208 1
247 289 1
247 300 1
247 315 1
247 325 1
247 345 1
247 356 1
247 366 1
247 379 1
247 381 1
247 382 1
247 419 1
247 434 1
247 435 1
247 552 1
247 578 1
247 604 1
247 609 1
247 615 1
247 616 1
247 619 1
247 632 1
247 646 1
247 647 1
247 663 1
247 682 1
247 684 1
247 715 1
247 740 1
247 749 1
247 790 1
248 13 1
248 18 1
248 62 1
248 66 1
248 83 1
248 156 1
248 191 1
248 201 1
248 202 1
248 209 1
248 216 1
248 218 1
248 228 1
248 253 1
248 268 1
248 314 1
248 330 1
248 333 1
248 341 1
248 362 1
248 415 1
248 419 1
248 447 1
248 451 1
248 469 1
248 472 1
248 480 1
248 487 1
248 489 1
248 492 1
248 498 1
248 504 1
248 511 1
248 543 1
248 548 1
248 551 1
248 561 1
248 564 1
248 567 1
248 573 1
248 606 1
248 608 1
248 613 1
248 632 1
248 651 1
248 656 1
248 661 1
248 671 1
248 673 1
248 675 1
248 677 1
248 679 1
248 714 1
248 737 1
248 742 1
248 750 1
248 764 1
248 786 1
249 10 1
249 19 1
249 40 1
249 54 1
249 59 1
249 78 1
249 95 1
249 106 1
249 134 1
249 159 1
249 171 1
249 179 1
249 210 1
249 221 1
249 238 1
249 253 1
249 303 1
249 329 1
249 352 1
249 373 1
249 378 1
249 390 1
249 404 1
249 413 1
249 425 1
249 427 1
249 435 1
249 439 1
249 441 1
249 443 1
249 459 1
249 467 1
249 478 1
249 510 1
249 515 1
249 533 1
249 544 1
249 558 1
249 562 1
249 586 1
249 607 1
249 611 1
249 636 1
249 650 1
249 692 1
249 695 1
249 719 1
249 720 1
249 741 1
249 742 1
249 760 1
249 770 1
250 45 1
250 62 1
250 69 1
250 110 1
250 112 1
250 118 1
250 164 1
250 172 1
250 180 1
250 181 1
250 193 1
250 254 1
250 255 1
250 258 1
250 270 1
250 278 1
250 298 1
250 302 1
250 318 1
250 322 1
250 344 1
250 353 1
250 359 1
250 386 1
250 390 1
250 396 1
250 399 1
250 413 1
250 415 1
250 420 1
250 433 1
250 502 1
250 527 1
250 529 1
250 557 1
250 558 1
250 564 1
250 578 1
250 588 1
250 597 1
250 653 1
250 663 1
250 672 1
250 683 1
250 692 1
250 710 1
250 713 1
250 720 1
250 728 1
250 746 1
250 791 1
251 1 1
251 20 1
251 23 1
251 43 1
251 60 1
251 74 1
251 78 1
251 87 1
251 127 1
251 141 1
251 155 1
251 171 1
251 179 1
251 189 1
251 214 1
251 224 1
251 230 1
251 234 1
251 238 1
251 242 1
251 253 1
251 269 1
251 281 1
251 323 1
251 338 1
251 339 1
251 350 1
251 358 1
251 373 1
251 396 1
251 447 1
251 453 1
251 464 1
251 473 1
251 483 1
251 500 1
251 512 1
251 517 1
251 518 1
251 533 1
251 601 1
251 605 1
251 616 1
251 630 1
251 679 1
251 684 1
251 691 1
251 697 1
251 699 1
251 713 1
251 735 1
251 748 1
251 785 1
252 18 1
252 19 1
252 63 1
252 78 1
252 80 1
252 102 1
252 128 1
252 186 1
252 190 1
252 204 1
252 235 1
252 238 1
252 261 1
252 272 1
252 327 1
252 332 1
252 377 1
252 378 1
252 444 1
252 469 1
252 475 1
252 520 1
252 529 1
252 557 1
252 564 1
252 609 1
252 625 1
252 651 1
252 657 1
252 660 1
252 662 1
252 666 1
252 698 1
252 702 1
252 705 1
252 785 1
252 794 1
253 2 1
253 15 1
253 35 1
253 39 1
253 50 1
253 70 1
253 82 1
253 97 1
253 109 1
253 120 1
253 130 1
253 136 1
253 137 1
253 155 1
253 168 1
253 201 1
253 221 1
253 232 1
253 234 1
253 238 1
253 248 1
253 249 1
253 251 1
253 261 1
253 271 1
253 365 1
253 395 1
253 421 1
253 446 1
253 454 1
253 471 1
253 487 1
253 517 1
253 521 1
253 540 1
253 551 1
253 568 1
253 577 1
253 580 1
253 587 1
253 608 1
253 639 1
253 650 1
253 652 1
253 662 1
253 691 1
253 694 1
253 710 1
253 743 1
253 749 1
253 763 1
253 767 1
254 7 1
254 20 1
254 21 1
254 31 1
254 36 1
254 66 1
254 82 1
254 103 1
254 110 1
254 121 1
254 183 1
254 194 1
254 215 1
254 219 1
254 223 1
254 250 1
254 287 1
254 324 1
254 336 1
254 357 1
254 367 1
254 381 1
254 447 1
254 465 1
254 469 1
254 480 1
254 491 1
254 498 1
254 499 1
254 503 1
254 525 1
254 554 1
254 557 1
254 559 1
254 567 1
254 570 1
254 624 1
254 678 1
254 703 1
254 712 1
254 716 1
254 726 1
254 755 1
254 788 1
254 800 1
255 16 1
255 53 1
255 88 1
255 95 1
255 101 1
255 124 1
255 175 1
255 181 1
255 184 1
255 193 1
255 198 1
255 201 1
255 210 1
255 227 1
255 228 1
255 250 1
255 263 1
255 267 1
255 279 1
255 360 1
255 367 1
255 375 1
255 401 1
255 413 1
255 415 1
255 419 1
255 452 1
255 457 1
255 465 1
255 471 1
255 493 1
255 554 1
255 571 1
255 576 1
255 588 1
255 595 1
255 596 1
255 599 1
255 604 1
255 606 1
255 667 1
255 685 1
255 688 1
255 689 1
255 709 1
255 730 1
255 737 1
255 774 1
255 790 1
256 19 1
256 51 1
256 62 1
256 67 1
256 90 1
256 125 1
256 150 1
256 155 1
256 161 1
256 175 1
256 182 1
256 184 1
256 269 1
256 276 1
256 307 1
256 315 1
256 318 1
256 326 1
256 374 1
256 395 1
256 399 1
256 449 1
256 452 1
256 473 1
256 508 1
256 520 1
256 526 1
256 542 1
256 546 1
256 591 1
256 605 1
256 626 1
256 633 1
256 645 1
256 685 1
256 688 1
256 689 1
256 695 1
256 730 1
256 754 1
256 779 1
256 785 1
256 787 1
257 8 1
257 15 1
257 26 1
257 30 1
257 38 1
257 44 1
257 45 1
257 55 1
257 153 1
257 198 1
257 245 1
257 267 1
257 288 1
257 313 1
257 327 1
257 335 1
257 364 1
257 381 1
257 418 1
257 451 1
257 454 1
257 497 1
257 514 1
257 516 1
257 523 1
257 526 1
257 559 1
257 560 1
257 572 1
257 578 1
257 600 1
257 611 1
257 621 1
257 622 1
257 652 1
257 656 1
257 689 1
257 705 1
257 725 1
257 737 1
257 738 1
257 742 1
257 743 1
257 760 1
257 788 1
258 41 1
258 43 1
258 61 1
258 90 1
258 100 1
258 105 1
258 121 1
258 147 1
258 163 1
258 204 1
258 208 1
258 209 1
258 240 1
258 242 1
258 243 1
258 250 1
258 268 1
258 297 1
258 305 1
258 319 1
258 339 1
258 374 1
258 395 1
258 397 1
258 412 1
258 470 1
258 561 1
258 567 1
258 569 1
258 582 1
258 585 1
258 602 1
258 626 1
258 656 1
258 685 1
258 702 1
258 706 1
258 715 1
258 718 1
258 725 1
258 739 1
258 751 1
258 756 1
258 789 1
258 792 1
259 40 1
259 98 1
259 104 1
259 109 1
259 119 1
259 142 1
259 155 1
259 160 1
259 161 1
259 166 1
259 188 1
259 213 1
259 215 1
259 229 1
259 233 1
259 235 1
259 241 1
259 269 1
259 291 1
259 326 1
259 338 1
259 396 1
259 413 1
259 426 1
259 433 1
259 438 1
259 446 1
259 471 1
259 487 1
259 515 1
259 518 1
259 540 1
259 599 1
259 620 1
259 673 1
259 674 1
259 675 1
259 680 1
259 693 1
259 698 1
259 754 1
259 763 1
259 764 1
260 5 1
260 20 1
260 34 1
260 60 1
260 66 1
260 69 1
260 156 1
260 163 1
260 195 1
260 239 1
260 273 1
260 335 1
260 348 1
260 350 1
260 375 1
260 383 1
260 386 1
260 402 1
260 415 1
260 424 1
260 516 1
260 560 1
260 563 1
260 585 1
260 586 1
260 589 1
260 592 1
260 598 1
260 599 1
260 633 1
260 657 1
260 664 1
260 665 1
260 704 1
260 716 1
260 728 1
260 769 1
260 779 1
260 799 1
261 10 1
261 25 1
261 35 1
261 67 1
261 75 1
261 88 1
261 100 1
261 104 1
261 125 1
261 130 1
261 132 1
261 163 1
261 200 1
261 222 1
261 252 1
261 253 1
261 272 1
261 276 1
261 283 1
261 290 1
261 292 1
261 294 1
261 308 1
261 316 1
261 331 1
261 359 1
261 365 1
261 369 1
261 377 1
261 378 1
261 387 1
261 391 1
261 408 1
261 419 1
261 426 1
261 486 1
261 519 1
261 530 1
261 540 1
261 564 1
261 581 1
261 591 1
261 595 1
261 609 1
261 611 1
261 621 1
261 627 1
261 629 1
261 644 1
261 680 1
261 683 1
261 689 1
261 702 1
261 717 1
261 743 1
261 765 1
261 787 1
261 788 1
262 18 1
262 24 1
262 27 1
262 54 1
262 56 1
262 87 1
262 118 1
262 147 1
262 152 1
262 163 1
262 193 1
262 213 1
262 233 1
262 266 1
262 280 1
262 283 1
262 292 1
262 303 1
262 323 1
262 373 1
262 377 1
262 380 1
262 400 1
262 401 1
262 412 1
262 436 1
262 444 1
262 455 1
262 464 1
262 499 1
262 512 1
262 516 1
262 532 1
262 571 1
262 575 1
262 591 1
262 594 1
262 601 1
262 614 1
262 617 1
262 635 1
262 646 1
262 652 1
262 654 1
262 656 1
262 668 1
262 681 1
262 704 1
262 720 1
262 723 1
262 732 1
262 739 1
262 752 1
262 758 1
262 764 1
262 796 1
263 6 1
263 15 1
263 24 1
263 36 1
263 92 1
263 107 1
263 112 1
263 127 1
263 133 1
263 149 1
263 151 1
263 155 1
263 158 1
263 177 1
263 198 1
263 228 1
263 238 1
263 255 1
263 303 1
263 306 1
263 316 1
263 319 1
263 325 1
263 347 1
263 355 1
263 360 1
263 363 1
263 372 1
263 395 1
263 432 1
263 436 1
263 450 1
263 464 1
263 472 1
263 476 1
263 477 1
263 508 1
263 530 1
263 606 1
263 655 1
263 665 1
263 686 1
263 692 1
263 730 1
263 769 1
263 774 1
263 787 1
264 27 1
264 30 1
264 55 1
264 59 1
264 62 1
264 70 1
264 93 1
264 130 1
264 138 1
264 140 1
264 141 1
264 143 1
264 150 1
264 177 1
264 180 1
264 184 1
264 222 1
264 237 1
264 270 1
264 273 1
264 286 1
264 287 1
264 290 1
264 292 1
264 307 1
264 315 1
264 317 1
264 328 1
264 340 1
264 344 1
264 355 1
264 368 1
264 389 1
264 404 1
264 425 1
264 440 1
264 454 1
264 482 1
264 491 1
264 499 1
264 505 1
264 509 1
264 513 1
264 549 1
264 559 1
264 571 1
264 576 1
264 586 1
264 590 1
264 602 1
264 627 1
264 637 1
264 641 1
264 644 1
264 658 1
264 669 1
264 685 1
264 698 1
264 711 1
264 712 1
264 714 1
264 717 1
264 720 1
264 725 1
264 765 1
264 771 1
264 772 1
264 784 1
264 785 1
265 34 1
265 57 1
265 62 1
265 69 1
265 70 1
265 76 1
265 78 1
265 95 1
265 115 1
265 142 1
265 151 1
265 166 1
265 171 1
265 172 1
265 215 1
265 238 1
265 239 1
265 243 1
265 280 1
265 304 1
265 311 1
265 314 1
265 317 1
265 324 1
265 345 1
265 349 1
265 363 1
265 389 1
265 391 1
265 399 1
265 401 1
265 421 1
265 425 1
265 443 1
265 445 1
265 447 1
265 460 1
265 472 1
265 508 1
265 534 1
265 540 1
265 558 1
265 561 1
265 564 1
265 565 1
265 585 1
265 594 1
265 602 1
265 629 1
265 630 1
265 637 1
265 640 1
265 646 1
265 666 1
265 694 1
265 706 1
265 708 1
265 720 1
265 722 1
265 726 1
265 733 1
265 741 1
265 760 1
265 787 1
265 800 1
266 13 1
266 22 1
266 33 1
266 41 1
266 44 1
266 56 1
266 57 1
266 107 1
266 140 1
266 175 1
266 188 1
266 216 1
266 217 1
266 218 1
266 226 1
266 237 1
266 238 1
266 262 1
266 275 1
266 304 1
266 335 1
266 338 1
266 355 1
266 370 1
266 383 1
266 405 1
266 436 1
266 461 1
266 471 1
266 486 1
266 505 1
266 506 1
266 514 1
266 584 1
266 643 1
266 644 1
266 678 1
266 694 1
266 698 1
266 700 1
266 713 1
266 719 1
266 732 1
266 760 1
266 787 1
266 788 1
267 18 1
267 30 1
267 46 1
267 57 1
267 68 1
267 120 1
267 135 1
267 148 1
267 186 1
267 187 1
267 190 1
267 206 1
267 255 1
267 257 1
267 272 1
267 292 1
267 297 1
267 302 1
267 315 1
267 320 1
267 349 1
267 351 1
267 354 1
267 369 1
267 410 1
267 412 1
267 435 1
267 473 1
267 489 1
267 525 1
267 530 1
267 554 1
267 555 1
267 556 1
267 632 1
267 637 1
267 645 1
267 660 1
267 664 1
267 711 1
267 721 1
267 741 1
267 775 1
268 1 1
268 50 1
268 53 1
268 54 1
268 71 1
268 87 1
268 88 1
268 96 1
268 124 1
268 144 1
268 161 1
268 191 1
268 217 1
268 221 1
268 248 1
268 258 1
268 300 1
268 314 1
268 325 1
268 369 1
268 383 1
268 392 1
268 431 1
268 449 1
268 452 1
268 504 1
268 517 1
268 536 1
268 577 1
268 588 1
268 604 1
268 606 1
268 622 1
268 637 1
268 641 1
268 660 1
268 684 1
268 705 1
268 715 1
268 734 1
268 758 1
268 776 1
268 778 1
268 790 1
268 799 1
269 13 1
269 16 1
269 35 1
269 39 1
269 91 1
269 100 1
269 109 1
269 124 1
269 141 1
269 163 1
269 184 1
269 191 1
269 204 1
269 223 1
269 243 1
269 251 1
269 256 1
269 259 1
269 272 1
269 292 1
269 304 1
269 305 1
269 312 1
269 325 1
269 327 1
269 355 1
269 394 1
269 424 1
269 433 1
269 442 1
269 454 1
269 482 1
269 487 1
269 504 1
269 506 1
269 514 1
269 554 1
269 555 1
269 563 1
269 607 1
269 616 1
269 623 1
269 628 1
269 634 1
269 638 1
269 690 1
269 698 1
269 705 1
269 716 1
269 732 1
269 754 1
269 769 1
269 781 1
269 791 1
270 9 1
270 14 1
270 51 1
270 52 1
270 70 1
270 76 1
270 92 1
270 93 1
270 121 1
270 122 1
270 154 1
270 173 1
270 212 1
270 220 1
270 250 1
270 264 1
270 272 1
270 283 1
270 290 1
270 306 1
270 328 1
270 332 1
270 347 1
270 352 1
270 371 1
270 411 1
270 426 1
270 449 1
270 462 1
270 467 1
270 492 1
270 493 1
270 495 1
270 518 1
270 550 1
270 591 1
270 641 1
270 649 1
270 653 1
270 711 1
270 712 1
270 731 1
270 752 1
270 765 1
270 767 1
270 776 1
270 780 1
270 786 1
271 5 1
271 11 1
271 34 1
271 40 1
271 47 1
271 50 1
271 118 1
271 129 1
271 135 1
271 153 1
271 185 1
271 253 1
271 273 1
271 287 1
271 296 1
271 305 1
271 322 1
271 325 1
271 328 1
271 371 1
271 383 1
271 402 1
271 416 1
271 427 1
271 430 1
271 488 1
271 489 1
271 492 1
271 526 1
271 530 1
271 554 1
271 561 1
271 579 1
271 592 1
271 595 1
271 600 1
271 602 1
271 612 1
271 633 1
271 667 1
271 691 1
271 703 1
271 710 1
271 718 1
271 722 1
271 730 1
271 754 1
271 756 1
272 10 1
272 42 1
272 48 1
272 78 1
272 117 1
272 135 1
272 137 1
272 146 1
272 177 1
272 193 1
272 199 1
272 220 1
272 230 1
272 252 1
272 261 1
272 267 1
272 269 1
272 270 1
272 277 1
272 292 1
272 326 1
272 353 1
272 354 1
272 357 1
272 361 1
272 384 1
272 406 1
272 411 1
272 416 1
272 421 1
272 435 1
272 439 1
272 479 1
272 518 1
272 520 1
272 528 1
272 545 1
272 554 1
272 559 1
272 566 1
272 624 1
272 657 1
272 690 1
272 695 1
272 772 1
272 774 1
272 775 1
272 790 1
272 791 1
273 16 1
273 77 1
273 113 1
273 164 1
273 191 1
273 195 1
273 196 1
273 205 1
273 211 1
273 227 1
273 260 1
273 264 1
273 271 1
273 276 1
273 300 1
273 349 1
273 412 1
273 423 1
273 437 1
273 481 1
273 488 1
273 499 1
273 540 1
273 567 1
273 594 1
273 596 1
273 605 1
273 611 1
273 613 1
273 624 1
273 638 1
273 640 1
273 665 1
273 699 1
273 707 1
273 719 1
273 722 1
273 742 1
273 745 1
274 24 1
274 34 1
274 63 1
274 72 1
274 74 1
274 125 1
274 129 1
274 146 1
274 150 1
274 155 1
274 166 1
274 184 1
274 192 1
274 194 1
274 217 1
274 225 1
274 241 1
274 277 1
274 302 1
274 308 1
274 326 1
274 334 1
274 352 1
274 357 1
274 360 1
274 372 1
274 387 1
274 419 1
274 435 1
274 447 1
274 460 1
274 464 1
274 476 1
274 484 1
274 493 1
274 500 1
274 506 1
274 517 1
274 536 1
274 556 1
274 588 1
274 592 1
274 658 1
274 676 1
274 682 1
274 688 1
274 699 1
274 711 1
274 716 1
274 723 1
274 730 1
274 741 1
274 746 1
274 773 1
274 774 1
275 34 1
275 43 1
275 51 1
275 55 1
275 70 1
275 80 1
275 83 1
275 138 1
275 140 1
275 153 1
275 175 1
275 186 1
275 193 1
275 198 1
275 206 1
275 217 1
275 218 1
275 234 1
275 239 1
275 244 1
275 266 1
275 316 1
275 324 1
275 326 1
275 356 1
275 363 1
275 393 1
275 417 1
275 429 1
275 455 1
275 492 1
275 512 1
275 515 1
275 527 1
275 561 1
275 566 1
275 636 1
275 647 1
275 652 1
275 658 1
275 693 1
275 695 1
275 706 1
275 708 1
275 713 1
275 718 1
275 739 1
275 748 1
275 775 1
275 781 1
275 786 1
275 789 1
275 799 1
276 5 1
276 18 1
276 34 1
276 76 1
276 107 1
276 117 1
276 123 1
276 127 1
276 143 1
276 157 1
276 181 1
276 197 1
276 202 1
276 204 1
276 209 1
276 211 1
276 239 1
276 256 1
276 261 1
276 273 1
276 304 1
276 331 1
276 351 1
276 381 1
276 391 1
276 415 1
276 445 1
276 450 1
276 451 1
276 454 1
276 478 1
276 480 1
276 489 1
276 494 1
276 512 1
276 520 1
276 532 1
276 570 1
276 583 1
276 590 1
276 619 1
276 635 1
276 646 1
276 651 1
276 664 1
276 672 1
276 674 1
276 682 1
276 713 1
276 726 1
276 767 1
276 769 1
277 27 1
277 33 1
277 46 1
277 60 1
277 74 1
277 92 1
277 107 1
277 163 1
277 186 1
277 208 1
277 216 1
277 224 1
277 244 1
277 272 1
277 274 1
277 311 1
277 316 1
277 339 1
277 340 1
277 346 1
277 359 1
277 364 1
277 375 1
277 408 1
277 421 1
277 441 1
277 459 1
277 468 1
277 484 1
277 516 1
277 535 1
277 542 1
277 543 1
277 559 1
277 574 1
277 597 1
277 598 1
277 611 1
277 626 1
277 632 1
277 634 1
277 638 1
277 680 1
277 690 1
277 692 1
277 706 1
277 731 1
277 735 1
277 759 1
277 764 1
278 23 1
278 38 1
278 71 1
278 75 1
278 102 1
278 114 1
278 126 1
278 128 1
278 143 1
278 160 1
278 195 1
278 197 1
278 199 1
278 228 1
278 235 1
278 250 1
278 288 1
278 291 1
278 319 1
278 330 1
278 352 1
278 357 1
278 367 1
278 369 1
278 390 1
278 410 1
278 425 1
278 428 1
278 431 1
278 460 1
278 472 1
278 481 1
278 536 1
278 537 1
278 542 1
278 599 1
278 608 1
278 609 1
278 639 1
278 649 1
278 665 1
278 690 1
278 708 1
278 728 1
278 732 1
278 752 1
278 769 1
278 772 1
278 798 1
279 5 1
279 17 1
279 25 1
279 54 1
279 63 1
279 88 1
279 91 1
279 111 1
279 113 1
279 121 1
279 134 1
279 146 1
279 148 1
279 165 1
279 189 1
279 205 1
279 237 1
279 255 1
279 284 1
279 297 1
279 298 1
279 306 1
279 308 1
279 341 1
279 355 1
279 378 1
279 397 1
279 402 1
279 404 1
279 405 1
279 421 1
279 435 1
279 438 1
279 439 1
279 440 1
279 443 1
279 456 1
279 467 1
279 473 1
279 488 1
279 493 1
279 550 1
279 557 1
279 560 1
279 572 1
279 591 1
279 615 1
279 617 1
279 620 1
279 621 1
279 665 1
279 666 1
279 717 1
279 745 1
279 776 1
279 780 1
279 781 1
280 3 1
280 8 1
280 13 1
280 38 1
280 54 1
280 58 1
280 87 1
280 94 1
280 100 1
280 142 1
280 143 1
280 171 1
280 188 1
280 201 1
280 209 1
280 243 1
280 262 1
280 265 1
280 290 1
280 307 1
280 319 1
280 338 1
280 360 1
280 369 1
280 374 1
280 376 1
280 447 1
280 472 1
280 480 1
280 494 1
280 512 1
280 517 1
280 545 1
280 558 1
280 572 1
280 576 1
280 588 1
280 612 1
280 646 1
280 671 1
280 674 1
280 701 1
280 706 1
280 708 1
280 713 1
280 714 1
280 721 1
280 727 1
280 732 1
280 751 1
280 765 1
280 790 1
280 791 1
281 5 1
281 6 1
281 31 1
281 69 1
281 110 1
281 122 1
281 146 1
281 152 1
281 155 1
281 156 1
281 160 1
281 162 1
281 164 1
281 172 1
281 187 1
281 218 1
281 232 1
281 251 1
281 324 1
281 326 1
281 332 1
281 343 1
281 354 1
281 357 1
281 370 1
281 385 1
281 403 1
281 405 1
281 439 1
281 462 1
281 497 1
281 590 1
281 592 1
281 607 1
281 638 1
281 644 1
281 661 1
281 663 1
281 669 1
281 687 1
281 715 1
281 723 1
281 724 1
281 739 1
281 746 1
281 753 1
282 5 1
282 19 1
282 74 1
282 81 1
282 87 1
282 89 1
282 106 1
282 133 1
282 157 1
282 176 1
282 177 1
282 180 1
282 194 1
282 195 1
282 217 1
282 243 1
282 296 1
282 300 1
282 329 1
282 370 1
282 382 1
282 387 1
282 395 1
282 411 1
282 436 1
282 442 1
282 456 1
282 499 1
282 513 1
282 534 1
282 583 1
282 585 1
282 589 1
282 604 1
282 618 1
282 626 1
282 629 1
282 637 1
282 652 1
282 667 1
282 675 1
282 696 1
282 703 1
282 713 1
282 729 1
282 733 1
282 771 1
282 785 1
283 2 1
283 5 1
283 7 1
283 9 1
283 17 1
283 22 1
283 27 1
283 36 1
283 48 1
283 50 1
283 82 1
283 90 1
283 110 1
283 123 1
283 136 1
283 144 1
283 229 1
283 261 1
283 262 1
283 270 1
283 287 1
283 288 1
283 305 1
283 311 1
283 312 1
283 316 1
283 326 1
283 331 1
283 339 1
283 344 1
283 388 1
283 410 1
283 441 1
283 442 1
283 445 1
283 482 1
283 510 1
283 517 1
283 519 1
283 526 1
283 543 1
283 568 1
283 637 1
283 678 1
283 683 1
283 685 1
283 687 1
283 689 1
283 700 1
283 746 1
283 752 1
284 22 1
284 30 1
284 32 1
284 36 1
284 58 1
284 70 1
284 77 1
284 80 1
284 114 1
284 125 1
284 150 1
284 176 1
284 181 1
284 188 1
284 208 1
284 211 1
284 216 1
284 229 1
284 245 1
284 279 1
284 293 1
284 310 1
284 323 1
284 384 1
284 408 1
284 424 1
284 430 1
284 446 1
284 462 1
284 465 1
284 479 1
284 512 1
284 543 1
284 549 1
284 557 1
284 568 1
284 578 1
284 580 1
284 582 1
284 586 1
284 610 1
284 623 1
284 642 1
284 653 1
284 655 1
284 670 1
284 677 1
284 688 1
284 691 1
284 708 1
284 709 1
284 722 1
284 750 1
284 753 1
284 761 1
285 22 1
285 37 1
285 57 1
285 69 1
285 70 1
285 101 1
285 105 1
285 121 1
285 132 1
285 142 1
285 143 1
285 147 1
285 171 1
285 183 1
285 203 1
285 231 1
285 236 1
285 295 1
285 303 1
285 304 1
285 361 1
285 365 1
285 387 1
285 404 1
285 410 1
285 411 1
285 482 1
285 484 1
285 505 1
285 527 1
285 535 1
285 543 1
285 564 1
285 595 1
285 622 1
285 639 1
285 646 1
285 657 1
285 659 1
285 666 1
285 667 1
285 670 1
285 689 1
285 721 1
285 729 1
285 745 1
285 756 1
285 770 1
285 774 1
285 791 1
286 4 1
286 6 1
286 8 1
286 34 1
286 94 1
286 107 1
286 132 1
286 143 1
286 177 1
286 178 1
286 181 1
286 189 1
286 200 1
286 204 1
286 206 1
286 208 1
286 217 1
286 236 1
286 245 1
286 264 1
286 311 1
286 326 1
286 331 1
286 370 1
286 391 1
286 407 1
286 446 1
286 452 1
286 457 1
286 473 1
286 476 1
286 477 1
286 517 1
286 542 1
286 545 1
286 595 1
286 598 1
286 608 1
286 629 1
286 639 1
286 652 1
286 657 1
286 684 1
286 728 1
286 744 1
286 779 1
287 36 1
287 47 1
287 49 1
287 51 1
287 55 1
287 67 1
287 99 1
287 131 1
287 135 1
287 157 1
287 254 1
287 264 1
287 271 1
287 283 1
287 306 1
287 313 1
287 329 1
287 336 1
287 337 1
287 343 1
287 355 1
287 385 1
287 393 1
287 403 1
287 419 1
287 429 1
287 463 1
287 508 1
287 509 1
287 510 1
287 546 1
287 575 1
287 629 1
287 678 1
287 705 1
287 707 1
287 713 1
287 758 1
287 762 1
287 773 1
287 779 1
287 785 1
288 9 1
288 31 1
288 41 1
288 48 1
288 69 1
288 71 1
288 73 1
288 88 1
288 128 1
288 134 1
288 147 1
288 180 1
288 195 1
288 257 1
288 278 1
288 283 1
288 304 1
288 310 1
288 319 1
288 329 1
288 332 1
288 343 1
288 357 1
288 369 1
288 385 1
288 397 1
288 400 1
288 404 1
288 432 1
288 438 1
288 450 1
288 459 1
288 462 1
288 468 1
288 481 1
288 527 1
288 529 1
288 539 1
288 541 1
288 562 1
288 578 1
288 591 1
288 637 1
288 651 1
288 703 1
288 720 1
288 724 1
288 725 1
288 764 1
288 777 1
288 785 1
288 789 1
289 5 1
289 7 1
289 31 1
289 46 1
289 85 1
289 100 1
289 109 1
289 131 1
289 147 1
289 148 1
289 157 1
289 159 1
289 183 1
289 186 1
289 194 1
289 198 1
289 216 1
289 219 1
289 231 1
289 247 1
289 307 1
289 312 1
289 320 1
289 325 1
289 338 1
289 354 1
289 453 1
289 476 1
289 479 1
289 484 1
289 507 1
289 530 1
289 565 1
289 570 1
289 582 1
289 584 1
289 589 1
289 599 1
289 601 1
289 603 1
289 624 1
289 656 1
289 659 1
289 664 1
289 674 1
289 675 1
289 703 1
289 709 1
289 719 1
289 730 1
289 748 1
289 800 1
290 59 1
290 74 1
290 99 1
290 112 1
290 125 1
290 151 1
290 152 1
290 155 1
290 163 1
290 164 1
290 166 1
290 170 1
290 171 1
290 213 1
290 223 1
290 229 1
290 261 1
290 264 1
290 270 1
290 280 1
290 332 1
290 341 1
290 349 1
290 361 1
290 368 1
290 380 1
290 388 1
290 397 1
290 406 1
290 408 1
290 422 1
290 452 1
290 458 1
290 487 1
290 526 1
290 541 1
290 569 1
290 572 1
290 586 1
290 597 1
290 599 1
290 618 1
290 628 1
290 644 1
290 674 1
290 682 1
290 716 1
290 742 1
290 749 1
290 761 1
290 772 1
291 1 1
291 35 1
291 56 1
291 70 1
291 77 1
291 81 1
291 105 1
291 134 1
291 138 1
291 151 1
291 165 1
291 169 1
291 171 1
291 175 1
291 183 1
291 184 1
291 195 1
291 227 1
291 259 1
291 278 1
291 294 1
291 311 1
291 344 1
291 367 1
291 386 1
291 392 1
291 430 1
291 436 1
291 452 1
291 481 1
291 518 1
291 520 1
291 550 1
291 558 1
291 575 1
291 616 1
291 623 1
291 628 1
291 650 1
291 652 1
291 675 1
291 681 1
291 701 1
291 706 1
291 729 1
291 756 1
291 775 1
291 779 1
291 789 1
292 43 1
292 59 1
292 62 1
292 79 1
292 80 1
292 143 1
292 150 1
292 162 1
292 165 1
292 169 1
292 179 1
292 188 1
292 190 1
292 227 1
292 234 1
292 240 1
292 241 1
292 242 1
292 245 1
292 261 1
292 262 1
292 264 1
292 267 1
292 269 1
292 272 1
292 302 1
292 323 1
292 325 1
292 351 1
292 364 1
292 372 1
292 420 1
292 451 1
292 466 1
292 503 1
292 524 1
292 532 1
292 557 1
292 583 1
292 645 1
292 667 1
292 671 1
292 676 1
292 697 1
292 721 1
292 728 1
292 740 1
292 759 1
292 792 1
293 17 1
293 48 1
293 58 1
293 78 1
293 106 1
293 114 1
293 123 1
293 179 1
293 180 1
293 187 1
293 189 1
293 205 1
293 223 1
293 229 1
293 236 1
293 238 1
293 284 1
293 297 1
293 331 1
293 343 1
293 354 1
293 358 1
293 361 1
293 362 1
293 374 1
293 398 1
293 460 1
293 471 1
293 535 1
293 548 1
293 610 1
293 611 1
293 620 1
293 642 1
293 648 1
293 665 1
293 692 1
293 693 1
293 708 1
293 735 1
293 739 1
293 763 1
293 774 1
294 20 1
294 42 1
294 52 1
294 57 1
294 94 1
294 99 1
294 108 1
294 112 1
294 125 1
294 155 1
294 162 1
294 165 1
294 216 1
294 261 1
294 291 1
294 329 1
294 380 1
294 384 1
294 397 1
294 410 1
294 430 1
294 452 1
294 455 1
294 459 1
294 464 1
294 515 1
294 523 1
294 530 1
294 543 1
294 557 1
294 566 1
294 591 1
294 604 1
294 648 1
294 650 1
294 657 1
294 659 1
294 664 1
294 687 1
294 692 1
294 719 1
294 725 1
294 798 1
295 13 1
295 14 1
295 38 1
295 68 1
295 82 1
295 97 1
295 100 1
295 104 1
295 140 1
295 144 1
295 173 1
295 216 1
295 220 1
295 222 1
295 285 1
295 329 1
295 349 1
295 357 1
295 359 1
295 361 1
295 364 1
295 382 1
295 383 1
295 435 1
295 436 1
295 446 1
295 456 1
295 459 1
295 467 1
295 469 1
295 476 1
295 517 1
295 560 1
295 563 1
295 589 1
295 607 1
295 630 1
295 640 1
295 646 1
295 657 1
295 667 1
295 674 1
295 688 1
295 719 1
295 766 1
295 792 1
296 2 1
296 5 1
296 20 1
296 36 1
296 39 1
296 43 1
296 48 1
296 108 1
296 116 1
296 117 1
296 152 1
296 159 1
296 170 1
296 182 1
296 227 1
296 271 1
296 282 1
296 302 1
296 346 1
296 354 1
296 380 1
296 387 1
296 410 1
296 447 1
296 452 1
296 466 1
296 467 1
296 470 1
296 488 1
296 490 1
296 511 1
296 537 1
296 558 1
296 562 1
296 577 1
296 593 1
296 608 1
296 626 1
296 648 1
296 652 1
296 697 1
296 719 1
296 730 1
296 744 1
296 777 1
296 793 1
297 1 1
297 4 1
297 10 1
297 16 1
297 22 1
297 33 1
297 60 1
297 76 1
297 97 1
297 118 1
297 137 1
297 149 1
297 153 1
297 156 1
297 158 1
297 162 1
297 206 1
297 227 1
297 228 1
297 232 1
297 258 1
297 267 1
297 279 1
297 293 1
297 312 1
297 326 1
297 370 1
297 378 1
297 380 1
297 405 1
297 407 1
297 408 1
297 426 1
297 446 1
297 447 1
297 462 1
297 522 1
297 564 1
297 566 1
297 584 1
297 596 1
297 615 1
297 665 1
297 669 1
297 672 1
297 720 1
297 744 1
297 793 1
298 2 1
298 28 1
298 50 1
298 53 1
298 56 1
298 67 1
298 111 1
298 122 1
298 150 1
298 167 1
298 168 1
298 186 1
298 203 1
298 234 1
298 250 1
298 279 1
298 312 1
298 320 1
298 334 1
298 358 1
298 370 1
298 372 1
298 379 1
298 383 1
298 390 1
298 408 1
298 409 1
298 431 1
298 478 1
298 482 1
298 546 1
298 548 1
298 567 1
298 568 1
298 594 1
298 625 1
298 699 1
298 714 1
298 715 1
298 721 1
298 771 1
298 792 1
298 796 1
298 798 1
299 59 1
299 63 1
299 87 1
299 104 1
299 112 1
299 171 1
299 185 1
299 210 1
299 215 1
299 223 1
299 225 1
299 236 1
299 316 1
299 321 1
299 333 1
299 368 1
299 380 1
299 405 1
299 419 1
299 425 1
299 447 1
299 455 1
299 460 1
299 482 1
299 485 1
299 491 1
299 528 1
299 539 1
299 546 1
299 547 1
299 565 1
299 572 1
299 576 1
299 601 1
299 619 1
299 649 1
299 652 1
299 683 1
299 688 1
299 718 1
299 779 1
299 793 1
300 16 1
300 34 1
300 37 1
300 45 1
300 49 1
300 66 1
300 67 1
300 79 1
300 84 1
300 86 1
300 96 1
300 104 1
300 105 1
300 114 1
300 188 1
300 193 1
300 207 1
300 211 1
300 230 1
300 233 1
300 234 1
300 247 1
300 268 1
300 273 1
300 282 1
300 303 1
300 337 1
300 367 1
300 390 1
300 413 1
300 420 1
300 423 1
300 431 1
300 453 1
300 462 1
300 485 1
300 508 1
300 515 1
300 552 1
300 604 1
300 640 1
300 644 1
300 687 1
300 706 1
300 721 1
300 729 1
300 731 1
300 734 1
300 737 1
300 759 1
300 765 1
301 5 1
301 128 1
301 152 1
301 156 1
301 170 1
301 171 1
301 173 1
301 192 1
301 316 1
301 365 1
301 371 1
301 389 1
301 397 1
301 408 1
301 428 1
301 443 1
301 457 1
301 460 1
301 470 1
301 477 1
301 482 1
301 514 1
301 521 1
301 523 1
301 527 1
301 538 1
301 541 1
301 552 1
301 599 1
301 600 1
301 630 1
301 669 1
301 677 1
301 683 1
301 703 1
301 717 1
301 749 1
301 779 1
301 786 1
302 5 1
302 19 1
302 49 1
302 51 1
302 52 1
302 53 1
302 69 1
302 79 1
302 86 1
302 98 1
302 122 1
302 141 1
302 147 1
302 158 1
302 168 1
302 212 1
302 250 1
302 267 1
302 274 1
302 292 1
302 296 1
302 317 1
302 321 1
302 323 1
302 324 1
302 379 1
302 385 1
302 401 1
302 403 1
302 413 1
302 451 1
302 454 1
302 455 1
302 461 1
302 501 1
302 525 1
302 570 1
302 592 1
302 601 1
302 625 1
302 652 1
302 668 1
302 680 1
302 681 1
302 698 1
302 713 1
302 718 1
302 728 1
302 742 1
302 780 1
303 13 1
303 15 1
303 40 1
303 87 1
303 92 1
303 100 1
303 126 1
303 137 1
303 146 1
303 149 1
303 157 1
303 168 1
303 188 1
303 211 1
303 235 1
303 243 1
303 249 1
303 262 1
303 263 1
303 285 1
303 300 1
303 318 1
303 323 1
303 347 1
303 364 1
303 365 1
303 376 1
303 389 1
303 410 1
303 420 1
303 424 1
303 437 1
303 443 1
303 447 1
303 470 1
303 478 1
303 484 1
303 500 1
303 525 1
303 532 1
303 540 1
303 558 1
303 559 1
303 566 1
303 589 1
303 591 1
303 604 1
303 609 1
303 617 1
303 628 1
303 632 1
303 635 1
303 641 1
303 647 1
303 680 1
303 706 1
303 719 1
303 735 1
303 748 1
303 785 1
303 790 1
304 4 1
304 19 1
304 36 1
304 53 1
304 57 1
304 88 1
304 99 1
304 112 1
304 141 1
304 187 1
304 194 1
304 212 1
304 237 1
304 265 1
304 266 1
304 269 1
304 276 1
304 285 1
304 288 1
304 320 1
304 329 1
304 333 1
304 342 1
304 349 1
304 374 1
304 394 1
304 401 1
304 402 1
304 409 1
304 457 1
304 467 1
304 473 1
304 489 1
304 506 1
304 516 1
304 523 1
304 539 1
304 541 1
304 570 1
304 583 1
304 593 1
304 598 1
304 613 1
304 638 1
304 644 1
304 660 1
304 662 1
304 668 1
304 690 1
304 725 1
304 737 1
304 738 1
304 757 1
305 21 1
305 22 1
305 77 1
305 92 1
305 98 1
305 100 1
305 168 1
305 177 1
305 189 1
305 200 1
305 210 1
305 215 1
305 258 1
305 269 1
305 271 1
305 283 1
305 314 1
305 329 1
305 360 1
305 375 1
305 380 1
305 382 1
305 416 1
305 418 1
305 424 1
305 491 1
305 508 1
305 553 1
305 565 1
305 583 1
305 599 1
305 620 1
305 630 1
305 640 1
305 648 1
305 659 1
305 661 1
305 662 1
305 683 1
305 690 1
305 698 1
305 701 1
305 722 1
305 728 1
305 778 1
305 790 1
305 800 1
306 67 1
306 88 1
306 89 1
306 96 1
306 99 1
306 138 1
306 146 1
306 152 1
306 174 1
306 180 1
306 194 1
306 206 1
306 217 1
306 246 1
306 263 1
306 270 1
306 279 1
306 287 1
306 313 1
306 365 1
306 379 1
306 404 1
306 434 1
306 456 1
306 533 1
306 546 1
306 594 1
306 623 1
306 633 1
306 639 1
306 645 1
306 646 1
306 655 1
306 658 1
306 669 1
306 686 1
306 689 1
306 692 1
306 720 1
306 762 1
306 799 1
307 53 1
307 58 1
307 73 1
307 83 1
307 84 1
307 109 1
307 121 1
307 123 1
307 124 1
307 131 1
307 133 1
307 138 1
307 145 1
307 181 1
307 188 1
307 198 1
307 213 1
307 224 1
307 235 1
307 236 1
307 256 1
307 264 1
307 280 1
307 289 1
307 308 1
307 313 1
307 348 1
307 380 1
307 413 1
307 428 1
307 429 1
307 446 1
307 464 1
307 474 1
307 485 1
307 503 1
307 555 1
307 562 1
307 567 1
307 594 1
307 600 1
307 601 1
307 640 1
307 642 1
307 643 1
307 644 1
307 650 1
307 651 1
307 668 1
307 692 1
307 760 1
307 767 1
307 782 1
307 797 1
307 799 1
308 19 1
308 63 1
308 74 1
308 103 1
308 211 1
308 233 1
308 240 1
308 261 1
308 274 1
308 279 1
308 307 1
308 332 1
308 354 1
308 367 1
308 395 1
308 417 1
308 424 1
308 426 1
308 431 1
308 452 1
308 456 1
308 460 1
308 499 1
308 515 1
308 524 1
308 539 1
308 545 1
308 557 1
308 572 1
308 573 1
308 577 1
308 578 1
308 600 1
308 602 1
308 633 1
308 659 1
308 663 1
308 667 1
308 697 1
308 698 1
308 741 1
308 762 1
308 765 1
308 768 1
308 781 1
308 782 1
308 791 1
308 798 1
309 16 1
309 27 1
309 31 1
309 45 1
309 72 1
309 85 1
309 109 1
309 120 1
309 170 1
309 173 1
309 187 1
309 200 1
309 228 1
309 237 1
309 339 1
309 345 1
309 346 1
309 369 1
309 389 1
309 428 1
309 440 1
309 450 1
309 498 1
309 502 1
309 507 1
309 515 1
309 534 1
309 558 1
309 574 1
309 589 1
309 639 1
309 650 1
309 664 1
309 686 1
309 703 1
309 730 1
309 755 1
309 761 1
309 788 1
310 44 1
310 48 1
310 74 1
310 88 1
310 91 1
310 101 1
310 129 1
310 145 1
310 154 1
310 171 1
310 190 1
310 199 1
310 284 1
310 288 1
310 335 1
310 358 1
310 380 1
310 381 1
310 390 1
310 399 1
310 433 1
310 435 1
310 453 1
310 459 1
310 467 1
310 473 1
310 509 1
310 518 1
310 533 1
310 536 1
310 551 1
310 581 1
310 589 1
310 598 1
310 600 1
310 615 1
310 682 1
310 695 1
310 734 1
310 760 1
310 765 1
310 795 1
311 2 1
311 3 1
311 6 1
311 16 1
311 24 1
311 25 1
311 39 1
311 55 1
311 74 1
311 99 1
311 102 1
311 112 1
311 118 1
311 127 1
311 169 1
311 185 1
311 194 1
311 205 1
311 221 1
311 224 1
311 238 1
311 265 1
311 277 1
311 283 1
311 286 1
311 291 1
311 320 1
311 332 1
311 353 1
311 399 1
311 411 1
311 418 1
311 432 1
311 456 1
311 480 1
311 481 1
311 509 1
311 515 1
311 556 1
311 567 1
311 568 1
311 573 1
311 598 1
311 627 1
311 632 1
311 643 1
311 663 1
311 676 1
311 693 1
311 697 1
311 717 1
311 723 1
311 728 1
311 741 1
311 746 1
311 765 1
311 773 1
312 1 1
312 11 1
312 33 1
312 72 1
312 84 1
312 85 1
312 96 1
312 111 1
312 119 1
312 122 1
312 126 1
312 132 1
312 144 1
312 153 1
312 171 1
312 182 1
312 206 1
312 229 1
312 269 1
312 283 1
312 289 1
312 297 1
312 298 1
312 314 1
312 337 1
312 339 1
312 341 1
312 352 1
312 378 1
312 384 1
312 388 1
312 394 1
312 413 1
312 421 1
312 422 1
312 433 1
312 493 1
312 496 1
312 502 1
312 520 1
312 538 1
312 613 1
312 618 1
312 641 1
312 645 1
312 669 1
312 689 1
312 724 1
312 740 1
312 741 1
312 756 1
312 767 1
312 768 1
312 785 1
312 792 1
313 14 1
313 46 1
313 83 1
313 99 1
313 110 1
313 127 1
313 166 1
313 172 1
313 214 1
313 221 1
313 239 1
313 257 1
313 287 1
313 306 1
313 307 1
313 340 1
313 346 1
313 357 1
313 366 1
313 373 1
313 375 1
313 414 1
313 446 1
313 480 1
313 514 1
313 537 1
313 541 1
313 560 1
313 567 1
313 576 1
313 586 1
313 588 1
313 606 1
313 622 1
313 631 1
313 642 1
313 663 1
313 671 1
313 676 1
313 707 1
313 741 1
313 744 1
313 766 1
313 783 1
313 784 1
313 791 1
314 8 1
314 18 1
314 25 1
314 30 1
314 37 1
314 71 1
314 81 1
314 90 1
314 121 1
314 161 1
314 168 1
314 191 1
314 214 1
314 223 1
314 225 1
314 226 1
314 228 1
314 232 1
314 248 1
314 265 1
314 268 1
314 305 1
314 312 1
314 317 1
314 336 1
314 346 1
314 374 1
314 381 1
314 390 1
314 394 1
314 395 1
314 404 1
314 407 1
314 417 1
314 430 1
314 440 1
314 455 1
314 461 1
314 495 1
314 507 1
314 518 1
314 524 1
314 575 1
314 580 1
314 585 1
314 622 1
314 641 1
314 643 1
314 653 1
314 658 1
314 671 1
314 681 1
314 715 1
314 720 1
314 725 1
314 740 1
314 779 1
314 780 1
314 791 1
315 3 1
315 8 1
315 9 1
315 38 1
315 106 1
315 127 1
315 136 1
315 141 1
315 182 1
315 198 1
315 216 1
315 247 1
315 256 1
315 264 1
315 267 1
315 324 1
315 325 1
315 339 1
315 390 1
315 439 1
315 444 1
315 456 1
315 470 1
315 504 1
315 588 1
315 606 1
315 612 1
315 646 1
315 648 1
315 653 1
315 690 1
315 716 1
315 725 1
315 733 1
315 757 1
315 774 1
316 16 1
316 31 1
316 42 1
316 61 1
316 80 1
316 137 1
316 141 1
316 143 1
316 145 1
316 154 1
316 205 1
316 224 1
316 238 1
316 261 1
316 263 1
316 275 1
316 277 1
316 283 1
316 299 1
316 301 1
316 323 1
316 328 1
316 334 1
316 365 1
316 383 1
316 384 1
316 402 1
316 412 1
316 416 1
316 424 1
316 461 1
316 475 1
316 493 1
316 533 1
316 585 1
316 586 1
316 609 1
316 623 1
316 628 1
316 637 1
316 646 1
316 651 1
316 658 1
316 671 1
316 706 1
316 733 1
316 770 1
317 9 1
317 16 1
317 29 1
317 39 1
317 41 1
317 44 1
317 100 1
317 119 1
317 135 1
317 141 1
317 151 1
317 162 1
317 172 1
317 180 1
317 181 1
317 205 1
317 232 1
317 235 1
317 243 1
317 245 1
317 264 1
317 265 1
317 302 1
317 314 1
317 323 1
317 371 1
317 392 1
317 408 1
317 431 1
317 451 1
317 469 1
317 494 1
317 509 1
317 534 1
317 535 1
317 544 1
317 549 1
317 566 1
317 568 1
317 572 1
317 575 1
317 582 1
317 595 1
317 609 1
317 615 1
317 626 1
317 662 1
317 665 1
317 672 1
317 675 1
317 676 1
317 709 1
317 736 1
317 752 1
317 784 1
317 794 1
317 796 1
318 58 1
318 79 1
318 85 1
318 91 1
318 99 1
318 107 1
318 133 1
318 178 1
318 188 1
318 207 1
318 208 1
318 210 1
318 224 1
318 225 1
318 236 1
318 244 1
318 250 1
318 256 1
318 303 1
318 319 1
318 330 1
318 339 1
318 341 1
318 342 1
318 378 1
318 379 1
318 383 1
318 415 1
318 420 1
318 433 1
318 441 1
318 452 1
318 467 1
318 479 1
318 486 1
318 499 1
318 507 1
318 617 1
318 625 1
318 640 1
318 654 1
318 675 1
318 698 1
318 726 1
318 766 1
318 788 1
319 2 1
319 31 1
319 36 1
319 68 1
319 84 1
319 103 1
319 122 1
319 134 1
319 137 1
319 202 1
319 221 1
319 223 1
319 258 1
319 263 1
319 278 1
319 280 1
319 288 1
319 318 1
319 346 1
319 347 1
319 381 1
319 389 1
319 391 1
319 396 1
319 404 1
319 434 1
319 440 1
319 441 1
319 465 1
319 493 1
319 510 1
319 514 1
319 525 1
319 544 1
319 558 1
319 580 1
319 585 1
319 586 1
319 604 1
319 615 1
319 629 1
319 639 1
319 645 1
319 653 1
319 673 1
319 719 1
319 737 1
319 775 1
320 10 1
320 12 1
320 16 1
320 36 1
320 39 1
320 57 1
320 79 1
320 92 1
320 109 1
320 137 1
320 144 1
320 146 1
320 159 1
320 173 1
320 176 1
320 191 1
320 195 1
320 197 1
320 209 1
320 237 1
320 267 1
320 289 1
320 298 1
320 304 1
320 311 1
320 356 1
320 372 1
320 387 1
320 389 1
320 390 1
320 392 1
320 405 1
320 417 1
320 451 1
320 496 1
320 500 1
320 501 1
320 510 1
320 524 1
320 528 1
320 535 1
320 538 1
320 540 1
320 541 1
320 548 1
320 561 1
320 572 1
320 630 1
320 646 1
320 677 1
320 679 1
320 687 1
320 703 1
320 716 1
320 769 1
320 783 1
320 786 1
320 787 1
321 4 1
321 22 1
321 38 1
321 47 1
321 81 1
321 96 1
321 118 1
321 128 1
321 146 1
321 148 1
321 149 1
321 161 1
321 174 1
321 178 1
321 183 1
321 187 1
321 299 1
321 302 1
321 340 1
321 348 1
321 354 1
321 425 1
321 452 1
321 502 1
321 514 1
321 515 1
321 567 1
321 594 1
321 614 1
321 621 1
321 642 1
321 665 1
321 671 1
321 714 1
321 729 1
321 746 1
321 796 1
322 3 1
322 14 1
322 22 1
322 48 1
322 54 1
322 75 1
322 87 1
322 101 1
322 107 1
322 108 1
322 126 1
322 156 1
322 165 1
322 171 1
322 218 1
322 231 1
322 241 1
322 250 1
322 271 1
322 327 1
322 330 1
322 334 1
322 354 1
322 356 1
322 362 1
322 367 1
322 375 1
322 377 1
322 398 1
322 450 1
322 483 1
322 493 1
322 500 1
322 530 1
322 545 1
322 546 1
322 573 1
322 582 1
322 615 1
322 622 1
322 683 1
322 688 1
322 717 1
322 749 1
322 758 1
323 25 1
323 78 1
323 91 1
323 104 1
323 120 1
323 166 1
323 178 1
323 194 1
323 205 1
323 210 1
323 215 1
323 224 1
323 229 1
323 251 1
323 262 1
323 284 1
323 292 1
323 302 1
323 303 1
323 316 1
323 317 1
323 325 1
323 329 1
323 336 1
323 344 1
323 373 1
323 413 1
323 416 1
323 422 1
323 423 1
323 427 1
323 435 1
323 442 1
323 467 1
323 472 1
323 508 1
323 513 1
323 549 1
323 559 1
323 585 1
323 590 1
323 624 1
323 640 1
323 658 1
323 664 1
323 690 1
323 745 1
323 759 1
323 762 1
323 766 1
324 46 1
324 74 1
324 94 1
324 106 1
324 113 1
324 124 1
324 125 1
324 133 1
324 163 1
324 181 1
324 194 1
324 199 1
324 208 1
324 209 1
324 211 1
324 244 1
324 254 1
324 265 1
324 275 1
324 281 1
324 302 1
324 315 1
324 367 1
324 371 1
324 394 1
324 410 1
324 417 1
324 422 1
324 441 1
324 464 1
324 505 1
324 510 1
324 523 1
324 534 1
324 540 1
324 542 1
324 549 1
324 551 1
324 566 1
324 580 1
324 583 1
324 599 1
324 647 1
324 654 1
324 670 1
324 703 1
324 723 1
324 738 1
324 762 1
324 783 1
324 798 1
325 22 1
325 25 1
325 50 1
325 76 1
325 81 1
325 91 1
325 93 1
325 174 1
325 182 1
325 202 1
325 206 1
325 227 1
325 247 1
325 263 1
325 268 1
325 269 1
325 271 1
325 289 1
325 292 1
325 315 1
325 323 1
325 329 1
325 332 1
325 337 1
325 345 1
325 359 1
325 387 1
325 392 1
325 396 1
325 410 1
325 425 1
325 431 1
325 440 1
325 457 1
325 472 1
325 479 1
325 500 1
325 507 1
325 521 1
325 533 1
325 539 1
325 553 1
325 572 1
325 592 1
325 672 1
325 673 1
325 684 1
325 687 1
325 709 1
325 766 1
325 775 1
325 784 1
326 10 1
326 14 1
326 31 1
326 70 1
326 71 1
326 88 1
326 91 1
326 121 1
326 138 1
326 176 1
326 183 1
326 192 1
326 197 1
326 206 1
326 227 1
326 236 1
326 256 1
326 259 1
326 272 1
326 274 1
326 275 1
326 281 1
326 283 1
326 286 1
326 297 1
326 352 1
326 357 1
326 421 1
326 440 1
326 446 1
326 456 1
326 473 1
326 483 1
326 488 1
326 496 1
326 501 1
326 509 1
326 533 1
326 543 1
326 554 1
326 599 1
326 627 1
326 654 1
326 673 1
326 691 1
326 693 1
326 702 1
326 704 1
326 707 1
326 726 1
326 779 1
326 800 1
327 13 1
327 16 1
327 18 1
327 22 1
327 63 1
327 104 1
327 106 1
327 134 1
327 152 1
327 168 1
327 210 1
327 252 1
327 257 1
327 269 1
327 322 1
327 350 1
327 363 1
327 408 1
327 418 1
327 422 1
327 447 1
327 468 1
327 520 1
327 521 1
327 535 1
327 538 1
327 541 1
327 548 1
327 565 1
327 581 1
327 590 1
327 610 1
327 649 1
327 704 1
327 730 1
327 732 1
327 768 1
327 785 1
327 794 1
328 38 1
328 57 1
328 61 1
328 99 1
328 117 1
328 121 1
328 125 1
328 131 1
328 132 1
328 156 1
328 162 1
328 202 1
328 223 1
328 264 1
328 270 1
328 271 1
328 316 1
328 388 1
328 421 1
328 426 1
328 450 1
328 453 1
328 455 1
328 462 1
328 477 1
328 487 1
328 490 1
328 501 1
328 532 1
328 550 1
328 582 1
328 590 1
328 601 1
328 608 1
328 640 1
328 650 1
328 658 1
328 678 1
328 686 1
328 714 1
328 739 1
328 762 1
328 767 1
328 772 1
328 778 1
328 789 1
328 799 1
329 1 1
329 14 1
329 43 1
329 46 1
329 58 1
329 64 1
329 66 1
329 73 1
329 82 1
329 86 1
329 114 1
329 135 1
329 155 1
329 162 1
329 174 1
329 179 1
329 187 1
329 200 1
329 215 1
329 241 1
329 242 1
329 249 1
329 282 1
329 287 1
329 288 1
329 294 1
329 295 1
329 304 1
329 305 1
329 323 1
329 325 1
329 343 1
329 362 1
329 368 1
329 383 1
329 399 1
329 408 1
329 427 1
329 434 1
329 445 1
329 460 1
329 465 1
329 477 1
329 485 1
329 528 1
329 534 1
329 540 1
329 547 1
329 579 1
329 589 1
329 626 1
329 641 1
329 672 1
329 741 1
329 773 1
329 774 1
330 10 1
330 16 1
330 29 1
330 76 1
330 86 1
330 94 1
330 106 1
330 112 1
330 123 1
330 126 1
330 127 1
330 137 1
330 140 1
330 144 1
330 175 1
330 183 1
330 212 1
330 224 1
330 248 1
330 278 1
330 318 1
330 322 1
330 367 1
330 414 1
330 418 1
330 481 1
330 492 1
330 549 1
330 568 1
330 617 1
330 695 1
330 700 1
330 704 1
330 739 1
330 752 1
330 757 1
331 13 1
331 14 1
331 63 1
331 69 1
331 92 1
331 93 1
331 105 1
331 107 1
331 129 1
331 157 1
331 165 1
331 169 1
331 176 1
331 193 1
331 215 1
331 244 1
331 261 1
331 276 1
331 283 1
331 286 1
331 293 1
331 332 1
331 338 1
331 347 1
331 352 1
331 355 1
331 405 1
331 410 1
331 417 1
331 419 1
331 437 1
331 445 1
331 484 1
331 486 1
331 495 1
331 567 1
331 572 1
331 575 1
331 581 1
331 588 1
331 629 1
331 632 1
331 636 1
331 642 1
331 648 1
331 659 1
331 689 1
331 706 1
331 709 1
331 711 1
331 712 1
331 750 1
331 755 1
331 772 1
331 780 1
332 48 1
332 56 1
332 63 1
332 93 1
332 95 1
332 96 1
332 109 1
332 128 1
332 147 1
332 180 1
332 183 1
332 187 1
332 196 1
332 231 1
332 240 1
332 245 1
332 252 1
332 270 1
332 281 1
332 288 1
332 290 1
332 308 1
332 311 1
332 325 1
332 331 1
332 351 1
332 357 1
332 373 1
332 387 1
332 416 1
332 432 1
332 436 1
332 445 1
332 457 1
332 465 1
332 501 1
332 502 1
332 510 1
332 512 1
332 552 1
332 556 1
332 558 1
332 560 1
332 582 1
332 592 1
332 609 1
332 628 1
332 630 1
332 646 1
332 675 1
332 703 1
332 747 1
332 748 1
332 754 1
332 761 1
332 763 1
332 788 1
333 7 1
333 43 1
333 50 1
333 61 1
333 75 1
333 176 1
333 178 1
333 196 1
333 248 1
333 299 1
333 304 1
333 368 1
333 373 1
333 396 1
333 414 1
333 446 1
333 451 1
333 499 1
333 512 1
333 559 1
333 595 1
333 597 1
333 617 1
333 626 1
333 651 1
333 655 1
333 675 1
333 682 1
333 703 1
333 704 1
333 705 1
333 708 1
333 714 1
333 735 1
333 745 1
333 747 1
333 751 1
333 755 1
333 757 1
334 6 1
334 50 1
334 68 1
334 81 1
334 88 1
334 122 1
334 168 1
334 177 1
334 178 1
334 183 1
334 196 1
334 214 1
334 216 1
334 218 1
334 232 1
334 274 1
334 298 1
334 316 1
334 322 1
334 348 1
334 381 1
334 388 1
334 396 1
334 434 1
334 442 1
334 459 1
334 466 1
334 478 1
334 487 1
334 523 1
334 526 1
334 529 1
334 546 1
334 579 1
334 583 1
334 586 1
334 592 1
334 606 1
334 650 1
334 659 1
334 668 1
334 679 1
334 697 1
334 706 1
334 710 1
334 720 1
334 781 1
334 800 1
335 44 1
335 62 1
335 64 1
335 70 1
335 82 1
335 112 1
335 176 1
335 181 1
335 195 1
335 212 1
335 221 1
335 257 1
335 260 1
335 266 1
335 310 1
335 362 1
335 393 1
335 398 1
335 409 1
335 421 1
335 441 1
335 453 1
335 457 1
335 497 1
335 505 1
335 510 1
335 554 1
335 569 1
335 570 1
335 584 1
335 620 1
335 637 1
335 657 1
335 685 1
335 693 1
335 696 1
335 697 1
335 704 1
335 711 1
335 728 1
335 758 1
335 778 1
335 781 1
335 786 1
336 15 1
336 37 1
336 44 1
336 58 1
336 77 1
336 109 1
336 115 1
336 125 1
336 130 1
336 137 1
336 144 1
336 146 1
336 149 1
336 152 1
336 162 1
336 173 1
336 190 1
336 203 1
336 254 1
336 287 1
336 314 1
336 323 1
336 341 1
336 371 1
336 374 1
336 380 1
336 414 1
336 422 1
336 427 1
336 441 1
336 460 1
336 490 1
336 491 1
336 494 1
336 520 1
336 521 1
336 552 1
336 588 1
336 592 1
336 594 1
336 596 1
336 622 1
336 633 1
336 663 1
336 664 1
336 666 1
336 669 1
336 685 1
336 692 1
336 693 1
336 698 1
336 719 1
336 757 1
336 765 1
337 17 1
337 27 1
337 102 1
337 108 1
337 111 1
337 145 1
337 171 1
337 287 1
337 300 1
337 312 1
337 325 1
337 357 1
337 382 1
337 394 1
337 402 1
337 421 1
337 436 1
337 464 1
337 468 1
337 484 1
337 486 1
337 506 1
337 523 1
337 553 1
337 558 1
337 562 1
337 605 1
337 634 1
337 648 1
337 649 1
337 666 1
337 667 1
337 670 1
337 672 1
337 673 1
337 704 1
337 706 1
337 720 1
337 757 1
337 762 1
337 793 1
337 794 1
338 7 1
338 26 1
338 37 1
338 65 1
338 85 1
338 102 1
338 106 1
338 138 1
338 139 1
338 194 1
338 234 1
338 237 1
338 243 1
338 251 1
338 259 1
338 266 1
338 280 1
338 289 1
338 331 1
338 346 1
338 389 1
338 430 1
338 440 1
338 509 1
338 515 1
338 521 1
338 534 1
338 535 1
338 575 1
338 584 1
338 596 1
338 603 1
338 604 1
338 613 1
338 615 1
338 654 1
338 672 1
338 674 1
338 688 1
338 703 1
338 716 1
338 731 1
338 767 1
338 772 1
338 780 1
339 8 1
339 21 1
339 33 1
339 38 1
339 62 1
339 89 1
339 106 1
339 109 1
339 128 1
339 137 1
339 158 1
339 162 1
339 174 1
339 175 1
339 212 1
339 213 1
339 229 1
339 240 1
339 246 1
339 251 1
339 258 1
339 277 1
339 283 1
339 309 1
339 312 1
339 315 1
339 318 1
339 342 1
339 372 1
339 376 1
339 390 1
339 408 1
339 414 1
339 427 1
339 428 1
339 448 1
339 459 1
339 474 1
339 523 1
339 537 1
339 566 1
339 569 1
339 590 1
339 596 1
339 604 1
339 630 1
339 641 1
339 645 1
339 653 1
339 659 1
339 679 1
339 690 1
339 722 1
339 732 1
339 739 1
339 745 1
339 746 1
340 2 1
340 14 1
340 40 1
340 51 1
340 53 1
340 63 1
340 73 1
340 78 1
340 97 1
340 99 1
340 117 1
340 176 1
340 178 1
340 182 1
340 198 1
340 221 1
340 236 1
340 245 1
340 264 1
340 277 1
340 313 1
340 321 1
340 360 1
340 409 1
340 415 1
340 468 1
340 474 1
340 476 1
340 486 1
340 533 1
340 559 1
340 574 1
340 576 1
340 583 1
340 594 1
340 599 1
340 653 1
340 660 1
340 664 1
340 676 1
340 681 1
340 691 1
340 742 1
340 754 1
340 756 1
341 15 1
341 17 1
341 26 1
341 32 1
341 33 1
341 53 1
341 83 1
341 90 1
341 100 1
341 110 1
341 129 1
341 154 1
341 158 1
341 164 1
341 167 1
341 175 1
341 203 1
341 216 1
341 248 1
341 279 1
341 290 1
341 312 1
341 318 1
341 336 1
341 392 1
341 403 1
341 445 1
341 459 1
341 482 1
341 521 1
341 531 1
341 534 1
341 539 1
341 550 1
341 587 1
341 642 1
341 645 1
341 648 1
341 663 1
341 676 1
341 703 1
341 708 1
341 742 1
341 750 1
341 794 1
341 797 1
342 1 1
342 22 1
342 43 1
342 44 1
342 54 1
342 61 1
342 76 1
342 98 1
342 103 1
342 112 1
342 116 1
342 119 1
342 132 1
342 149 1
342 219 1
342 227 1
342 231 1
342 241 1
342 304 1
342 318 1
342 339 1
342 344 1
342 349 1
342 399 1
342 408 1
342 418 1
342 430 1
342 455 1
342 485 1
342 565 1
342 569 1
342 570 1
342 572 1
342 586 1
342 637 1
342 638 1
342 641 1
342 673 1
342 681 1
342 684 1
342 699 1
342 703 1
342 718 1
342 763 1
342 771 1
342 776 1
342 783 1
342 790 1
343 15 1
343 16 1
343 32 1
343 33 1
343 37 1
343 52 1
343 54 1
343 98 1
343 99 1
343 104 1
343 121 1
343 129 1
343 144 1
343 181 1
343 212 1
343 281 1
343 287 1
343 288 1
343 293 1
343 329 1
343 415 1
343 417 1
343 424 1
343 458 1
343 475 1
343 497 1
343 508 1
343 516 1
343 533 1
343 548 1
343 565 1
343 589 1
343 628 1
343 643 1
343 674 1
343 719 1
343 746 1
343 755 1
343 796 1
344 8 1
344 15 1
344 24 1
344 28 1
344 36 1
344 85 1
344 99 1
344 127 1
344 159 1
344 169 1
344 179 1
344 180 1
344 213 1
344 221 1
344 244 1
344 250 1
344 264 1
344 283 1
344 291 1
344 323 1
344 342 1
344 352 1
344 357 1
344 390 1
344 434 1
344 448 1
344 456 1
344 491 1
344 499 1
344 500 1
344 552 1
344 555 1
344 559 1
344 570 1
344 608 1
344 621 1
344 641 1
344 661 1
344 722 1
344 762 1
344 778 1
344 780 1
344 784 1
344 785 1
344 787 1
344 799 1
345 45 1
345 49 1
345 81 1
345 88 1
345 100 1
345 105 1
345 110 1
345 147 1
345 150 1
345 157 1
345 162 1
345 170 1
345 175 1
345 238 1
345 240 1
345 247 1
345 265 1
345 309 1
345 325 1
345 351 1
345 399 1
345 405 1
345 419 1
345 432 1
345 457 1
345 480 1
345 494 1
345 504 1
345 507 1
345 529 1
345 566 1
345 586 1
345 613 1
345 626 1
345 640 1
345 702 1
345 723 1
345 741 1
345 769 1
345 788 1
346 30 1
346 65 1
346 94 1
346 99 1
346 108 1
346 109 1
346 128 1
346 129 1
346 147 1
346 167 1
346 180 1
346 205 1
346 209 1
346 218 1
346 241 1
346 277 1
346 296 1
346 309 1
346 313 1
346 314 1
346 319 1
346 338 1
346 370 1
346 408 1
346 409 1
346 430 1
346 449 1
346 457 1
346 458 1
346 467 1
346 497 1
346 533 1
346 552 1
346 569 1
346 583 1
346 597 1
346 616 1
346 647 1
346 670 1
346 672 1
346 674 1
346 721 1
346 745 1
346 760 1
346 768 1
347 33 1
347 50 1
347 58 1
347 69 1
347 90 1
347 99 1
347 117 1
347 128 1
347 142 1
347 184 1
347 194 1
347 198 1
347 206 1
347 209 1
347 213 1
347 244 1
347 263 1
347 270 1
347 303 1
347 319 1
347 331 1
347 357 1
347 371 1
347 397 1
347 425 1
347 446 1
347 460 1
347 464 1
347 480 1
347 481 1
347 488 1
347 493 1
347 524 1
347 574 1
347 576 1
347 581 1
347 593 1
347 603 1
347 618 1
347 635 1
347 678 1
347 691 1
347 762 1
347 765 1
347 793 1
348 6 1
348 8 1
348 11 1
348 21 1
348 24 1
348 66 1
348 99 1
348 143 1
348 179 1
348 185 1
348 192 1
348 197 1
348 225 1
348 227 1
348 260 1
348 307 1
348 321 1
348 334 1
348 377 1
348 404 1
348 406 1
348 411 1
348 418 1
348 435 1
348 474 1
348 479 1
348 488 1
348 502 1
348 518 1
348 557 1
348 576 1
348 626 1
348 640 1
348 654 1
348 662 1
348 674 1
348 690 1
348 703 1
348 725 1
348 726 1
348 733 1
348 739 1
348 756 1
348 766 1
348 774 1
348 779 1
349 20 1
349 23 1
349 34 1
349 63 1
349 66 1
349 72 1
349 76 1
349 82 1
349 119 1
349 122 1
349 129 1
349 140 1
349 153 1
349 180 1
349 187 1
349 199 1
349 234 1
349 265 1
349 267 1
349 273 1
349 290 1
349 295 1
349 304 1
349 342 1
349 352 1
349 375 1
349 395 1
349 396 1
349 453 1
349 455 1
349 466 1
349 487 1
349 488 1
349 529 1
349 531 1
349 534 1
349 554 1
349 572 1
349 579 1
349 580 1
349 593 1
349 599 1
349 602 1
349 611 1
349 620 1
349 627 1
349 657 1
349 682 1
349 741 1
349 767 1
349 771 1
349 792 1
350 8 1
350 55 1
350 62 1
350 80 1
350 89 1
350 97 1
350 153 1
350 165 1
350 180 1
350 190 1
350 197 1
350 215 1
350 217 1
350 229 1
350 251 1
350 260 1
350 327 1
350 365 1
350 389 1
350 398 1
350 415 1
350 451 1
350 454 1
350 475 1
350 477 1
350 484 1
350 499 1
350 502 1
350 523 1
350 528 1
350 531 1
350 538 1
350 540 1
350 575 1
350 589 1
350 647 1
350 686 1
350 693 1
350 734 1
350 759 1
350 774 1
350 795 1
351 4 1
351 40 1
351 60 1
351 83 1
351 102 1
351 117 1
351 148 1
351 151 1
351 170 1
351 190 1
351 203 1
351 221 1
351 245 1
351 267 1
351 276 1
351 292 1
351 332 1
351 345 1
351 359 1
351 360 1
351 367 1
351 400 1
351 407 1
351 423 1
351 436 1
351 444 1
351 511 1
351 513 1
351 521 1
351 527 1
351 532 1
351 552 1
351 559 1
351 564 1
351 588 1
351 594 1
351 597 1
351 607 1
351 635 1
351 693 1
351 712 1
351 746 1
351 748 1
351 762 1
351 781 1
351 786 1
352 26 1
352 29 1
352 56 1
352 68 1
352 72 1
352 75 1
352 76 1
352 85 1
352 101 1
352 117 1
352 151 1
352 189 1
352 226 1
352 232 1
352 236 1
352 249 1
352 270 1
352 274 1
352 278 1
352 312 1
352 326 1
352 331 1
352 344 1
352 349 1
352 360 1
352 378 1
352 401 1
352 419 1
352 424 1
352 426 1
352 446 1
352 452 1
352 507 1
352 512 1
352 524 1
352 528 1
352 531 1
352 551 1
352 590 1
352 642 1
352 647 1
352 660 1
352 683 1
352 684 1
352 737 1
352 765 1
353 3 1
353 25 1
353 28 1
353 36 1
353 40 1
353 88 1
353 91 1
353 99 1
353 107 1
353 111 1
353 142 1
353 143 1
353 150 1
353 156 1
353 159 1
353 220 1
353 225 1
353 229 1
353 250 1
353 272 1
353 311 1
353 362 1
353 371 1
353 383 1
353 397 1
353 407 1
353 418 1
353 423 1
353 456 1
353 462 1
353 474 1
353 475 1
353 482 1
353 495 1
353 499 1
353 512 1
353 528 1
353 529 1
353 532 1
353 533 1
353 539 1
353 551 1
353 557 1
353 563 1
353 596 1
353 611 1
353 616 1
353 628 1
353 647 1
353 651 1
353 653 1
353 659 1
353 667 1
353 701 1
353 704 1
353 708 1
353 723 1
353 725 1
353 758 1
353 762 1
353 790 1
353 791 1
353 800 1
354 30 1
354 64 1
354 70 1
354 84 1
354 103 1
354 129 1
354 136 1
354 143 1
354 172 1
354 188 1
354 219 1
354 244 1
354 267 1
354 272 1
354 281 1
354 289 1
354 293 1
354 296 1
354 308 1
354 321 1
354 322 1
354 361 1
354 407 1
354 417 1
354 423 1
354 426 1
354 468 1
354 471 1
354 477 1
354 485 1
354 494 1
354 515 1
354 544 1
354 551 1
354 589 1
354 607 1
354 643 1
354 666 1
354 679 1
354 688 1
354 704 1
354 710 1
354 745 1
354 784 1
354 785 1
355 11 1
355 38 1
355 42 1
355 45 1
355 49 1
355 113 1
355 146 1
355 158 1
355 183 1
355 221 1
355 238 1
355 239 1
355 263 1
355 264 1
355 266 1
355 269 1
355 279 1
355 287 1
355 331 1
355 362 1
355 366 1
355 378 1
355 384 1
355 388 1
355 453 1
355 454 1
355 477 1
355 481 1
355 533 1
355 566 1
355 569 1
355 588 1
355 592 1
355 617 1
355 623 1
355 661 1
355 674 1
355 699 1
355 711 1
355 722 1
355 780 1
355 786 1
356 41 1
356 42 1
356 69 1
356 74 1
356 96 1
356 113 1
356 129 1
356 166 1
356 188 1
356 203 1
356 215 1
356 232 1
356 247 1
356 275 1
356 320 1
356 322 1
356 386 1
356 401 1
356 420 1
356 423 1
356 430 1
356 433 1
356 455 1
356 479 1
356 538 1
356 539 1
356 552 1
356 564 1
356 595 1
356 606 1
356 618 1
356 639 1
356 693 1
356 695 1
356 724 1
356 763 1
356 786 1
357 20 1
357 37 1
357 51 1
357 75 1
357 100 1
357 115 1
357 121 1
357 135 1
357 146 1
357 159 1
357 163 1
357 169 1
357 202 1
357 203 1
357 214 1
357 254 1
357 272 1
357 274 1
357 278 1
357 281 1
357 288 1
357 295 1
357 313 1
357 326 1
357 332 1
357 337 1
357 344 1
357 347 1
357 393 1
357 419 1
357 444 1
357 460 1
357 478 1
357 490 1
357 499 1
357 520 1
357 524 1
357 530 1
357 583 1
357 584 1
357 631 1
357 647 1
357 661 1
357 684 1
357 690 1
357 744 1
357 768 1
358 4 1
358 18 1
358 21 1
358 35 1
358 50 1
358 60 1
358 64 1
358 71 1
358 77 1
358 121 1
358 128 1
358 130 1
358 146 1
358 158 1
358 215 1
358 216 1
358 217 1
358 241 1
358 251 1
358 293 1
358 298 1
358 310 1
358 364 1
358 425 1
358 448 1
358 454 1
358 463 1
358 465 1
358 502 1
358 507 1
358 508 1
358 516 1
358 541 1
358 608 1
358 612 1
358 615 1
358 637 1
358 648 1
358 651 1
358 675 1
358 699 1
358 703 1
358 753 1
358 771 1
358 785 1
358 792 1
359 11 1
359 49 1
359 54 1
359 58 1
359 62 1
359 75 1
359 80 1
359 81 1
359 102 1
359 104 1
359 110 1
359 157 1
359 218 1
359 229 1
359 230 1
359 243 1
359 250 1
359 261 1
359 277 1
359 295 1
359 325 1
359 351 1
359 367 1
359 395 1
359 410 1
359 422 1
359 425 1
359 427 1
359 429 1
359 453 1
359 456 1
359 486 1
359 492 1
359 507 1
359 508 1
359 515 1
359 530 1
359 534 1
359 549 1
359 551 1
359 573 1
359 601 1
359 646 1
359 687 1
359 699 1
359 727 1
359 729 1
359 735 1
359 756 1
359 778 1
359 788 1
360 16 1
360 40 1
360 65 1
360 80 1
360 94 1
360 95 1
360 129 1
360 139 1
360 155 1
360 179 1
360 195 1
360 203 1
360 211 1
360 245 1
360 255 1
360 263 1
360 274 1
360 280 1
360 305 1
360 340 1
360 351 1
360 352 1
360 369 1
360 377 1
360 378 1
360 393 1
360 417 1
360 450 1
360 455 1
360 463 1
360 491 1
360 513 1
360 523 1
360 541 1
360 545 1
360 589 1
360 594 1
360 620 1
360 621 1
360 633 1
360 670 1
360 673 1
360 674 1
360 688 1
360 697 1
360 703 1
360 706 1
360 709 1
360 750 1
360 756 1
360 792 1
360 795 1
361 1 1
361 17 1
361 21 1
361 23 1
361 32 1
361 41 1
361 44 1
361 57 1
361 71 1
361 79 1
361 90 1
361 98 1
361 99 1
361 116 1
361 138 1
361 182 1
361 210 1
361 272 1
361 285 1
361 290 1
361 293 1
361 295 1
361 354 1
361 395 1
361 396 1
361 407 1
361 409 1
361 480 1
361 496 1
361 520 1
361 557 1
361 558 1
361 560 1
361 566 1
361 567 1
361 572 1
361 576 1
361 588 1
361 611 1
361 627 1
361 638 1
361 642 1
361 670 1
361 671 1
361 676 1
361 678 1
361 700 1
361 726 1
361 748 1
361 751 1
362 13 1
362 36 1
362 83 1
362 127 1
362 129 1
362 140 1
362 155 1
362 171 1
362 173 1
362 174 1
362 179 1
362 207 1
362 213 1
362 214 1
362 219 1
362 241 1
362 248 1
362 293 1
362 322 1
362 329 1
362 335 1
362 353 1
362 355 1
362 367 1
362 391 1
362 436 1
362 444 1
362 473 1
362 482 1
362 498 1
362 527 1
362 551 1
362 560 1
362 638 1
362 665 1
362 722 1
362 723 1
362 757 1
362 758 1
362 790 1
362 792 1
363 5 1
363 8 1
363 9 1
363 17 1
363 33 1
363 36 1
363 40 1
363 48 1
363 76 1
363 82 1
363 83 1
363 104 1
363 118 1
363 156 1
363 160 1
363 162 1
363 203 1
363 223 1
363 246 1
363 263 1
363 265 1
363 275 1
363 327 1
363 365 1
363 368 1
363 372 1
363 377 1
363 470 1
363 472 1
363 477 1
363 530 1
363 538 1
363 565 1
363 600 1
363 603 1
363 604 1
363 675 1
363 683 1
363 690 1
363 704 1
363 711 1
363 722 1
363 736 1
363 737 1
363 746 1
363 784 1
364 2 1
364 3 1
364 41 1
364 42 1
364 102 1
364 103 1
364 123 1
364 128 1
364 144 1
364 183 1
364 195 1
364 197 1
364 201 1
364 213 1
364 216 1
364 232 1
364 235 1
364 257 1
364 277 1
364 292 1
364 295 1
364 303 1
364 358 1
364 367 1
364 386 1
364 407 1
364 448 1
364 465 1
364 473 1
364 483 1
364 501 1
364 523 1
364 537 1
364 540 1
364 591 1
364 599 1
364 613 1
364 632 1
364 700 1
364 716 1
364 720 1
364 728 1
364 736 1
364 771 1
364 786 1
364 789 1
365 5 1
365 7 1
365 37 1
365 51 1
365 64 1
365 65 1
365 66 1
365 68 1
365 77 1
365 84 1
365 93 1
365 97 1
365 121 1
365 151 1
365 156 1
365 163 1
365 189 1
365 191 1
365 253 1
365 261 1
365 285 1
365 301 1
365 303 1
365 306 1
365 316 1
365 350 1
365 363 1
365 370 1
365 385 1
365 421 1
365 432 1
365 465 1
365 476 1
365 477 1
365 491 1
365 510 1
365 545 1
365 574 1
365 592 1
365 601 1
365 610 1
365 621 1
365 629 1
365 707 1
365 709 1
365 718 1
365 743 1
365 761 1
365 777 1
365 784 1
365 787 1
366 43 1
366 46 1
366 65 1
366 67 1
366 72 1
366 75 1
366 95 1
366 111 1
366 123 1
366 125 1
366 134 1
366 136 1
366 140 1
366 164 1
366 165 1
366 232 1
366 234 1
366 242 1
366 247 1
366 313 1
366 355 1
366 372 1
366 376 1
366 380 1
366 389 1
366 399 1
366 447 1
366 483 1
366 487 1
366 540 1
366 551 1
366 553 1
366 555 1
366 579 1
366 585 1
366 588 1
366 598 1
366 637 1
366 668 1
366 690 1
366 700 1
366 749 1
366 789 1
367 1 1
367 11 1
367 36 1
367 41 1
367 52 1
367 59 1
367 65 1
367 75 1
367 85 1
367 117 1
367 127 1
367 129 1
367 140 1
367 172 1
367 183 1
367 245 1
367 254 1
367 255 1
367 278 1
367 291 1
367 300 1
367 308 1
367 322 1
367 324 1
367 330 1
367 351 1
367 359 1
367 362 1
367 364 1
367 384 1
367 396 1
367 434 1
367 442 1
367 458 1
367 459 1
367 470 1
367 481 1
367 484 1
367 514 1
367 533 1
367 549 1
367 599 1
367 607 1
367 626 1
367 658 1
367 697 1
367 699 1
367 722 1
367 738 1
367 750 1
367 784 1
367 794 1
368 6 1
368 21 1
368 58 1
368 87 1
368 108 1
368 124 1
368 136 1
368 137 1
368 152 1
368 180 1
368 221 1
368 264 1
368 290 1
368 299 1
368 329 1
368 333 1
368 363 1
368 371 1
368 392 1
368 396 1
368 404 1
368 406 1
368 415 1
368 424 1
368 425 1
368 442 1
368 510 1
368 524 1
368 573 1
368 577 1
368 581 1
368 597 1
368 632 1
368 652 1
368 724 1
368 740 1
368 759 1
368 761 1
368 782 1
368 785 1
368 786 1
368 788 1
369 14 1
369 16 1
369 19 1
369 23 1
369 61 1
369 71 1
369 78 1
369 94 1
369 125 1
369 126 1
369 151 1
369 170 1
369 185 1
369 189 1
369 197 1
369 203 1
369 234 1
369 239 1
369 243 1
369 261 1
369 267 1
369 268 1
369 278 1
369 280 1
369 288 1
369 309 1
369 360 1
369 400 1
369 447 1
369 465 1
369 482 1
369 488 1
369 496 1
369 503 1
369 511 1
369 541 1
369 543 1
369 574 1
369 578 1
369 594 1
369 645 1
369 671 1
369 672 1
369 726 1
369 731 1
369 734 1
369 748 1
369 780 1
370 1 1
370 17 1
370 39 1
370 56 1
370 74 1
370 83 1
370 95 1
370 96 1
370 125 1
370 146 1
370 182 1
370 208 1
370 212 1
370 213 1
370 241 1
370 266 1
370 281 1
370 282 1
370 286 1
370 297 1
370 298 1
370 346 1
370 365 1
370 383 1
370 419 1
370 440 1
370 459 1
370 460 1
370 482 1
370 517 1
370 518 1
370 530 1
370 547 1
370 548 1
370 559 1
370 577 1
370 591 1
370 606 1
370 611 1
370 618 1
370 651 1
370 661 1
370 669 1
370 730 1
370 732 1
370 760 1
370 780 1
371 26 1
371 37 1
371 51 1
371 67 1
371 108 1
371 111 1
371 123 1
371 126 1
371 132 1
371 141 1
371 159 1
371 160 1
371 178 1
371 187 1
371 188 1
371 232 1
371 233 1
371 270 1
371 271 1
371 301 1
371 317 1
371 324 1
371 336 1
371 347 1
371 353 1
371 368 1
371 382 1
371 386 1
371 398 1
371 406 1
371 486 1
371 490 1
371 498 1
371 519 1
371 523 1
371 561 1
371 573 1
371 600 1
371 615 1
371 628 1
371 647 1
371 648 1
371 652 1
371 655 1
371 657 1
371 661 1
371 664 1
371 686 1
371 698 1
371 699 1
371 700 1
371 722 1
371 758 1
371 778 1
371 794 1
371 796 1
371 798 1
372 10 1
372 24 1
372 28 1
372 49 1
372 55 1
372 79 1
372 97 1
372 129 1
372 164 1
372 190 1
372 192 1
372 205 1
372 217 1
372 221 1
372 263 1
372 274 1
372 292 1
372 298 1
372 320 1
372 339 1
372 363 1
372 366 1
372 388 1
372 391 1
372 399 1
372 413 1
372 450 1
372 455 1
372 459 1
372 474 1
372 489 1
372 512 1
372 523 1
372 528 1
372 534 1
372 586 1
372 587 1
372 602 1
372 618 1
372 620 1
372 628 1
372 641 1
372 650 1
372 657 1
372 668 1
372 674 1
372 689 1
372 693 1
372 695 1
372 712 1
372 724 1
372 728 1
372 731 1
372 736 1
372 762 1
372 764 1
372 767 1
372 774 1
372 784 1
373 17 1
373 27 1
373 28 1
373 60 1
373 88 1
373 93 1
373 126 1
373 178 1
373 202 1
373 215 1
373 225 1
373 249 1
373 251 1
373 262 1
373 313 1
373 323 1
373 332 1
373 333 1
373 392 1
373 405 1
373 428 1
373 435 1
373 436 1
373 447 1
373 463 1
373 468 1
373 481 1
373 500 1
373 514 1
373 516 1
373 564 1
373 588 1
373 628 1
373 656 1
373 682 1
373 689 1
373 698 1
373 715 1
373 717 1
373 743 1
373 748 1
373 752 1
373 753 1
373 766 1
373 769 1
373 780 1
373 791 1
373 797 1
374 10 1
374 27 1
374 32 1
374 39 1
374 51 1
374 55 1
374 68 1
374 99 1
374 115 1
374 117 1
374 139 1
374 144 1
374 151 1
374 159 1
374 189 1
374 190 1
374 200 1
374 211 1
374 216 1
374 226 1
374 231 1
374 256 1
374 258 1
374 280 1
374 293 1
374 304 1
374 314 1
374 336 1
374 393 1
374 400 1
374 419 1
374 430 1
374 440 1
374 450 1
374 483 1
374 494 1
374 498 1
374 503 1
374 541 1
374 584 1
374 587 1
374 596 1
374 621 1
374 634 1
374 646 1
374 652 1
374 657 1
374 661 1
374 664 1
374 670 1
374 699 1
374 706 1
374 716 1
374 719 1
374 731 1
374 751 1
375 13 1
375 29 1
375 60 1
375 67 1
375 78 1
375 89 1
375 115 1
375 118 1
375 153 1
375 155 1
375 167 1
375 179 1
375 182 1
375 216 1
375 222 1
375 255 1
375 260 1
375 277 1
375 305 1
375 313 1
375 322 1
375 349 1
375 413 1
375 421 1
375 435 1
375 440 1
375 442 1
375 443 1
375 454 1
375 465 1
375 473 1
375 476 1
375 487 1
375 501 1
375 533 1
375 557 1
375 589 1
375 605 1
375 608 1
375 627 1
375 633 1
375 636 1
375 639 1
375 642 1
375 645 1
375 647 1
375 661 1
375 677 1
375 713 1
375 741 1
375 784 1
375 786 1
376 9 1
376 16 1
376 25 1
376 43 1
376 72 1
376 79 1
376 83 1
376 106 1
376 114 1
376 118 1
376 166 1
376 172 1
376 236 1
376 280 1
376 303 1
376 339 1
376 366 1
376 381 1
376 403 1
376 459 1
376 465 1
376 523 1
376 527 1
376 531 1
376 545 1
376 572 1
376 581 1
376 588 1
376 593 1
376 610 1
376 611 1
376 632 1
376 641 1
376 650 1
376 659 1
376 684 1
376 708 1
376 727 1
376 745 1
376 751 1
376 760 1
376 771 1
376 772 1
377 20 1
377 24 1
377 60 1
377 83 1
377 88 1
377 103 1
377 132 1
377 153 1
377 159 1
377 169 1
377 172 1
377 179 1
377 194 1
377 215 1
377 221 1
377 231 1
377 232 1
377 252 1
377 261 1
377 262 1
377 322 1
377 348 1
377 360 1
377 363 1
377 378 1
377 391 1
377 399 1
377 402 1
377 418 1
377 438 1
377 444 1
377 456 1
377 459 1
377 499 1
377 501 1
377 509 1
377 543 1
377 551 1
377 565 1
377 566 1
377 575 1
377 577 1
377 586 1
377 605 1
377 619 1
377 632 1
377 640 1
377 641 1
377 667 1
377 682 1
377 717 1
377 729 1
377 731 1
377 734 1
377 763 1
377 764 1
378 18 1
378 24 1
378 28 1
378 33 1
378 60 1
378 69 1
378 91 1
378 122 1
378 135 1
378 179 1
378 191 1
378 203 1
378 249 1
378 252 1
378 261 1
378 279 1
378 297 1
378 312 1
378 318 1
378 352 1
378 355 1
378 360 1
378 377 1
378 381 1
378 387 1
378 409 1
378 410 1
378 416 1
378 420 1
378 424 1
378 430 1
378 435 1
378 451 1
378 469 1
378 485 1
378 487 1
378 501 1
378 509 1
378 510 1
378 517 1
378 520 1
378 522 1
378 524 1
378 534 1
378 551 1
378 597 1
378 632 1
378 634 1
378 673 1
378 695 1
378 735 1
378 736 1
378 738 1
378 768 1
378 774 1
378 775 1
378 794 1
379 24 1
379 30 1
379 64 1
379 67 1
379 68 1
379 86 1
379 93 1
379 110 1
379 127 1
379 130 1
379 131 1
379 167 1
379 184 1
379 190 1
379 195 1
379 209 1
379 247 1
379 298 1
379 302 1
379 306 1
379 318 1
379 453 1
379 468 1
379 483 1
379 485 1
379 494 1
379 501 1
379 521 1
379 538 1
379 550 1
379 560 1
379 571 1
379 591 1
379 635 1
379 638 1
379 664 1
379 723 1
379 725 1
379 736 1
379 752 1
379 753 1
379 754 1
379 772 1
379 779 1
379 781 1
380 3 1
380 37 1
380 50 1
380 51 1
380 54 1
380 77 1
380 79 1
380 100 1
380 106 1
380 111 1
380 174 1
380 176 1
380 203 1
380 207 1
380 262 1
380 290 1
380 294 1
380 296 1
380 297 1
380 299 1
380 305 1
380 307 1
380 310 1
380 336 1
380 366 1
380 391 1
380 396 1
380 397 1
380 404 1
380 414 1
380 419 1
380 456 1
380 459 1
380 465 1
380 469 1
380 492 1
380 506 1
380 513 1
380 518 1
380 519 1
380 527 1
380 567 1
380 572 1
380 607 1
380 616 1
380 630 1
380 652 1
380 687 1
380 694 1
380 698 1
380 703 1
380 707 1
380 737 1
380 744 1
380 751 1
380 787 1
381 3 1
381 40 1
381 50 1
381 83 1
381 87 1
381 91 1
381 112 1
381 116 1
381 118 1
381 119 1
381 150 1
381 154 1
381 182 1
381 189 1
381 206 1
381 247 1
381 254 1
381 257 1
381 276 1
381 310 1
381 314 1
381 319 1
381 334 1
381 376 1
381 378 1
381 389 1
381 426 1
381 430 1
381 446 1
381 465 1
381 469 1
381 474 1
381 498 1
381 503 1
381 533 1
381 538 1
381 546 1
381 552 1
381 553 1
381 580 1
381 613 1
381 621 1
381 627 1
381 636 1
381 637 1
381 658 1
381 679 1
381 699 1
381 701 1
381 770 1
381 789 1
382 31 1
382 49 1
382 51 1
382 60 1
382 65 1
382 74 1
382 79 1
382 85 1
382 103 1
382 130 1
382 133 1
382 138 1
382 143 1
382 145 1
382 151 1
382 158 1
382 165 1
382 191 1
382 218 1
382 247 1
382 282 1
382 295 1
382 305 1
382 337 1
382 371 1
382 407 1
382 425 1
382 434 1
382 504 1
382 510 1
382 519 1
382 523 1
382 534 1
382 539 1
382 553 1
382 575 1
382 602 1
382 612 1
382 620 1
382 625 1
382 674 1
382 677 1
382 683 1
382 695 1
382 713 1
382 722 1
382 776 1
382 784 1
382 796 1
383 53 1
383 66 1
383 91 1
383 100 1
383 120 1
383 121 1
383 127 1
383 129 1
383 138 1
383 141 1
383 143 1
383 147 1
383 158 1
383 192 1
383 201 1
383 213 1
383 214 1
383 218 1
383 230 1
383 240 1
383 260 1
383 266 1
383 268 1
383 271 1
383 295 1
383 298 1
383 316 1
383 318 1
383 329 1
383 353 1
383 370 1
383 384 1
383 385 1
383 410 1
383 444 1
383 445 1
383 449 1
383 454 1
383 465 1
383 483 1
383 506 1
383 524 1
383 570 1
383 571 1
383 578 1
383 580 1
383 666 1
383 687 1
383 709 1
383 750 1
383 766 1
383 782 1
383 786 1
383 790 1
383 798 1
384 8 1
384 44 1
384 73 1
384 76 1
384 81 1
384 136 1
384 159 1
384 165 1
384 196 1
384 201 1
384 219 1
384 230 1
384 272 1
384 284 1
384 294 1
384 312 1
384 316 1
384 355 1
384 367 1
384 383 1
384 407 1
384 417 1
384 421 1
384 477 1
384 519 1
384 543 1
384 547 1
384 550 1
384 562 1
384 642 1
384 679 1
384 683 1
384 711 1
384 739 1
384 754 1
384 760 1
384 762 1
384 767 1
384 769 1
385 13 1
385 51 1
385 73 1
385 77 1
385 79 1
385 114 1
385 123 1
385 129 1
385 182 1
385 187 1
385 189 1
385 190 1
385 191 1
385 216 1
385 218 1
385 229 1
385 232 1
385 281 1
385 287 1
385 288 1
385 302 1
385 365 1
385 383 1
385 390 1
385 421 1
385 437 1
385 458 1
385 462 1
385 479 1
385 491 1
385 527 1
385 533 1
385 551 1
385 558 1
385 603 1
385 618 1
385 644 1
385 676 1
385 685 1
385 735 1
385 757 1
385 766 1
385 773 1
385 789 1
385 790 1
386 75 1
386 90 1
386 95 1
386 133 1
386 162 1
386 173 1
386 187 1
386 200 1
386 239 1
386 250 1
386 260 1
386 291 1
386 356 1
386 364 1
386 371 1
386 404 1
386 407 1
386 413 1
386 417 1
386 419 1
386 422 1
386 443 1
386 447 1
386 474 1
386 486 1
386 496 1
386 498 1
386 499 1
386 510 1
386 511 1
386 518 1
386 543 1
386 556 1
386 558 1
386 571 1
386 591 1
386 642 1
386 664 1
386 714 1
386 723 1
386 743 1
386 763 1
386 783 1
386 795 1
387 15 1
387 42 1
387 57 1
387 85 1
387 102 1
387 127 1
387 130 1
387 142 1
387 185 1
387 191 1
387 199 1
387 205 1
387 244 1
387 261 1
387 274 1
387 282 1
387 285 1
387 296 1
387 320 1
387 325 1
387 332 1
387 378 1
387 413 1
387 425 1
387 441 1
387 445 1
387 448 1
387 454 1
387 455 1
387 466 1
387 473 1
387 475 1
387 476 1
387 505 1
387 518 1
387 520 1
387 550 1
387 551 1
387 578 1
387 580 1
387 607 1
387 631 1
387 682 1
387 696 1
387 741 1
388 5 1
388 12 1
388 14 1
388 41 1
388 42 1
388 54 1
388 55 1
388 65 1
388 144 1
388 172 1
388 203 1
388 283 1
388 290 1
388 312 1
388 328 1
388 334 1
388 355 1
388 372 1
388 396 1
388 398 1
388 426 1
388 430 1
388 442 1
388 462 1
388 502 1
388 508 1
388 511 1
388 536 1
388 574 1
388 583 1
388 584 1
388 593 1
388 594 1
388 596 1
388 608 1
388 625 1
388 628 1
388 643 1
388 649 1
388 656 1
388 676 1
388 687 1
388 688 1
388 692 1
388 703 1
388 747 1
388 770 1
388 772 1
388 779 1
388 800 1
389 8 1
389 24 1
389 29 1
389 49 1
389 67 1
389 109 1
389 114 1
389 129 1
389 133 1
389 177 1
389 194 1
389 220 1
389 224 1
389 241 1
389 242 1
389 264 1
389 265 1
389 301 1
389 303 1
389 309 1
389 319 1
389 320 1
389 338 1
389 350 1
389 366 1
389 381 1
389 396 1
389 401 1
389 407 1
389 421 1
389 444 1
389 451 1
389 457 1
389 475 1
389 494 1
389 559 1
389 583 1
389 597 1
389 601 1
389 603 1
389 605 1
389 613 1
389 621 1
389 622 1
389 623 1
389 630 1
389 635 1
389 636 1
389 651 1
389 669 1
389 704 1
389 714 1
389 730 1
389 750 1
389 756 1
389 759 1
389 764 1
389 773 1
390 49 1
390 54 1
390 74 1
390 89 1
390 91 1
390 98 1
390 116 1
390 125 1
390 140 1
390 162 1
390 170 1
390 176 1
390 185 1
390 214 1
390 221 1
390 223 1
390 236 1
390 249 1
390 250 1
390 278 1
390 298 1
390 300 1
390 310 1
390 314 1
390 315 1
390 320 1
390 339 1
390 344 1
390 385 1
390 394 1
390 398 1
390 440 1
390 449 1
390 484 1
390 504 1
390 512 1
390 516 1
390 517 1
390 533 1
390 537 1
390 574 1
390 578 1
390 580 1
390 594 1
390 595 1
390 620 1
390 622 1
390 630 1
390 656 1
390 748 1
390 749 1
390 768 1
391 5 1
391 24 1
391 98 1
391 103 1
391 106 1
391 141 1
391 149 1
391 178 1
391 198 1
391 207 1
391 223 1
391 243 1
391 261 1
391 265 1
391 276 1
391 286 1
391 319 1
391 362 1
391 372 1
391 377 1
391 380 1
391 395 1
391 419 1
391 427 1
391 455 1
391 457 1
391 472 1
391 475 1
391 507 1
391 512 1
391 515 1
391 528 1
391 554 1
391 557 1
391 582 1
391 597 1
391 601 1
391 606 1
391 617 1
391 630 1
391 660 1
391 667 1
391 713 1
391 773 1
392 10 1
392 16 1
392 21 1
392 32 1
392 59 1
392 60 1
392 74 1
392 136 1
392 162 1
392 179 1
392 202 1
392 232 1
392 268 1
392 291 1
392 317 1
392 320 1
392 325 1
392 341 1
392 368 1
392 373 1
392 403 1
392 444 1
392 464 1
392 477 1
392 483 1
392 501 1
392 557 1
392 571 1
392 586 1
392 587 1
392 588 1
392 595 1
392 614 1
392 625 1
392 632 1
392 639 1
392 678 1
392 680 1
392 727 1
392 729 1
392 782 1
393 13 1
393 15 1
393 31 1
393 41 1
393 42 1
393 69 1
393 70 1
393 110 1
393 131 1
393 132 1
393 133 1
393 163 1
393 173 1
393 192 1
393 193 1
393 201 1
393 275 1
393 287 1
393 335 1
393 357 1
393 360 1
393 374 1
393 421 1
393 436 1
393 469 1
393 477 1
393 481 1
393 494 1
393 497 1
393 500 1
393 516 1
393 552 1
393 560 1
393 567 1
393 635 1
393 661 1
393 679 1
393 706 1
393 707 1
393 747 1
393 748 1
393 776 1
393 787 1
394 1 1
394 25 1
394 36 1
394 47 1
394 48 1
394 52 1
394 60 1
394 72 1
394 73 1
394 97 1
394 190 1
394 193 1
394 197 1
394 206 1
394 237 1
394 243 1
394 269 1
394 304 1
394 312 1
394 314 1
394 324 1
394 337 1
394 390 1
394 406 1
394 446 1
394 451 1
394 475 1
394 481 1
394 498 1
394 501 1
394 503 1
394 530 1
394 538 1
394 543 1
394 547 1
394 549 1
394 618 1
394 629 1
394 635 1
394 640 1
394 650 1
394 658 1
394 659 1
394 716 1
394 718 1
394 745 1
394 783 1
395 23 1
395 24 1
395 32 1
395 58 1
395 68 1
395 91 1
395 129 1
395 139 1
395 163 1
395 180 1
395 185 1
395 186 1
395 199 1
395 205 1
395 215 1
395 221 1
395 226 1
395 233 1
395 253 1
395 256 1
395 258 1
395 263 1
395 282 1
395 308 1
395 314 1
395 349 1
395 359 1
395 361 1
395 391 1
395 433 1
395 449 1
395 464 1
395 467 1
395 479 1
395 519 1
395 538 1
395 583 1
395 591 1
395 598 1
395 665 1
395 684 1
395 688 1
395 694 1
395 702 1
395 706 1
395 710 1
395 720 1
395 724 1
395 743 1
396 12 1
396 28 1
396 53 1
396 54 1
396 58 1
396 68 1
396 107 1
396 108 1
396 171 1
396 173 1
396 187 1
396 223 1
396 224 1
396 235 1
396 250 1
396 251 1
396 259 1
396 319 1
396 325 1
396 333 1
396 334 1
396 349 1
396 361 1
396 367 1
396 368 1
396 380 1
396 388 1
396 389 1
396 430 1
396 455 1
396 501 1
396 502 1
396 520 1
396 540 1
396 555 1
396 618 1
396 662 1
396 666 1
396 670 1
396 689 1
396 691 1
396 692 1
396 707 1
396 709 1
396 711 1
396 712 1
396 714 1
396 737 1
396 748 1
396 754 1
396 787 1
396 789 1
396 797 1
397 30 1
397 37 1
397 39 1
397 48 1
397 71 1
397 72 1
397 74 1
397 95 1
397 112 1
397 164 1
397 198 1
397 222 1
397 233 1
397 242 1
397 258 1
397 279 1
397 288 1
397 290 1
397 294 1
397 301 1
397 347 1
397 353 1
397 380 1
397 416 1
397 433 1
397 437 1
397 486 1
397 505 1
397 510 1
397 515 1
397 519 1
397 526 1
397 555 1
397 556 1
397 567 1
397 583 1
397 594 1
397 599 1
397 620 1
397 632 1
397 682 1
397 701 1
397 705 1
397 706 1
397 718 1
397 734 1
397 747 1
397 778 1
397 790 1
397 793 1
398 38 1
398 47 1
398 54 1
398 86 1
398 94 1
398 101 1
398 162 1
398 168 1
398 202 1
398 212 1
398 220 1
398 233 1
398 246 1
398 293 1
398 322 1
398 335 1
398 350 1
398 371 1
398 388 1
398 390 1
398 405 1
398 414 1
398 419 1
398 432 1
398 439 1
398 517 1
398 522 1
398 531 1
398 539 1
398 540 1
398 553 1
398 574 1
398 585 1
398 589 1
398 597 1
398 602 1
398 608 1
398 618 1
398 626 1
398 627 1
398 637 1
398 672 1
398 673 1
398 697 1
398 706 1
398 743 1
398 775 1
398 778 1
398 791 1
399 18 1
399 27 1
399 31 1
399 55 1
399 83 1
399 108 1
399 140 1
399 149 1
399 151 1
399 181 1
399 187 1
399 193 1
399 202 1
399 234 1
399 250 1
399 256 1
399 265 1
399 310 1
399 311 1
399 329 1
399 342 1
399 345 1
399 366 1
399 372 1
399 377 1
399 433 1
399 438 1
399 446 1
399 460 1
399 478 1
399 481 1
399 498 1
399 516 1
399 522 1
399 543 1
399 560 1
399 573 1
399 598 1
399 611 1
399 622 1
399 631 1
399 649 1
399 650 1
399 656 1
399 674 1
399 690 1
399 703 1
399 755 1
399 758 1
399 790 1
400 4 1
400 34 1
400 39 1
400 52 1
400 56 1
400 62 1
400 67 1
400 82 1
400 106 1
400 110 1
400 126 1
400 141 1
400 244 1
400 262 1
400 288 1
400 351 1
400 369 1
400 374 1
400 405 1
400 419 1
400 425 1
400 430 1
400 465 1
400 480 1
400 502 1
400 523 1
400 547 1
400 557 1
400 564 1
400 596 1
400 603 1
400 606 1
400 607 1
400 686 1
400 716 1
400 740 1
400 749 1
400 762 1
400 773 1
400 793 1
401 18 1
401 22 1
401 42 1
401 51 1
401 85 1
401 91 1
401 109 1
401 111 1
401 120 1
401 121 1
401 129 1
401 134 1
401 154 1
401 179 1
401 216 1
401 226 1
401 255 1
401 262 1
401 265 1
401 302 1
401 304 1
401 352 1
401 356 1
401 389 1
401 406 1
401 416 1
401 430 1
401 454 1
401 460 1
401 491 1
401 497 1
401 525 1
401 552 1
401 564 1
401 566 1
401 570 1
401 586 1
401 609 1
401 620 1
401 639 1
401 645 1
401 661 1
401 666 1
401 680 1
401 698 1
401 710 1
401 714 1
401 719 1
401 720 1
401 792 1
402 3 1
402 6 1
402 18 1
402 67 1
402 126 1
402 156 1
402 162 1
402 169 1
402 173 1
402 212 1
402 213 1
402 243 1
402 260 1
402 271 1
402 279 1
402 304 1
402 316 1
402 337 1
402 377 1
402 411 1
402 423 1
402 437 1
402 448 1
402 461 1
402 495 1
402 507 1
402 542 1
402 543 1
402 550 1
402 552 1
402 557 1
402 583 1
402 586 1
402 602 1
402 605 1
402 606 1
402 612 1
402 614 1
402 615 1
402 629 1
402 644 1
402 670 1
402 677 1
402 682 1
402 697 1
402 718 1
402 722 1
402 759 1
402 767 1
402 769 1
402 791 1
403 4 1
403 9 1
403 40 1
403 101 1
403 128 1
403 165 1
403 204 1
403 210 1
403 228 1
403 234 1
403 281 1
403 287 1
403 302 1
403 341 1
403 376 1
403 392 1
403 410 1
403 412 1
403 519 1
403 538 1
403 556 1
403 630 1
403 638 1
403 640 1
403 654 1
403 687 1
403 688 1
403 691 1
403 706 1
403 725 1
403 729 1
403 747 1
403 750 1
403 763 1
403 770 1
403 774 1
403 777 1
403 784 1
403 788 1
404 16 1
404 53 1
404 58 1
404 65 1
404 86 1
404 99 1
404 110 1
404 124 1
404 129 1
404 134 1
404 141 1
404 142 1
404 148 1
404 162 1
404 168 1
404 169 1
404 179 1
404 194 1
404 195 1
404 210 1
404 220 1
404 249 1
404 264 1
404 279 1
404 285 1
404 288 1
404 306 1
404 314 1
404 319 1
404 348 1
404 368 1
404 380 1
404 386 1
404 410 1
404 500 1
404 509 1
404 515 1
404 526 1
404 532 1
404 535 1
404 540 1
404 550 1
404 567 1
404 570 1
404 571 1
404 585 1
404 595 1
404 599 1
404 613 1
404 624 1
404 643 1
404 652 1
404 653 1
404 672 1
404 676 1
404 685 1
404 701 1
404 702 1
404 718 1
404 735 1
404 750 1
404 754 1
404 767 1
404 779 1
404 799 1
405 27 1
405 40 1
405 68 1
405 76 1
405 78 1
405 81 1
405 114 1
405 136 1
405 165 1
405 187 1
405 193 1
405 200 1
405 266 1
405 279 1
405 281 1
405 297 1
405 299 1
405 320 1
405 331 1
405 345 1
405 373 1
405 398 1
405 400 1
405 466 1
405 473 1
405 485 1
405 486 1
405 503 1
405 519 1
405 553 1
405 576 1
405 578 1
405 594 1
405 601 1
405 602 1
405 615 1
405 656 1
405 683 1
405 705 1
405 731 1
405 748 1
406 71 1
406 94 1
406 98 1
406 109 1
406 115 1
406 123 1
406 165 1
406 186 1
406 191 1
406 208 1
406 231 1
406 272 1
406 290 1
406 348 1
406 368 1
406 371 1
406 394 1
406 401 1
406 407 1
406 408 1
406 409 1
406 426 1
406 439 1
406 445 1
406 459 1
406 473 1
406 498 1
406 513 1
406 519 1
406 540 1
406 545 1
406 556 1
406 576 1
406 587 1
406 652 1
406 661 1
406 666 1
406 683 1
406 684 1
406 690 1
406 701 1
406 733 1
406 736 1
406 748 1
406 754 1
406 763 1
407 38 1
407 56 1
407 62 1
407 75 1
407 76 1
407 83 1
407 104 1
407 115 1
407 122 1
407 136 1
407 158 1
407 181 1
407 197 1
407 208 1
407 216 1
407 228 1
407 286 1
407 297 1
407 314 1
407 351 1
407 353 1
407 354 1
407 361 1
407 364 1
407 382 1
407 384 1
407 386 1
407 389 1
407 406 1
407 478 1
407 499 1
407 514 1
407 539 1
407 544 1
407 548 1
407 553 1
407 558 1
407 579 1
407 661 1
407 667 1
407 682 1
407 721 1
407 739 1
407 770 1
407 799 1
408 9 1
408 13 1
408 49 1
408 72 1
408 79 1
408 86 1
408 104 1
408 113 1
408 152 1
408 177 1
408 188 1
408 197 1
408 217 1
408 231 1
408 261 1
408 277 1
408 284 1
408 290 1
408 297 1
408 298 1
408 301 1
408 317 1
408 327 1
408 329 1
408 339 1
408 342 1
408 346 1
408 406 1
408 434 1
408 481 1
408 484 1
408 497 1
408 508 1
408 537 1
408 552 1
408 554 1
408 560 1
408 568 1
408 584 1
408 626 1
408 669 1
408 687 1
408 704 1
408 742 1
408 744 1
408 758 1
408 761 1
408 773 1
408 777 1
409 2 1
409 4 1
409 22 1
409 37 1
409 53 1
409 68 1
409 69 1
409 75 1
409 97 1
409 99 1
409 113 1
409 125 1
409 159 1
409 225 1
409 233 1
409 298 1
409 304 1
409 335 1
409 340 1
409 346 1
409 361 1
409 378 1
409 406 1
409 417 1
409 438 1
409 443 1
409 452 1
409 480 1
409 496 1
409 498 1
409 529 1
409 562 1
409 572 1
409 573 1
409 576 1
409 601 1
409 608 1
409 620 1
409 627 1
409 646 1
409 659 1
409 661 1
409 666 1
409 674 1
409 675 1
409 686 1
409 703 1
409 723 1
409 745 1
409 793 1
410 6 1
410 14 1
410 35 1
410 39 1
410 53 1
410 84 1
410 104 1
410 109 1
410 123 1
410 150 1
410 157 1
410 160 1
410 181 1
410 267 1
410 278 1
410 283 1
410 285 1
410 294 1
410 296 1
410 303 1
410 324 1
410 325 1
410 331 1
410 359 1
410 378 1
410 383 1
410 403 1
410 404 1
410 430 1
410 433 1
410 435 1
410 447 1
410 454 1
410 515 1
410 538 1
410 553 1
410 554 1
410 555 1
410 570 1
410 582 1
410 658 1
410 670 1
410 680 1
410 686 1
410 688 1
410 727 1
410 749 1
410 752 1
410 760 1
410 785 1
411 6 1
411 18 1
411 21 1
411 37 1
411 70 1
411 113 1
411 121 1
411 136 1
411 185 1
411 216 1
411 270 1
411 272 1
411 282 1
411 285 1
411 311 1
411 348 1
411 402 1
411 414 1
411 431 1
411 473 1
411 481 1
411 505 1
411 519 1
411 520 1
411 526 1
411 563 1
411 574 1
411 594 1
411 640 1
411 646 1
411 674 1
411 679 1
411 693 1
411 694 1
411 763 1
411 764 1
411 782 1
412 7 1
412 8 1
412 22 1
412 43 1
412 44 1
412 57 1
412 64 1
412 67 1
412 72 1
412 85 1
412 98 1
412 126 1
412 197 1
412 216 1
412 220 1
412 225 1
412 239 1
412 242 1
412 258 1
412 262 1
412 267 1
412 273 1
412 316 1
412 403 1
412 413 1
412 430 1
412 433 1
412 436 1
412 443 1
412 455 1
412 461 1
412 463 1
412 465 1
412 477 1
412 484 1
412 510 1
412 521 1
412 543 1
412 546 1
412 588 1
412 595 1
412 610 1
412 648 1
412 650 1
412 689 1
412 693 1
412 704 1
412 714 1
412 726 1
412 743 1
412 744 1
412 749 1
412 759 1
413 30 1
413 33 1
413 35 1
413 40 1
413 51 1
413 52 1
413 64 1
413 71 1
413 132 1
413 154 1
413 156 1
413 163 1
413 186 1
413 189 1
413 190 1
413 204 1
413 208 1
413 212 1
413 238 1
413 249 1
413 250 1
413 255 1
413 259 1
413 300 1
413 302 1
413 307 1
413 312 1
413 323 1
413 372 1
413 375 1
413 386 1
413 387 1
413 412 1
413 438 1
413 458 1
413 513 1
413 526 1
413 549 1
413 584 1
413 596 1
413 598 1
413 607 1
413 612 1
413 630 1
413 686 1
413 696 1
413 704 1
413 716 1
413 723 1
413 725 1
413 733 1
413 748 1
413 766 1
413 774 1
413 777 1
413 797 1
414 13 1
414 53 1
414 98 1
414 128 1
414 132 1
414 159 1
414 163 1
414 179 1
414 218 1
414 221 1
414 231 1
414 236 1
414 313 1
414 330 1
414 333 1
414 336 1
414 339 1
414 380 1
414 398 1
414 411 1
414 427 1
414 434 1
414 435 1
414 439 1
414 461 1
414 465 1
414 466 1
414 473 1
414 500 1
414 501 1
414 519 1
414 530 1
414 540 1
414 550 1
414 562 1
414 586 1
414 612 1
414 622 1
414 635 1
414 640 1
414 652 1
414 664 1
414 713 1
414 757 1
414 774 1
414 785 1
415 9 1
415 16 1
415 23 1
415 25 1
415 74 1
415 101 1
415 125 1
415 126 1
415 138 1
415 148 1
415 179 1
415 200 1
415 202 1
415 227 1
415 232 1
415 237 1
415 248 1
415 250 1
415 255 1
415 260 1
415 276 1
415 318 1
415 340 1
415 343 1
415 350 1
415 368 1
415 492 1
415 517 1
415 535 1
415 555 1
415 588 1
415 592 1
415 605 1
415 631 1
415 652 1
415 677 1
415 685 1
415 706 1
415 738 1
415 747 1
415 771 1
415 772 1
415 782 1
415 783 1
415 793 1
416 4 1
416 9 1
416 26 1
416 32 1
416 35 1
416 51 1
416 53 1
416 55 1
416 67 1
416 77 1
416 87 1
416 99 1
416 159 1
416 160 1
416 199 1
416 233 1
416 271 1
416 272 1
416 305 1
416 316 1
416 323 1
416 332 1
416 378 1
416 397 1
416 401 1
416 422 1
416 440 1
416 448 1
416 453 1
416 462 1
416 482 1
416 501 1
416 502 1
416 513 1
416 521 1
416 543 1
416 578 1
416 591 1
416 603 1
416 636 1
416 639 1
416 640 1
416 643 1
416 657 1
416 697 1
416 701 1
416 702 1
416 716 1
416 739 1
416 749 1
416 769 1
416 771 1
416 784 1
417 10 1
417 15 1
417 17 1
417 23 1
417 40 1
417 60 1
417 70 1
417 106 1
417 118 1
417 124 1
417 125 1
417 136 1
417 162 1
417 170 1
417 187 1
417 189 1
417 207 1
417 211 1
417 214 1
417 224 1
417 237 1
417 242 1
417 275 1
417 308 1
417 314 1
417 320 1
417 324 1
417 331 1
417 343 1
417 354 1
417 360 1
417 384 1
417 386 1
417 409 1
417 427 1
417 439 1
417 444 1
417 467 1
417 497 1
417 506 1
417 511 1
417 525 1
417 538 1
417 551 1
417 565 1
417 569 1
417 582 1
417 598 1
417 601 1
417 626 1
417 632 1
417 633 1
417 638 1
417 651 1
417 667 1
417 715 1
417 726 1
417 743 1
417 756 1
417 766 1
417 778 1
417 785 1
417 794 1
418 52 1
418 81 1
418 110 1
418 116 1
418 129 1
418 136 1
418 176 1
418 179 1
418 195 1
418 201 1
418 233 1
418 257 1
418 305 1
418 311 1
418 327 1
418 330 1
418 342 1
418 348 1
418 353 1
418 377 1
418 420 1
418 447 1
418 459 1
418 468 1
418 502 1
418 521 1
418 528 1
418 594 1
418 614 1
418 621 1
418 624 1
418 657 1
418 676 1
418 708 1
418 710 1
418 762 1
419 1 1
419 24 1
419 27 1
419 82 1
419 89 1
419 114 1
419 116 1
419 135 1
419 168 1
419 176 1
419 179 1
419 192 1
419 212 1
419 217 1
419 223 1
419 228 1
419 236 1
419 247 1
419 248 1
419 255 1
419 261 1
419 274 1
419 287 1
419 299 1
419 331 1
419 345 1
419 352 1
419 357 1
419 370 1
419 374 1
419 380 1
419 386 1
419 391 1
419 398 1
419 400 1
419 434 1
419 462 1
419 469 1
419 470 1
419 506 1
419 520 1
419 522 1
419 532 1
419 545 1
419 567 1
419 579 1
419 585 1
419 598 1
419 614 1
419 631 1
419 651 1
419 666 1
419 688 1
419 719 1
419 720 1
419 730 1
419 744 1
419 795 1
420 18 1
420 22 1
420 31 1
420 54 1
420 86 1
420 98 1
420 133 1
420 157 1
420 189 1
420 207 1
420 209 1
420 219 1
420 221 1
420 222 1
420 230 1
420 238 1
420 246 1
420 250 1
420 292 1
420 300 1
420 303 1
420 318 1
420 356 1
420 378 1
420 418 1
420 444 1
420 447 1
420 475 1
420 477 1
420 487 1
420 493 1
420 516 1
420 541 1
420 547 1
420 569 1
420 573 1
420 583 1
420 605 1
420 606 1
420 608 1
420 616 1
420 645 1
420 649 1
420 653 1
420 657 1
420 658 1
420 664 1
420 695 1
420 698 1
420 753 1
420 754 1
420 778 1
420 780 1
420 798 1
421 55 1
421 66 1
421 67 1
421 82 1
421 84 1
421 89 1
421 125 1
421 183 1
421 198 1
421 202 1
421 211 1
421 240 1
421 246 1
421 253 1
421 265 1
421 272 1
421 277 1
421 279 1
421 312 1
421 326 1
421 328 1
421 335 1
421 337 1
421 365 1
421 375 1
421 384 1
421 385 1
421 389 1
421 393 1
421 451 1
421 453 1
421 454 1
421 474 1
421 504 1
421 507 1
421 515 1
421 530 1
421 533 1
421 541 1
421 551 1
421 555 1
421 559 1
421 569 1
421 570 1
421 573 1
421 583 1
421 586 1
421 590 1
421 625 1
421 629 1
421 636 1
421 642 1
421 662 1
421 681 1
421 703 1
421 721 1
421 734 1
421 765 1
421 777 1
421 780 1
421 797 1
422 21 1
422 37 1
422 59 1
422 61 1
422 70 1
422 73 1
422 123 1
422 125 1
422 143 1
422 147 1
422 176 1
422 184 1
422 194 1
422 243 1
422 245 1
422 290 1
422 312 1
422 323 1
422 324 1
422 327 1
422 336 1
422 359 1
422 386 1
422 416 1
422 423 1
422 430 1
422 442 1
422 449 1
422 507 1
422 543 1
422 555 1
422 561 1
422 564 1
422 574 1
422 589 1
422 615 1
422 638 1
422 648 1
422 652 1
422 711 1
422 721 1
422 756 1
422 786 1
422 791 1
423 9 1
423 11 1
423 51 1
423 67 1
423 75 1
423 82 1
423 108 1
423 116 1
423 135 1
423 138 1
423 141 1
423 153 1
423 170 1
423 187 1
423 191 1
423 216 1
423 231 1
423 273 1
423 300 1
423 323 1
423 351 1
423 353 1
423 354 1
423 356 1
423 402 1
423 422 1
423 427 1
423 433 1
423 447 1
423 456 1
423 460 1
423 490 1
423 505 1
423 540 1
423 569 1
423 578 1
423 587 1
423 625 1
423 642 1
423 673 1
423 690 1
423 715 1
423 718 1
423 719 1
423 721 1
423 726 1
423 753 1
424 38 1
424 50 1
424 56 1
424 66 1
424 70 1
424 112 1
424 113 1
424 131 1
424 161 1
424 163 1
424 171 1
424 206 1
424 244 1
424 260 1
424 269 1
424 284 1
424 303 1
424 305 1
424 308 1
424 316 1
424 343 1
424 352 1
424 368 1
424 378 1
424 453 1
424 494 1
424 510 1
424 527 1
424 528 1
424 571 1
424 578 1
424 597 1
424 621 1
424 642 1
424 656 1
424 687 1
424 690 1
424 691 1
424 701 1
424 707 1
424 732 1
425 26 1
425 30 1
425 44 1
425 47 1
425 51 1
425 52 1
425 69 1
425 76 1
425 86 1
425 87 1
425 114 1
425 123 1
425 128 1
425 139 1
425 150 1
425 152 1
425 176 1
425 181 1
425 193 1
425 222 1
425 227 1
425 249 1
425 264 1
425 265 1
425 278 1
425 299 1
425 321 1
425 325 1
425 347 1
425 358 1
425 359 1
425 368 1
425 382 1
425 387 1
425 400 1
425 438 1
425 440 1
425 495 1
425 497 1
425 530 1
425 547 1
425 548 1
425 557 1
425 562 1
425 567 1
425 570 1
425 586 1
425 593 1
425 611 1
425 612 1
425 642 1
425 649 1
425 652 1
425 661 1
425 690 1
425 726 1
425 727 1
425 756 1
425 761 1
425 788 1
425 798 1
426 14 1
426 41 1
426 91 1
426 117 1
426 148 1
426 157 1
426 170 1
426 184 1
426 192 1
426 231 1
426 239 1
426 240 1
426 259 1
426 261 1
426 270 1
426 297 1
426 308 1
426 328 1
426 352 1
426 354 1
426 381 1
426 388 1
426 406 1
426 436 1
426 437 1
426 441 1
426 473 1
426 512 1
426 522 1
426 530 1
426 533 1
426 552 1
426 558 1
426 571 1
426 580 1
426 583 1
426 584 1
426 597 1
426 653 1
426 664 1
426 693 1
426 696 1
426 697 1
426 735 1
426 752 1
426 790 1
427 11 1
427 34 1
427 48 1
427 49 1
427 75 1
427 86 1
427 93 1
427 135 1
427 142 1
427 150 1
427 156 1
427 249 1
427 271 1
427 323 1
427 329 1
427 336 1
427 339 1
427 359 1
427 391 1
427 414 1
427 417 1
427 423 1
427 439 1
427 476 1
427 484 1
427 486 1
427 548 1
427 558 1
427 565 1
427 609 1
427 658 1
427 660 1
427 687 1
427 693 1
427 710 1
427 711 1
427 737 1
427 750 1
427 762 1
428 3 1
428 98 1
428 111 1
428 127 1
428 128 1
428 156 1
428 165 1
428 178 1
428 214 1
428 219 1
428 226 1
428 244 1
428 278 1
428 301 1
428 307 1
428 309 1
428 339 1
428 373 1
428 449 1
428 463 1
428 491 1
428 498 1
428 505 1
428 540 1
428 545 1
428 601 1
428 633 1
428 639 1
428 641 1
428 732 1
428 741 1
428 755 1
428 768 1
428 779 1
429 67 1
429 73 1
429 167 1
429 177 1
429 180 1
429 189 1
429 192 1
429 197 1
429 224 1
429 275 1
429 287 1
429 307 1
429 359 1
429 430 1
429 439 1
429 440 1
429 482 1
429 497 1
429 509 1
429 521 1
429 523 1
429 525 1
429 529 1
429 563 1
429 568 1
429 569 1
429 606 1
429 611 1
429 619 1
429 620 1
429 623 1
429 658 1
429 664 1
429 685 1
429 687 1
429 710 1
429 713 1
429 734 1
429 738 1
429 782 1
429 785 1
430 17 1
430 22 1
430 27 1
430 44 1
430 59 1
430 72 1
430 83 1
430 95 1
430 106 1
430 111 1
430 158 1
430 162 1
430 195 1
430 210 1
430 219 1
430 227 1
430 243 1
430 245 1
430 271 1
430 284 1
430 291 1
430 294 1
430 314 1
430 338 1
430 342 1
430 346 1
430 356 1
430 374 1
430 378 1
430 381 1
430 388 1
430 396 1
430 400 1
430 401 1
430 410 1
430 412 1
430 422 1
430 429 1
430 437 1
430 443 1
430 461 1
430 465 1
430 475 1
430 477 1
430 513 1
430 531 1
430 544 1
430 554 1
430 575 1
430 610 1
430 615 1
430 681 1
430 685 1
430 707 1
430 761 1
430 770 1
430 790 1
431 7 1
431 19 1
431 25 1
431 32 1
431 47 1
431 60 1
431 62 1
431 84 1
431 85 1
431 125 1
431 128 1
431 149 1
431 162 1
431 165 1
431 174 1
431 214 1
431 216 1
431 236 1
431 268 1
431 278 1
431 298 1
431 300 1
431 308 1
431 317 1
431 325 1
431 411 1
431 433 1
431 435 1
431 440 1
431 547 1
431 559 1
431 595 1
431 605 1
431 612 1
431 626 1
431 630 1
431 633 1
431 664 1
431 668 1
431 670 1
431 677 1
431 685 1
431 696 1
431 702 1
431 728 1
431 736 1
431 751 1
431 757 1
432 30 1
432 37 1
432 52 1
432 55 1
432 75 1
432 109 1
432 168 1
432 172 1
432 182 1
432 194 1
432 216 1
432 236 1
432 245 1
432 263 1
432 288 1
432 311 1
432 332 1
432 345 1
432 365 1
432 398 1
432 436 1
432 468 1
432 481 1
432 490 1
432 500 1
432 502 1
432 552 1
432 588 1
432 589 1
432 598 1
432 625 1
432 632 1
432 652 1
432 672 1
432 679 1
432 705 1
432 714 1
432 726 1
432 745 1
432 746 1
432 773 1
432 782 1
433 5 1
433 9 1
433 32 1
433 43 1
433 96 1
433 124 1
433 234 1
433 237 1
433 250 1
433 259 1
433 269 1
433 310 1
433 312 1
433 318 1
433 356 1
433 395 1
433 397 1
433 399 1
433 410 1
433 412 1
433 423 1
433 431 1
433 445 1
433 452 1
433 482 1
433 501 1
433 509 1
433 535 1
433 557 1
433 572 1
433 575 1
433 590 1
433 663 1
433 704 1
433 705 1
433 710 1
433 733 1
433 734 1
434 2 1
434 3 1
434 11 1
434 21 1
434 22 1
434 26 1
434 36 1
434 45 1
434 54 1
434 55 1
434 59 1
434 73 1
434 101 1
434 145 1
434 157 1
434 181 1
434 186 1
434 197 1
434 221 1
434 235 1
434 239 1
434 247 1
434 306 1
434 319 1
434 329 1
434 334 1
434 344 1
434 367 1
434 382 1
434 408 1
434 414 1
434 419 1
434 479 1
434 482 1
434 533 1
434 547 1
434 563 1
434 604 1
434 630 1
434 643 1
434 657 1
434 678 1
434 715 1
434 717 1
434 729 1
434 731 1
434 744 1
434 761 1
434 800 1
435 52 1
435 70 1
435 75 1
435 88 1
435 96 1
435 134 1
435 167 1
435 177 1
435 218 1
435 247 1
435 249 1
435 267 1
435 272 1
435 274 1
435 279 1
435 295 1
435 310 1
435 323 1
435 348 1
435 373 1
435 375 1
435 378 1
435 410 1
435 414 1
435 431 1
435 453 1
435 464 1
435 469 1
435 507 1
435 532 1
435 568 1
435 584 1
435 606 1
435 639 1
435 643 1
435 694 1
435 701 1
435 713 1
435 730 1
435 742 1
435 750 1
435 767 1
435 780 1
436 6 1
436 24 1
436 39 1
436 63 1
436 77 1
436 79 1
436 89 1
436 111 1
436 144 1
436 145 1
436 150 1
436 165 1
436 211 1
436 226 1
436 240 1
436 262 1
436 263 1
436 266 1
436 282 1
436 291 1
436 295 1
436 332 1
436 337 1
436 351 1
436 362 1
436 373 1
436 393 1
436 412 1
436 426 1
436 432 1
436 467 1
436 479 1
436 513 1
436 607 1
436 614 1
436 632 1
436 662 1
436 667 1
436 713 1
436 717 1
436 719 1
436 735 1
436 788 1
436 791 1
437 18 1
437 37 1
437 95 1
437 101 1
437 132 1
437 156 1
437 164 1
437 184 1
437 195 1
437 236 1
437 243 1
437 273 1
437 303 1
437 331 1
437 385 1
437 397 1
437 402 1
437 426 1
437 430 1
437 463 1
437 475 1
437 559 1
437 563 1
437 565 1
437 575 1
437 577 1
437 594 1
437 600 1
437 616 1
437 624 1
437 644 1
437 649 1
437 675 1
437 684 1
437 701 1
437 729 1
437 745 1
437 746 1
437 755 1
437 762 1
437 764 1
437 792 1
437 794 1
438 6 1
438 58 1
438 66 1
438 68 1
438 76 1
438 115 1
438 165 1
438 180 1
438 202 1
438 211 1
438 241 1
438 259 1
438 279 1
438 288 1
438 377 1
438 399 1
438 409 1
438 413 1
438 425 1
438 457 1
438 478 1
438 493 1
438 600 1
438 606 1
438 607 1
438 629 1
438 641 1
438 649 1
438 658 1
438 667 1
438 678 1
438 684 1
438 706 1
438 714 1
438 773 1
438 785 1
438 786 1
439 5 1
439 17 1
439 38 1
439 44 1
439 63 1
439 64 1
439 78 1
439 97 1
439 105 1
439 118 1
439 141 1
439 149 1
439 182 1
439 183 1
439 200 1
439 249 1
439 272 1
439 279 1
439 281 1
439 315 1
439 398 1
439 406 1
439 414 1
439 417 1
439 427 1
439 429 1
439 454 1
439 460 1
439 471 1
439 480 1
439 494 1
439 504 1
439 523 1
439 534 1
439 541 1
439 561 1
439 572 1
439 574 1
439 591 1
439 613 1
439 617 1
439 619 1
439 620 1
439 640 1
439 673 1
439 680 1
439 690 1
439 707 1
439 708 1
439 731 1
440 4 1
440 17 1
440 18 1
440 24 1
440 40 1
440 48 1
440 67 1
440 70 1
440 73 1
440 78 1
440 112 1
440 125 1
440 148 1
440 151 1
440 164 1
440 171 1
440 179 1
440 185 1
440 211 1
440 234 1
440 236 1
440 245 1
440 264 1
440 279 1
440 309 1
440 314 1
440 319 1
440 325 1
440 326 1
440 338 1
440 370 1
440 374 1
440 375 1
440 390 1
440 416 1
440 425 1
440 429 1
440 431 1
440 443 1
440 476 1
440 519 1
440 526 1
440 557 1
440 604 1
440 607 1
440 610 1
440 625 1
440 629 1
440 648 1
440 650 1
440 662 1
440 669 1
440 708 1
440 712 1
440 719 1
440 721 1
440 722 1
440 724 1
440 738 1
440 752 1
440 769 1
440 777 1
440 795 1
441 10 1
441 21 1
441 28 1
441 32 1
441 34 1
441 42 1
441 96 1
441 132 1
441 133 1
441 159 1
441 179 1
441 188 1
441 196 1
441 199 1
441 203 1
441 219 1
441 227 1
441 249 1
441 277 1
441 283 1
441 318 1
441 319 1
441 324 1
441 335 1
441 336 1
441 387 1
441 426 1
441 461 1
441 477 1
441 492 1
441 501 1
441 520 1
441 521 1
441 523 1
441 524 1
441 545 1
441 562 1
441 566 1
441 595 1
441 611 1
441 612 1
441 630 1
441 634 1
441 663 1
441 675 1
441 679 1
441 716 1
441 740 1
441 742 1
441 745 1
441 753 1
441 761 1
441 790 1
441 793 1
441 795 1
442 17 1
442 29 1
442 30 1
442 32 1
442 33 1
442 37 1
442 39 1
442 45 1
442 47 1
442 57 1
442 90 1
442 95 1
442 127 1
442 142 1
442 143 1
442 148 1
442 151 1
442 177 1
442 192 1
442 207 1
442 213 1
442 218 1
442 227 1
442 269 1
442 282 1
442 283 1
442 323 1
442 334 1
442 367 1
442 368 1
442 375 1
442 388 1
442 422 1
442 452 1
442 456 1
442 466 1
442 491 1
442 538 1
442 541 1
442 548 1
442 559 1
442 586 1
442 594 1
442 603 1
442 607 1
442 614 1
442 626 1
442 637 1
442 640 1
442 665 1
442 684 1
442 686 1
442 700 1
442 703 1
442 713 1
442 714 1
442 745 1
442 747 1
442 753 1
442 757 1
442 771 1
442 777 1
442 800 1
443 10 1
443 54 1
443 63 1
443 89 1
443 110 1
443 115 1
443 116 1
443 176 1
443 189 1
443 202 1
443 233 1
443 249 1
443 265 1
443 279 1
443 301 1
443 303 1
443 375 1
443 386 1
443 409 1
443 412 1
443 430 1
443 440 1
443 474 1
443 477 1
443 552 1
443 555 1
443 592 1
443 632 1
443 680 1
443 696 1
443 697 1
443 703 1
443 732 1
443 737 1
443 740 1
443 792 1
443 794 1
444 3 1
444 30 1
444 38 1
444 48 1
444 57 1
444 60 1
444 71 1
444 91 1
444 113 1
444 145 1
444 146 1
444 178 1
444 194 1
444 208 1
444 235 1
444 237 1
444 252 1
444 262 1
444 315 1
444 351 1
444 357 1
444 362 1
444 377 1
444 383 1
444 389 1
444 392 1
444 417 1
444 420 1
444 491 1
444 549 1
444 556 1
444 560 1
444 609 1
444 625 1
444 626 1
444 628 1
444 640 1
444 646 1
444 656 1
444 682 1
444 686 1
444 690 1
444 701 1
444 704 1
444 707 1
444 711 1
444 723 1
444 761 1
444 766 1
444 775 1
444 783 1
444 794 1
445 1 1
445 36 1
445 46 1
445 81 1
445 101 1
445 116 1
445 127 1
445 146 1
445 147 1
445 177 1
445 180 1
445 193 1
445 221 1
445 265 1
445 276 1
445 283 1
445 329 1
445 331 1
445 332 1
445 341 1
445 383 1
445 387 1
445 406 1
445 433 1
445 457 1
445 491 1
445 497 1
445 528 1
445 537 1
445 544 1
445 548 1
445 558 1
445 588 1
445 590 1
445 593 1
445 595 1
445 621 1
445 637 1
445 699 1
445 727 1
445 750 1
445 751 1
445 755 1
446 12 1
446 35 1
446 50 1
446 53 1
446 93 1
446 138 1
446 155 1
446 165 1
446 239 1
446 253 1
446 259 1
446 284 1
446 286 1
446 295 1
446 297 1
446 307 1
446 313 1
446 326 1
446 333 1
446 347 1
446 352 1
446 381 1
446 394 1
446 399 1
446 456 1
446 462 1
446 472 1
446 500 1
446 505 1
446 509 1
446 512 1
446 576 1
446 585 1
446 590 1
446 591 1
446 596 1
446 643 1
446 649 1
446 660 1
446 668 1
446 670 1
446 710 1
446 777 1
446 788 1
447 8 1
447 18 1
447 53 1
447 74 1
447 82 1
447 84 1
447 115 1
447 179 1
447 214 1
447 229 1
447 236 1
447 248 1
447 251 1
447 254 1
447 265 1
447 274 1
447 280 1
447 296 1
447 297 1
447 299 1
447 303 1
447 327 1
447 366 1
447 369 1
447 373 1
447 386 1
447 410 1
447 418 1
447 420 1
447 423 1
447 471 1
447 477 1
447 526 1
447 532 1
447 570 1
447 620 1
447 632 1
447 637 1
447 661 1
447 679 1
447 683 1
447 705 1
447 725 1
447 736 1
447 741 1
447 758 1
447 780 1
448 7 1
448 29 1
448 49 1
448 68 1
448 116 1
448 134 1
448 158 1
448 160 1
448 176 1
448 200 1
448 214 1
448 234 1
448 241 1
448 339 1
448 344 1
448 358 1
448 364 1
448 387 1
448 402 1
448 416 1
448 467 1
448 469 1
448 471 1
448 488 1
448 493 1
448 496 1
448 532 1
448 544 1
448 569 1
448 616 1
448 648 1
448 665 1
448 683 1
448 703 1
448 705 1
448 748 1
448 755 1
448 759 1
448 772 1
448 782 1
448 791 1
448 798 1
449 3 1
449 5 1
449 27 1
449 41 1
449 43 1
449 59 1
449 167 1
449 184 1
449 208 1
449 256 1
449 268 1
449 270 1
449 346 1
449 383 1
449 390 1
449 395 1
449 422 1
449 428 1
449 485 1
449 488 1
449 522 1
449 541 1
449 566 1
449 576 1
449 600 1
449 648 1
449 670 1
449 727 1
449 742 1
449 744 1
449 765 1
449 768 1
449 794 1
450 8 1
450 26 1
450 36 1
450 40 1
450 93 1
450 127 1
450 142 1
450 160 1
450 177 1
450 199 1
450 202 1
450 203 1
450 220 1
450 240 1
450 244 1
450 263 1
450 276 1
450 288 1
450 309 1
450 322 1
450 328 1
450 360 1
450 372 1
450 374 1
450 462 1
450 464 1
450 469 1
450 477 1
450 495 1
450 518 1
450 526 1
450 532 1
450 534 1
450 543 1
450 552 1
450 559 1
450 590 1
450 605 1
450 633 1
450 642 1
450 647 1
450 676 1
450 721 1
450 745 1
450 787 1
450 799 1
451 5 1
451 6 1
451 25 1
451 69 1
451 73 1
451 111 1
451 139 1
451 159 1
451 167 1
451 178 1
451 242 1
451 248 1
451 257 1
451 276 1
451 292 1
451 302 1
451 317 1
451 320 1
451 333 1
451 350 1
451 378 1
451 389 1
451 394 1
451 421 1
451 481 1
451 489 1
451 504 1
451 505 1
451 507 1
451 516 1
451 535 1
451 549 1
451 557 1
451 558 1
451 572 1
451 573 1
451 604 1
451 612 1
451 619 1
451 632 1
451 634 1
451 637 1
451 659 1
451 684 1
451 689 1
451 708 1
451 767 1
451 768 1
451 777 1
451 784 1
452 3 1
452 20 1
452 27 1
452 30 1
452 36 1
452 45 1
452 49 1
452 50 1
452 51 1
452 88 1
452 94 1
452 112 1
452 124 1
452 130 1
452 136 1
452 140 1
452 141 1
452 143 1
452 159 1
452 168 1
452 169 1
452 197 1
452 244 1
452 246 1
452 255 1
452 256 1
452 268 1
452 286 1
452 290 1
452 291 1
452 294 1
452 296 1
452 308 1
452 318 1
452 321 1
452 352 1
452 409 1
452 433 1
452 442 1
452 457 1
452 469 1
452 476 1
452 477 1
452 528 1
452 542 1
452 606 1
452 629 1
452 662 1
452 666 1
452 669 1
452 706 1
452 738 1
452 747 1
452 769 1
452 789 1
453 6 1
453 16 1
453 17 1
453 51 1
453 67 1
453 84 1
453 109 1
453 141 1
453 155 1
453 160 1
453 165 1
453 166 1
453 168 1
453 174 1
453 176 1
453 177 1
453 200 1
453 202 1
453 204 1
453 240 1
453 251 1
453 289 1
453 300 1
453 310 1
453 328 1
453 335 1
453 349 1
453 355 1
453 359 1
453 379 1
453 416 1
453 421 1
453 424 1
453 435 1
453 457 1
453 467 1
453 477 1
453 494 1
453 499 1
453 524 1
453 538 1
453 581 1
453 606 1
453 635 1
453 645 1
453 669 1
453 674 1
453 692 1
453 779 1
453 786 1
453 787 1
454 46 1
454 64 1
454 79 1
454 99 1
454 101 1
454 133 1
454 163 1
454 165 1
454 187 1
454 190 1
454 200 1
454 228 1
454 229 1
454 231 1
454 246 1
454 253 1
454 257 1
454 264 1
454 269 1
454 276 1
454 302 1
454 350 1
454 355 1
454 358 1
454 375 1
454 383 1
454 387 1
454 401 1
454 410 1
454 421 1
454 439 1
454 474 1
454 477 1
454 492 1
454 515 1
454 526 1
454 544 1
454 548 1
454 550 1
454 556 1
454 571 1
454 572 1
454 592 1
454 620 1
454 640 1
454 676 1
454 686 1
454 689 1
454 713 1
454 717 1
454 720 1
454 736 1
454 742 1
454 794 1
455 13 1
455 16 1
455 20 1
455 34 1
455 41 1
455 61 1
455 65 1
455 70 1
455 82 1
455 99 1
455 115 1
455 127 1
455 144 1
455 146 1
455 165 1
455 194 1
455 217 1
455 221 1
455 240 1
455 244 1
455 262 1
455 275 1
455 294 1
455 299 1
455 302 1
455 314 1
455 328 1
455 342 1
455 349 1
455 356 1
455 360 1
455 372 1
455 387 1
455 391 1
455 396 1
455 412 1
455 458 1
455 459 1
455 479 1
455 480 1
455 537 1
455 547 1
455 548 1
455 549 1
455 564 1
455 575 1
455 601 1
455 628 1
455 640 1
455 659 1
455 668 1
455 682 1
455 694 1
455 699 1
455 741 1
455 743 1
455 761 1
455 763 1
456 22 1
456 30 1
456 44 1
456 51 1
456 59 1
456 86 1
456 102 1
456 111 1
456 144 1
456 152 1
456 167 1
456 177 1
456 188 1
456 192 1
456 195 1
456 197 1
456 208 1
456 212 1
456 214 1
456 222 1
456 279 1
456 282 1
456 295 1
456 306 1
456 308 1
456 311 1
456 315 1
456 326 1
456 344 1
456 353 1
456 359 1
456 377 1
456 380 1
456 423 1
456 442 1
456 446 1
456 485 1
456 486 1
456 492 1
456 515 1
456 516 1
456 518 1
456 564 1
456 584 1
456 585 1
456 645 1
456 652 1
456 686 1
456 693 1
456 699 1
456 701 1
456 706 1
456 708 1
456 719 1
456 742 1
456 745 1
456 776 1
456 783 1
456 789 1
456 792 1
456 794 1
457 4 1
457 17 1
457 54 1
457 81 1
457 85 1
457 90 1
457 91 1
457 95 1
457 126 1
457 143 1
457 168 1
457 175 1
457 238 1
457 246 1
457 255 1
457 286 1
457 301 1
457 304 1
457 325 1
457 332 1
457 335 1
457 345 1
457 346 1
457 389 1
457 391 1
457 438 1
457 445 1
457 452 1
457 453 1
457 486 1
457 498 1
457 505 1
457 529 1
457 535 1
457 564 1
457 596 1
457 605 1
457 616 1
457 720 1
457 743 1
457 753 1
457 769 1
457 788 1
457 793 1
458 12 1
458 18 1
458 29 1
458 77 1
458 85 1
458 88 1
458 90 1
458 110 1
458 126 1
458 139 1
458 185 1
458 204 1
458 209 1
458 218 1
458 290 1
458 343 1
458 346 1
458 367 1
458 385 1
458 413 1
458 455 1
458 494 1
458 520 1
458 566 1
458 569 1
458 575 1
458 577 1
458 596 1
458 599 1
458 617 1
458 620 1
458 633 1
458 637 1
458 639 1
458 648 1
458 670 1
458 672 1
458 694 1
458 710 1
458 716 1
458 754 1
458 763 1
458 768 1
458 769 1
458 780 1
458 799 1
459 17 1
459 18 1
459 19 1
459 27 1
459 52 1
459 63 1
459 90 1
459 96 1
459 136 1
459 160 1
459 166 1
459 210 1
459 217 1
459 249 1
459 277 1
459 288 1
459 294 1
459 295 1
459 310 1
459 334 1
459 339 1
459 341 1
459 367 1
459 370 1
459 372 1
459 376 1
459 377 1
459 380 1
459 406 1
459 418 1
459 455 1
459 484 1
459 521 1
459 528 1
459 539 1
459 551 1
459 569 1
459 571 1
459 586 1
459 601 1
459 660 1
459 662 1
459 731 1
459 732 1
459 739 1
459 782 1
459 785 1
460 33 1
460 37 1
460 42 1
460 63 1
460 109 1
460 112 1
460 114 1
460 127 1
460 128 1
460 132 1
460 163 1
460 164 1
460 166 1
460 171 1
460 183 1
460 191 1
460 193 1
460 265 1
460 274 1
460 278 1
460 293 1
460 299 1
460 301 1
460 308 1
460 329 1
460 336 1
460 347 1
460 357 1
460 370 1
460 399 1
460 401 1
460 423 1
460 439 1
460 473 1
460 478 1
460 480 1
460 503 1
460 511 1
460 534 1
460 535 1
460 543 1
460 608 1
460 610 1
460 627 1
460 648 1
460 711 1
460 737 1
460 760 1
461 20 1
461 33 1
461 48 1
461 85 1
461 88 1
461 94 1
461 140 1
461 178 1
461 194 1
461 210 1
461 226 1
461 266 1
461 302 1
461 314 1
461 316 1
461 402 1
461 412 1
461 414 1
461 430 1
461 441 1
461 471 1
461 517 1
461 605 1
461 630 1
461 636 1
461 648 1
461 673 1
461 676 1
461 697 1
461 716 1
461 727 1
461 737 1
461 750 1
461 759 1
461 775 1
461 786 1
461 791 1
461 797 1
462 13 1
462 28 1
462 42 1
462 55 1
462 62 1
462 69 1
462 72 1
462 95 1
462 112 1
462 125 1
462 129 1
462 133 1
462 138 1
462 141 1
462 146 1
462 165 1
462 177 1
462 182 1
462 198 1
462 207 1
462 213 1
462 270 1
462 281 1
462 284 1
462 288 1
462 297 1
462 300 1
462 328 1
462 353 1
462 385 1
462 388 1
462 416 1
462 419 1
462 446 1
462 450 1
462 465 1
462 493 1
462 508 1
462 515 1
462 522 1
462 530 1
462 536 1
462 538 1
462 551 1
462 579 1
462 627 1
462 632 1
462 643 1
462 662 1
462 681 1
462 688 1
462 705 1
462 727 1
462 739 1
462 748 1
462 754 1
462 790 1
462 800 1
463 29 1
463 84 1
463 98 1
463 113 1
463 116 1
463 125 1
463 149 1
463 152 1
463 172 1
463 184 1
463 192 1
463 193 1
463 212 1
463 245 1
463 287 1
463 358 1
463 360 1
463 373 1
463 412 1
463 428 1
463 437 1
463 465 1
463 469 1
463 476 1
463 503 1
463 525 1
463 529 1
463 545 1
463 547 1
463 549 1
463 576 1
463 578 1
463 586 1
463 596 1
463 601 1
463 620 1
463 695 1
463 712 1
463 746 1
463 761 1
463 798 1
464 1 1
464 21 1
464 22 1
464 25 1
464 26 1
464 53 1
464 62 1
464 100 1
464 117 1
464 133 1
464 143 1
464 148 1
464 186 1
464 202 1
464 205 1
464 224 1
464 235 1
464 242 1
464 246 1
464 251 1
464 262 1
464 263 1
464 274 1
464 294 1
464 307 1
464 324 1
464 337 1
464 347 1
464 392 1
464 395 1
464 435 1
464 450 1
464 491 1
464 495 1
464 529 1
464 530 1
464 537 1
464 543 1
464 575 1
464 577 1
464 628 1
464 634 1
464 642 1
464 653 1
464 662 1
464 676 1
464 695 1
464 715 1
464 719 1
464 720 1
464 722 1
464 742 1
464 764 1
464 777 1
464 783 1
465 6 1
465 35 1
465 76 1
465 113 1
465 133 1
465 177 1
465 190 1
465 214 1
465 241 1
465 243 1
465 246 1
465 254 1
465 255 1
465 284 1
465 319 1
465 329 1
465 332 1
465 358 1
465 364 1
465 365 1
465 369 1
465 375 1
465 376 1
465 380 1
465 381 1
465 383 1
465 400 1
465 412 1
465 414 1
465 430 1
465 462 1
465 463 1
465 474 1
465 488 1
465 491 1
465 492 1
465 497 1
465 507 1
465 552 1
465 581 1
465 583 1
465 592 1
465 595 1
465 632 1
465 639 1
465 719 1
465 724 1
465 732 1
465 748 1
465 765 1
465 800 1
466 2 1
466 17 1
466 26 1
466 39 1
466 50 1
466 51 1
466 64 1
466 86 1
466 88 1
466 153 1
466 211 1
466 230 1
466 292 1
466 296 1
466 334 1
466 349 1
466 387 1
466 405 1
466 414 1
466 442 1
466 506 1
466 527 1
466 558 1
466 561 1
466 576 1
466 587 1
466 594 1
466 610 1
466 611 1
466 615 1
466 680 1
466 683 1
466 728 1
466 737 1
466 750 1
466 758 1
466 768 1
466 771 1
466 778 1
466 781 1
466 785 1
466 792 1
467 37 1
467 41 1
467 43 1
467 44 1
467 45 1
467 68 1
467 82 1
467 104 1
467 114 1
467 142 1
467 149 1
467 215 1
467 224 1
467 238 1
467 242 1
467 249 1
467 270 1
467 279 1
467 295 1
467 296 1
467 304 1
467 310 1
467 318 1
467 323 1
467 346 1
467 395 1
467 417 1
467 436 1
467 448 1
467 453 1
467 478 1
467 479 1
467 491 1
467 495 1
467 497 1
467 514 1
467 520 1
467 530 1
467 553 1
467 565 1
467 567 1
467 568 1
467 569 1
467 603 1
467 606 1
467 637 1
467 662 1
467 664 1
467 682 1
467 683 1
467 794 1
468 9 1
468 11 1
468 13 1
468 22 1
468 30 1
468 33 1
468 38 1
468 42 1
468 60 1
468 85 1
468 111 1
468 154 1
468 164 1
468 169 1
468 178 1
468 233 1
468 239 1
468 277 1
468 288 1
468 327 1
468 337 1
468 340 1
468 354 1
468 373 1
468 379 1
468 418 1
468 432 1
468 480 1
468 496 1
468 502 1
468 506 1
468 529 1
468 531 1
468 567 1
468 588 1
468 595 1
468 601 1
468 607 1
468 609 1
468 636 1
468 652 1
468 696 1
468 703 1
468 728 1
468 732 1
468 733 1
468 738 1
468 739 1
468 740 1
468 752 1
468 756 1
468 761 1
468 782 1
468 791 1
468 796 1
469 11 1
469 18 1
469 34 1
469 53 1
469 76 1
469 114 1
469 137 1
469 156 1
469 174 1
469 190 1
469 193 1
469 206 1
469 248 1
469 252 1
469 254 1
469 295 1
469 317 1
469 378 1
469 380 1
469 381 1
469 393 1
469 419 1
469 435 1
469 448 1
469 450 1
469 452 1
469 463 1
469 479 1
469 493 1
469 500 1
469 520 1
469 559 1
469 577 1
469 594 1
469 606 1
469 641 1
469 648 1
469 678 1
469 726 1
469 737 1
469 744 1
469 746 1
469 756 1
469 774 1
469 778 1
469 787 1
470 2 1
470 12 1
470 21 1
470 35 1
470 48 1
470 60 1
470 74 1
470 83 1
470 96 1
470 101 1
470 102 1
470 107 1
470 111 1
470 129 1
470 142 1
470 145 1
470 147 1
470 205 1
470 233 1
470 239 1
470 258 1
470 296 1
470 301 1
470 303 1
470 315 1
470 363 1
470 367 1
470 419 1
470 473 1
470 484 1
470 491 1
470 518 1
470 575 1
470 595 1
470 603 1
470 607 1
470 622 1
470 633 1
470 647 1
470 658 1
470 665 1
470 666 1
470 687 1
470 691 1
470 696 1
470 698 1
470 704 1
470 722 1
470 735 1
470 742 1
470 758 1
470 763 1
471 21 1
471 46 1
471 68 1
471 103 1
471 167 1
471 172 1
471 173 1
471 177 1
471 178 1
471 185 1
471 212 1
471 213 1
471 219 1
471 253 1
471 255 1
471 259 1
471 266 1
471 293 1
471 354 1
471 439 1
471 447 1
471 448 1
471 461 1
471 477 1
471 478 1
471 481 1
471 486 1
471 492 1
471 503 1
471 507 1
471 560 1
471 570 1
471 582 1
471 621 1
471 658 1
471 661 1
471 686 1
471 688 1
471 711 1
471 714 1
471 723 1
471 729 1
471 745 1
471 750 1
471 751 1
471 766 1
472 13 1
472 32 1
472 40 1
472 43 1
472 61 1
472 83 1
472 90 1
472 111 1
472 123 1
472 205 1
472 208 1
472 211 1
472 246 1
472 248 1
472 263 1
472 265 1
472 278 1
472 280 1
472 323 1
472 325 1
472 363 1
472 391 1
472 446 1
472 473 1
472 474 1
472 501 1
472 534 1
472 538 1
472 577 1
472 584 1
472 593 1
472 596 1
472 601 1
472 610 1
472 617 1
472 619 1
472 646 1
472 676 1
472 731 1
472 745 1
472 772 1
472 785 1
472 789 1
472 794 1
472 800 1
473 9 1
473 11 1
473 32 1
473 68 1
473 72 1
473 75 1
473 88 1
473 92 1
473 153 1
473 157 1
473 185 1
473 199 1
473 218 1
473 232 1
473 235 1
473 251 1
473 256 1
473 267 1
473 279 1
473 286 1
473 304 1
473 310 1
473 326 1
473 362 1
473 364 1
473 375 1
473 387 1
473 405 1
473 406 1
473 411 1
473 414 1
473 426 1
473 460 1
473 470 1
473 472 1
473 490 1
473 509 1
473 517 1
473 527 1
473 542 1
473 548 1
473 581 1
473 582 1
473 620 1
473 622 1
473 641 1
473 644 1
473 662 1
473 679 1
473 701 1
473 713 1
473 724 1
473 727 1
473 734 1
473 753 1
473 755 1
473 762 1
473 768 1
473 772 1
473 797 1
474 16 1
474 22 1
474 53 1
474 63 1
474 81 1
474 87 1
474 125 1
474 156 1
474 161 1
474 172 1
474 180 1
474 184 1
474 202 1
474 203 1
474 207 1
474 208 1
474 223 1
474 227 1
474 239 1
474 307 1
474 339 1
474 340 1
474 348 1
474 353 1
474 372 1
474 381 1
474 386 1
474 421 1
474 443 1
474 454 1
474 465 1
474 472 1
474 475 1
474 485 1
474 522 1
474 529 1
474 546 1
474 550 1
474 614 1
474 617 1
474 626 1
474 671 1
474 676 1
474 679 1
474 686 1
474 690 1
474 719 1
474 788 1
475 20 1
475 66 1
475 68 1
475 86 1
475 98 1
475 109 1
475 111 1
475 112 1
475 154 1
475 155 1
475 221 1
475 245 1
475 252 1
475 316 1
475 343 1
475 350 1
475 353 1
475 387 1
475 389 1
475 391 1
475 394 1
475 420 1
475 430 1
475 437 1
475 474 1
475 476 1
475 503 1
475 506 1
475 511 1
475 529 1
475 568 1
475 577 1
475 601 1
475 608 1
475 613 1
475 617 1
475 637 1
475 686 1
475 694 1
475 703 1
475 731 1
475 755 1
475 757 1
475 762 1
475 765 1
475 775 1
475 777 1
476 2 1
476 33 1
476 51 1
476 71 1
476 123 1
476 139 1
476 140 1
476 148 1
476 176 1
476 206 1
476 263 1
476 274 1
476 286 1
476 289 1
476 295 1
476 340 1
476 365 1
476 375 1
476 387 1
476 427 1
476 440 1
476 452 1
476 463 1
476 475 1
476 506 1
476 538 1
476 549 1
476 570 1
476 576 1
476 617 1
476 631 1
476 651 1
476 679 1
476 689 1
476 699 1
476 747 1
476 748 1
476 749 1
476 779 1
476 787 1
476 790 1
476 794 1
477 15 1
477 59 1
477 61 1
477 74 1
477 83 1
477 93 1
477 118 1
477 124 1
477 147 1
477 161 1
477 198 1
477 237 1
477 238 1
477 246 1
477 263 1
477 286 1
477 301 1
477 328 1
477 329 1
477 350 1
477 354 1
477 355 1
477 363 1
477 365 1
477 384 1
477 392 1
477 393 1
477 412 1
477 420 1
477 430 1
477 441 1
477 443 1
477 447 1
477 450 1
477 452 1
477 453 1
477 454 1
477 471 1
477 488 1
477 489 1
477 490 1
477 513 1
477 532 1
477 554 1
477 559 1
477 564 1
477 569 1
477 574 1
477 576 1
477 582 1
477 622 1
477 654 1
477 665 1
477 673 1
477 681 1
477 699 1
477 707 1
477 719 1
477 735 1
477 741 1
477 750 1
477 785 1
477 786 1
478 12 1
478 15 1
478 43 1
478 81 1
478 83 1
478 88 1
478 93 1
478 123 1
478 145 1
478 154 1
478 165 1
478 170 1
478 181 1
478 189 1
478 195 1
478 198 1
478 200 1
478 211 1
478 220 1
478 222 1
478 240 1
478 242 1
478 249 1
478 276 1
478 298 1
478 303 1
478 334 1
478 357 1
478 399 1
478 407 1
478 438 1
478 460 1
478 467 1
478 471 1
478 479 1
478 483 1
478 489 1
478 495 1
478 510 1
478 514 1
478 547 1
478 554 1
478 564 1
478 575 1
478 582 1
478 585 1
478 705 1
479 44 1
479 54 1
479 58 1
479 67 1
479 75 1
479 86 1
479 138 1
479 161 1
479 165 1
479 218 1
479 272 1
479 284 1
479 289 1
479 318 1
479 325 1
479 348 1
479 356 1
479 385 1
479 395 1
479 434 1
479 436 1
479 455 1
479 467 1
479 469 1
479 478 1
479 488 1
479 498 1
479 501 1
479 520 1
479 541 1
479 551 1
479 554 1
479 570 1
479 608 1
479 621 1
479 650 1
479 671 1
479 679 1
479 685 1
479 687 1
479 697 1
479 711 1
479 770 1
479 800 1
480 16 1
480 75 1
480 79 1
480 97 1
480 106 1
480 116 1
480 172 1
480 215 1
480 219 1
480 235 1
480 248 1
480 254 1
480 276 1
480 280 1
480 311 1
480 313 1
480 345 1
480 347 1
480 361 1
480 400 1
480 409 1
480 439 1
480 455 1
480 460 1
480 468 1
480 488 1
480 491 1
480 513 1
480 574 1
480 605 1
480 623 1
480 628 1
480 631 1
480 665 1
480 673 1
480 705 1
480 708 1
480 714 1
480 744 1
480 749 1
480 779 1
480 781 1
480 785 1
480 790 1
480 792 1
480 800 1
481 16 1
481 29 1
481 55 1
481 78 1
481 99 1
481 129 1
481 135 1
481 161 1
481 177 1
481 211 1
481 216 1
481 225 1
481 273 1
481 278 1
481 288 1
481 291 1
481 311 1
481 330 1
481 347 1
481 355 1
481 367 1
481 373 1
481 393 1
481 394 1
481 399 1
481 408 1
481 411 1
481 432 1
481 451 1
481 471 1
481 501 1
481 521 1
481 547 1
481 551 1
481 565 1
481 591 1
481 593 1
481 605 1
481 608 1
481 624 1
481 627 1
481 630 1
481 641 1
481 660 1
481 663 1
481 685 1
481 698 1
481 702 1
481 750 1
481 767 1
481 777 1
481 780 1
482 1 1
482 5 1
482 16 1
482 39 1
482 86 1
482 98 1
482 101 1
482 134 1
482 139 1
482 173 1
482 197 1
482 217 1
482 230 1
482 241 1
482 243 1
482 244 1
482 264 1
482 269 1
482 283 1
482 285 1
482 298 1
482 299 1
482 301 1
482 341 1
482 353 1
482 362 1
482 369 1
482 370 1
482 416 1
482 429 1
482 433 1
482 434 1
482 548 1
482 574 1
482 592 1
482 603 1
482 643 1
482 666 1
482 669 1
482 710 1
482 727 1
482 752 1
482 762 1
483 11 1
483 12 1
483 15 1
483 23 1
483 38 1
483 44 1
483 54 1
483 63 1
483 78 1
483 81 1
483 82 1
483 98 1
483 133 1
483 135 1
483 143 1
483 166 1
483 167 1
483 174 1
483 183 1
483 189 1
483 194 1
483 202 1
483 227 1
483 251 1
483 322 1
483 326 1
483 364 1
483 366 1
483 374 1
483 379 1
483 383 1
483 392 1
483 478 1
483 490 1
483 497 1
483 511 1
483 540 1
483 544 1
483 556 1
483 558 1
483 594 1
483 602 1
483 615 1
483 626 1
483 629 1
483 633 1
483 641 1
483 644 1
483 649 1
483 654 1
483 689 1
483 697 1
483 699 1
483 717 1
483 725 1
483 737 1
484 33 1
484 71 1
484 86 1
484 158 1
484 174 1
484 182 1
484 188 1
484 190 1
484 191 1
484 211 1
484 224 1
484 228 1
484 237 1
484 274 1
484 277 1
484 285 1
484 289 1
484 303 1
484 331 1
484 337 1
484 350 1
484 367 1
484 390 1
484 408 1
484 412 1
484 427 1
484 459 1
484 470 1
484 495 1
484 516 1
484 520 1
484 522 1
484 553 1
484 561 1
484 566 1
484 586 1
484 595 1
484 607 1
484 609 1
484 664 1
484 672 1
484 674 1
484 683 1
484 710 1
484 711 1
484 712 1
484 763 1
484 788 1
484 799 1
485 12 1
485 67 1
485 79 1
485 114 1
485 161 1
485 166 1
485 176 1
485 189 1
485 190 1
485 204 1
485 237 1
485 244 1
485 299 1
485 300 1
485 307 1
485 329 1
485 342 1
485 354 1
485 378 1
485 379 1
485 405 1
485 449 1
485 456 1
485 474 1
485 509 1
485 515 1
485 536 1
485 541 1
485 558 1
485 584 1
485 586 1
485 629 1
485 632 1
485 637 1
485 649 1
485 652 1
485 668 1
485 705 1
485 709 1
485 719 1
485 726 1
485 751 1
485 768 1
485 794 1
486 68 1
486 73 1
486 82 1
486 94 1
486 103 1
486 131 1
486 136 1
486 191 1
486 196 1
486 245 1
486 261 1
486 266 1
486 318 1
486 331 1
486 337 1
486 340 1
486 359 1
486 371 1
486 386 1
486 397 1
486 405 1
486 427 1
486 456 1
486 457 1
486 471 1
486 489 1
486 504 1
486 509 1
486 526 1
486 527 1
486 539 1
486 545 1
486 576 1
486 578 1
486 600 1
486 613 1
486 619 1
486 630 1
486 634 1
486 636 1
486 679 1
486 693 1
486 700 1
486 722 1
486 731 1
486 769 1
486 772 1
487 41 1
487 94 1
487 188 1
487 235 1
487 246 1
487 248 1
487 253 1
487 259 1
487 269 1
487 290 1
487 328 1
487 334 1
487 349 1
487 366 1
487 375 1
487 378 1
487 420 1
487 491 1
487 499 1
487 510 1
487 518 1
487 529 1
487 536 1
487 548 1
487 560 1
487 574 1
487 577 1
487 588 1
487 593 1
487 602 1
487 603 1
487 632 1
487 634 1
487 647 1
487 660 1
487 665 1
487 680 1
487 690 1
487 703 1
487 705 1
487 710 1
487 719 1
487 720 1
487 722 1
487 736 1
487 744 1
487 748 1
487 759 1
487 760 1
487 768 1
487 790 1
487 791 1
488 6 1
488 24 1
488 30 1
488 43 1
488 44 1
488 47 1
488 58 1
488 62 1
488 66 1
488 82 1
488 95 1
488 104 1
488 114 1
488 116 1
488 145 1
488 165 1
488 171 1
488 193 1
488 243 1
488 271 1
488 273 1
488 279 1
488 296 1
488 326 1
488 347 1
488 348 1
488 349 1
488 369 1
488 448 1
488 449 1
488 465 1
488 477 1
488 479 1
488 480 1
488 513 1
488 523 1
488 532 1
488 557 1
488 563 1
488 573 1
488 585 1
488 592 1
488 616 1
488 681 1
488 683 1
488 698 1
488 702 1
488 709 1
488 727 1
488 738 1
488 747 1
488 752 1
488 756 1
488 770 1
488 779 1
489 21 1
489 42 1
489 57 1
489 66 1
489 80 1
489 83 1
489 85 1
489 101 1
489 121 1
489 145 1
489 165 1
489 167 1
489 182 1
489 190 1
489 219 1
489 221 1
489 235 1
489 248 1
489 267 1
489 271 1
489 276 1
489 304 1
489 372 1
489 451 1
489 477 1
489 478 1
489 486 1
489 496 1
489 527 1
489 541 1
489 591 1
489 610 1
489 617 1
489 619 1
489 623 1
489 625 1
489 630 1
489 646 1
489 673 1
489 678 1
489 681 1
489 685 1
489 742 1
489 743 1
489 746 1
489 756 1
489 758 1
489 782 1
489 787 1
490 6 1
490 44 1
490 49 1
490 81 1
490 87 1
490 113 1
490 136 1
490 156 1
490 180 1
490 208 1
490 296 1
490 328 1
490 336 1
490 357 1
490 371 1
490 423 1
490 432 1
490 473 1
490 477 1
490 483 1
490 514 1
490 561 1
490 588 1
490 593 1
490 611 1
490 662 1
490 663 1
490 707 1
490 714 1
490 717 1
490 732 1
490 764 1
490 773 1
491 38 1
491 43 1
491 45 1
491 59 1
491 68 1
491 69 1
491 123 1
491 130 1
491 157 1
491 172 1
491 189 1
491 222 1
491 243 1
491 254 1
491 264 1
491 299 1
491 305 1
491 336 1
491 344 1
491 360 1
491 365 1
491 385 1
491 401 1
491 428 1
491 442 1
491 444 1
491 445 1
491 464 1
491 465 1
491 467 1
491 470 1
491 480 1
491 487 1
491 497 1
491 518 1
491 528 1
491 542 1
491 555 1
491 557 1
491 568 1
491 576 1
491 594 1
491 602 1
491 603 1
491 617 1
491 651 1
491 674 1
491 683 1
491 701 1
491 706 1
491 732 1
491 749 1
491 753 1
491 762 1
491 773 1
492 20 1
492 34 1
492 51 1
492 71 1
492 92 1
492 115 1
492 132 1
492 139 1
492 141 1
492 176 1
492 185 1
492 191 1
492 194 1
492 230 1
492 248 1
492 270 1
492 271 1
492 275 1
492 330 1
492 359 1
492 380 1
492 415 1
492 441 1
492 454 1
492 456 1
492 465 1
492 471 1
492 507 1
492 523 1
492 538 1
492 612 1
492 613 1
492 627 1
492 642 1
492 654 1
492 672 1
492 681 1
492 696 1
492 705 1
492 729 1
492 736 1
492 738 1
492 749 1
492 758 1
492 771 1
493 14 1
493 31 1
493 44 1
493 96 1
493 110 1
493 129 1
493 144 1
493 150 1
493 152 1
493 175 1
493 185 1
493 195 1
493 201 1
493 243 1
493 255 1
493 270 1
493 274 1
493 279 1
493 312 1
493 316 1
493 319 1
493 322 1
493 347 1
493 420 1
493 438 1
493 448 1
493 462 1
493 469 1
493 497 1
493 503 1
493 506 1
493 511 1
493 525 1
493 536 1
493 539 1
493 561 1
493 587 1
493 608 1
493 612 1
493 616 1
493 627 1
493 632 1
493 699 1
493 756 1
493 766 1
493 780 1
493 783 1
493 796 1
494 23 1
494 40 1
494 50 1
494 115 1
494 120 1
494 123 1
494 133 1
494 137 1
494 173 1
494 183 1
494 214 1
494 240 1
494 276 1
494 280 1
494 317 1
494 336 1
494 345 1
494 354 1
494 374 1
494 379 1
494 389 1
494 393 1
494 424 1
494 439 1
494 453 1
494 458 1
494 535 1
494 538 1
494 550 1
494 607 1
494 631 1
494 665 1
494 703 1
494 760 1
494 771 1
494 777 1
494 782 1
494 793 1
495 3 1
495 14 1
495 30 1
495 50 1
495 51 1
495 55 1
495 61 1
495 88 1
495 109 1
495 114 1
495 137 1
495 143 1
495 167 1
495 172 1
495 182 1
495 186 1
495 192 1
495 209 1
495 214 1
495 217 1
495 231 1
495 270 1
495 314 1
495 331 1
495 353 1
495 402 1
495 425 1
495 450 1
495 464 1
495 467 1
495 478 1
495 484 1
495 496 1
495 521 1
495 528 1
495 540 1
495 598 1
495 609 1
495 612 1
495 613 1
495 622 1
495 646 1
495 661 1
495 666 1
495 712 1
495 727 1
495 733 1
495 741 1
495 749 1
495 754 1
496 4 1
496 5 1
496 16 1
496 17 1
496 24 1
496 37 1
496 99 1
496 124 1
496 136 1
496 139 1
496 144 1
496 150 1
496 161 1
496 175 1
496 181 1
496 197 1
496 236 1
496 312 1
496 320 1
496 326 1
496 361 1
496 369 1
496 386 1
496 409 1
496 448 1
496 468 1
496 489 1
496 495 1
496 513 1
496 550 1
496 569 1
496 574 1
496 636 1
496 647 1
496 656 1
496 660 1
496 667 1
496 669 1
496 675 1
496 683 1
496 688 1
496 707 1
496 728 1
496 734 1
496 738 1
496 764 1
496 772 1
496 789 1
496 793 1
497 24 1
497 67 1
497 75 1
497 77 1
497 92 1
497 122 1
497 134 1
497 154 1
497 164 1
497 176 1
497 179 1
497 190 1
497 226 1
497 257 1
497 281 1
497 335 1
497 343 1
497 346 1
497 393 1
497 401 1
497 408 1
497 417 1
497 425 1
497 429 1
497 445 1
497 465 1
497 467 1
497 483 1
497 491 1
497 493 1
497 561 1
497 593 1
497 597 1
497 602 1
497 608 1
497 621 1
497 635 1
497 664 1
497 674 1
497 676 1
497 693 1
497 697 1
497 699 1
497 732 1
497 789 1
497 792 1
498 10 1
498 30 1
498 87 1
498 99 1
498 114 1
498 152 1
498 179 1
498 188 1
498 220 1
498 232 1
498 240 1
498 248 1
498 254 1
498 309 1
498 362 1
498 371 1
498 374 1
498 381 1
498 386 1
498 394 1
498 399 1
498 406 1
498 409 1
498 428 1
498 457 1
498 479 1
498 503 1
498 539 1
498 542 1
498 562 1
498 564 1
498 571 1
498 588 1
498 591 1
498 598 1
498 600 1
498 604 1
498 629 1
498 631 1
498 651 1
498 663 1
498 695 1
498 698 1
498 722 1
498 723 1
498 744 1
498 767 1
498 781 1
499 32 1
499 33 1
499 40 1
499 50 1
499 55 1
499 80 1
499 89 1
499 112 1
499 128 1
499 182 1
499 186 1
499 201 1
499 206 1
499 234 1
499 236 1
499 254 1
499 262 1
499 264 1
499 273 1
499 282 1
499 308 1
499 318 1
499 333 1
499 344 1
499 350 1
499 353 1
499 357 1
499 377 1
499 386 1
499 407 1
499 453 1
499 487 1
499 500 1
499 509 1
499 514 1
499 518 1
499 528 1
499 536 1
499 573 1
499 588 1
499 597 1
499 635 1
499 636 1
499 646 1
499 650 1
499 667 1
499 668 1
499 676 1
499 695 1
499 726 1
499 743 1
499 754 1
499 779 1
499 790 1
499 797 1
500 6 1
500 29 1
500 34 1
500 83 1
500 140 1
500 171 1
500 183 1
500 184 1
500 186 1
500 199 1
500 209 1
500 214 1
500 225 1
500 251 1
500 274 1
500 303 1
500 320 1
500 322 1
500 325 1
500 344 1
500 373 1
500 393 1
500 404 1
500 414 1
500 432 1
500 446 1
500 469 1
500 499 1
500 550 1
500 555 1
500 559 1
500 607 1
500 661 1
500 697 1
500 699 1
500 707 1
500 732 1
500 734 1
500 760 1
500 797 1
501 2 1
501 25 1
501 68 1
501 137 1
501 162 1
501 164 1
501 170 1
501 173 1
501 192 1
501 194 1
501 219 1
501 232 1
501 236 1
501 239 1
501 302 1
501 320 1
501 326 1
501 328 1
501 332 1
501 364 1
501 375 1
501 377 1
501 378 1
501 379 1
501 392 1
501 394 1
501 396 1
501 414 1
501 416 1
501 433 1
501 441 1
501 472 1
501 479 1
501 481 1
501 513 1
501 516 1
501 540 1
501 546 1
501 551 1
501 556 1
501 560 1
501 564 1
501 567 1
501 572 1
501 603 1
501 628 1
501 634 1
501 644 1
501 648 1
501 673 1
501 684 1
501 687 1
501 690 1
501 728 1
501 759 1
501 763 1
501 796 1
502 13 1
502 26 1
502 33 1
502 41 1
502 77 1
502 84 1
502 101 1
502 113 1
502 139 1
502 142 1
502 148 1
502 163 1
502 234 1
502 245 1
502 250 1
502 309 1
502 312 1
502 321 1
502 332 1
502 348 1
502 350 1
502 358 1
502 388 1
502 396 1
502 400 1
502 416 1
502 418 1
502 432 1
502 468 1
502 530 1
502 584 1
502 608 1
502 618 1
502 648 1
502 657 1
502 660 1
502 667 1
502 712 1
502 714 1
502 717 1
502 721 1
502 724 1
502 728 1
502 778 1
502 789 1
503 9 1
503 10 1
503 102 1
503 104 1
503 123 1
503 125 1
503 176 1
503 181 1
503 182 1
503 206 1
503 227 1
503 254 1
503 292 1
503 307 1
503 369 1
503 374 1
503 381 1
503 394 1
503 405 1
503 460 1
503 463 1
503 471 1
503 475 1
503 493 1
503 498 1
503 526 1
503 620 1
503 628 1
503 639 1
503 644 1
503 663 1
503 672 1
503 677 1
503 686 1
503 687 1
503 690 1
503 721 1
503 739 1
503 759 1
503 765 1
503 769 1
503 777 1
503 783 1
503 791 1
504 12 1
504 31 1
504 43 1
504 51 1
504 60 1
504 82 1
504 99 1
504 104 1
504 135 1
504 136 1
504 141 1
504 147 1
504 157 1
504 158 1
504 159 1
504 191 1
504 242 1
504 248 1
504 268 1
504 269 1
504 315 1
504 345 1
504 382 1
504 390 1
504 421 1
504 439 1
504 451 1
504 486 1
504 517 1
504 521 1
504 525 1
504 566 1
504 586 1
504 594 1
504 608 1
504 617 1
504 639 1
504 644 1
504 647 1
504 666 1
504 673 1
504 743 1
504 776 1
504 779 1
505 13 1
505 45 1
505 61 1
505 80 1
505 98 1
505 111 1
505 120 1
505 125 1
505 132 1
505 143 1
505 161 1
505 170 1
505 177 1
505 183 1
505 186 1
505 211 1
505 221 1
505 264 1
505 266 1
505 285 1
505 324 1
505 335 1
505 387 1
505 397 1
505 411 1
505 423 1
505 428 1
505 446 1
505 451 1
505 457 1
505 517 1
505 518 1
505 519 1
505 529 1
505 537 1
505 542 1
505 555 1
505 598 1
505 615 1
505 670 1
505 676 1
505 683 1
505 684 1
505 707 1
505 722 1
505 748 1
505 761 1
505 768 1
505 770 1
505 785 1
506 14 1
506 23 1
506 24 1
506 51 1
506 67 1
506 79 1
506 90 1
506 98 1
506 104 1
506 111 1
506 113 1
506 119 1
506 128 1
506 145 1
506 192 1
506 199 1
506 206 1
506 220 1
506 232 1
506 234 1
506 266 1
506 269 1
506 274 1
506 304 1
506 337 1
506 380 1
506 383 1
506 417 1
506 419 1
506 466 1
506 468 1
506 475 1
506 476 1
506 493 1
506 533 1
506 564 1
506 567 1
506 602 1
506 603 1
506 620 1
506 634 1
506 660 1
506 744 1
506 747 1
506 752 1
506 760 1
506 779 1
506 786 1
506 788 1
506 793 1
506 797 1
507 46 1
507 53 1
507 87 1
507 89 1
507 113 1
507 133 1
507 147 1
507 160 1
507 162 1
507 216 1
507 220 1
507 236 1
507 289 1
507 309 1
507 314 1
507 318 1
507 325 1
507 345 1
507 352 1
507 358 1
507 359 1
507 391 1
507 402 1
507 421 1
507 422 1
507 435 1
507 451 1
507 465 1
507 471 1
507 492 1
507 527 1
507 548 1
507 560 1
507 571 1
507 582 1
507 592 1
507 644 1
507 659 1
507 667 1
507 669 1
507 671 1
507 702 1
507 750 1
507 764 1
507 777 1
507 778 1
507 793 1
508 2 1
508 8 1
508 10 1
508 74 1
508 92 1
508 106 1
508 133 1
508 138 1
508 175 1
508 178 1
508 184 1
508 185 1
508 201 1
508 256 1
508 263 1
508 265 1
508 287 1
508 300 1
508 305 1
508 323 1
508 343 1
508 358 1
508 359 1
508 388 1
508 408 1
508 462 1
508 513 1
508 543 1
508 595 1
508 600 1
508 602 1
508 610 1
508 618 1
508 647 1
508 658 1
508 685 1
508 707 1
508 716 1
508 736 1
508 744 1
508 770 1
508 778 1
509 29 1
509 37 1
509 53 1
509 63 1
509 67 1
509 70 1
509 98 1
509 99 1
509 118 1
509 167 1
509 180 1
509 186 1
509 200 1
509 206 1
509 208 1
509 215 1
509 264 1
509 287 1
509 310 1
509 311 1
509 317 1
509 326 1
509 338 1
509 377 1
509 378 1
509 404 1
509 429 1
509 433 1
509 446 1
509 473 1
509 485 1
509 486 1
509 499 1
509 526 1
509 588 1
509 611 1
509 644 1
509 649 1
509 652 1
509 687 1
509 691 1
509 694 1
509 697 1
509 702 1
509 711 1
509 714 1
509 769 1
509 796 1
510 2 1
510 12 1
510 28 1
510 55 1
510 62 1
510 76 1
510 80 1
510 86 1
510 88 1
510 96 1
510 147 1
510 204 1
510 208 1
510 213 1
510 249 1
510 283 1
510 287 1
510 319 1
510 320 1
510 324 1
510 332 1
510 335 1
510 365 1
510 368 1
510 378 1
510 382 1
510 386 1
510 397 1
510 412 1
510 424 1
510 478 1
510 487 1
510 511 1
510 521 1
510 537 1
510 558 1
510 622 1
510 624 1
510 628 1
510 668 1
510 678 1
510 755 1
511 2 1
511 6 1
511 27 1
511 46 1
511 49 1
511 50 1
511 82 1
511 90 1
511 125 1
511 138 1
511 149 1
511 161 1
511 164 1
511 190 1
511 206 1
511 213 1
511 225 1
511 248 1
511 296 1
511 351 1
511 369 1
511 386 1
511 388 1
511 417 1
511 460 1
511 475 1
511 483 1
511 493 1
511 510 1
511 527 1
511 530 1
511 542 1
511 554 1
511 560 1
511 582 1
511 586 1
511 614 1
511 621 1
511 641 1
511 648 1
511 685 1
511 698 1
511 711 1
511 743 1
511 758 1
511 762 1
511 776 1
511 786 1
511 796 1
512 12 1
512 22 1
512 23 1
512 27 1
512 29 1
512 33 1
512 56 1
512 117 1
512 134 1
512 141 1
512 145 1
512 183 1
512 188 1
512 211 1
512 237 1
512 242 1
512 251 1
512 262 1
512 275 1
512 276 1
512 280 1
512 284 1
512 332 1
512 333 1
512 352 1
512 353 1
512 372 1
512 390 1
512 391 1
512 426 1
512 446 1
512 538 1
512 544 1
512 566 1
512 569 1
512 572 1
512 574 1
512 582 1
512 599 1
512 616 1
512 619 1
512 679 1
512 721 1
512 745 1
512 758 1
512 777 1
512 797 1
512 800 1
513 3 1
513 13 1
513 19 1
513 76 1
513 161 1
513 165 1
513 166 1
513 171 1
513 178 1
513 264 1
513 282 1
513 323 1
513 351 1
513 360 1
513 380 1
513 406 1
513 413 1
513 416 1
513 430 1
513 436 1
513 477 1
513 480 1
513 488 1
513 496 1
513 501 1
513 508 1
513 515 1
513 517 1
513 521 1
513 554 1
513 568 1
513 571 1
513 580 1
513 617 1
513 636 1
513 646 1
513 675 1
513 681 1
513 686 1
513 717 1
513 723 1
513 724 1
513 747 1
513 751 1
513 755 1
513 765 1
514 33 1
514 60 1
514 85 1
514 105 1
514 122 1
514 130 1
514 131 1
514 184 1
514 188 1
514 203 1
514 207 1
514 211 1
514 216 1
514 227 1
514 232 1
514 246 1
514 257 1
514 266 1
514 269 1
514 301 1
514 313 1
514 319 1
514 321 1
514 367 1
514 373 1
514 407 1
514 467 1
514 478 1
514 490 1
514 499 1
514 527 1
514 531 1
514 559 1
514 566 1
514 591 1
514 605 1
514 639 1
514 651 1
514 655 1
514 674 1
514 702 1
514 704 1
514 708 1
514 767 1
514 785 1
515 17 1
515 31 1
515 55 1
515 58 1
515 68 1
515 96 1
515 134 1
515 150 1
515 168 1
515 178 1
515 199 1
515 215 1
515 223 1
515 249 1
515 259 1
515 275 1
515 294 1
515 300 1
515 308 1
515 309 1
515 311 1
515 321 1
515 338 1
515 354 1
515 359 1
515 391 1
515 397 1
515 404 1
515 410 1
515 421 1
515 454 1
515 456 1
515 462 1
515 485 1
515 513 1
515 533 1
515 541 1
515 579 1
515 598 1
515 603 1
515 615 1
515 623 1
515 661 1
515 666 1
515 678 1
515 679 1
515 699 1
515 706 1
515 710 1
515 735 1
515 759 1
516 5 1
516 21 1
516 24 1
516 45 1
516 52 1
516 75 1
516 92 1
516 129 1
516 137 1
516 140 1
516 144 1
516 157 1
516 161 1
516 170 1
516 180 1
516 228 1
516 231 1
516 238 1
516 257 1
516 260 1
516 262 1
516 277 1
516 304 1
516 343 1
516 358 1
516 373 1
516 390 1
516 393 1
516 399 1
516 420 1
516 451 1
516 456 1
516 484 1
516 501 1
516 527 1
516 565 1
516 590 1
516 599 1
516 631 1
516 636 1
516 670 1
516 706 1
516 722 1
516 732 1
517 24 1
517 32 1
517 39 1
517 52 1
517 87 1
517 96 1
517 99 1
517 107 1
517 122 1
517 155 1
517 183 1
517 189 1
517 206 1
517 218 1
517 230 1
517 251 1
517 253 1
517 268 1
517 274 1
517 280 1
517 283 1
517 286 1
517 295 1
517 370 1
517 378 1
517 390 1
517 398 1
517 415 1
517 461 1
517 473 1
517 504 1
517 505 1
517 513 1
517 556 1
517 561 1
517 575 1
517 578 1
517 579 1
517 590 1
517 598 1
517 600 1
517 601 1
517 629 1
517 635 1
517 636 1
517 649 1
517 663 1
517 677 1
517 687 1
517 691 1
517 710 1
517 712 1
517 733 1
517 757 1
518 12 1
518 50 1
518 73 1
518 76 1
518 81 1
518 121 1
518 145 1
518 146 1
518 154 1
518 169 1
518 171 1
518 197 1
518 207 1
518 227 1
518 243 1
518 251 1
518 259 1
518 270 1
518 272 1
518 291 1
518 310 1
518 314 1
518 348 1
518 370 1
518 380 1
518 386 1
518 387 1
518 450 1
518 456 1
518 470 1
518 487 1
518 491 1
518 499 1
518 505 1
518 529 1
518 530 1
518 565 1
518 571 1
518 597 1
518 604 1
518 605 1
518 622 1
518 625 1
518 645 1
518 683 1
518 708 1
518 722 1
518 734 1
518 744 1
518 754 1
518 756 1
519 15 1
519 21 1
519 30 1
519 45 1
519 49 1
519 54 1
519 55 1
519 82 1
519 96 1
519 111 1
519 131 1
519 152 1
519 175 1
519 243 1
519 261 1
519 283 1
519 371 1
519 380 1
519 382 1
519 384 1
519 395 1
519 397 1
519 403 1
519 405 1
519 406 1
519 411 1
519 414 1
519 440 1
519 505 1
519 542 1
519 551 1
519 574 1
519 613 1
519 622 1
519 642 1
519 709 1
519 728 1
519 729 1
519 738 1
519 748 1
519 752 1
519 763 1
519 783 1
520 19 1
520 55 1
520 81 1
520 139 1
520 151 1
520 168 1
520 190 1
520 198 1
520 225 1
520 231 1
520 234 1
520 243 1
520 252 1
520 256 1
520 272 1
520 276 1
520 291 1
520 312 1
520 327 1
520 336 1
520 357 1
520 361 1
520 378 1
520 387 1
520 396 1
520 411 1
520 419 1
520 441 1
520 458 1
520 467 1
520 469 1
520 479 1
520 484 1
520 524 1
520 581 1
520 587 1
520 639 1
520 643 1
520 654 1
520 655 1
520 675 1
520 676 1
520 693 1
520 712 1
520 719 1
520 726 1
520 737 1
520 740 1
520 744 1
520 786 1
521 27 1
521 51 1
521 84 1
521 129 1
521 139 1
521 145 1
521 167 1
521 211 1
521 233 1
521 244 1
521 253 1
521 301 1
521 325 1
521 327 1
521 336 1
521 338 1
521 341 1
521 351 1
521 379 1
521 412 1
521 416 1
521 418 1
521 429 1
521 441 1
521 459 1
521 481 1
521 495 1
521 504 1
521 510 1
521 513 1
521 528 1
521 536 1
521 583 1
521 609 1
521 624 1
521 633 1
521 650 1
521 654 1
521 657 1
521 658 1
521 687 1
521 695 1
521 704 1
521 722 1
521 731 1
521 772 1
521 780 1
521 790 1
522 11 1
522 48 1
522 73 1
522 107 1
522 114 1
522 151 1
522 179 1
522 180 1
522 210 1
522 212 1
522 297 1
522 378 1
522 398 1
522 399 1
522 419 1
522 426 1
522 449 1
522 462 1
522 474 1
522 484 1
522 553 1
522 562 1
522 589 1
522 639 1
522 645 1
522 668 1
522 685 1
522 707 1
522 716 1
522 721 1
522 751 1
522 759 1
523 3 1
523 30 1
523 70 1
523 78 1
523 83 1
523 93 1
523 104 1
523 131 1
523 141 1
523 148 1
523 164 1
523 196 1
523 228 1
523 241 1
523 257 1
523 294 1
523 301 1
523 304 1
523 324 1
523 334 1
523 337 1
523 339 1
523 350 1
523 360 1
523 364 1
523 371 1
523 372 1
523 376 1
523 382 1
523 400 1
523 429 1
523 439 1
523 441 1
523 488 1
523 492 1
523 532 1
523 539 1
523 602 1
523 609 1
523 629 1
523 630 1
523 640 1
523 668 1
523 672 1
523 683 1
523 688 1
523 715 1
523 733 1
523 753 1
523 771 1
523 774 1
524 31 1
524 62 1
524 66 1
524 82 1
524 90 1
524 92 1
524 100 1
524 103 1
524 127 1
524 153 1
524 157 1
524 189 1
524 203 1
524 229 1
524 245 1
524 292 1
524 308 1
524 314 1
524 320 1
524 347 1
524 352 1
524 357 1
524 368 1
524 378 1
524 383 1
524 441 1
524 453 1
524 520 1
524 530 1
524 536 1
524 541 1
524 555 1
524 575 1
524 585 1
524 612 1
524 620 1
524 629 1
524 632 1
524 737 1
524 770 1
524 785 1
524 795 1
525 13 1
525 28 1
525 47 1
525 52 1
525 63 1
525 80 1
525 116 1
525 142 1
525 171 1
525 176 1
525 198 1
525 199 1
525 233 1
525 240 1
525 246 1
525 254 1
525 267 1
525 302 1
525 303 1
525 319 1
525 401 1
525 417 1
525 429 1
525 463 1
525 493 1
525 504 1
525 527 1
525 528 1
525 534 1
525 542 1
525 555 1
525 580 1
525 581 1
525 589 1
525 619 1
525 660 1
525 669 1
525 682 1
525 760 1
525 773 1
525 787 1
525 799 1
526 23 1
526 29 1
526 60 1
526 71 1
526 75 1
526 80 1
526 93 1
526 100 1
526 101 1
526 113 1
526 124 1
526 129 1
526 130 1
526 135 1
526 137 1
526 213 1
526 220 1
526 256 1
526 257 1
526 271 1
526 283 1
526 290 1
526 334 1
526 397 1
526 404 1
526 411 1
526 413 1
526 440 1
526 447 1
526 450 1
526 454 1
526 486 1
526 503 1
526 509 1
526 527 1
526 545 1
526 600 1
526 624 1
526 629 1
526 638 1
526 698 1
526 699 1
526 762 1
527 23 1
527 41 1
527 47 1
527 82 1
527 95 1
527 148 1
527 172 1
527 178 1
527 211 1
527 216 1
527 221 1
527 222 1
527 241 1
527 250 1
527 275 1
527 285 1
527 288 1
527 301 1
527 351 1
527 362 1
527 376 1
527 380 1
527 385 1
527 424 1
527 466 1
527 473 1
527 486 1
527 489 1
527 507 1
527 511 1
527 514 1
527 516 1
527 525 1
527 526 1
527 531 1
527 576 1
527 580 1
527 588 1
527 602 1
527 618 1
527 620 1
527 629 1
527 644 1
527 659 1
527 671 1
527 689 1
527 692 1
527 731 1
527 734 1
527 736 1
527 749 1
527 771 1
527 773 1
527 790 1
528 3 1
528 13 1
528 21 1
528 23 1
528 40 1
528 72 1
528 79 1
528 83 1
528 90 1
528 102 1
528 118 1
528 120 1
528 128 1
528 135 1
528 165 1
528 168 1
528 172 1
528 174 1
528 192 1
528 200 1
528 201 1
528 221 1
528 228 1
528 272 1
528 299 1
528 320 1
528 329 1
528 350 1
528 352 1
528 353 1
528 372 1
528 391 1
528 418 1
528 424 1
528 445 1
528 452 1
528 459 1
528 491 1
528 495 1
528 499 1
528 521 1
528 525 1
528 545 1
528 550 1
528 622 1
528 628 1
528 641 1
528 667 1
528 673 1
528 699 1
528 717 1
528 729 1
528 739 1
528 762 1
529 18 1
529 26 1
529 27 1
529 42 1
529 56 1
529 66 1
529 88 1
529 136 1
529 139 1
529 163 1
529 179 1
529 216 1
529 221 1
529 230 1
529 235 1
529 239 1
529 242 1
529 250 1
529 252 1
529 288 1
529 334 1
529 345 1
529 349 1
529 353 1
529 409 1
529 429 1
529 457 1
529 463 1
529 464 1
529 468 1
529 474 1
529 475 1
529 487 1
529 505 1
529 518 1
529 538 1
529 549 1
529 551 1
529 563 1
529 615 1
529 632 1
529 638 1
529 645 1
529 666 1
529 674 1
529 678 1
529 685 1
529 687 1
529 736 1
530 8 1
530 22 1
530 24 1
530 33 1
530 40 1
530 46 1
530 63 1
530 64 1
530 88 1
530 116 1
530 118 1
530 127 1
530 177 1
530 190 1
530 194 1
530 199 1
530 222 1
530 261 1
530 263 1
530 267 1
530 271 1
530 289 1
530 294 1
530 322 1
530 357 1
530 359 1
530 363 1
530 370 1
530 394 1
530 414 1
530 421 1
530 425 1
530 426 1
530 462 1
530 464 1
530 467 1
530 502 1
530 511 1
530 518 1
530 524 1
530 565 1
530 594 1
530 600 1
530 601 1
530 612 1
530 616 1
530 664 1
530 671 1
530 702 1
530 705 1
530 714 1
530 731 1
530 734 1
530 736 1
530 745 1
530 747 1
530 763 1
530 783 1
530 787 1
530 796 1
531 42 1
531 81 1
531 85 1
531 100 1
531 232 1
531 341 1
531 349 1
531 350 1
531 352 1
531 376 1
531 398 1
531 430 1
531 468 1
531 514 1
531 527 1
531 542 1
531 546 1
531 566 1
531 576 1
531 590 1
531 601 1
531 633 1
531 651 1
531 689 1
531 744 1
531 748 1
531 761 1
531 767 1
531 768 1
531 775 1
531 778 1
532 34 1
532 35 1
532 55 1
532 82 1
532 100 1
532 175 1
532 207 1
532 211 1
532 228 1
532 245 1
532 262 1
532 276 1
532 292 1
532 303 1
532 328 1
532 351 1
532 353 1
532 404 1
532 419 1
532 435 1
532 447 1
532 448 1
532 450 1
532 477 1
532 488 1
532 523 1
532 542 1
532 553 1
532 611 1
532 612 1
532 640 1
532 659 1
532 661 1
532 667 1
532 676 1
532 680 1
532 687 1
532 693 1
532 695 1
532 702 1
532 709 1
532 734 1
532 736 1
532 745 1
533 5 1
533 13 1
533 20 1
533 50 1
533 60 1
533 72 1
533 83 1
533 88 1
533 99 1
533 119 1
533 126 1
533 156 1
533 181 1
533 192 1
533 205 1
533 210 1
533 214 1
533 218 1
533 227 1
533 249 1
533 251 1
533 306 1
533 310 1
533 316 1
533 325 1
533 326 1
533 340 1
533 343 1
533 346 1
533 353 1
533 355 1
533 367 1
533 375 1
533 381 1
533 385 1
533 390 1
533 421 1
533 426 1
533 434 1
533 506 1
533 515 1
533 534 1
533 550 1
533 569 1
533 598 1
533 605 1
533 642 1
533 653 1
533 664 1
533 668 1
533 669 1
533 677 1
533 703 1
533 713 1
533 730 1
533 763 1
533 776 1
534 7 1
534 24 1
534 67 1
534 69 1
534 130 1
534 131 1
534 135 1
534 137 1
534 149 1
534 194 1
534 231 1
534 235 1
534 265 1
534 282 1
534 309 1
534 317 1
534 324 1
534 329 1
534 338 1
534 341 1
534 349 1
534 359 1
534 372 1
534 378 1
534 382 1
534 439 1
534 450 1
534 460 1
534 472 1
534 525 1
534 533 1
534 586 1
534 629 1
534 637 1
534 643 1
534 674 1
534 679 1
534 681 1
534 684 1
534 693 1
534 714 1
534 729 1
534 736 1
534 737 1
534 738 1
534 752 1
535 4 1
535 11 1
535 34 1
535 40 1
535 44 1
535 45 1
535 56 1
535 83 1
535 90 1
535 93 1
535 99 1
535 102 1
535 129 1
535 134 1
535 165 1
535 171 1
535 197 1
535 203 1
535 208 1
535 219 1
535 222 1
535 235 1
535 236 1
535 277 1
535 285 1
535 293 1
535 317 1
535 320 1
535 327 1
535 338 1
535 404 1
535 415 1
535 433 1
535 451 1
535 457 1
535 460 1
535 494 1
535 584 1
535 591 1
535 596 1
535 615 1
535 633 1
535 645 1
535 655 1
535 656 1
535 666 1
535 669 1
535 698 1
535 765 1
535 767 1
536 7 1
536 21 1
536 29 1
536 46 1
536 69 1
536 72 1
536 122 1
536 128 1
536 142 1
536 152 1
536 188 1
536 234 1
536 240 1
536 244 1
536 268 1
536 274 1
536 278 1
536 310 1
536 388 1
536 462 1
536 485 1
536 487 1
536 493 1
536 499 1
536 521 1
536 524 1
536 545 1
536 552 1
536 624 1
536 633 1
536 641 1
536 647 1
536 657 1
536 659 1
536 668 1
536 693 1
536 743 1
536 792 1
536 795 1
537 9 1
537 21 1
537 30 1
537 46 1
537 54 1
537 62 1
537 96 1
537 103 1
537 106 1
537 125 1
537 195 1
537 198 1
537 208 1
537 209 1
537 210 1
537 214 1
537 220 1
537 241 1
537 242 1
537 278 1
537 296 1
537 313 1
537 339 1
537 364 1
537 390 1
537 408 1
537 445 1
537 455 1
537 464 1
537 505 1
537 510 1
537 614 1
537 675 1
537 682 1
537 702 1
537 708 1
537 740 1
537 744 1
538 18 1
538 27 1
538 57 1
538 77 1
538 97 1
538 102 1
538 137 1
538 168 1
538 181 1
538 196 1
538 200 1
538 202 1
538 220 1
538 301 1
538 312 1
538 320 1
538 327 1
538 350 1
538 356 1
538 363 1
538 379 1
538 381 1
538 394 1
538 395 1
538 403 1
538 410 1
538 417 1
538 442 1
538 453 1
538 462 1
538 472 1
538 476 1
538 492 1
538 494 1
538 512 1
538 529 1
538 541 1
538 589 1
538 592 1
538 608 1
538 648 1
538 659 1
538 710 1
538 722 1
538 733 1
538 760 1
538 765 1
538 773 1
538 790 1
538 796 1
539 23 1
539 79 1
539 84 1
539 110 1
539 137 1
539 175 1
539 179 1
539 193 1
539 214 1
539 230 1
539 234 1
539 288 1
539 299 1
539 304 1
539 308 1
539 325 1
539 341 1
539 353 1
539 356 1
539 382 1
539 398 1
539 407 1
539 459 1
539 486 1
539 493 1
539 498 1
539 523 1
539 544 1
539 570 1
539 576 1
539 580 1
539 585 1
539 605 1
539 624 1
539 636 1
539 645 1
539 655 1
539 663 1
539 680 1
539 682 1
539 696 1
539 700 1
539 718 1
539 724 1
539 727 1
539 773 1
539 778 1
540 10 1
540 33 1
540 57 1
540 60 1
540 89 1
540 94 1
540 98 1
540 116 1
540 144 1
540 165 1
540 170 1
540 173 1
540 185 1
540 191 1
540 209 1
540 214 1
540 216 1
540 253 1
540 259 1
540 261 1
540 265 1
540 273 1
540 303 1
540 320 1
540 324 1
540 329 1
540 350 1
540 364 1
540 366 1
540 396 1
540 398 1
540 404 1
540 406 1
540 414 1
540 423 1
540 428 1
540 483 1
540 495 1
540 501 1
540 544 1
540 554 1
540 566 1
540 579 1
540 650 1
540 652 1
540 655 1
540 668 1
540 669 1
540 690 1
540 693 1
540 742 1
540 747 1
540 748 1
540 761 1
540 763 1
540 767 1
541 1 1
541 14 1
541 50 1
541 57 1
541 85 1
541 99 1
541 103 1
541 104 1
541 111 1
541 114 1
541 129 1
541 159 1
541 163 1
541 167 1
541 202 1
541 216 1
541 238 1
541 288 1
541 290 1
541 301 1
541 304 1
541 313 1
541 320 1
541 327 1
541 358 1
541 360 1
541 369 1
541 374 1
541 420 1
541 421 1
541 439 1
541 442 1
541 449 1
541 479 1
541 485 1
541 489 1
541 515 1
541 524 1
541 538 1
541 624 1
541 631 1
541 633 1
541 645 1
541 652 1
541 706 1
541 708 1
541 724 1
541 727 1
541 734 1
541 738 1
541 744 1
541 755 1
541 763 1
541 769 1
541 779 1
541 782 1
542 12 1
542 37 1
542 40 1
542 61 1
542 75 1
542 106 1
542 110 1
542 135 1
542 155 1
542 171 1
542 206 1
542 207 1
542 230 1
542 256 1
542 277 1
542 278 1
542 286 1
542 324 1
542 402 1
542 452 1
542 473 1
542 491 1
542 498 1
542 505 1
542 511 1
542 519 1
542 525 1
542 531 1
542 532 1
542 550 1
542 552 1
542 581 1
542 642 1
542 664 1
542 670 1
542 702 1
542 710 1
542 724 1
542 727 1
542 740 1
542 748 1
542 759 1
542 765 1
542 793 1
543 16 1
543 21 1
543 43 1
543 54 1
543 62 1
543 64 1
543 85 1
543 90 1
543 147 1
543 153 1
543 168 1
543 178 1
543 182 1
543 191 1
543 237 1
543 242 1
543 248 1
543 277 1
543 283 1
543 284 1
543 285 1
543 294 1
543 326 1
543 369 1
543 377 1
543 384 1
543 386 1
543 394 1
543 399 1
543 402 1
543 412 1
543 416 1
543 422 1
543 450 1
543 460 1
543 464 1
543 508 1
543 548 1
543 572 1
543 583 1
543 618 1
543 621 1
543 632 1
543 665 1
543 667 1
543 674 1
543 682 1
543 686 1
543 693 1
543 694 1
543 737 1
543 758 1
543 765 1
543 778 1
543 786 1
544 9 1
544 40 1
544 78 1
544 127 1
544 137 1
544 144 1
544 160 1
544 162 1
544 163 1
544 190 1
544 204 1
544 221 1
544 226 1
544 249 1
544 317 1
544 319 1
544 354 1
544 407 1
544 430 1
544 445 1
544 448 1
544 454 1
544 483 1
544 512 1
544 539 1
544 540 1
544 569 1
544 581 1
544 590 1
544 593 1
544 605 1
544 627 1
544 629 1
544 664 1
544 676 1
544 683 1
544 727 1
544 751 1
544 759 1
544 766 1
544 777 1
544 787 1
545 17 1
545 29 1
545 33 1
545 43 1
545 72 1
545 74 1
545 78 1
545 121 1
545 130 1
545 133 1
545 137 1
545 138 1
545 140 1
545 178 1
545 185 1
545 207 1
545 225 1
545 272 1
545 280 1
545 286 1
545 308 1
545 322 1
545 360 1
545 365 1
545 376 1
545 406 1
545 419 1
545 428 1
545 441 1
545 463 1
545 486 1
545 526 1
545 528 1
545 536 1
545 556 1
545 560 1
545 615 1
545 618 1
545 643 1
545 645 1
545 653 1
545 663 1
545 687 1
545 715 1
545 738 1
546 18 1
546 34 1
546 44 1
546 50 1
546 56 1
546 59 1
546 61 1
546 64 1
546 74 1
546 89 1
546 92 1
546 99 1
546 102 1
546 115 1
546 152 1
546 156 1
546 188 1
546 198 1
546 209 1
546 212 1
546 222 1
546 224 1
546 228 1
546 232 1
546 237 1
546 256 1
546 287 1
546 298 1
546 299 1
546 306 1
546 322 1
546 334 1
546 381 1
546 412 1
546 474 1
546 501 1
546 531 1
546 567 1
546 574 1
546 583 1
546 610 1
546 612 1
546 637 1
546 639 1
546 656 1
546 672 1
546 678 1
546 701 1
546 728 1
546 741 1
546 748 1
546 749 1
546 759 1
546 780 1
546 796 1
546 800 1
547 37 1
547 57 1
547 83 1
547 85 1
547 95 1
547 124 1
547 151 1
547 178 1
547 192 1
547 197 1
547 212 1
547 299 1
547 329 1
547 370 1
547 384 1
547 394 1
547 400 1
547 420 1
547 425 1
547 431 1
547 434 1
547 455 1
547 463 1
547 478 1
547 481 1
547 566 1
547 576 1
547 589 1
547 617 1
547 643 1
547 657 1
547 659 1
547 668 1
547 672 1
547 673 1
547 697 1
547 723 1
547 760 1
547 767 1
547 771 1
547 797 1
548 6 1
548 11 1
548 40 1
548 56 1
548 74 1
548 93 1
548 94 1
548 106 1
548 107 1
548 117 1
548 119 1
548 141 1
548 150 1
548 169 1
548 174 1
548 177 1
548 178 1
548 215 1
548 242 1
548 244 1
548 245 1
548 248 1
548 293 1
548 298 1
548 320 1
548 327 1
548 343 1
548 370 1
548 407 1
548 425 1
548 427 1
548 442 1
548 445 1
548 454 1
548 455 1
548 473 1
548 482 1
548 487 1
548 507 1
548 543 1
548 586 1
548 617 1
548 640 1
548 643 1
548 664 1
548 668 1
548 678 1
548 687 1
548 697 1
548 723 1
548 726 1
548 738 1
548 745 1
548 773 1
548 780 1
548 783 1
549 34 1
549 46 1
549 71 1
549 72 1
549 88 1
549 98 1
549 122 1
549 125 1
549 133 1
549 155 1
549 168 1
549 227 1
549 246 1
549 264 1
549 284 1
549 317 1
549 323 1
549 324 1
549 330 1
549 359 1
549 367 1
549 394 1
549 413 1
549 444 1
549 451 1
549 455 1
549 463 1
549 476 1
549 529 1
549 552 1
549 554 1
549 556 1
549 563 1
549 567 1
549 572 1
549 573 1
549 585 1
549 589 1
549 599 1
549 649 1
549 673 1
549 685 1
549 776 1
550 4 1
550 11 1
550 29 1
550 73 1
550 85 1
550 155 1
550 165 1
550 174 1
550 178 1
550 215 1
550 216 1
550 231 1
550 240 1
550 245 1
550 270 1
550 279 1
550 291 1
550 328 1
550 341 1
550 379 1
550 384 1
550 387 1
550 402 1
550 404 1
550 414 1
550 454 1
550 474 1
550 494 1
550 496 1
550 500 1
550 528 1
550 533 1
550 542 1
550 562 1
550 631 1
550 638 1
550 649 1
550 660 1
550 665 1
550 666 1
550 678 1
550 738 1
550 786 1
551 37 1
551 39 1
551 41 1
551 51 1
551 88 1
551 126 1
551 130 1
551 131 1
551 138 1
551 202 1
551 217 1
551 230 1
551 244 1
551 248 1
551 253 1
551 310 1
551 324 1
551 352 1
551 353 1
551 354 1
551 359 1
551 362 1
551 366 1
551 377 1
551 378 1
551 385 1
551 387 1
551 417 1
551 421 1
551 459 1
551 462 1
551 479 1
551 481 1
551 501 1
551 519 1
551 529 1
551 584 1
551 589 1
551 663 1
551 665 1
551 681 1
551 690 1
551 707 1
551 713 1
551 779 1
551 782 1
552 24 1
552 25 1
552 39 1
552 53 1
552 75 1
552 80 1
552 119 1
552 125 1
552 162 1
552 173 1
552 195 1
552 196 1
552 218 1
552 222 1
552 226 1
552 231 1
552 247 1
552 300 1
552 301 1
552 332 1
552 336 1
552 344 1
552 346 1
552 351 1
552 356 1
552 381 1
552 393 1
552 401 1
552 402 1
552 408 1
552 426 1
552 432 1
552 443 1
552 450 1
552 465 1
552 536 1
552 542 1
552 549 1
552 555 1
552 561 1
552 592 1
552 604 1
552 613 1
552 652 1
552 656 1
552 673 1
552 698 1
552 720 1
552 737 1
552 745 1
552 757 1
552 770 1
553 19 1
553 50 1
553 52 1
553 56 1
553 70 1
553 77 1
553 81 1
553 97 1
553 122 1
553 131 1
553 182 1
553 209 1
553 214 1
553 217 1
553 237 1
553 305 1
553 325 1
553 337 1
553 366 1
553 381 1
553 382 1
553 398 1
553 405 1
553 407 1
553 410 1
553 467 1
553 484 1
553 522 1
553 532 1
553 556 1
553 566 1
553 592 1
553 596 1
553 638 1
553 667 1
553 686 1
553 708 1
553 734 1
553 753 1
553 775 1
553 786 1
553 789 1
554 17 1
554 22 1
554 25 1
554 40 1
554 43 1
554 51 1
554 56 1
554 72 1
554 99 1
554 110 1
554 172 1
554 182 1
554 194 1
554 212 1
554 254 1
554 255 1
554 267 1
554 269 1
554 271 1
554 272 1
554 326 1
554 335 1
554 349 1
554 391 1
554 408 1
554 410 1
554 430 1
554 477 1
554 478 1
554 479 1
554 511 1
554 513 1
554 540 1
554 549 1
554 609 1
554 621 1
554 648 1
554 650 1
554 680 1
554 682 1
554 738 1
554 785 1
554 792 1
554 799 1
555 2 1
555 14 1
555 22 1
555 39 1
555 55 1
555 92 1
555 121 1
555 142 1
555 153 1
555 170 1
555 186 1
555 194 1
555 199 1
555 221 1
555 222 1
555 267 1
555 269 1
555 307 1
555 344 1
555 366 1
555 396 1
555 397 1
555 410 1
555 415 1
555 421 1
555 422 1
555 443 1
555 491 1
555 500 1
555 505 1
555 524 1
555 525 1
555 552 1
555 557 1
555 566 1
555 575 1
555 587 1
555 592 1
555 595 1
555 602 1
555 640 1
555 702 1
555 708 1
555 713 1
555 726 1
555 741 1
555 769 1
556 13 1
556 14 1
556 17 1
556 33 1
556 42 1
556 48 1
556 113 1
556 188 1
556 198 1
556 207 1
556 212 1
556 224 1
556 267 1
556 274 1
556 311 1
556 332 1
556 386 1
556 397 1
556 403 1
556 406 1
556 444 1
556 454 1
556 483 1
556 501 1
556 517 1
556 545 1
556 549 1
556 553 1
556 558 1
556 561 1
556 581 1
556 599 1
556 619 1
556 631 1
556 662 1
556 665 1
556 683 1
556 700 1
556 703 1
556 713 1
556 722 1
556 754 1
556 759 1
556 782 1
556 786 1
556 790 1
557 7 1
557 18 1
557 42 1
557 43 1
557 63 1
557 78 1
557 94 1
557 111 1
557 125 1
557 129 1
557 144 1
557 198 1
557 200 1
557 210 1
557 225 1
557 236 1
557 237 1
557 242 1
557 250 1
557 252 1
557 254 1
557 279 1
557 284 1
557 292 1
557 294 1
557 308 1
557 348 1
557 353 1
557 361 1
557 375 1
557 391 1
557 392 1
557 400 1
557 402 1
557 425 1
557 433 1
557 440 1
557 451 1
557 488 1
557 491 1
557 555 1
557 571 1
557 582 1
557 601 1
557 608 1
557 627 1
557 679 1
557 680 1
557 683 1
557 704 1
557 707 1
557 710 1
557 732 1
557 757 1
557 775 1
557 778 1
557 785 1
558 6 1
558 7 1
558 62 1
558 71 1
558 83 1
558 187 1
558 213 1
558 234 1
558 249 1
558 250 1
558 265 1
558 280 1
558 291 1
558 296 1
558 303 1
558 309 1
558 319 1
558 332 1
558 337 1
558 361 1
558 385 1
558 386 1
558 407 1
558 426 1
558 427 1
558 445 1
558 451 1
558 466 1
558 483 1
558 485 1
558 510 1
558 556 1
558 608 1
558 618 1
558 631 1
558 636 1
558 649 1
558 677 1
558 679 1
558 697 1
558 703 1
558 712 1
558 731 1
558 734 1
558 739 1
558 742 1
558 747 1
558 770 1
558 776 1
558 779 1
559 35 1
559 50 1
559 59 1
559 60 1
559 121 1
559 173 1
559 188 1
559 214 1
559 238 1
559 254 1
559 257 1
559 264 1
559 272 1
559 277 1
559 303 1
559 323 1
559 333 1
559 340 1
559 344 1
559 351 1
559 370 1
559 389 1
559 421 1
559 431 1
559 437 1
559 442 1
559 450 1
559 469 1
559 477 1
559 500 1
559 514 1
559 560 1
559 620 1
559 622 1
559 678 1
559 704 1
559 722 1
559 781 1
559 785 1
560 5 1
560 20 1
560 54 1
560 99 1
560 101 1
560 125 1
560 131 1
560 138 1
560 146 1
560 157 1
560 212 1
560 226 1
560 237 1
560 239 1
560 257 1
560 260 1
560 279 1
560 295 1
560 313 1
560 332 1
560 361 1
560 362 1
560 379 1
560 393 1
560 399 1
560 408 1
560 444 1
560 471 1
560 487 1
560 501 1
560 507 1
560 511 1
560 545 1
560 559 1
560 563 1
560 580 1
560 606 1
560 618 1
560 622 1
560 630 1
560 646 1
560 651 1
560 661 1
560 665 1
560 689 1
560 725 1
560 751 1
560 763 1
560 773 1
560 781 1
560 794 1
561 33 1
561 36 1
561 53 1
561 59 1
561 61 1
561 67 1
561 69 1
561 122 1
561 133 1
561 152 1
561 191 1
561 207 1
561 237 1
561 248 1
561 258 1
561 265 1
561 271 1
561 275 1
561 320 1
561 371 1
561 422 1
561 439 1
561 466 1
561 484 1
561 490 1
561 493 1
561 497 1
561 517 1
561 552 1
561 556 1
561 565 1
561 595 1
561 604 1
561 632 1
561 642 1
561 665 1
561 667 1
561 715 1
561 738 1
561 767 1
561 777 1
561 793 1
561 800 1
562 3 1
562 4 1
562 17 1
562 18 1
562 46 1
562 50 1
562 56 1
562 59 1
562 66 1
562 67 1
562 99 1
562 165 1
562 220 1
562 249 1
562 288 1
562 296 1
562 307 1
562 337 1
562 384 1
562 409 1
562 414 1
562 425 1
562 441 1
562 498 1
562 522 1
562 550 1
562 564 1
562 574 1
562 594 1
562 597 1
562 603 1
562 611 1
562 613 1
562 623 1
562 626 1
562 643 1
562 674 1
562 684 1
562 690 1
562 721 1
562 742 1
562 761 1
562 762 1
562 784 1
562 791 1
562 800 1
563 14 1
563 69 1
563 71 1
563 78 1
563 86 1
563 87 1
563 90 1
563 95 1
563 98 1
563 121 1
563 147 1
563 148 1
563 151 1
563 154 1
563 192 1
563 198 1
563 236 1
563 240 1
563 242 1
563 260 1
563 269 1
563 295 1
563 353 1
563 411 1
563 429 1
563 434 1
563 437 1
563 488 1
563 529 1
563 549 1
563 560 1
563 566 1
563 574 1
563 578 1
563 597 1
563 619 1
563 629 1
563 630 1
563 640 1
563 656 1
563 702 1
563 728 1
563 730 1
563 735 1
563 748 1
563 780 1
564 60 1
564 62 1
564 74 1
564 80 1
564 111 1
564 113 1
564 119 1
564 146 1
564 150 1
564 204 1
564 213 1
564 214 1
564 217 1
564 235 1
564 243 1
564 248 1
564 250 1
564 252 1
564 261 1
564 265 1
564 285 1
564 297 1
564 351 1
564 356 1
564 373 1
564 400 1
564 401 1
564 422 1
564 455 1
564 456 1
564 457 1
564 477 1
564 478 1
564 498 1
564 501 1
564 506 1
564 562 1
564 579 1
564 589 1
564 599 1
564 606 1
564 615 1
564 622 1
564 633 1
564 638 1
564 645 1
564 676 1
564 721 1
564 726 1
564 744 1
564 750 1
564 785 1
564 788 1
564 798 1
565 13 1
565 38 1
565 64 1
565 73 1
565 97 1
565 150 1
565 225 1
565 236 1
565 265 1
565 289 1
565 299 1
565 305 1
565 327 1
565 342 1
565 343 1
565 363 1
565 377 1
565 417 1
565 427 1
565 437 1
565 467 1
565 481 1
565 516 1
565 518 1
565 530 1
565 561 1
565 571 1
565 637 1
565 667 1
565 680 1
565 691 1
565 709 1
565 728 1
565 730 1
565 780 1
566 7 1
566 10 1
566 33 1
566 76 1
566 84 1
566 91 1
566 95 1
566 122 1
566 147 1
566 151 1
566 184 1
566 205 1
566 272 1
566 275 1
566 294 1
566 297 1
566 303 1
566 317 1
566 324 1
566 339 1
566 345 1
566 355 1
566 361 1
566 377 1
566 401 1
566 441 1
566 449 1
566 458 1
566 484 1
566 504 1
566 512 1
566 514 1
566 531 1
566 540 1
566 547 1
566 553 1
566 555 1
566 563 1
566 591 1
566 604 1
566 623 1
566 636 1
566 648 1
566 659 1
566 686 1
566 703 1
566 713 1
566 724 1
566 737 1
566 738 1
566 739 1
566 754 1
567 9 1
567 24 1
567 25 1
567 29 1
567 30 1
567 76 1
567 85 1
567 143 1
567 150 1
567 194 1
567 205 1
567 248 1
567 254 1
567 258 1
567 273 1
567 298 1
567 307 1
567 311 1
567 313 1
567 321 1
567 331 1
567 361 1
567 380 1
567 393 1
567 397 1
567 404 1
567 419 1
567 425 1
567 467 1
567 468 1
567 501 1
567 506 1
567 546 1
567 549 1
567 580 1
567 603 1
567 633 1
567 634 1
567 641 1
567 646 1
567 689 1
567 691 1
567 700 1
567 703 1
567 716 1
567 718 1
567 729 1
567 730 1
567 731 1
567 749 1
567 752 1
567 799 1
568 26 1
568 76 1
568 77 1
568 107 1
568 117 1
568 121 1
568 122 1
568 134 1
568 145 1
568 181 1
568 220 1
568 230 1
568 253 1
568 283 1
568 284 1
568 298 1
568 311 1
568 317 1
568 330 1
568 408 1
568 429 1
568 435 1
568 467 1
568 475 1
568 491 1
568 513 1
568 569 1
568 595 1
568 651 1
568 655 1
568 665 1
568 677 1
568 687 1
568 753 1
568 787 1
568 790 1
569 60 1
569 79 1
569 99 1
569 141 1
569 181 1
569 182 1
569 187 1
569 188 1
569 192 1
569 194 1
569 216 1
569 224 1
569 246 1
569 258 1
569 290 1
569 335 1
569 339 1
569 342 1
569 346 1
569 355 1
569 417 1
569 420 1
569 421 1
569 423 1
569 429 1
569 448 1
569 458 1
569 459 1
569 467 1
569 477 1
569 496 1
569 512 1
569 533 1
569 544 1
569 568 1
569 571 1
569 575 1
569 580 1
569 582 1
569 589 1
569 599 1
569 600 1
569 609 1
569 611 1
569 619 1
569 645 1
569 653 1
569 673 1
569 679 1
569 683 1
569 717 1
569 721 1
569 743 1
569 775 1
569 778 1
569 784 1
569 787 1
570 4 1
570 22 1
570 29 1
570 56 1
570 71 1
570 78 1
570 80 1
570 150 1
570 154 1
570 192 1
570 217 1
570 223 1
570 254 1
570 276 1
570 289 1
570 302 1
570 304 1
570 335 1
570 342 1
570 344 1
570 383 1
570 401 1
570 404 1
570 410 1
570 421 1
570 425 1
570 447 1
570 471 1
570 476 1
570 479 1
570 539 1
570 605 1
570 606 1
570 621 1
570 637 1
570 644 1
570 657 1
570 700 1
570 727 1
570 736 1
570 753 1
570 777 1
570 781 1
570 782 1
570 795 1
571 17 1
571 19 1
571 25 1
571 27 1
571 45 1
571 47 1
571 51 1
571 59 1
571 67 1
571 70 1
571 81 1
571 89 1
571 98 1
571 124 1
571 130 1
571 168 1
571 184 1
571 209 1
571 210 1
571 211 1
571 216 1
571 220 1
571 255 1
571 262 1
571 264 1
571 379 1
571 383 1
571 386 1
571 392 1
571 404 1
571 424 1
571 426 1
571 454 1
571 459 1
571 498 1
571 507 1
571 513 1
571 518 1
571 557 1
571 565 1
571 569 1
571 576 1
571 642 1
571 649 1
571 701 1
571 715 1
571 735 1
571 757 1
571 772 1
571 777 1
572 17 1
572 29 1
572 31 1
572 55 1
572 108 1
572 113 1
572 136 1
572 157 1
572 180 1
572 185 1
572 230 1
572 234 1
572 257 1
572 279 1
572 280 1
572 290 1
572 299 1
572 308 1
572 317 1
572 320 1
572 325 1
572 331 1
572 342 1
572 349 1
572 361 1
572 376 1
572 380 1
572 409 1
572 433 1
572 439 1
572 451 1
572 454 1
572 501 1
572 512 1
572 543 1
572 549 1
572 589 1
572 594 1
572 602 1
572 624 1
572 638 1
572 654 1
572 680 1
572 688 1
572 703 1
572 717 1
572 774 1
572 781 1
572 788 1
573 2 1
573 10 1
573 13 1
573 19 1
573 25 1
573 29 1
573 50 1
573 54 1
573 55 1
573 95 1
573 118 1
573 148 1
573 149 1
573 161 1
573 187 1
573 220 1
573 248 1
573 308 1
573 311 1
573 322 1
573 359 1
573 368 1
573 371 1
573 399 1
573 409 1
573 420 1
573 421 1
573 451 1
573 488 1
573 499 1
573 549 1
573 575 1
573 577 1
573 609 1
573 624 1
573 640 1
573 642 1
573 683 1
573 703 1
573 710 1
573 740 1
573 754 1
573 783 1
573 793 1
574 4 1
574 59 1
574 64 1
574 75 1
574 79 1
574 85 1
574 104 1
574 113 1
574 124 1
574 131 1
574 147 1
574 153 1
574 179 1
574 222 1
574 277 1
574 309 1
574 340 1
574 347 1
574 365 1
574 369 1
574 388 1
574 390 1
574 398 1
574 411 1
574 422 1
574 439 1
574 477 1
574 480 1
574 482 1
574 487 1
574 496 1
574 512 1
574 519 1
574 546 1
574 562 1
574 563 1
574 579 1
574 611 1
574 622 1
574 690 1
574 693 1
574 724 1
574 725 1
574 730 1
574 768 1
574 775 1
574 777 1
575 8 1
575 9 1
575 32 1
575 34 1
575 44 1
575 129 1
575 135 1
575 137 1
575 149 1
575 180 1
575 210 1
575 221 1
575 233 1
575 241 1
575 262 1
575 287 1
575 291 1
575 314 1
575 317 1
575 331 1
575 338 1
575 350 1
575 377 1
575 382 1
575 430 1
575 433 1
575 437 1
575 455 1
575 458 1
575 464 1
575 470 1
575 478 1
575 517 1
575 524 1
575 555 1
575 569 1
575 573 1
575 576 1
575 578 1
575 617 1
575 621 1
575 622 1
575 627 1
575 639 1
575 646 1
575 647 1
575 659 1
575 674 1
575 690 1
575 696 1
575 741 1
576 1 1
576 17 1
576 63 1
576 74 1
576 77 1
576 80 1
576 84 1
576 112 1
576 146 1
576 174 1
576 181 1
576 185 1
576 186 1
576 188 1
576 209 1
576 232 1
576 243 1
576 244 1
576 255 1
576 264 1
576 280 1
576 299 1
576 313 1
576 340 1
576 347 1
576 348 1
576 361 1
576 405 1
576 406 1
576 409 1
576 446 1
576 449 1
576 463 1
576 466 1
576 476 1
576 477 1
576 486 1
576 491 1
576 527 1
576 531 1
576 539 1
576 547 1
576 571 1
576 575 1
576 583 1
576 605 1
576 625 1
576 632 1
576 637 1
576 650 1
576 653 1
576 678 1
576 688 1
576 735 1
576 742 1
576 762 1
576 772 1
576 783 1
576 789 1
576 790 1
577 1 1
577 2 1
577 10 1
577 13 1
577 20 1
577 60 1
577 86 1
577 92 1
577 153 1
577 181 1
577 187 1
577 200 1
577 202 1
577 221 1
577 232 1
577 235 1
577 253 1
577 268 1
577 296 1
577 308 1
577 368 1
577 370 1
577 377 1
577 437 1
577 458 1
577 464 1
577 469 1
577 472 1
577 475 1
577 487 1
577 573 1
577 611 1
577 613 1
577 618 1
577 637 1
577 638 1
577 640 1
577 668 1
577 671 1
577 675 1
577 726 1
577 732 1
577 739 1
577 741 1
577 757 1
577 758 1
577 781 1
577 787 1
577 798 1
578 13 1
578 14 1
578 21 1
578 48 1
578 111 1
578 115 1
578 151 1
578 158 1
578 172 1
578 219 1
578 221 1
578 247 1
578 250 1
578 257 1
578 284 1
578 288 1
578 308 1
578 369 1
578 383 1
578 387 1
578 390 1
578 405 1
578 416 1
578 423 1
578 424 1
578 463 1
578 486 1
578 517 1
578 563 1
578 575 1
578 580 1
578 596 1
578 671 1
578 682 1
578 686 1
578 698 1
578 715 1
578 743 1
578 795 1
578 797 1
579 13 1
579 19 1
579 29 1
579 44 1
579 67 1
579 97 1
579 118 1
579 156 1
579 196 1
579 198 1
579 240 1
579 271 1
579 329 1
579 334 1
579 349 1
579 366 1
579 407 1
579 419 1
579 462 1
579 515 1
579 517 1
579 540 1
579 564 1
579 574 1
579 586 1
579 605 1
579 613 1
579 636 1
579 653 1
579 661 1
579 680 1
579 711 1
579 735 1
579 790 1
579 794 1
580 20 1
580 32 1
580 72 1
580 78 1
580 79 1
580 108 1
580 118 1
580 121 1
580 126 1
580 143 1
580 152 1
580 165 1
580 189 1
580 200 1
580 219 1
580 235 1
580 253 1
580 284 1
580 314 1
580 319 1
580 324 1
580 349 1
580 381 1
580 383 1
580 387 1
580 390 1
580 426 1
580 513 1
580 525 1
580 527 1
580 539 1
580 560 1
580 567 1
580 569 1
580 578 1
580 627 1
580 639 1
580 685 1
580 686 1
580 718 1
580 736 1
580 762 1
580 763 1
580 787 1
580 789 1
581 24 1
581 27 1
581 56 1
581 57 1
581 83 1
581 98 1
581 138 1
581 142 1
581 144 1
581 157 1
581 168 1
581 175 1
581 181 1
581 196 1
581 200 1
581 223 1
581 261 1
581 310 1
581 327 1
581 331 1
581 347 1
581 368 1
581 376 1
581 453 1
581 465 1
581 473 1
581 520 1
581 525 1
581 542 1
581 544 1
581 556 1
581 583 1
581 587 1
581 597 1
581 601 1
581 605 1
581 614 1
581 619 1
581 623 1
581 654 1
581 697 1
581 711 1
581 716 1
581 719 1
581 758 1
581 783 1
581 792 1
581 800 1
582 8 1
582 20 1
582 25 1
582 38 1
582 56 1
582 61 1
582 63 1
582 80 1
582 102 1
582 108 1
582 115 1
582 134 1
582 137 1
582 168 1
582 170 1
582 171 1
582 178 1
582 186 1
582 192 1
582 258 1
582 284 1
582 289 1
582 317 1
582 322 1
582 328 1
582 332 1
582 391 1
582 410 1
582 417 1
582 471 1
582 473 1
582 477 1
582 478 1
582 507 1
582 511 1
582 512 1
582 557 1
582 569 1
582 596 1
582 604 1
582 610 1
582 611 1
582 625 1
582 630 1
582 667 1
582 677 1
582 680 1
582 706 1
582 744 1
582 746 1
582 759 1
582 788 1
582 793 1
583 23 1
583 24 1
583 49 1
583 54 1
583 58 1
583 84 1
583 94 1
583 114 1
583 156 1
583 159 1
583 165 1
583 202 1
583 227 1
583 245 1
583 276 1
583 282 1
583 292 1
583 304 1
583 305 1
583 324 1
583 334 1
583 340 1
583 346 1
583 357 1
583 388 1
583 389 1
583 395 1
583 397 1
583 402 1
583 420 1
583 421 1
583 426 1
583 465 1
583 521 1
583 543 1
583 546 1
583 576 1
583 581 1
583 593 1
583 602 1
583 610 1
583 652 1
583 676 1
583 680 1
583 686 1
583 710 1
583 720 1
583 728 1
583 744 1
583 752 1
583 756 1
584 17 1
584 47 1
584 66 1
584 71 1
584 73 1
584 93 1
584 118 1
584 126 1
584 151 1
584 184 1
584 208 1
584 212 1
584 236 1
584 266 1
584 289 1
584 297 1
584 335 1
584 338 1
584 357 1
584 374 1
584 388 1
584 408 1
584 413 1
584 426 1
584 435 1
584 456 1
584 472 1
584 485 1
584 502 1
584 535 1
584 551 1
584 591 1
584 603 1
584 657 1
584 690 1
584 703 1
584 705 1
584 710 1
584 746 1
584 771 1
585 23 1
585 33 1
585 47 1
585 48 1
585 57 1
585 59 1
585 123 1
585 157 1
585 166 1
585 176 1
585 194 1
585 219 1
585 258 1
585 260 1
585 265 1
585 282 1
585 314 1
585 316 1
585 319 1
585 323 1
585 366 1
585 398 1
585 404 1
585 419 1
585 446 1
585 456 1
585 478 1
585 488 1
585 524 1
585 539 1
585 549 1
585 600 1
585 617 1
585 618 1
585 619 1
585 636 1
585 645 1
585 656 1
585 662 1
585 670 1
585 686 1
585 714 1
585 715 1
585 720 1
585 752 1
585 786 1
585 795 1
586 75 1
586 81 1
586 82 1
586 109 1
586 117 1
586 148 1
586 178 1
586 187 1
586 195 1
586 199 1
586 202 1
586 223 1
586 249 1
586 260 1
586 264 1
586 284 1
586 290 1
586 313 1
586 316 1
586 319 1
586 334 1
586 342 1
586 345 1
586 372 1
586 377 1
586 392 1
586 401 1
586 402 1
586 414 1
586 421 1
586 425 1
586 442 1
586 459 1
586 463 1
586 484 1
586 485 1
586 504 1
586 511 1
586 534 1
586 548 1
586 579 1
586 607 1
586 611 1
586 612 1
586 625 1
586 666 1
586 670 1
586 696 1
586 699 1
586 731 1
586 751 1
586 765 1
586 786 1
587 2 1
587 4 1
587 12 1
587 26 1
587 30 1
587 33 1
587 39 1
587 46 1
587 59 1
587 93 1
587 98 1
587 117 1
587 140 1
587 149 1
587 152 1
587 194 1
587 225 1
587 253 1
587 341 1
587 372 1
587 374 1
587 392 1
587 406 1
587 423 1
587 466 1
587 493 1
587 520 1
587 555 1
587 581 1
587 632 1
587 638 1
587 653 1
587 656 1
587 657 1
587 682 1
587 683 1
587 689 1
587 699 1
587 719 1
587 727 1
587 747 1
587 765 1
588 3 1
588 42 1
588 103 1
588 132 1
588 144 1
588 157 1
588 192 1
588 215 1
588 234 1
588 238 1
588 250 1
588 255 1
588 268 1
588 274 1
588 280 1
588 313 1
588 315 1
588 331 1
588 336 1
588 351 1
588 355 1
588 361 1
588 366 1
588 373 1
588 376 1
588 392 1
588 412 1
588 415 1
588 432 1
588 445 1
588 468 1
588 487 1
588 490 1
588 498 1
588 499 1
588 509 1
588 527 1
588 592 1
588 596 1
588 619 1
588 621 1
588 626 1
588 628 1
588 629 1
588 630 1
588 635 1
588 648 1
588 654 1
588 669 1
588 682 1
588 684 1
588 686 1
588 691 1
588 706 1
588 709 1
588 711 1
588 713 1
588 718 1
588 734 1
588 762 1
588 788 1
588 797 1
589 35 1
589 66 1
589 91 1
589 93 1
589 100 1
589 102 1
589 162 1
589 163 1
589 192 1
589 218 1
589 237 1
589 260 1
589 282 1
589 289 1
589 295 1
589 303 1
589 309 1
589 310 1
589 329 1
589 343 1
589 350 1
589 354 1
589 360 1
589 375 1
589 398 1
589 422 1
589 432 1
589 522 1
589 525 1
589 538 1
589 547 1
589 549 1
589 551 1
589 564 1
589 569 1
589 572 1
589 605 1
589 617 1
589 661 1
589 671 1
589 717 1
589 718 1
589 722 1
589 727 1
589 731 1
589 750 1
589 763 1
589 780 1
589 784 1
589 790 1
590 14 1
590 26 1
590 29 1
590 37 1
590 47 1
590 79 1
590 89 1
590 105 1
590 106 1
590 137 1
590 139 1
590 152 1
590 170 1
590 190 1
590 213 1
590 235 1
590 241 1
590 242 1
590 264 1
590 276 1
590 281 1
590 323 1
590 327 1
590 328 1
590 339 1
590 352 1
590 421 1
590 433 1
590 445 1
590 446 1
590 450 1
590 516 1
590 517 1
590 531 1
590 544 1
590 615 1
590 623 1
590 628 1
590 643 1
590 644 1
590 651 1
590 652 1
590 679 1
590 688 1
590 689 1
590 716 1
590 743 1
590 755 1
590 756 1
590 766 1
590 781 1
590 792 1
591 6 1
591 7 1
591 15 1
591 21 1
591 59 1
591 67 1
591 73 1
591 90 1
591 103 1
591 105 1
591 108 1
591 112 1
591 143 1
591 195 1
591 256 1
591 261 1
591 262 1
591 270 1
591 279 1
591 288 1
591 294 1
591 303 1
591 364 1
591 370 1
591 379 1
591 386 1
591 395 1
591 416 1
591 439 1
591 446 1
591 481 1
591 489 1
591 498 1
591 514 1
591 535 1
591 566 1
591 584 1
591 613 1
591 670 1
591 675 1
591 683 1
591 701 1
591 719 1
591 745 1
591 753 1
591 758 1
591 770 1
592 28 1
592 30 1
592 35 1
592 37 1
592 47 1
592 51 1
592 55 1
592 60 1
592 78 1
592 100 1
592 122 1
592 128 1
592 140 1
592 141 1
592 152 1
592 162 1
592 197 1
592 204 1
592 230 1
592 236 1
592 244 1
592 260 1
592 271 1
592 274 1
592 281 1
592 302 1
592 325 1
592 332 1
592 334 1
592 336 1
592 355 1
592 365 1
592 415 1
592 443 1
592 454 1
592 465 1
592 482 1
592 488 1
592 507 1
592 538 1
592 552 1
592 553 1
592 555 1
592 588 1
592 593 1
592 643 1
592 654 1
592 676 1
592 685 1
592 697 1
592 704 1
592 713 1
592 725 1
592 769 1
592 782 1
592 794 1
593 9 1
593 17 1
593 39 1
593 76 1
593 78 1
593 110 1
593 117 1
593 140 1
593 143 1
593 145 1
593 156 1
593 165 1
593 168 1
593 198 1
593 221 1
593 296 1
593 304 1
593 347 1
593 349 1
593 376 1
593 388 1
593 425 1
593 445 1
593 472 1
593 481 1
593 487 1
593 490 1
593 497 1
593 544 1
593 583 1
593 592 1
593 628 1
593 638 1
593 649 1
593 658 1
593 661 1
593 670 1
593 707 1
593 724 1
593 746 1
593 749 1
593 779 1
593 787 1
594 45 1
594 66 1
594 69 1
594 125 1
594 150 1
594 159 1
594 168 1
594 169 1
594 193 1
594 202 1
594 262 1
594 265 1
594 273 1
594 298 1
594 306 1
594 307 1
594 321 1
594 336 1
594 340 1
594 351 1
594 360 1
594 369 1
594 388 1
594 390 1
594 397 1
594 405 1
594 411 1
594 418 1
594 437 1
594 442 1
594 466 1
594 469 1
594 483 1
594 491 1
594 504 1
594 530 1
594 562 1
594 572 1
594 614 1
594 666 1
594 690 1
594 728 1
594 736 1
594 739 1
594 745 1
594 767 1
594 793 1
594 796 1
595 42 1
595 73 1
595 112 1
595 117 1
595 123 1
595 144 1
595 147 1
595 153 1
595 162 1
595 164 1
595 186 1
595 187 1
595 235 1
595 238 1
595 255 1
595 261 1
595 271 1
595 285 1
595 286 1
595 317 1
595 333 1
595 356 1
595 390 1
595 392 1
595 404 1
595 412 1
595 431 1
595 441 1
595 445 1
595 465 1
595 468 1
595 470 1
595 484 1
595 508 1
595 555 1
595 561 1
595 568 1
595 624 1
595 635 1
595 659 1
595 661 1
595 670 1
595 688 1
595 704 1
595 725 1
596 2 1
596 6 1
596 12 1
596 19 1
596 38 1
596 43 1
596 59 1
596 76 1
596 78 1
596 84 1
596 87 1
596 88 1
596 101 1
596 127 1
596 131 1
596 137 1
596 140 1
596 148 1
596 162 1
596 176 1
596 208 1
596 213 1
596 222 1
596 232 1
596 235 1
596 255 1
596 273 1
596 297 1
596 336 1
596 338 1
596 339 1
596 353 1
596 374 1
596 388 1
596 400 1
596 413 1
596 446 1
596 457 1
596 458 1
596 463 1
596 472 1
596 535 1
596 553 1
596 578 1
596 582 1
596 588 1
596 602 1
596 610 1
596 612 1
596 613 1
596 619 1
596 621 1
596 623 1
596 627 1
596 630 1
596 648 1
596 650 1
596 655 1
596 662 1
596 676 1
596 699 1
596 702 1
596 709 1
596 710 1
596 719 1
596 726 1
596 760 1
596 797 1
596 800 1
597 37 1
597 40 1
597 55 1
597 86 1
597 90 1
597 113 1
597 137 1
597 141 1
597 142 1
597 155 1
597 181 1
597 193 1
597 214 1
597 217 1
597 250 1
597 277 1
597 290 1
597 333 1
597 346 1
597 351 1
597 368 1
597 378 1
597 389 1
597 391 1
597 398 1
597 424 1
597 426 1
597 497 1
597 499 1
597 518 1
597 562 1
597 563 1
597 581 1
597 650 1
597 654 1
597 676 1
597 697 1
597 716 1
597 729 1
597 740 1
597 749 1
598 39 1
598 63 1
598 66 1
598 111 1
598 119 1
598 168 1
598 174 1
598 207 1
598 208 1
598 219 1
598 223 1
598 260 1
598 277 1
598 286 1
598 304 1
598 310 1
598 311 1
598 366 1
598 395 1
598 399 1
598 413 1
598 417 1
598 419 1
598 432 1
598 495 1
598 498 1
598 505 1
598 515 1
598 517 1
598 533 1
598 610 1
598 622 1
598 669 1
598 687 1
598 692 1
598 694 1
598 707 1
598 733 1
598 743 1
598 746 1
598 747 1
598 761 1
598 774 1
598 786 1
598 790 1
598 799 1
599 1 1
599 41 1
599 45 1
599 59 1
599 70 1
599 75 1
599 94 1
599 106 1
599 113 1
599 146 1
599 149 1
599 162 1
599 165 1
599 170 1
599 191 1
599 201 1
599 241 1
599 255 1
599 259 1
599 260 1
599 278 1
599 289 1
599 290 1
599 301 1
599 305 1
599 324 1
599 326 1
599 340 1
599 349 1
599 364 1
599 367 1
599 397 1
599 404 1
599 458 1
599 512 1
599 516 1
599 549 1
599 556 1
599 564 1
599 569 1
599 634 1
599 641 1
599 669 1
599 713 1
599 720 1
599 722 1
599 726 1
599 752 1
599 764 1
600 14 1
600 42 1
600 48 1
600 69 1
600 76 1
600 124 1
600 125 1
600 127 1
600 193 1
600 219 1
600 233 1
600 234 1
600 257 1
600 271 1
600 301 1
600 307 1
600 308 1
600 310 1
600 363 1
600 371 1
600 437 1
600 438 1
600 449 1
600 486 1
600 498 1
600 508 1
600 517 1
600 526 1
600 530 1
600 569 1
600 585 1
600 611 1
600 618 1
600 630 1
600 654 1
600 660 1
600 672 1
600 708 1
600 712 1
600 742 1
601 15 1
601 24 1
601 71 1
601 117 1
601 121 1
601 206 1
601 209 1
601 214 1
601 223 1
601 225 1
601 251 1
601 262 1
601 289 1
601 299 1
601 302 1
601 307 1
601 328 1
601 359 1
601 365 1
601 389 1
601 391 1
601 405 1
601 409 1
601 417 1
601 428 1
601 455 1
601 459 1
601 463 1
601 468 1
601 472 1
601 475 1
601 517 1
601 530 1
601 531 1
601 557 1
601 581 1
601 612 1
601 620 1
601 660 1
601 663 1
601 665 1
601 666 1
601 689 1
601 706 1
601 752 1
601 768 1
602 9 1
602 39 1
602 40 1
602 47 1
602 85 1
602 122 1
602 124 1
602 132 1
602 137 1
602 151 1
602 159 1
602 173 1
602 185 1
602 205 1
602 258 1
602 264 1
602 265 1
602 271 1
602 308 1
602 349 1
602 372 1
602 382 1
602 398 1
602 402 1
602 405 1
602 483 1
602 487 1
602 491 1
602 497 1
602 506 1
602 508 1
602 523 1
602 527 1
602 555 1
602 572 1
602 583 1
602 596 1
602 614 1
602 657 1
602 662 1
602 666 1
602 669 1
602 698 1
602 755 1
602 759 1
602 795 1
603 27 1
603 29 1
603 44 1
603 62 1
603 71 1
603 138 1
603 143 1
603 145 1
603 159 1
603 197 1
603 220 1
603 289 1
603 338 1
603 347 1
603 363 1
603 385 1
603 389 1
603 400 1
603 416 1
603 442 1
603 467 1
603 470 1
603 482 1
603 487 1
603 491 1
603 501 1
603 506 1
603 515 1
603 562 1
603 567 1
603 584 1
603 655 1
603 697 1
603 709 1
603 734 1
603 761 1
603 762 1
603 775 1
603 779 1
604 3 1
604 4 1
604 17 1
604 18 1
604 27 1
604 37 1
604 80 1
604 114 1
604 162 1
604 190 1
604 223 1
604 228 1
604 230 1
604 235 1
604 237 1
604 238 1
604 241 1
604 246 1
604 247 1
604 255 1
604 268 1
604 282 1
604 294 1
604 300 1
604 303 1
604 319 1
604 338 1
604 339 1
604 363 1
604 434 1
604 440 1
604 451 1
604 498 1
604 518 1
604 552 1
604 561 1
604 566 1
604 582 1
604 607 1
604 613 1
604 643 1
604 655 1
604 663 1
604 672 1
604 678 1
604 719 1
604 731 1
604 744 1
604 764 1
604 777 1
604 781 1
605 32 1
605 51 1
605 111 1
605 153 1
605 169 1
605 171 1
605 180 1
605 190 1
605 191 1
605 197 1
605 204 1
605 215 1
605 223 1
605 236 1
605 238 1
605 251 1
605 256 1
605 273 1
605 337 1
605 375 1
605 377 1
605 389 1
605 402 1
605 415 1
605 420 1
605 431 1
605 450 1
605 457 1
605 461 1
605 480 1
605 481 1
605 514 1
605 518 1
605 533 1
605 539 1
605 544 1
605 570 1
605 576 1
605 579 1
605 581 1
605 589 1
605 632 1
605 635 1
605 673 1
605 680 1
605 696 1
605 701 1
605 714 1
605 729 1
605 731 1
605 744 1
605 748 1
605 781 1
606 11 1
606 38 1
606 50 1
606 52 1
606 66 1
606 70 1
606 78 1
606 79 1
606 92 1
606 104 1
606 133 1
606 149 1
606 162 1
606 174 1
606 179 1
606 182 1
606 184 1
606 201 1
606 202 1
606 211 1
606 219 1
606 243 1
606 244 1
606 248 1
606 255 1
606 263 1
606 268 1
606 313 1
606 315 1
606 334 1
606 356 1
606 370 1
606 391 1
606 400 1
606 402 1
606 420 1
606 429 1
606 435 1
606 438 1
606 452 1
606 453 1
606 467 1
606 469 1
606 560 1
606 564 1
606 570 1
606 613 1
606 621 1
606 630 1
606 652 1
606 655 1
606 657 1
606 659 1
606 666 1
606 681 1
606 691 1
606 717 1
606 724 1
606 726 1
606 734 1
606 736 1
606 759 1
606 770 1
606 785 1
606 788 1
606 790 1
607 10 1
607 17 1
607 52 1
607 108 1
607 125 1
607 191 1
607 196 1
607 207 1
607 243 1
607 249 1
607 269 1
607 281 1
607 295 1
607 351 1
607 354 1
607 367 1
607 380 1
607 387 1
607 400 1
607 413 1
607 436 1
607 438 1
607 440 1
607 442 1
607 468 1
607 470 1
607 484 1
607 494 1
607 500 1
607 586 1
607 604 1
607 620 1
607 660 1
607 667 1
607 700 1
608 46 1
608 65 1
608 80 1
608 93 1
608 113 1
608 137 1
608 165 1
608 217 1
608 232 1
608 235 1
608 248 1
608 253 1
608 278 1
608 286 1
608 296 1
608 328 1
608 344 1
608 358 1
608 375 1
608 388 1
608 398 1
608 409 1
608 420 1
608 460 1
608 475 1
608 479 1
608 481 1
608 493 1
608 497 1
608 502 1
608 504 1
608 538 1
608 557 1
608 558 1
608 632 1
608 663 1
608 668 1
608 674 1
608 679 1
608 680 1
608 685 1
608 693 1
608 695 1
608 711 1
608 750 1
608 760 1
608 768 1
608 776 1
608 784 1
609 4 1
609 27 1
609 43 1
609 44 1
609 48 1
609 94 1
609 103 1
609 123 1
609 137 1
609 163 1
609 173 1
609 187 1
609 195 1
609 219 1
609 247 1
609 252 1
609 261 1
609 278 1
609 303 1
609 316 1
609 317 1
609 332 1
609 401 1
609 427 1
609 444 1
609 468 1
609 484 1
609 495 1
609 521 1
609 523 1
609 554 1
609 569 1
609 573 1
609 613 1
609 638 1
609 660 1
609 668 1
609 679 1
609 698 1
609 711 1
609 729 1
609 730 1
609 736 1
609 753 1
609 760 1
610 43 1
610 124 1
610 138 1
610 156 1
610 163 1
610 185 1
610 204 1
610 284 1
610 293 1
610 327 1
610 365 1
610 376 1
610 412 1
610 430 1
610 440 1
610 460 1
610 466 1
610 472 1
610 489 1
610 508 1
610 546 1
610 582 1
610 583 1
610 596 1
610 598 1
610 629 1
610 636 1
610 655 1
610 682 1
610 687 1
610 692 1
610 718 1
610 721 1
610 757 1
610 759 1
610 798 1
611 2 1
611 3 1
611 12 1
611 15 1
611 18 1
611 20 1
611 29 1
611 73 1
611 108 1
611 125 1
611 137 1
611 147 1
611 167 1
611 223 1
611 233 1
611 249 1
611 257 1
611 261 1
611 273 1
611 277 1
611 293 1
611 349 1
611 353 1
611 361 1
611 370 1
611 376 1
611 399 1
611 425 1
611 429 1
611 441 1
611 466 1
611 490 1
611 509 1
611 532 1
611 562 1
611 569 1
611 574 1
611 577 1
611 582 1
611 586 1
611 600 1
611 615 1
611 651 1
611 665 1
611 685 1
611 690 1
611 730 1
611 738 1
611 782 1
612 6 1
612 7 1
612 17 1
612 18 1
612 31 1
612 48 1
612 60 1
612 72 1
612 75 1
612 127 1
612 128 1
612 155 1
612 169 1
612 192 1
612 195 1
612 202 1
612 206 1
612 208 1
612 239 1
612 271 1
612 280 1
612 315 1
612 358 1
612 382 1
612 402 1
612 413 1
612 414 1
612 425 1
612 431 1
612 441 1
612 451 1
612 492 1
612 493 1
612 495 1
612 524 1
612 530 1
612 532 1
612 546 1
612 586 1
612 596 1
612 601 1
612 645 1
612 666 1
612 685 1
612 690 1
612 700 1
612 704 1
612 721 1
612 729 1
612 731 1
612 737 1
612 740 1
613 5 1
613 21 1
613 35 1
613 66 1
613 68 1
613 70 1
613 71 1
613 110 1
613 149 1
613 153 1
613 155 1
613 201 1
613 214 1
613 245 1
613 246 1
613 248 1
613 273 1
613 304 1
613 312 1
613 338 1
613 345 1
613 364 1
613 381 1
613 389 1
613 404 1
613 439 1
613 475 1
613 486 1
613 492 1
613 495 1
613 519 1
613 552 1
613 562 1
613 577 1
613 579 1
613 591 1
613 596 1
613 604 1
613 606 1
613 609 1
613 660 1
613 684 1
613 697 1
613 700 1
613 701 1
613 710 1
613 716 1
613 738 1
613 746 1
613 767 1
613 771 1
613 777 1
613 783 1
613 794 1
614 9 1
614 10 1
614 12 1
614 40 1
614 48 1
614 71 1
614 89 1
614 92 1
614 104 1
614 108 1
614 143 1
614 156 1
614 233 1
614 262 1
614 321 1
614 392 1
614 402 1
614 418 1
614 419 1
614 436 1
614 442 1
614 474 1
614 511 1
614 537 1
614 581 1
614 594 1
614 602 1
614 647 1
614 675 1
614 679 1
614 694 1
614 708 1
614 738 1
614 759 1
614 767 1
614 777 1
615 16 1
615 71 1
615 129 1
615 142 1
615 163 1
615 170 1
615 179 1
615 223 1
615 247 1
615 279 1
615 297 1
615 310 1
615 317 1
615 319 1
615 322 1
615 338 1
615 358 1
615 371 1
615 402 1
615 405 1
615 422 1
615 430 1
615 466 1
615 483 1
615 505 1
615 515 1
615 529 1
615 535 1
615 545 1
615 564 1
615 590 1
615 611 1
615 632 1
615 651 1
615 665 1
615 680 1
615 685 1
615 710 1
615 715 1
615 735 1
615 754 1
615 764 1
615 768 1
615 770 1
615 780 1
615 786 1
616 10 1
616 21 1
616 38 1
616 58 1
616 62 1
616 70 1
616 74 1
616 78 1
616 84 1
616 124 1
616 143 1
616 150 1
616 163 1
616 176 1
616 187 1
616 198 1
616 203 1
616 204 1
616 213 1
616 228 1
616 230 1
616 247 1
616 251 1
616 269 1
616 291 1
616 346 1
616 353 1
616 380 1
616 420 1
616 437 1
616 448 1
616 457 1
616 488 1
616 493 1
616 512 1
616 530 1
616 624 1
616 639 1
616 668 1
616 669 1
616 692 1
616 707 1
616 708 1
616 711 1
616 720 1
616 727 1
616 728 1
616 741 1
616 755 1
616 782 1
616 788 1
616 789 1
616 796 1
616 797 1
617 19 1
617 33 1
617 42 1
617 46 1
617 97 1
617 122 1
617 216 1
617 241 1
617 262 1
617 279 1
617 303 1
617 318 1
617 330 1
617 333 1
617 355 1
617 391 1
617 439 1
617 458 1
617 472 1
617 474 1
617 475 1
617 476 1
617 489 1
617 491 1
617 504 1
617 513 1
617 547 1
617 548 1
617 575 1
617 585 1
617 589 1
617 699 1
617 703 1
617 708 1
617 757 1
617 769 1
617 778 1
617 783 1
617 785 1
617 787 1
618 17 1
618 19 1
618 41 1
618 64 1
618 65 1
618 84 1
618 95 1
618 110 1
618 116 1
618 120 1
618 128 1
618 144 1
618 177 1
618 206 1
618 210 1
618 213 1
618 219 1
618 230 1
618 282 1
618 290 1
618 312 1
618 347 1
618 356 1
618 370 1
618 372 1
618 385 1
618 394 1
618 396 1
618 398 1
618 502 1
618 508 1
618 527 1
618 543 1
618 545 1
618 558 1
618 560 1
618 577 1
618 585 1
618 600 1
618 624 1
618 653 1
618 657 1
618 664 1
618 668 1
618 669 1
618 670 1
618 674 1
618 682 1
618 684 1
618 692 1
618 698 1
618 747 1
618 767 1
618 780 1
618 782 1
618 792 1
619 20 1
619 42 1
619 45 1
619 66 1
619 68 1
619 81 1
619 98 1
619 100 1
619 103 1
619 152 1
619 160 1
619 198 1
619 205 1
619 214 1
619 229 1
619 247 1
619 276 1
619 299 1
619 377 1
619 429 1
619 439 1
619 451 1
619 472 1
619 486 1
619 489 1
619 512 1
619 525 1
619 556 1
619 563 1
619 569 1
619 581 1
619 585 1
619 588 1
619 596 1
619 624 1
619 649 1
619 654 1
619 659 1
619 663 1
619 689 1
619 705 1
619 720 1
619 760 1
619 773 1
620 4 1
620 11 1
620 17 1
620 30 1
620 59 1
620 77 1
620 95 1
620 108 1
620 125 1
620 128 1
620 136 1
620 142 1
620 179 1
620 188 1
620 190 1
620 199 1
620 259 1
620 279 1
620 293 1
620 305 1
620 335 1
620 349 1
620 360 1
620 372 1
620 382 1
620 390 1
620 397 1
620 401 1
620 409 1
620 429 1
620 439 1
620 447 1
620 454 1
620 458 1
620 463 1
620 473 1
620 503 1
620 506 1
620 524 1
620 527 1
620 559 1
620 601 1
620 607 1
620 631 1
620 642 1
620 669 1
620 690 1
620 691 1
620 712 1
620 720 1
620 736 1
620 761 1
620 774 1
620 784 1
620 793 1
621 22 1
621 25 1
621 65 1
621 90 1
621 97 1
621 111 1
621 118 1
621 128 1
621 132 1
621 159 1
621 162 1
621 169 1
621 171 1
621 180 1
621 190 1
621 192 1
621 199 1
621 202 1
621 257 1
621 261 1
621 279 1
621 321 1
621 344 1
621 360 1
621 365 1
621 374 1
621 381 1
621 389 1
621 418 1
621 424 1
621 445 1
621 471 1
621 479 1
621 497 1
621 511 1
621 543 1
621 554 1
621 570 1
621 575 1
621 588 1
621 596 1
621 606 1
621 624 1
621 662 1
621 666 1
621 670 1
621 680 1
621 693 1
621 696 1
622 5 1
622 28 1
622 75 1
622 125 1
622 126 1
622 130 1
622 136 1
622 150 1
622 160 1
622 178 1
622 193 1
622 203 1
622 236 1
622 238 1
622 257 1
622 268 1
622 285 1
622 313 1
622 314 1
622 322 1
622 336 1
622 389 1
622 390 1
622 399 1
622 414 1
622 470 1
622 473 1
622 477 1
622 495 1
622 510 1
622 518 1
622 519 1
622 528 1
622 559 1
622 560 1
622 564 1
622 574 1
622 575 1
622 598 1
622 626 1
622 658 1
622 661 1
622 664 1
622 686 1
622 687 1
622 739 1
622 770 1
622 775 1
622 779 1
622 792 1
622 799 1
623 6 1
623 20 1
623 29 1
623 83 1
623 86 1
623 94 1
623 128 1
623 144 1
623 171 1
623 177 1
623 188 1
623 223 1
623 230 1
623 269 1
623 284 1
623 291 1
623 306 1
623 316 1
623 355 1
623 389 1
623 429 1
623 480 1
623 489 1
623 515 1
623 562 1
623 566 1
623 581 1
623 590 1
623 596 1
623 651 1
623 653 1
623 666 1
623 677 1
623 684 1
623 705 1
623 709 1
623 734 1
623 745 1
623 775 1
624 19 1
624 35 1
624 50 1
624 65 1
624 109 1
624 123 1
624 136 1
624 171 1
624 183 1
624 191 1
624 196 1
624 197 1
624 220 1
624 221 1
624 254 1
624 272 1
624 273 1
624 289 1
624 323 1
624 404 1
624 418 1
624 437 1
624 481 1
624 510 1
624 521 1
624 526 1
624 536 1
624 539 1
624 541 1
624 572 1
624 573 1
624 595 1
624 616 1
624 618 1
624 619 1
624 621 1
624 643 1
624 673 1
624 693 1
624 712 1
624 730 1
624 750 1
624 777 1
625 11 1
625 58 1
625 59 1
625 75 1
625 90 1
625 122 1
625 126 1
625 153 1
625 205 1
625 211 1
625 220 1
625 231 1
625 238 1
625 246 1
625 252 1
625 298 1
625 302 1
625 318 1
625 382 1
625 388 1
625 392 1
625 421 1
625 423 1
625 432 1
625 440 1
625 444 1
625 489 1
625 518 1
625 576 1
625 582 1
625 586 1
625 631 1
625 634 1
625 693 1
625 694 1
625 707 1
625 712 1
625 740 1
625 742 1
625 748 1
625 775 1
625 784 1
626 1 1
626 29 1
626 30 1
626 32 1
626 72 1
626 74 1
626 125 1
626 162 1
626 198 1
626 206 1
626 237 1
626 256 1
626 258 1
626 277 1
626 282 1
626 296 1
626 317 1
626 329 1
626 333 1
626 345 1
626 348 1
626 367 1
626 398 1
626 408 1
626 417 1
626 431 1
626 442 1
626 444 1
626 474 1
626 483 1
626 562 1
626 588 1
626 622 1
626 628 1
626 649 1
626 683 1
626 684 1
626 713 1
626 729 1
626 732 1
626 738 1
626 775 1
626 799 1
627 13 1
627 39 1
627 84 1
627 88 1
627 110 1
627 118 1
627 147 1
627 213 1
627 261 1
627 264 1
627 311 1
627 326 1
627 349 1
627 361 1
627 375 1
627 381 1
627 398 1
627 409 1
627 460 1
627 462 1
627 481 1
627 492 1
627 493 1
627 544 1
627 557 1
627 575 1
627 580 1
627 596 1
627 636 1
627 656 1
627 659 1
627 670 1
627 691 1
627 706 1
627 714 1
627 751 1
627 760 1
627 781 1
628 21 1
628 24 1
628 25 1
628 28 1
628 29 1
628 34 1
628 73 1
628 87 1
628 88 1
628 96 1
628 124 1
628 150 1
628 155 1
628 171 1
628 183 1
628 196 1
628 240 1
628 241 1
628 269 1
628 290 1
628 291 1
628 303 1
628 316 1
628 332 1
628 343 1
628 353 1
628 371 1
628 372 1
628 373 1
628 388 1
628 444 1
628 455 1
628 464 1
628 480 1
628 501 1
628 503 1
628 510 1
628 528 1
628 588 1
628 590 1
628 593 1
628 626 1
628 659 1
628 661 1
628 662 1
628 699 1
628 714 1
628 721 1
628 723 1
628 756 1
628 766 1
628 769 1
628 795 1
629 11 1
629 25 1
629 35 1
629 43 1
629 45 1
629 55 1
629 104 1
629 163 1
629 164 1
629 177 1
629 213 1
629 218 1
629 261 1
629 265 1
629 282 1
629 286 1
629 287 1
629 319 1
629 331 1
629 365 1
629 394 1
629 402 1
629 421 1
629 438 1
629 440 1
629 452 1
629 483 1
629 485 1
629 498 1
629 517 1
629 523 1
629 524 1
629 526 1
629 527 1
629 534 1
629 544 1
629 563 1
629 588 1
629 610 1
629 642 1
629 667 1
629 668 1
629 672 1
629 679 1
629 706 1
629 709 1
629 719 1
629 738 1
629 739 1
629 742 1
629 753 1
629 778 1
629 779 1
629 784 1
629 793 1
629 798 1
629 799 1
630 9 1
630 13 1
630 26 1
630 59 1
630 73 1
630 89 1
630 122 1
630 154 1
630 162 1
630 171 1
630 173 1
630 178 1
630 200 1
630 208 1
630 215 1
630 217 1
630 251 1
630 265 1
630 295 1
630 301 1
630 305 1
630 320 1
630 332 1
630 339 1
630 380 1
630 389 1
630 390 1
630 391 1
630 403 1
630 413 1
630 431 1
630 434 1
630 441 1
630 461 1
630 481 1
630 486 1
630 489 1
630 523 1
630 560 1
630 563 1
630 582 1
630 588 1
630 596 1
630 600 1
630 606 1
630 646 1
630 677 1
630 688 1
630 706 1
630 710 1
630 713 1
630 732 1
630 741 1
630 746 1
630 751 1
630 767 1
630 768 1
630 774 1
630 778 1
630 785 1
631 3 1
631 27 1
631 47 1
631 59 1
631 64 1
631 70 1
631 71 1
631 73 1
631 89 1
631 94 1
631 113 1
631 157 1
631 159 1
631 164 1
631 180 1
631 200 1
631 202 1
631 207 1
631 219 1
631 237 1
631 313 1
631 357 1
631 387 1
631 399 1
631 415 1
631 419 1
631 476 1
631 480 1
631 494 1
631 498 1
631 516 1
631 541 1
631 550 1
631 556 1
631 558 1
631 620 1
631 625 1
631 636 1
631 640 1
631 663 1
631 666 1
631 683 1
631 692 1
631 711 1
631 715 1
631 719 1
631 720 1
631 741 1
631 747 1
631 770 1
631 798 1
632 27 1
632 28 1
632 40 1
632 108 1
632 132 1
632 162 1
632 221 1
632 234 1
632 245 1
632 247 1
632 248 1
632 267 1
632 277 1
632 303 1
632 311 1
632 331 1
632 364 1
632 368 1
632 376 1
632 377 1
632 378 1
632 392 1
632 397 1
632 417 1
632 432 1
632 436 1
632 443 1
632 447 1
632 451 1
632 462 1
632 465 1
632 485 1
632 487 1
632 493 1
632 524 1
632 529 1
632 543 1
632 561 1
632 576 1
632 587 1
632 605 1
632 608 1
632 615 1
632 639 1
632 647 1
632 648 1
632 650 1
632 690 1
632 701 1
632 723 1
632 733 1
633 17 1
633 34 1
633 49 1
633 109 1
633 118 1
633 175 1
633 233 1
633 256 1
633 260 1
633 271 1
633 306 1
633 308 1
633 336 1
633 360 1
633 375 1
633 417 1
633 428 1
633 431 1
633 450 1
633 458 1
633 470 1
633 483 1
633 521 1
633 531 1
633 535 1
633 536 1
633 541 1
633 564 1
633 567 1
633 646 1
633 647 1
633 656 1
633 661 1
633 678 1
633 690 1
633 702 1
633 711 1
633 712 1
633 714 1
633 718 1
633 726 1
633 744 1
633 755 1
633 756 1
633 766 1
633 775 1
633 776 1
633 788 1
634 5 1
634 36 1
634 44 1
634 45 1
634 49 1
634 56 1
634 64 1
634 78 1
634 80 1
634 84 1
634 115 1
634 144 1
634 157 1
634 185 1
634 195 1
634 197 1
634 236 1
634 269 1
634 277 1
634 337 1
634 374 1
634 378 1
634 441 1
634 451 1
634 464 1
634 486 1
634 487 1
634 501 1
634 506 1
634 567 1
634 599 1
634 625 1
634 636 1
634 653 1
634 660 1
634 664 1
634 666 1
634 707 1
634 717 1
634 719 1
634 781 1
634 792 1
634 797 1
635 11 1
635 30 1
635 43 1
635 62 1
635 71 1
635 72 1
635 81 1
635 87 1
635 91 1
635 129 1
635 139 1
635 171 1
635 192 1
635 200 1
635 212 1
635 216 1
635 218 1
635 224 1
635 231 1
635 234 1
635 262 1
635 276 1
635 303 1
635 347 1
635 351 1
635 379 1
635 389 1
635 393 1
635 394 1
635 414 1
635 453 1
635 497 1
635 499 1
635 517 1
635 588 1
635 595 1
635 605 1
635 669 1
635 674 1
635 700 1
635 706 1
635 759 1
635 783 1
635 791 1
636 8 1
636 38 1
636 45 1
636 68 1
636 69 1
636 110 1
636 118 1
636 122 1
636 136 1
636 147 1
636 180 1
636 185 1
636 194 1
636 201 1
636 206 1
636 208 1
636 219 1
636 244 1
636 249 1
636 275 1
636 331 1
636 375 1
636 381 1
636 389 1
636 416 1
636 421 1
636 461 1
636 468 1
636 486 1
636 496 1
636 499 1
636 513 1
636 516 1
636 517 1
636 539 1
636 558 1
636 566 1
636 579 1
636 585 1
636 610 1
636 627 1
636 631 1
636 634 1
636 644 1
636 690 1
636 696 1
636 717 1
636 727 1
636 729 1
636 739 1
636 745 1
636 784 1
637 1 1
637 15 1
637 18 1
637 27 1
637 73 1
637 82 1
637 84 1
637 86 1
637 88 1
637 98 1
637 111 1
637 130 1
637 177 1
637 214 1
637 221 1
637 222 1
637 264 1
637 265 1
637 267 1
637 268 1
637 282 1
637 283 1
637 288 1
637 316 1
637 335 1
637 342 1
637 358 1
637 366 1
637 381 1
637 398 1
637 442 1
637 445 1
637 447 1
637 451 1
637 458 1
637 467 1
637 475 1
637 485 1
637 534 1
637 546 1
637 565 1
637 570 1
637 576 1
637 577 1
637 658 1
637 680 1
637 686 1
637 710 1
637 724 1
637 757 1
637 796 1
638 27 1
638 53 1
638 84 1
638 89 1
638 133 1
638 147 1
638 154 1
638 157 1
638 197 1
638 205 1
638 237 1
638 269 1
638 273 1
638 277 1
638 281 1
638 304 1
638 342 1
638 361 1
638 362 1
638 379 1
638 403 1
638 417 1
638 422 1
638 526 1
638 529 1
638 550 1
638 553 1
638 564 1
638 572 1
638 577 1
638 587 1
638 593 1
638 609 1
638 641 1
638 702 1
638 709 1
638 735 1
638 747 1
638 750 1
638 755 1
638 767 1
638 778 1
638 787 1
638 795 1
638 796 1
639 4 1
639 6 1
639 71 1
639 127 1
639 147 1
639 150 1
639 183 1
639 184 1
639 201 1
639 231 1
639 253 1
639 278 1
639 285 1
639 286 1
639 306 1
639 309 1
639 319 1
639 356 1
639 375 1
639 392 1
639 401 1
639 416 1
639 428 1
639 435 1
639 458 1
639 465 1
639 503 1
639 504 1
639 514 1
639 520 1
639 522 1
639 546 1
639 575 1
639 580 1
639 616 1
639 632 1
639 660 1
639 685 1
639 694 1
639 702 1
639 707 1
639 709 1
639 724 1
639 757 1
639 772 1
639 774 1
640 22 1
640 26 1
640 113 1
640 118 1
640 119 1
640 155 1
640 233 1
640 265 1
640 273 1
640 295 1
640 300 1
640 305 1
640 307 1
640 318 1
640 323 1
640 328 1
640 345 1
640 348 1
640 377 1
640 394 1
640 403 1
640 411 1
640 414 1
640 416 1
640 439 1
640 442 1
640 444 1
640 454 1
640 455 1
640 523 1
640 532 1
640 548 1
640 555 1
640 563 1
640 573 1
640 577 1
640 631 1
640 653 1
640 657 1
640 664 1
640 665 1
640 680 1
640 690 1
640 727 1
640 735 1
640 775 1
640 782 1
640 785 1
640 791 1
640 799 1
641 32 1
641 35 1
641 39 1
641 60 1
641 66 1
641 67 1
641 95 1
641 110 1
641 153 1
641 154 1
641 158 1
641 160 1
641 163 1
641 166 1
641 172 1
641 175 1
641 195 1
641 209 1
641 223 1
641 239 1
641 242 1
641 264 1
641 268 1
641 270 1
641 303 1
641 312 1
641 314 1
641 329 1
641 339 1
641 342 1
641 344 1
641 372 1
641 376 1
641 377 1
641 428 1
641 438 1
641 469 1
641 473 1
641 481 1
641 483 1
641 511 1
641 528 1
641 536 1
641 567 1
641 599 1
641 638 1
641 704 1
641 720 1
641 736 1
641 754 1
641 770 1
641 776 1
641 783 1
641 785 1
642 20 1
642 28 1
642 36 1
642 77 1
642 93 1
642 132 1
642 136 1
642 144 1
642 160 1
642 167 1
642 181 1
642 201 1
642 204 1
642 205 1
642 208 1
642 209 1
642 213 1
642 215 1
642 218 1
642 284 1
642 293 1
642 307 1
642 313 1
642 321 1
642 331 1
642 341 1
642 352 1
642 361 1
642 375 1
642 384 1
642 386 1
642 421 1
642 423 1
642 424 1
642 425 1
642 450 1
642 464 1
642 492 1
642 519 1
642 533 1
642 542 1
642 561 1
642 571 1
642 573 1
642 620 1
642 629 1
642 659 1
642 671 1
642 695 1
642 697 1
642 753 1
642 776 1
642 797 1
642 798 1
643 16 1
643 20 1
643 27 1
643 46 1
643 92 1
643 112 1
643 119 1
643 129 1
643 134 1
643 191 1
643 193 1
643 228 1
643 266 1
643 307 1
643 311 1
643 314 1
643 343 1
643 354 1
643 388 1
643 404 1
643 416 1
643 434 1
643 435 1
643 446 1
643 462 1
643 482 1
643 520 1
643 534 1
643 545 1
643 547 1
643 548 1
643 562 1
643 590 1
643 592 1
643 604 1
643 624 1
643 645 1
643 656 1
643 664 1
643 681 1
643 697 1
643 706 1
643 740 1
643 742 1
643 755 1
643 779 1
644 7 1
644 8 1
644 25 1
644 89 1
644 96 1
644 105 1
644 106 1
644 108 1
644 121 1
644 122 1
644 132 1
644 135 1
644 138 1
644 150 1
644 160 1
644 168 1
644 261 1
644 264 1
644 266 1
644 281 1
644 290 1
644 300 1
644 304 1
644 307 1
644 385 1
644 402 1
644 437 1
644 473 1
644 483 1
644 501 1
644 503 1
644 504 1
644 507 1
644 509 1
644 527 1
644 570 1
644 590 1
644 636 1
644 653 1
644 654 1
644 677 1
644 685 1
644 700 1
644 753 1
644 754 1
644 788 1
645 3 1
645 8 1
645 20 1
645 51 1
645 59 1
645 64 1
645 73 1
645 76 1
645 89 1
645 101 1
645 120 1
645 131 1
645 152 1
645 163 1
645 212 1
645 226 1
645 242 1
645 256 1
645 267 1
645 292 1
645 306 1
645 312 1
645 319 1
645 339 1
645 341 1
645 369 1
645 375 1
645 401 1
645 420 1
645 453 1
645 456 1
645 518 1
645 522 1
645 529 1
645 535 1
645 539 1
645 541 1
645 545 1
645 564 1
645 569 1
645 585 1
645 612 1
645 643 1
645 732 1
645 733 1
645 734 1
645 738 1
645 740 1
645 759 1
645 763 1
646 21 1
646 32 1
646 35 1
646 42 1
646 48 1
646 52 1
646 69 1
646 102 1
646 114 1
646 126 1
646 129 1
646 180 1
646 198 1
646 206 1
646 213 1
646 229 1
646 234 1
646 247 1
646 262 1
646 265 1
646 276 1
646 280 1
646 285 1
646 295 1
646 306 1
646 315 1
646 316 1
646 320 1
646 332 1
646 359 1
646 374 1
646 409 1
646 411 1
646 444 1
646 472 1
646 489 1
646 495 1
646 499 1
646 513 1
646 560 1
646 567 1
646 575 1
646 630 1
646 633 1
646 662 1
646 686 1
646 694 1
646 699 1
646 716 1
646 746 1
646 753 1
646 773 1
647 28 1
647 35 1
647 45 1
647 46 1
647 65 1
647 142 1
647 187 1
647 218 1
647 224 1
647 243 1
647 247 1
647 275 1
647 303 1
647 324 1
647 346 1
647 350 1
647 352 1
647 353 1
647 357 1
647 371 1
647 375 1
647 450 1
647 470 1
647 487 1
647 496 1
647 504 1
647 508 1
647 536 1
647 575 1
647 614 1
647 632 1
647 633 1
647 659 1
647 682 1
647 683 1
647 711 1
647 726 1
647 759 1
647 784 1
647 790 1
648 34 1
648 45 1
648 66 1
648 83 1
648 113 1
648 129 1
648 132 1
648 210 1
648 212 1
648 244 1
648 293 1
648 294 1
648 296 1
648 305 1
648 315 1
648 331 1
648 337 1
648 341 1
648 358 1
648 371 1
648 412 1
648 422 1
648 440 1
648 448 1
648 449 1
648 458 1
648 460 1
648 461 1
648 469 1
648 501 1
648 502 1
648 511 1
648 538 1
648 554 1
648 566 1
648 588 1
648 596 1
648 632 1
648 649 1
648 653 1
648 664 1
648 680 1
648 722 1
648 723 1
648 753 1
648 761 1
648 780 1
648 785 1
648 793 1
649 5 1
649 31 1
649 35 1
649 46 1
649 47 1
649 51 1
649 93 1
649 135 1
649 182 1
649 194 1
649 213 1
649 270 1
649 278 1
649 299 1
649 327 1
649 337 1
649 388 1
649 399 1
649 420 1
649 425 1
649 437 1
649 438 1
649 446 1
649 483 1
649 485 1
649 509 1
649 517 1
649 549 1
649 550 1
649 558 1
649 571 1
649 593 1
649 619 1
649 626 1
649 648 1
649 658 1
649 729 1
649 733 1
649 749 1
649 772 1
649 776 1
650 2 1
650 12 1
650 14 1
650 29 1
650 31 1
650 37 1
650 39 1
650 40 1
650 42 1
650 44 1
650 71 1
650 86 1
650 121 1
650 149 1
650 171 1
650 176 1
650 181 1
650 193 1
650 249 1
650 253 1
650 291 1
650 294 1
650 307 1
650 309 1
650 328 1
650 334 1
650 372 1
650 376 1
650 394 1
650 399 1
650 412 1
650 440 1
650 479 1
650 499 1
650 521 1
650 540 1
650 554 1
650 576 1
650 596 1
650 597 1
650 632 1
650 658 1
650 659 1
650 677 1
650 686 1
650 689 1
650 698 1
650 764 1
650 774 1
650 798 1
651 32 1
651 41 1
651 67 1
651 89 1
651 113 1
651 123 1
651 148 1
651 151 1
651 177 1
651 248 1
651 252 1
651 276 1
651 288 1
651 307 1
651 316 1
651 333 1
651 353 1
651 358 1
651 370 1
651 389 1
651 417 1
651 419 1
651 476 1
651 491 1
651 498 1
651 514 1
651 531 1
651 560 1
651 568 1
651 590 1
651 611 1
651 615 1
651 623 1
651 654 1
651 704 1
651 705 1
651 711 1
651 723 1
651 732 1
651 733 1
651 745 1
651 780 1
652 34 1
652 40 1
652 47 1
652 70 1
652 78 1
652 84 1
652 105 1
652 146 1
652 170 1
652 180 1
652 188 1
652 214 1
652 227 1
652 230 1
652 232 1
652 243 1
652 253 1
652 257 1
652 262 1
652 275 1
652 282 1
652 286 1
652 291 1
652 296 1
652 299 1
652 302 1
652 368 1
652 371 1
652 374 1
652 380 1
652 404 1
652 406 1
652 414 1
652 415 1
652 422 1
652 425 1
652 432 1
652 456 1
652 468 1
652 485 1
652 509 1
652 540 1
652 541 1
652 552 1
652 583 1
652 590 1
652 606 1
652 653 1
652 680 1
652 701 1
652 712 1
652 720 1
652 746 1
652 755 1
652 756 1
652 762 1
652 771 1
653 15 1
653 39 1
653 47 1
653 93 1
653 94 1
653 101 1
653 103 1
653 134 1
653 141 1
653 143 1
653 157 1
653 177 1
653 193 1
653 212 1
653 227 1
653 250 1
653 270 1
653 284 1
653 314 1
653 315 1
653 319 1
653 339 1
653 340 1
653 353 1
653 404 1
653 420 1
653 426 1
653 464 1
653 533 1
653 545 1
653 569 1
653 576 1
653 579 1
653 587 1
653 618 1
653 623 1
653 634 1
653 640 1
653 644 1
653 648 1
653 652 1
653 676 1
653 702 1
653 714 1
653 784 1
653 786 1
653 796 1
653 799 1
654 16 1
654 47 1
654 64 1
654 65 1
654 162 1
654 168 1
654 191 1
654 198 1
654 204 1
654 262 1
654 318 1
654 324 1
654 326 1
654 338 1
654 348 1
654 403 1
654 477 1
654 483 1
654 492 1
654 520 1
654 521 1
654 572 1
654 581 1
654 588 1
654 592 1
654 597 1
654 600 1
654 619 1
654 644 1
654 651 1
654 677 1
654 678 1
654 685 1
654 690 1
654 717 1
654 725 1
654 738 1
655 21 1
655 38 1
655 39 1
655 48 1
655 56 1
655 70 1
655 74 1
655 85 1
655 117 1
655 120 1
655 121 1
655 148 1
655 151 1
655 206 1
655 214 1
655 219 1
655 227 1
655 263 1
655 284 1
655 306 1
655 333 1
655 371 1
655 514 1
655 520 1
655 535 1
655 539 1
655 540 1
655 568 1
655 596 1
655 603 1
655 604 1
655 606 1
655 610 1
655 675 1
655 676 1
655 692 1
655 719 1
655 747 1
655 773 1
655 774 1
655 796 1
656 44 1
656 49 1
656 53 1
656 56 1
656 90 1
656 98 1
656 127 1
656 159 1
656 182 1
656 196 1
656 220 1
656 248 1
656 257 1
656 258 1
656 262 1
656 289 1
656 373 1
656 388 1
656 390 1
656 399 1
656 405 1
656 424 1
656 444 1
656 496 1
656 535 1
656 546 1
656 552 1
656 563 1
656 585 1
656 587 1
656 627 1
656 633 1
656 643 1
656 712 1
656 715 1
656 726 1
656 728 1
656 743 1
656 761 1
656 781 1
657 13 1
657 26 1
657 34 1
657 58 1
657 60 1
657 106 1
657 138 1
657 144 1
657 167 1
657 184 1
657 187 1
657 210 1
657 239 1
657 252 1
657 260 1
657 272 1
657 285 1
657 286 1
657 294 1
657 295 1
657 335 1
657 349 1
657 371 1
657 372 1
657 374 1
657 416 1
657 418 1
657 420 1
657 434 1
657 502 1
657 521 1
657 536 1
657 547 1
657 570 1
657 584 1
657 587 1
657 602 1
657 606 1
657 618 1
657 640 1
657 664 1
657 695 1
657 711 1
657 713 1
657 750 1
657 756 1
657 768 1
657 775 1
657 777 1
657 783 1
658 7 1
658 32 1
658 38 1
658 64 1
658 113 1
658 129 1
658 170 1
658 186 1
658 198 1
658 202 1
658 212 1
658 224 1
658 239 1
658 264 1
658 274 1
658 275 1
658 306 1
658 314 1
658 316 1
658 323 1
658 328 1
658 367 1
658 381 1
658 394 1
658 410 1
658 420 1
658 427 1
658 429 1
658 438 1
658 470 1
658 471 1
658 508 1
658 521 1
658 593 1
658 622 1
658 637 1
658 649 1
658 650 1
658 659 1
658 673 1
658 675 1
658 717 1
658 731 1
658 733 1
658 736 1
658 739 1
658 740 1
658 772 1
658 778 1
659 45 1
659 46 1
659 56 1
659 92 1
659 95 1
659 101 1
659 104 1
659 123 1
659 136 1
659 140 1
659 159 1
659 163 1
659 185 1
659 197 1
659 198 1
659 214 1
659 222 1
659 225 1
659 232 1
659 238 1
659 285 1
659 289 1
659 294 1
659 305 1
659 308 1
659 331 1
659 334 1
659 339 1
659 353 1
659 376 1
659 394 1
659 409 1
659 451 1
659 455 1
659 507 1
659 527 1
659 532 1
659 536 1
659 538 1
659 547 1
659 566 1
659 575 1
659 595 1
659 606 1
659 619 1
659 627 1
659 628 1
659 642 1
659 647 1
659 650 1
659 658 1
659 669 1
659 675 1
659 678 1
659 698 1
659 725 1
659 793 1
659 797 1
660 28 1
660 31 1
660 40 1
660 42 1
660 61 1
660 65 1
660 79 1
660 84 1
660 125 1
660 129 1
660 144 1
660 147 1
660 162 1
660 163 1
660 170 1
660 177 1
660 194 1
660 222 1
660 252 1
660 267 1
660 268 1
660 304 1
660 340 1
660 352 1
660 391 1
660 427 1
660 446 1
660 459 1
660 481 1
660 487 1
660 496 1
660 502 1
660 506 1
660 525 1
660 550 1
660 600 1
660 601 1
660 607 1
660 609 1
660 613 1
660 634 1
660 639 1
660 669 1
660 699 1
660 710 1
660 713 1
660 747 1
660 756 1
660 780 1
660 782 1
660 783 1
660 790 1
661 11 1
661 42 1
661 46 1
661 50 1
661 51 1
661 52 1
661 71 1
661 84 1
661 99 1
661 120 1
661 147 1
661 164 1
661 168 1
661 170 1
661 192 1
661 211 1
661 222 1
661 239 1
661 244 1
661 248 1
661 281 1
661 305 1
661 344 1
661 355 1
661 357 1
661 370 1
661 371 1
661 374 1
661 375 1
661 393 1
661 401 1
661 406 1
661 407 1
661 409 1
661 425 1
661 447 1
661 471 1
661 495 1
661 500 1
661 515 1
661 532 1
661 560 1
661 579 1
661 589 1
661 593 1
661 595 1
661 622 1
661 628 1
661 633 1
661 682 1
661 688 1
661 712 1
661 721 1
661 729 1
661 734 1
661 754 1
661 771 1
661 795 1
662 10 1
662 24 1
662 31 1
662 39 1
662 47 1
662 52 1
662 71 1
662 88 1
662 97 1
662 105 1
662 172 1
662 178 1
662 181 1
662 187 1
662 189 1
662 195 1
662 200 1
662 214 1
662 230 1
662 252 1
662 253 1
662 304 1
662 305 1
662 317 1
662 348 1
662 396 1
662 421 1
662 436 1
662 440 1
662 452 1
662 459 1
662 462 1
662 464 1
662 467 1
662 473 1
662 490 1
662 556 1
662 585 1
662 596 1
662 602 1
662 621 1
662 628 1
662 646 1
662 684 1
662 695 1
662 709 1
662 737 1
662 752 1
662 772 1
662 780 1
662 789 1
662 793 1
663 13 1
663 31 1
663 37 1
663 47 1
663 74 1
663 75 1
663 83 1
663 102 1
663 134 1
663 153 1
663 155 1
663 158 1
663 165 1
663 174 1
663 176 1
663 188 1
663 196 1
663 213 1
663 217 1
663 223 1
663 226 1
663 233 1
663 247 1
663 250 1
663 281 1
663 308 1
663 311 1
663 313 1
663 336 1
663 341 1
663 433 1
663 441 1
663 481 1
663 490 1
663 498 1
663 503 1
663 517 1
663 539 1
663 545 1
663 551 1
663 601 1
663 604 1
663 608 1
663 619 1
663 631 1
663 740 1
663 753 1
663 760 1
663 764 1
663 768 1
663 780 1
664 5 1
664 21 1
664 84 1
664 87 1
664 125 1
664 133 1
664 175 1
664 189 1
664 196 1
664 203 1
664 205 1
664 211 1
664 260 1
664 267 1
664 276 1
664 289 1
664 294 1
664 309 1
664 323 1
664 336 1
664 340 1
664 371 1
664 374 1
664 379 1
664 386 1
664 414 1
664 420 1
664 426 1
664 429 1
664 431 1
664 467 1
664 484 1
664 497 1
664 530 1
664 533 1
664 542 1
664 544 1
664 548 1
664 618 1
664 622 1
664 634 1
664 640 1
664 643 1
664 648 1
664 657 1
664 688 1
664 712 1
664 716 1
664 767 1
664 769 1
664 777 1
664 781 1
664 785 1
664 787 1
665 17 1
665 21 1
665 44 1
665 63 1
665 64 1
665 87 1
665 88 1
665 121 1
665 151 1
665 185 1
665 186 1
665 192 1
665 238 1
665 260 1
665 263 1
665 273 1
665 278 1
665 279 1
665 293 1
665 297 1
665 317 1
665 321 1
665 362 1
665 395 1
665 442 1
665 448 1
665 470 1
665 477 1
665 480 1
665 487 1
665 494 1
665 543 1
665 550 1
665 551 1
665 556 1
665 560 1
665 561 1
665 568 1
665 601 1
665 611 1
665 615 1
665 640 1
665 679 1
665 680 1
665 715 1
665 723 1
665 743 1
666 3 1
666 16 1
666 17 1
666 29 1
666 38 1
666 46 1
666 58 1
666 78 1
666 90 1
666 97 1
666 115 1
666 158 1
666 172 1
666 175 1
666 178 1
666 180 1
666 185 1
666 187 1
666 190 1
666 195 1
666 217 1
666 244 1
666 252 1
666 265 1
666 279 1
666 285 1
666 336 1
666 337 1
666 354 1
666 383 1
666 396 1
666 401 1
666 406 1
666 409 1
666 419 1
666 452 1
666 470 1
666 482 1
666 495 1
666 504 1
666 515 1
666 529 1
666 535 1
666 550 1
666 586 1
666 594 1
666 601 1
666 602 1
666 606 1
666 612 1
666 621 1
666 623 1
666 631 1
666 634 1
666 674 1
666 686 1
666 688 1
666 689 1
666 701 1
666 727 1
666 747 1
666 749 1
666 752 1
666 767 1
666 795 1
667 14 1
667 37 1
667 43 1
667 55 1
667 62 1
667 70 1
667 73 1
667 105 1
667 112 1
667 115 1
667 126 1
667 153 1
667 185 1
667 202 1
667 209 1
667 243 1
667 255 1
667 271 1
667 282 1
667 285 1
667 292 1
667 295 1
667 308 1
667 337 1
667 353 1
667 377 1
667 391 1
667 407 1
667 417 1
667 436 1
667 438 1
667 496 1
667 499 1
667 502 1
667 507 1
667 528 1
667 532 1
667 543 1
667 553 1
667 561 1
667 565 1
667 582 1
667 607 1
667 629 1
667 679 1
667 688 1
667 713 1
667 716 1
667 717 1
667 718 1
667 754 1
667 768 1
667 796 1
668 21 1
668 29 1
668 70 1
668 76 1
668 83 1
668 109 1
668 186 1
668 232 1
668 233 1
668 242 1
668 262 1
668 302 1
668 304 1
668 307 1
668 334 1
668 366 1
668 372 1
668 431 1
668 446 1
668 455 1
668 485 1
668 499 1
668 510 1
668 522 1
668 523 1
668 533 1
668 536 1
668 540 1
668 547 1
668 548 1
668 577 1
668 608 1
668 609 1
668 616 1
668 618 1
668 629 1
668 672 1
668 675 1
668 688 1
668 705 1
668 706 1
668 723 1
668 731 1
668 760 1
668 769 1
668 772 1
668 794 1
669 5 1
669 7 1
669 25 1
669 51 1
669 53 1
669 57 1
669 64 1
669 100 1
669 104 1
669 139 1
669 163 1
669 167 1
669 172 1
669 176 1
669 178 1
669 191 1
669 202 1
669 214 1
669 222 1
669 228 1
669 238 1
669 264 1
669 281 1
669 297 1
669 301 1
669 306 1
669 312 1
669 336 1
669 370 1
669 389 1
669 408 1
669 440 1
669 452 1
669 453 1
669 482 1
669 496 1
669 507 1
669 525 1
669 533 1
669 535 1
669 540 1
669 588 1
669 598 1
669 599 1
669 602 1
669 616 1
669 618 1
669 620 1
669 635 1
669 659 1
669 660 1
669 676 1
669 697 1
669 718 1
669 724 1
669 734 1
669 738 1
669 760 1
670 2 1
670 27 1
670 29 1
670 37 1
670 44 1
670 51 1
670 55 1
670 64 1
670 76 1
670 104 1
670 135 1
670 149 1
670 173 1
670 200 1
670 237 1
670 239 1
670 284 1
670 285 1
670 324 1
670 337 1
670 346 1
670 360 1
670 361 1
670 374 1
670 396 1
670 402 1
670 410 1
670 431 1
670 446 1
670 449 1
670 458 1
670 505 1
670 516 1
670 542 1
670 585 1
670 586 1
670 591 1
670 593 1
670 595 1
670 618 1
670 621 1
670 627 1
670 672 1
670 699 1
670 753 1
670 763 1
670 767 1
670 785 1
670 800 1
671 54 1
671 59 1
671 84 1
671 85 1
671 123 1
671 125 1
671 151 1
671 211 1
671 219 1
671 224 1
671 236 1
671 237 1
671 248 1
671 280 1
671 292 1
671 313 1
671 314 1
671 316 1
671 321 1
671 361 1
671 369 1
671 474 1
671 479 1
671 507 1
671 527 1
671 530 1
671 577 1
671 578 1
671 589 1
671 642 1
671 676 1
671 685 1
671 690 1
671 708 1
671 711 1
671 714 1
671 734 1
671 735 1
671 746 1
671 754 1
671 760 1
671 772 1
671 795 1
672 18 1
672 21 1
672 38 1
672 51 1
672 75 1
672 88 1
672 107 1
672 108 1
672 120 1
672 143 1
672 154 1
672 155 1
672 167 1
672 177 1
672 185 1
672 201 1
672 214 1
672 250 1
672 276 1
672 297 1
672 317 1
672 325 1
672 329 1
672 337 1
672 338 1
672 346 1
672 369 1
672 398 1
672 404 1
672 432 1
672 458 1
672 484 1
672 492 1
672 503 1
672 523 1
672 546 1
672 547 1
672 600 1
672 604 1
672 629 1
672 668 1
672 670 1
672 677 1
672 691 1
672 719 1
672 763 1
672 768 1
673 5 1
673 15 1
673 20 1
673 25 1
673 29 1
673 80 1
673 99 1
673 114 1
673 116 1
673 142 1
673 165 1
673 176 1
673 189 1
673 200 1
673 229 1
673 244 1
673 248 1
673 259 1
673 319 1
673 325 1
673 326 1
673 337 1
673 342 1
673 360 1
673 378 1
673 398 1
673 423 1
673 439 1
673 461 1
673 477 1
673 480 1
673 489 1
673 501 1
673 504 1
673 528 1
673 547 1
673 549 1
673 552 1
673 569 1
673 605 1
673 624 1
673 658 1
673 698 1
673 733 1
673 756 1
673 761 1
673 772 1
673 779 1
674 21 1
674 27 1
674 65 1
674 125 1
674 134 1
674 137 1
674 164 1
674 180 1
674 197 1
674 205 1
674 244 1
674 259 1
674 276 1
674 280 1
674 289 1
674 290 1
674 295 1
674 338 1
674 343 1
674 346 1
674 348 1
674 355 1
674 360 1
674 372 1
674 382 1
674 399 1
674 409 1
674 411 1
674 453 1
674 484 1
674 491 1
674 497 1
674 514 1
674 529 1
674 534 1
674 543 1
674 562 1
674 575 1
674 608 1
674 618 1
674 635 1
674 666 1
674 702 1
674 720 1
674 722 1
674 723 1
674 726 1
674 736 1
674 761 1
674 770 1
674 772 1
674 785 1
675 16 1
675 17 1
675 23 1
675 47 1
675 84 1
675 135 1
675 156 1
675 169 1
675 180 1
675 181 1
675 183 1
675 189 1
675 205 1
675 208 1
675 240 1
675 248 1
675 259 1
675 282 1
675 289 1
675 291 1
675 317 1
675 318 1
675 332 1
675 333 1
675 358 1
675 363 1
675 409 1
675 437 1
675 441 1
675 496 1
675 513 1
675 520 1
675 537 1
675 577 1
675 591 1
675 614 1
675 655 1
675 658 1
675 659 1
675 668 1
675 689 1
675 721 1
675 780 1
676 46 1
676 47 1
676 69 1
676 80 1
676 111 1
676 142 1
676 162 1
676 167 1
676 170 1
676 210 1
676 226 1
676 274 1
676 292 1
676 311 1
676 313 1
676 317 1
676 340 1
676 341 1
676 361 1
676 385 1
676 388 1
676 404 1
676 418 1
676 450 1
676 454 1
676 461 1
676 464 1
676 472 1
676 474 1
676 497 1
676 499 1
676 505 1
676 520 1
676 532 1
676 544 1
676 564 1
676 583 1
676 592 1
676 596 1
676 597 1
676 653 1
676 655 1
676 669 1
676 671 1
676 683 1
676 692 1
676 695 1
676 703 1
676 741 1
676 782 1
676 785 1
676 796 1
676 800 1
677 110 1
677 127 1
677 136 1
677 167 1
677 169 1
677 172 1
677 181 1
677 199 1
677 233 1
677 240 1
677 248 1
677 284 1
677 301 1
677 320 1
677 375 1
677 382 1
677 402 1
677 415 1
677 431 1
677 503 1
677 517 1
677 533 1
677 558 1
677 568 1
677 582 1
677 623 1
677 630 1
677 644 1
677 650 1
677 654 1
677 672 1
677 702 1
677 712 1
677 730 1
677 745 1
677 749 1
677 750 1
677 782 1
677 784 1
677 797 1
678 11 1
678 25 1
678 26 1
678 69 1
678 85 1
678 135 1
678 139 1
678 140 1
678 145 1
678 152 1
678 168 1
678 171 1
678 197 1
678 206 1
678 212 1
678 254 1
678 266 1
678 283 1
678 287 1
678 328 1
678 347 1
678 361 1
678 392 1
678 434 1
678 438 1
678 469 1
678 489 1
678 510 1
678 515 1
678 529 1
678 546 1
678 548 1
678 550 1
678 559 1
678 576 1
678 604 1
678 633 1
678 654 1
678 659 1
678 679 1
678 684 1
678 686 1
678 693 1
678 696 1
678 706 1
678 707 1
678 723 1
678 732 1
678 740 1
678 763 1
679 3 1
679 12 1
679 25 1
679 62 1
679 79 1
679 92 1
679 126 1
679 145 1
679 177 1
679 181 1
679 215 1
679 223 1
679 248 1
679 251 1
679 320 1
679 334 1
679 339 1
679 354 1
679 381 1
679 384 1
679 393 1
679 411 1
679 432 1
679 441 1
679 447 1
679 473 1
679 474 1
679 476 1
679 479 1
679 486 1
679 512 1
679 515 1
679 534 1
679 557 1
679 558 1
679 569 1
679 590 1
679 608 1
679 609 1
679 614 1
679 629 1
679 665 1
679 667 1
679 678 1
679 711 1
679 721 1
679 724 1
679 756 1
679 758 1
679 792 1
679 797 1
680 19 1
680 30 1
680 88 1
680 95 1
680 116 1
680 127 1
680 149 1
680 160 1
680 165 1
680 178 1
680 185 1
680 186 1
680 224 1
680 259 1
680 261 1
680 277 1
680 302 1
680 303 1
680 392 1
680 401 1
680 410 1
680 439 1
680 443 1
680 466 1
680 487 1
680 532 1
680 539 1
680 554 1
680 557 1
680 565 1
680 572 1
680 579 1
680 582 1
680 583 1
680 605 1
680 608 1
680 615 1
680 621 1
680 637 1
680 640 1
680 648 1
680 652 1
680 665 1
680 695 1
680 698 1
680 714 1
680 747 1
680 768 1
680 771 1
680 789 1
680 790 1
680 791 1
680 795 1
680 798 1
681 6 1
681 18 1
681 31 1
681 40 1
681 57 1
681 119 1
681 146 1
681 190 1
681 199 1
681 220 1
681 234 1
681 246 1
681 262 1
681 291 1
681 302 1
681 314 1
681 340 1
681 342 1
681 421 1
681 430 1
681 462 1
681 477 1
681 488 1
681 489 1
681 492 1
681 513 1
681 534 1
681 551 1
681 606 1
681 643 1
681 706 1
681 714 1
681 721 1
681 724 1
681 729 1
681 782 1
681 799 1
682 6 1
682 17 1
682 27 1
682 33 1
682 36 1
682 37 1
682 39 1
682 61 1
682 71 1
682 101 1
682 113 1
682 125 1
682 164 1
682 180 1
682 189 1
682 202 1
682 205 1
682 212 1
682 247 1
682 274 1
682 276 1
682 290 1
682 310 1
682 333 1
682 349 1
682 373 1
682 377 1
682 387 1
682 397 1
682 402 1
682 407 1
682 444 1
682 455 1
682 467 1
682 525 1
682 537 1
682 539 1
682 543 1
682 554 1
682 578 1
682 587 1
682 588 1
682 610 1
682 618 1
682 647 1
682 661 1
682 750 1
682 752 1
682 766 1
682 799 1
682 800 1
683 65 1
683 70 1
683 112 1
683 113 1
683 133 1
683 137 1
683 148 1
683 163 1
683 167 1
683 179 1
683 212 1
683 225 1
683 227 1
683 238 1
683 244 1
683 250 1
683 261 1
683 283 1
683 299 1
683 301 1
683 305 1
683 322 1
683 352 1
683 363 1
683 382 1
683 384 1
683 405 1
683 406 1
683 447 1
683 448 1
683 466 1
683 467 1
683 484 1
683 488 1
683 491 1
683 496 1
683 505 1
683 518 1
683 523 1
683 544 1
683 556 1
683 557 1
683 569 1
683 573 1
683 587 1
683 591 1
683 626 1
683 631 1
683 647 1
683 676 1
683 686 1
683 698 1
683 718 1
683 722 1
683 728 1
683 734 1
683 752 1
683 759 1
683 789 1
683 793 1
684 42 1
684 45 1
684 46 1
684 71 1
684 83 1
684 98 1
684 213 1
684 232 1
684 247 1
684 251 1
684 268 1
684 286 1
684 325 1
684 342 1
684 352 1
684 357 1
684 376 1
684 395 1
684 406 1
684 437 1
684 438 1
684 442 1
684 451 1
684 501 1
684 505 1
684 534 1
684 562 1
684 588 1
684 613 1
684 618 1
684 623 1
684 626 1
684 662 1
684 678 1
684 715 1
684 726 1
684 730 1
684 734 1
684 784 1
684 790 1
685 2 1
685 5 1
685 8 1
685 21 1
685 40 1
685 88 1
685 93 1
685 132 1
685 139 1
685 157 1
685 168 1
685 172 1
685 196 1
685 232 1
685 255 1
685 256 1
685 258 1
685 264 1
685 283 1
685 335 1
685 336 1
685 385 1
685 404 1
685 415 1
685 429 1
685 430 1
685 431 1
685 479 1
685 481 1
685 489 1
685 508 1
685 511 1
685 522 1
685 529 1
685 549 1
685 580 1
685 592 1
685 608 1
685 611 1
685 612 1
685 615 1
685 639 1
685 644 1
685 654 1
685 671 1
685 698 1
685 713 1
685 738 1
685 742 1
685 772 1
685 797 1
686 1 1
686 15 1
686 54 1
686 81 1
686 88 1
686 90 1
686 118 1
686 122 1
686 160 1
686 217 1
686 220 1
686 229 1
686 236 1
686 263 1
686 306 1
686 309 1
686 328 1
686 350 1
686 371 1
686 400 1
686 409 1
686 410 1
686 413 1
686 442 1
686 444 1
686 454 1
686 456 1
686 471 1
686 474 1
686 475 1
686 503 1
686 513 1
686 543 1
686 553 1
686 566 1
686 578 1
686 580 1
686 583 1
686 585 1
686 588 1
686 622 1
686 637 1
686 646 1
686 650 1
686 666 1
686 678 1
686 683 1
686 693 1
686 724 1
686 788 1
686 789 1
686 798 1
687 22 1
687 34 1
687 52 1
687 53 1
687 57 1
687 82 1
687 96 1
687 132 1
687 143 1
687 148 1
687 205 1
687 240 1
687 281 1
687 283 1
687 294 1
687 300 1
687 320 1
687 325 1
687 359 1
687 380 1
687 383 1
687 388 1
687 403 1
687 408 1
687 424 1
687 427 1
687 429 1
687 470 1
687 479 1
687 501 1
687 503 1
687 509 1
687 517 1
687 521 1
687 529 1
687 532 1
687 545 1
687 548 1
687 568 1
687 598 1
687 610 1
687 622 1
687 702 1
687 727 1
687 749 1
687 751 1
687 758 1
687 782 1
687 787 1
687 790 1
687 797 1
688 86 1
688 145 1
688 152 1
688 176 1
688 238 1
688 239 1
688 255 1
688 256 1
688 274 1
688 284 1
688 295 1
688 299 1
688 322 1
688 338 1
688 354 1
688 360 1
688 388 1
688 395 1
688 403 1
688 410 1
688 419 1
688 462 1
688 471 1
688 496 1
688 523 1
688 572 1
688 576 1
688 590 1
688 595 1
688 630 1
688 661 1
688 664 1
688 666 1
688 667 1
688 668 1
688 705 1
688 717 1
688 720 1
688 721 1
688 772 1
688 795 1
689 5 1
689 36 1
689 50 1
689 55 1
689 66 1
689 83 1
689 88 1
689 140 1
689 144 1
689 195 1
689 236 1
689 255 1
689 256 1
689 257 1
689 261 1
689 283 1
689 285 1
689 306 1
689 312 1
689 331 1
689 372 1
689 373 1
689 396 1
689 412 1
689 451 1
689 454 1
689 476 1
689 483 1
689 527 1
689 531 1
689 560 1
689 567 1
689 587 1
689 590 1
689 601 1
689 619 1
689 650 1
689 666 1
689 675 1
689 692 1
689 734 1
689 742 1
689 747 1
689 757 1
689 779 1
690 2 1
690 50 1
690 53 1
690 72 1
690 95 1
690 111 1
690 129 1
690 167 1
690 178 1
690 186 1
690 192 1
690 211 1
690 227 1
690 269 1
690 272 1
690 277 1
690 278 1
690 304 1
690 305 1
690 315 1
690 323 1
690 339 1
690 348 1
690 357 1
690 363 1
690 366 1
690 399 1
690 406 1
690 423 1
690 424 1
690 425 1
690 439 1
690 444 1
690 474 1
690 487 1
690 501 1
690 503 1
690 540 1
690 551 1
690 562 1
690 574 1
690 575 1
690 584 1
690 594 1
690 611 1
690 612 1
690 620 1
690 632 1
690 633 1
690 636 1
690 640 1
690 654 1
690 671 1
690 693 1
690 726 1
690 753 1
690 783 1
690 791 1
690 797 1
691 13 1
691 27 1
691 34 1
691 64 1
691 96 1
691 131 1
691 143 1
691 160 1
691 214 1
691 222 1
691 234 1
691 244 1
691 251 1
691 253 1
691 271 1
691 284 1
691 326 1
691 340 1
691 347 1
691 396 1
691 403 1
691 424 1
691 470 1
691 509 1
691 517 1
691 565 1
691 567 1
691 588 1
691 606 1
691 620 1
691 627 1
691 672 1
691 723 1
691 731 1
691 733 1
691 736 1
691 738 1
691 741 1
691 750 1
691 758 1
691 763 1
691 768 1
691 770 1
691 779 1
691 785 1
691 794 1
692 10 1
692 19 1
692 23 1
692 38 1
692 76 1
692 91 1
692 96 1
692 131 1
692 169 1
692 176 1
692 186 1
692 206 1
692 216 1
692 223 1
692 240 1
692 249 1
692 250 1
692 263 1
692 277 1
692 293 1
692 294 1
692 306 1
692 307 1
692 336 1
692 388 1
692 396 1
692 453 1
692 527 1
692 598 1
692 610 1
692 616 1
692 618 1
692 631 1
692 655 1
692 676 1
692 689 1
692 719 1
692 723 1
692 724 1
692 733 1
692 749 1
692 788 1
692 789 1
692 793 1
692 797 1
692 800 1
693 14 1
693 91 1
693 92 1
693 123 1
693 150 1
693 162 1
693 163 1
693 189 1
693 190 1
693 208 1
693 212 1
693 213 1
693 222 1
693 259 1
693 275 1
693 293 1
693 311 1
693 326 1
693 335 1
693 336 1
693 350 1
693 351 1
693 356 1
693 372 1
693 411 1
693 412 1
693 426 1
693 427 1
693 456 1
693 486 1
693 497 1
693 520 1
693 532 1
693 534 1
693 536 1
693 540 1
693 543 1
693 574 1
693 608 1
693 621 1
693 624 1
693 625 1
693 678 1
693 686 1
693 690 1
693 696 1
693 712 1
693 716 1
693 734 1
693 746 1
693 749 1
693 777 1
693 795 1
693 800 1
694 4 1
694 8 1
694 28 1
694 55 1
694 67 1
694 69 1
694 88 1
694 148 1
694 152 1
694 155 1
694 165 1
694 204 1
694 209 1
694 211 1
694 244 1
694 245 1
694 253 1
694 265 1
694 266 1
694 380 1
694 395 1
694 411 1
694 435 1
694 455 1
694 458 1
694 475 1
694 509 1
694 543 1
694 598 1
694 614 1
694 625 1
694 639 1
694 646 1
694 728 1
694 734 1
694 742 1
694 745 1
694 752 1
694 765 1
694 774 1
694 784 1
694 790 1
694 795 1
695 11 1
695 13 1
695 20 1
695 23 1
695 44 1
695 68 1
695 80 1
695 92 1
695 126 1
695 153 1
695 158 1
695 163 1
695 164 1
695 178 1
695 181 1
695 192 1
695 213 1
695 215 1
695 249 1
695 256 1
695 272 1
695 275 1
695 310 1
695 330 1
695 356 1
695 372 1
695 378 1
695 382 1
695 420 1
695 463 1
695 464 1
695 498 1
695 499 1
695 521 1
695 532 1
695 608 1
695 642 1
695 657 1
695 662 1
695 676 1
695 680 1
695 700 1
695 730 1
696 5 1
696 45 1
696 62 1
696 86 1
696 96 1
696 105 1
696 106 1
696 124 1
696 137 1
696 160 1
696 167 1
696 194 1
696 196 1
696 202 1
696 203 1
696 237 1
696 282 1
696 335 1
696 387 1
696 413 1
696 426 1
696 431 1
696 443 1
696 468 1
696 470 1
696 492 1
696 539 1
696 575 1
696 586 1
696 605 1
696 621 1
696 636 1
696 678 1
696 693 1
696 719 1
696 723 1
696 733 1
696 754 1
696 764 1
696 770 1
696 771 1
696 778 1
696 786 1
696 791 1
696 792 1
696 793 1
697 3 1
697 11 1
697 12 1
697 14 1
697 27 1
697 29 1
697 54 1
697 70 1
697 84 1
697 98 1
697 135 1
697 159 1
697 177 1
697 191 1
697 192 1
697 202 1
697 203 1
697 206 1
697 219 1
697 230 1
697 241 1
697 243 1
697 251 1
697 292 1
697 296 1
697 308 1
697 311 1
697 334 1
697 335 1
697 360 1
697 367 1
697 398 1
697 402 1
697 416 1
697 426 1
697 443 1
697 461 1
697 479 1
697 483 1
697 497 1
697 500 1
697 509 1
697 547 1
697 548 1
697 558 1
697 581 1
697 592 1
697 597 1
697 603 1
697 613 1
697 642 1
697 643 1
697 669 1
697 722 1
697 737 1
697 740 1
697 769 1
697 783 1
698 13 1
698 39 1
698 44 1
698 55 1
698 64 1
698 95 1
698 152 1
698 157 1
698 158 1
698 184 1
698 192 1
698 214 1
698 215 1
698 220 1
698 243 1
698 246 1
698 252 1
698 259 1
698 264 1
698 266 1
698 269 1
698 302 1
698 305 1
698 308 1
698 318 1
698 336 1
698 371 1
698 373 1
698 380 1
698 401 1
698 420 1
698 470 1
698 481 1
698 488 1
698 498 1
698 511 1
698 526 1
698 535 1
698 552 1
698 578 1
698 602 1
698 609 1
698 618 1
698 650 1
698 659 1
698 673 1
698 680 1
698 683 1
698 685 1
698 699 1
698 704 1
698 711 1
698 723 1
698 726 1
698 757 1
698 764 1
698 767 1
698 777 1
698 778 1
698 779 1
698 799 1
699 31 1
699 43 1
699 46 1
699 76 1
699 85 1
699 93 1
699 115 1
699 135 1
699 188 1
699 213 1
699 216 1
699 244 1
699 251 1
699 273 1
699 274 1
699 298 1
699 342 1
699 355 1
699 358 1
699 359 1
699 367 1
699 371 1
699 374 1
699 381 1
699 445 1
699 455 1
699 456 1
699 476 1
699 477 1
699 483 1
699 493 1
699 497 1
699 500 1
699 515 1
699 526 1
699 528 1
699 586 1
699 587 1
699 596 1
699 617 1
699 628 1
699 646 1
699 660 1
699 670 1
699 698 1
699 700 1
699 706 1
699 712 1
699 792 1
699 795 1
699 800 1
700 4 1
700 16 1
700 68 1
700 84 1
700 95 1
700 105 1
700 108 1
700 123 1
700 124 1
700 139 1
700 161 1
700 169 1
700 223 1
700 227 1
700 246 1
700 266 1
700 283 1
700 330 1
700 361 1
700 364 1
700 366 1
700 371 1
700 442 1
700 486 1
700 539 1
700 556 1
700 567 1
700 570 1
700 607 1
700 612 1
700 613 1
700 635 1
700 644 1
700 695 1
700 699 1
700 713 1
700 717 1
700 721 1
700 728 1
700 751 1
700 765 1
700 772 1
701 18 1
701 29 1
701 42 1
701 94 1
701 107 1
701 108 1
701 111 1
701 113 1
701 130 1
701 139 1
701 157 1
701 196 1
701 224 1
701 232 1
701 280 1
701 291 1
701 305 1
701 353 1
701 381 1
701 397 1
701 404 1
701 406 1
701 416 1
701 424 1
701 435 1
701 437 1
701 444 1
701 456 1
701 473 1
701 491 1
701 546 1
701 571 1
701 591 1
701 605 1
701 613 1
701 632 1
701 652 1
701 666 1
701 761 1
702 25 1
702 40 1
702 86 1
702 120 1
702 131 1
702 139 1
702 159 1
702 200 1
702 252 1
702 258 1
702 261 1
702 326 1
702 345 1
702 395 1
702 404 1
702 416 1
702 431 1
702 481 1
702 488 1
702 507 1
702 509 1
702 514 1
702 530 1
702 532 1
702 537 1
702 542 1
702 555 1
702 563 1
702 596 1
702 633 1
702 638 1
702 639 1
702 653 1
702 674 1
702 677 1
702 687 1
702 706 1
702 783 1
702 800 1
703 22 1
703 24 1
703 42 1
703 50 1
703 63 1
703 71 1
703 149 1
703 158 1
703 195 1
703 199 1
703 202 1
703 213 1
703 214 1
703 215 1
703 245 1
703 246 1
703 254 1
703 271 1
703 282 1
703 288 1
703 289 1
703 301 1
703 309 1
703 320 1
703 324 1
703 332 1
703 333 1
703 338 1
703 341 1
703 342 1
703 348 1
703 358 1
703 360 1
703 380 1
703 388 1
703 399 1
703 409 1
703 421 1
703 442 1
703 443 1
703 448 1
703 468 1
703 475 1
703 487 1
703 494 1
703 533 1
703 556 1
703 558 1
703 566 1
703 567 1
703 572 1
703 573 1
703 584 1
703 617 1
703 676 1
703 716 1
704 23 1
704 40 1
704 62 1
704 69 1
704 74 1
704 79 1
704 84 1
704 123 1
704 134 1
704 151 1
704 164 1
704 175 1
704 181 1
704 182 1
704 197 1
704 238 1
704 239 1
704 245 1
704 260 1
704 262 1
704 326 1
704 327 1
704 330 1
704 333 1
704 335 1
704 337 1
704 353 1
704 354 1
704 363 1
704 389 1
704 408 1
704 412 1
704 413 1
704 433 1
704 444 1
704 470 1
704 514 1
704 521 1
704 557 1
704 559 1
704 592 1
704 595 1
704 612 1
704 641 1
704 651 1
704 698 1
704 709 1
704 752 1
704 766 1
704 768 1
704 780 1
704 784 1
704 786 1
705 9 1
705 25 1
705 28 1
705 35 1
705 39 1
705 53 1
705 83 1
705 96 1
705 108 1
705 116 1
705 117 1
705 120 1
705 128 1
705 179 1
705 188 1
705 191 1
705 202 1
705 203 1
705 209 1
705 229 1
705 240 1
705 252 1
705 257 1
705 268 1
705 269 1
705 287 1
705 333 1
705 397 1
705 405 1
705 432 1
705 433 1
705 447 1
705 448 1
705 462 1
705 478 1
705 480 1
705 485 1
705 487 1
705 492 1
705 530 1
705 584 1
705 619 1
705 623 1
705 651 1
705 668 1
705 688 1
705 726 1
705 732 1
705 733 1
705 735 1
705 776 1
705 781 1
706 5 1
706 7 1
706 11 1
706 18 1
706 19 1
706 21 1
706 40 1
706 43 1
706 62 1
706 72 1
706 77 1
706 113 1
706 142 1
706 171 1
706 195 1
706 204 1
706 224 1
706 244 1
706 258 1
706 265 1
706 275 1
706 277 1
706 280 1
706 291 1
706 300 1
706 303 1
706 316 1
706 331 1
706 334 1
706 337 1
706 360 1
706 374 1
706 393 1
706 395 1
706 397 1
706 398 1
706 403 1
706 415 1
706 438 1
706 452 1
706 456 1
706 491 1
706 515 1
706 516 1
706 541 1
706 582 1
706 588 1
706 601 1
706 627 1
706 629 1
706 630 1
706 635 1
706 643 1
706 668 1
706 678 1
706 681 1
706 699 1
706 702 1
706 713 1
706 717 1
706 770 1
706 784 1
707 17 1
707 20 1
707 32 1
707 45 1
707 48 1
707 57 1
707 59 1
707 60 1
707 64 1
707 74 1
707 100 1
707 146 1
707 148 1
707 162 1
707 167 1
707 201 1
707 203 1
707 229 1
707 273 1
707 287 1
707 313 1
707 326 1
707 365 1
707 380 1
707 393 1
707 396 1
707 424 1
707 430 1
707 439 1
707 444 1
707 477 1
707 490 1
707 496 1
707 500 1
707 505 1
707 508 1
707 522 1
707 551 1
707 557 1
707 593 1
707 598 1
707 616 1
707 625 1
707 634 1
707 639 1
707 678 1
707 722 1
707 728 1
707 729 1
707 734 1
707 737 1
707 745 1
707 747 1
707 765 1
707 768 1
707 788 1
707 794 1
708 27 1
708 42 1
708 53 1
708 69 1
708 95 1
708 116 1
708 122 1
708 132 1
708 145 1
708 148 1
708 163 1
708 192 1
708 230 1
708 265 1
708 275 1
708 278 1
708 280 1
708 284 1
708 293 1
708 333 1
708 341 1
708 353 1
708 376 1
708 418 1
708 439 1
708 440 1
708 451 1
708 456 1
708 480 1
708 514 1
708 518 1
708 537 1
708 541 1
708 553 1
708 555 1
708 600 1
708 614 1
708 616 1
708 617 1
708 671 1
708 722 1
709 22 1
709 42 1
709 53 1
709 60 1
709 129 1
709 143 1
709 146 1
709 147 1
709 186 1
709 192 1
709 194 1
709 231 1
709 255 1
709 284 1
709 289 1
709 317 1
709 325 1
709 331 1
709 360 1
709 365 1
709 383 1
709 396 1
709 485 1
709 488 1
709 519 1
709 532 1
709 565 1
709 588 1
709 596 1
709 603 1
709 623 1
709 629 1
709 638 1
709 639 1
709 662 1
709 704 1
709 710 1
709 740 1
709 741 1
709 749 1
709 771 1
709 778 1
710 10 1
710 16 1
710 46 1
710 60 1
710 64 1
710 84 1
710 94 1
710 127 1
710 138 1
710 141 1
710 153 1
710 203 1
710 210 1
710 212 1
710 240 1
710 250 1
710 253 1
710 271 1
710 334 1
710 354 1
710 395 1
710 401 1
710 418 1
710 427 1
710 429 1
710 433 1
710 446 1
710 458 1
710 482 1
710 484 1
710 487 1
710 515 1
710 517 1
710 538 1
710 542 1
710 557 1
710 573 1
710 583 1
710 584 1
710 596 1
710 613 1
710 615 1
710 630 1
710 637 1
710 660 1
710 709 1
710 715 1
710 745 1
710 747 1
710 755 1
710 758 1
710 780 1
710 784 1
710 791 1
711 14 1
711 34 1
711 51 1
711 68 1
711 86 1
711 87 1
711 90 1
711 101 1
711 107 1
711 139 1
711 160 1
711 172 1
711 175 1
711 199 1
711 202 1
711 231 1
711 264 1
711 267 1
711 270 1
711 274 1
711 331 1
711 335 1
711 355 1
711 363 1
711 384 1
711 396 1
711 422 1
711 427 1
711 444 1
711 460 1
711 471 1
711 479 1
711 484 1
711 509 1
711 511 1
711 579 1
711 581 1
711 588 1
711 608 1
711 609 1
711 616 1
711 631 1
711 633 1
711 647 1
711 651 1
711 657 1
711 671 1
711 679 1
711 698 1
711 767 1
711 775 1
712 3 1
712 23 1
712 27 1
712 28 1
712 37 1
712 55 1
712 98 1
712 102 1
712 126 1
712 133 1
712 152 1
712 173 1
712 183 1
712 185 1
712 189 1
712 219 1
712 232 1
712 236 1
712 254 1
712 264 1
712 270 1
712 331 1
712 351 1
712 372 1
712 396 1
712 440 1
712 463 1
712 484 1
712 495 1
712 502 1
712 517 1
712 520 1
712 558 1
712 600 1
712 620 1
712 624 1
712 625 1
712 633 1
712 652 1
712 656 1
712 661 1
712 664 1
712 677 1
712 693 1
712 699 1
712 716 1
712 734 1
712 747 1
712 748 1
712 749 1
712 755 1
712 764 1
712 796 1
713 16 1
713 29 1
713 38 1
713 43 1
713 53 1
713 67 1
713 73 1
713 83 1
713 152 1
713 166 1
713 167 1
713 172 1
713 224 1
713 230 1
713 250 1
713 251 1
713 266 1
713 275 1
713 276 1
713 280 1
713 282 1
713 287 1
713 302 1
713 375 1
713 382 1
713 391 1
713 414 1
713 429 1
713 435 1
713 436 1
713 442 1
713 454 1
713 473 1
713 533 1
713 551 1
713 555 1
713 556 1
713 566 1
713 588 1
713 592 1
713 599 1
713 626 1
713 630 1
713 657 1
713 660 1
713 667 1
713 685 1
713 700 1
713 706 1
713 744 1
713 756 1
713 790 1
714 19 1
714 25 1
714 32 1
714 35 1
714 51 1
714 59 1
714 61 1
714 91 1
714 96 1
714 99 1
714 106 1
714 114 1
714 144 1
714 150 1
714 152 1
714 164 1
714 168 1
714 180 1
714 192 1
714 210 1
714 215 1
714 217 1
714 248 1
714 264 1
714 280 1
714 298 1
714 321 1
714 328 1
714 333 1
714 386 1
714 389 1
714 396 1
714 401 1
714 412 1
714 432 1
714 438 1
714 442 1
714 471 1
714 480 1
714 490 1
714 502 1
714 509 1
714 530 1
714 534 1
714 585 1
714 605 1
714 627 1
714 628 1
714 633 1
714 653 1
714 671 1
714 680 1
714 681 1
714 715 1
714 743 1
714 751 1
714 759 1
714 760 1
714 761 1
714 770 1
714 776 1
714 793 1
715 50 1
715 67 1
715 87 1
715 139 1
715 140 1
715 160 1
715 210 1
715 215 1
715 226 1
715 229 1
715 236 1
715 247 1
715 258 1
715 268 1
715 281 1
715 298 1
715 314 1
715 373 1
715 417 1
715 423 1
715 434 1
715 464 1
715 523 1
715 545 1
715 561 1
715 571 1
715 578 1
715 585 1
715 615 1
715 631 1
715 656 1
715 665 1
715 684 1
715 710 1
715 714 1
715 751 1
715 786 1
715 793 1
716 7 1
716 36 1
716 41 1
716 52 1
716 65 1
716 69 1
716 79 1
716 85 1
716 90 1
716 135 1
716 155 1
716 175 1
716 180 1
716 187 1
716 192 1
716 200 1
716 222 1
716 244 1
716 254 1
716 260 1
716 269 1
716 274 1
716 290 1
716 315 1
716 320 1
716 338 1
716 364 1
716 374 1
716 394 1
716 400 1
716 413 1
716 416 1
716 441 1
716 458 1
716 461 1
716 508 1
716 522 1
716 567 1
716 581 1
716 590 1
716 597 1
716 613 1
716 646 1
716 664 1
716 667 1
716 693 1
716 703 1
716 712 1
716 725 1
716 726 1
716 759 1
716 794 1
717 10 1
717 28 1
717 38 1
717 39 1
717 47 1
717 68 1
717 72 1
717 76 1
717 93 1
717 102 1
717 108 1
717 139 1
717 167 1
717 190 1
717 193 1
717 199 1
717 229 1
717 231 1
717 234 1
717 261 1
717 264 1
717 279 1
717 301 1
717 311 1
717 322 1
717 373 1
717 377 1
717 434 1
717 436 1
717 454 1
717 483 1
717 490 1
717 502 1
717 513 1
717 528 1
717 569 1
717 572 1
717 589 1
717 606 1
717 634 1
717 636 1
717 654 1
717 658 1
717 667 1
717 688 1
717 700 1
717 706 1
717 728 1
718 40 1
718 83 1
718 104 1
718 124 1
718 128 1
718 129 1
718 134 1
718 150 1
718 185 1
718 186 1
718 203 1
718 237 1
718 258 1
718 271 1
718 275 1
718 299 1
718 302 1
718 342 1
718 365 1
718 394 1
718 397 1
718 402 1
718 404 1
718 423 1
718 539 1
718 567 1
718 580 1
718 588 1
718 589 1
718 610 1
718 633 1
718 667 1
718 669 1
718 683 1
718 720 1
718 753 1
718 764 1
718 774 1
718 787 1
718 793 1
719 4 1
719 20 1
719 45 1
719 123 1
719 152 1
719 154 1
719 186 1
719 209 1
719 246 1
719 249 1
719 266 1
719 273 1
719 289 1
719 294 1
719 295 1
719 296 1
719 303 1
719 319 1
719 336 1
719 343 1
719 374 1
719 401 1
719 419 1
719 423 1
719 436 1
719 440 1
719 456 1
719 464 1
719 465 1
719 474 1
719 477 1
719 485 1
719 487 1
719 520 1
719 581 1
719 587 1
719 591 1
719 596 1
719 604 1
719 629 1
719 631 1
719 634 1
719 655 1
719 672 1
719 692 1
719 696 1
719 731 1
719 749 1
719 760 1
719 785 1
720 50 1
720 70 1
720 77 1
720 91 1
720 129 1
720 172 1
720 219 1
720 235 1
720 249 1
720 250 1
720 262 1
720 264 1
720 265 1
720 288 1
720 297 1
720 306 1
720 314 1
720 334 1
720 337 1
720 364 1
720 395 1
720 401 1
720 419 1
720 454 1
720 457 1
720 464 1
720 487 1
720 552 1
720 583 1
720 585 1
720 599 1
720 616 1
720 619 1
720 620 1
720 631 1
720 641 1
720 652 1
720 674 1
720 688 1
720 718 1
720 779 1
720 785 1
721 5 1
721 11 1
721 32 1
721 48 1
721 93 1
721 97 1
721 151 1
721 182 1
721 186 1
721 202 1
721 210 1
721 220 1
721 227 1
721 267 1
721 280 1
721 285 1
721 292 1
721 298 1
721 300 1
721 346 1
721 407 1
721 421 1
721 422 1
721 423 1
721 440 1
721 450 1
721 502 1
721 503 1
721 512 1
721 522 1
721 562 1
721 564 1
721 569 1
721 610 1
721 612 1
721 628 1
721 661 1
721 675 1
721 679 1
721 681 1
721 688 1
721 700 1
721 728 1
721 736 1
721 738 1
721 747 1
722 2 1
722 11 1
722 48 1
722 53 1
722 54 1
722 60 1
722 61 1
722 91 1
722 92 1
722 97 1
722 119 1
722 131 1
722 150 1
722 184 1
722 190 1
722 192 1
722 202 1
722 265 1
722 271 1
722 273 1
722 284 1
722 305 1
722 339 1
722 344 1
722 355 1
722 362 1
722 363 1
722 367 1
722 371 1
722 382 1
722 402 1
722 440 1
722 464 1
722 470 1
722 486 1
722 487 1
722 498 1
722 505 1
722 516 1
722 518 1
722 521 1
722 538 1
722 556 1
722 559 1
722 589 1
722 599 1
722 648 1
722 674 1
722 683 1
722 697 1
722 707 1
722 708 1
722 725 1
722 729 1
722 734 1
722 747 1
722 762 1
722 766 1
722 779 1
722 792 1
723 4 1
723 6 1
723 77 1
723 83 1
723 84 1
723 102 1
723 109 1
723 154 1
723 173 1
723 183 1
723 191 1
723 200 1
723 212 1
723 237 1
723 262 1
723 274 1
723 281 1
723 311 1
723 324 1
723 345 1
723 353 1
723 362 1
723 379 1
723 386 1
723 409 1
723 413 1
723 444 1
723 471 1
723 498 1
723 513 1
723 547 1
723 548 1
723 628 1
723 632 1
723 648 1
723 651 1
723 665 1
723 668 1
723 674 1
723 678 1
723 691 1
723 692 1
723 696 1
723 698 1
723 767 1
723 775 1
723 781 1
723 784 1
724 15 1
724 23 1
724 30 1
724 64 1
724 75 1
724 82 1
724 100 1
724 161 1
724 166 1
724 185 1
724 191 1
724 194 1
724 195 1
724 213 1
724 234 1
724 281 1
724 288 1
724 312 1
724 356 1
724 368 1
724 372 1
724 395 1
724 440 1
724 465 1
724 473 1
724 502 1
724 513 1
724 539 1
724 541 1
724 542 1
724 566 1
724 574 1
724 593 1
724 606 1
724 637 1
724 639 1
724 669 1
724 679 1
724 681 1
724 686 1
724 692 1
724 725 1
724 734 1
724 740 1
724 741 1
724 752 1
724 771 1
724 780 1
724 788 1
724 799 1
725 15 1
725 26 1
725 28 1
725 48 1
725 56 1
725 77 1
725 85 1
725 92 1
725 108 1
725 143 1
725 156 1
725 187 1
725 202 1
725 206 1
725 208 1
725 214 1
725 222 1
725 231 1
725 257 1
725 258 1
725 264 1
725 288 1
725 294 1
725 304 1
725 314 1
725 315 1
725 348 1
725 353 1
725 379 1
725 403 1
725 413 1
725 447 1
725 483 1
725 560 1
725 574 1
725 592 1
725 595 1
725 654 1
725 659 1
725 716 1
725 722 1
725 724 1
725 727 1
726 27 1
726 31 1
726 42 1
726 44 1
726 77 1
726 85 1
726 97 1
726 134 1
726 169 1
726 184 1
726 201 1
726 206 1
726 224 1
726 236 1
726 254 1
726 265 1
726 276 1
726 318 1
726 326 1
726 348 1
726 361 1
726 369 1
726 412 1
726 417 1
726 423 1
726 425 1
726 432 1
726 469 1
726 485 1
726 499 1
726 520 1
726 548 1
726 555 1
726 564 1
726 577 1
726 596 1
726 599 1
726 606 1
726 633 1
726 647 1
726 656 1
726 674 1
726 684 1
726 690 1
726 698 1
726 705 1
726 716 1
726 738 1
726 755 1
726 760 1
727 2 1
727 3 1
727 5 1
727 6 1
727 24 1
727 48 1
727 60 1
727 73 1
727 130 1
727 135 1
727 147 1
727 157 1
727 169 1
727 170 1
727 199 1
727 209 1
727 229 1
727 230 1
727 280 1
727 359 1
727 376 1
727 392 1
727 410 1
727 425 1
727 445 1
727 449 1
727 461 1
727 462 1
727 473 1
727 482 1
727 488 1
727 495 1
727 539 1
727 541 1
727 542 1
727 544 1
727 570 1
727 587 1
727 589 1
727 616 1
727 636 1
727 640 1
727 666 1
727 687 1
727 725 1
727 748 1
727 754 1
727 757 1
727 772 1
728 19 1
728 61 1
728 70 1
728 89 1
728 149 1
728 162 1
728 166 1
728 167 1
728 184 1
728 213 1
728 225 1
728 227 1
728 231 1
728 250 1
728 260 1
728 278 1
728 286 1
728 292 1
728 302 1
728 305 1
728 311 1
728 335 1
728 364 1
728 372 1
728 431 1
728 466 1
728 468 1
728 496 1
728 501 1
728 502 1
728 519 1
728 546 1
728 563 1
728 565 1
728 583 1
728 594 1
728 616 1
728 656 1
728 683 1
728 694 1
728 700 1
728 707 1
728 717 1
728 721 1
728 736 1
728 741 1
728 757 1
728 789 1
729 19 1
729 24 1
729 30 1
729 56 1
729 60 1
729 61 1
729 93 1
729 122 1
729 129 1
729 131 1
729 139 1
729 166 1
729 212 1
729 216 1
729 225 1
729 245 1
729 282 1
729 285 1
729 291 1
729 300 1
729 321 1
729 359 1
729 377 1
729 392 1
729 403 1
729 434 1
729 437 1
729 471 1
729 492 1
729 519 1
729 528 1
729 534 1
729 567 1
729 597 1
729 605 1
729 609 1
729 612 1
729 626 1
729 636 1
729 649 1
729 661 1
729 681 1
729 707 1
729 722 1
729 741 1
729 758 1
729 764 1
729 790 1
729 792 1
729 798 1
730 9 1
730 33 1
730 46 1
730 56 1
730 77 1
730 79 1
730 105 1
730 163 1
730 167 1
730 173 1
730 213 1
730 222 1
730 255 1
730 256 1
730 263 1
730 271 1
730 274 1
730 289 1
730 296 1
730 309 1
730 327 1
730 370 1
730 389 1
730 419 1
730 435 1
730 533 1
730 563 1
730 565 1
730 567 1
730 574 1
730 609 1
730 611 1
730 624 1
730 677 1
730 684 1
730 695 1
730 732 1
730 742 1
730 767 1
730 774 1
731 11 1
731 34 1
731 40 1
731 61 1
731 95 1
731 114 1
731 128 1
731 136 1
731 174 1
731 181 1
731 193 1
731 210 1
731 215 1
731 226 1
731 227 1
731 243 1
731 270 1
731 277 1
731 300 1
731 338 1
731 369 1
731 372 1
731 374 1
731 377 1
731 405 1
731 434 1
731 439 1
731 459 1
731 472 1
731 475 1
731 486 1
731 521 1
731 527 1
731 530 1
731 558 1
731 567 1
731 586 1
731 589 1
731 604 1
731 605 1
731 612 1
731 658 1
731 668 1
731 691 1
731 719 1
731 780 1
731 785 1
732 17 1
732 68 1
732 75 1
732 80 1
732 88 1
732 111 1
732 150 1
732 184 1
732 199 1
732 209 1
732 223 1
732 262 1
732 266 1
732 269 1
732 278 1
732 280 1
732 327 1
732 339 1
732 370 1
732 424 1
732 428 1
732 443 1
732 459 1
732 465 1
732 468 1
732 490 1
732 491 1
732 497 1
732 500 1
732 516 1
732 557 1
732 577 1
732 626 1
732 630 1
732 645 1
732 651 1
732 678 1
732 705 1
732 730 1
732 743 1
732 756 1
733 44 1
733 71 1
733 82 1
733 83 1
733 146 1
733 169 1
733 173 1
733 180 1
733 188 1
733 197 1
733 201 1
733 215 1
733 218 1
733 224 1
733 241 1
733 265 1
733 282 1
733 315 1
733 316 1
733 348 1
733 406 1
733 413 1
733 433 1
733 468 1
733 495 1
733 517 1
733 523 1
733 538 1
733 598 1
733 632 1
733 645 1
733 649 1
733 651 1
733 658 1
733 673 1
733 691 1
733 692 1
733 696 1
733 705 1
733 747 1
733 770 1
733 785 1
734 10 1
734 63 1
734 71 1
734 81 1
734 104 1
734 110 1
734 140 1
734 152 1
734 170 1
734 191 1
734 192 1
734 199 1
734 224 1
734 230 1
734 243 1
734 268 1
734 300 1
734 310 1
734 350 1
734 369 1
734 377 1
734 397 1
734 421 1
734 429 1
734 433 1
734 473 1
734 496 1
734 500 1
734 518 1
734 527 1
734 530 1
734 532 1
734 541 1
734 553 1
734 558 1
734 588 1
734 603 1
734 606 1
734 623 1
734 645 1
734 661 1
734 669 1
734 671 1
734 683 1
734 684 1
734 689 1
734 693 1
734 694 1
734 707 1
734 712 1
734 722 1
734 724 1
734 753 1
734 784 1
735 12 1
735 17 1
735 46 1
735 74 1
735 111 1
735 129 1
735 135 1
735 175 1
735 205 1
735 212 1
735 231 1
735 251 1
735 277 1
735 293 1
735 303 1
735 333 1
735 359 1
735 378 1
735 385 1
735 404 1
735 426 1
735 436 1
735 470 1
735 477 1
735 515 1
735 563 1
735 571 1
735 576 1
735 579 1
735 615 1
735 638 1
735 640 1
735 671 1
735 705 1
735 738 1
735 744 1
735 748 1
735 759 1
735 763 1
735 770 1
735 774 1
735 785 1
735 786 1
735 787 1
735 789 1
736 4 1
736 10 1
736 14 1
736 15 1
736 18 1
736 69 1
736 109 1
736 162 1
736 196 1
736 317 1
736 363 1
736 364 1
736 372 1
736 378 1
736 379 1
736 406 1
736 431 1
736 447 1
736 454 1
736 487 1
736 492 1
736 508 1
736 527 1
736 529 1
736 530 1
736 532 1
736 534 1
736 570 1
736 580 1
736 594 1
736 606 1
736 609 1
736 620 1
736 641 1
736 658 1
736 674 1
736 691 1
736 721 1
736 728 1
736 746 1
736 747 1
736 754 1
736 771 1
736 782 1
736 788 1
736 789 1
736 794 1
736 798 1
737 30 1
737 60 1
737 71 1
737 73 1
737 120 1
737 122 1
737 126 1
737 129 1
737 130 1
737 151 1
737 157 1
737 162 1
737 180 1
737 183 1
737 203 1
737 230 1
737 238 1
737 239 1
737 245 1
737 248 1
737 255 1
737 257 1
737 300 1
737 304 1
737 319 1
737 352 1
737 363 1
737 380 1
737 396 1
737 427 1
737 443 1
737 460 1
737 461 1
737 466 1
737 469 1
737 483 1
737 520 1
737 524 1
737 534 1
737 543 1
737 552 1
737 566 1
737 612 1
737 662 1
737 697 1
737 707 1
737 742 1
737 771 1
737 799 1
738 1 1
738 7 1
738 25 1
738 66 1
738 74 1
738 90 1
738 103 1
738 105 1
738 113 1
738 115 1
738 147 1
738 154 1
738 158 1
738 191 1
738 201 1
738 203 1
738 257 1
738 304 1
738 324 1
738 367 1
738 378 1
738 415 1
738 429 1
738 440 1
738 452 1
738 468 1
738 488 1
738 492 1
738 496 1
738 519 1
738 534 1
738 541 1
738 545 1
738 548 1
738 550 1
738 554 1
738 561 1
738 566 1
738 611 1
738 613 1
738 614 1
738 626 1
738 629 1
738 645 1
738 654 1
738 669 1
738 685 1
738 691 1
738 721 1
738 726 1
738 735 1
738 739 1
738 752 1
738 767 1
738 768 1
738 780 1
738 784 1
739 9 1
739 58 1
739 59 1
739 73 1
739 76 1
739 83 1
739 98 1
739 107 1
739 127 1
739 148 1
739 170 1
739 195 1
739 196 1
739 208 1
739 226 1
739 235 1
739 258 1
739 262 1
739 275 1
739 281 1
739 293 1
739 328 1
739 330 1
739 339 1
739 348 1
739 384 1
739 407 1
739 416 1
739 459 1
739 462 1
739 468 1
739 503 1
739 528 1
739 558 1
739 566 1
739 577 1
739 594 1
739 622 1
739 629 1
739 636 1
739 658 1
739 738 1
739 744 1
739 765 1
739 778 1
740 9 1
740 29 1
740 42 1
740 65 1
740 73 1
740 92 1
740 93 1
740 112 1
740 143 1
740 146 1
740 148 1
740 160 1
740 166 1
740 204 1
740 226 1
740 247 1
740 292 1
740 312 1
740 314 1
740 368 1
740 400 1
740 441 1
740 443 1
740 468 1
740 520 1
740 537 1
740 542 1
740 573 1
740 597 1
740 612 1
740 625 1
740 643 1
740 645 1
740 658 1
740 663 1
740 678 1
740 697 1
740 709 1
740 724 1
740 773 1
740 784 1
740 789 1
741 18 1
741 31 1
741 103 1
741 107 1
741 117 1
741 153 1
741 155 1
741 165 1
741 180 1
741 229 1
741 249 1
741 265 1
741 267 1
741 274 1
741 308 1
741 311 1
741 312 1
741 313 1
741 329 1
741 345 1
741 349 1
741 375 1
741 387 1
741 428 1
741 447 1
741 455 1
741 477 1
741 495 1
741 546 1
741 555 1
741 575 1
741 577 1
741 616 1
741 630 1
741 631 1
741 676 1
741 691 1
741 709 1
741 724 1
741 728 1
741 729 1
741 744 1
742 9 1
742 12 1
742 24 1
742 40 1
742 44 1
742 46 1
742 77 1
742 83 1
742 98 1
742 123 1
742 150 1
742 166 1
742 192 1
742 218 1
742 248 1
742 249 1
742 257 1
742 273 1
742 290 1
742 302 1
742 340 1
742 341 1
742 408 1
742 435 1
742 441 1
742 449 1
742 454 1
742 456 1
742 464 1
742 470 1
742 489 1
742 540 1
742 558 1
742 562 1
742 576 1
742 600 1
742 625 1
742 629 1
742 643 1
742 685 1
742 689 1
742 694 1
742 730 1
742 737 1
742 744 1
742 776 1
743 18 1
743 65 1
743 70 1
743 71 1
743 112 1
743 133 1
743 150 1
743 160 1
743 192 1
743 202 1
743 210 1
743 241 1
743 253 1
743 257 1
743 261 1
743 365 1
743 373 1
743 386 1
743 395 1
743 398 1
743 412 1
743 417 1
743 455 1
743 457 1
743 489 1
743 499 1
743 504 1
743 511 1
743 536 1
743 569 1
743 578 1
743 590 1
743 598 1
743 656 1
743 665 1
743 714 1
743 732 1
743 765 1
743 778 1
744 33 1
744 40 1
744 72 1
744 86 1
744 107 1
744 126 1
744 143 1
744 172 1
744 183 1
744 184 1
744 208 1
744 211 1
744 214 1
744 230 1
744 286 1
744 296 1
744 297 1
744 313 1
744 357 1
744 380 1
744 408 1
744 412 1
744 419 1
744 434 1
744 449 1
744 469 1
744 480 1
744 487 1
744 498 1
744 506 1
744 508 1
744 518 1
744 520 1
744 531 1
744 537 1
744 541 1
744 564 1
744 582 1
744 583 1
744 604 1
744 605 1
744 633 1
744 713 1
744 735 1
744 739 1
744 741 1
744 742 1
744 797 1
745 5 1
745 13 1
745 14 1
745 43 1
745 89 1
745 138 1
745 142 1
745 150 1
745 174 1
745 245 1
745 273 1
745 279 1
745 285 1
745 323 1
745 333 1
745 339 1
745 346 1
745 354 1
745 376 1
745 394 1
745 409 1
745 432 1
745 437 1
745 441 1
745 442 1
745 450 1
745 456 1
745 471 1
745 472 1
745 512 1
745 530 1
745 532 1
745 548 1
745 552 1
745 591 1
745 594 1
745 623 1
745 636 1
745 651 1
745 677 1
745 694 1
745 707 1
745 710 1
745 746 1
745 773 1
745 781 1
745 793 1
746 9 1
746 22 1
746 29 1
746 34 1
746 39 1
746 63 1
746 70 1
746 71 1
746 83 1
746 89 1
746 96 1
746 105 1
746 106 1
746 144 1
746 151 1
746 154 1
746 172 1
746 198 1
746 205 1
746 226 1
746 228 1
746 234 1
746 239 1
746 250 1
746 274 1
746 281 1
746 283 1
746 311 1
746 321 1
746 339 1
746 343 1
746 351 1
746 363 1
746 432 1
746 437 1
746 463 1
746 469 1
746 489 1
746 582 1
746 584 1
746 593 1
746 598 1
746 613 1
746 630 1
746 646 1
746 652 1
746 671 1
746 693 1
746 736 1
746 745 1
746 759 1
746 766 1
746 776 1
746 793 1
747 4 1
747 21 1
747 38 1
747 39 1
747 52 1
747 75 1
747 100 1
747 101 1
747 122 1
747 140 1
747 159 1
747 182 1
747 183 1
747 229 1
747 238 1
747 332 1
747 333 1
747 388 1
747 393 1
747 397 1
747 403 1
747 415 1
747 442 1
747 452 1
747 476 1
747 488 1
747 506 1
747 513 1
747 530 1
747 540 1
747 558 1
747 587 1
747 598 1
747 618 1
747 631 1
747 638 1
747 655 1
747 660 1
747 666 1
747 680 1
747 689 1
747 707 1
747 710 1
747 712 1
747 721 1
747 722 1
747 733 1
747 736 1
747 775 1
747 783 1
747 787 1
747 791 1
747 795 1
748 64 1
748 160 1
748 177 1
748 211 1
748 251 1
748 275 1
748 289 1
748 303 1
748 332 1
748 351 1
748 361 1
748 369 1
748 373 1
748 390 1
748 393 1
748 396 1
748 405 1
748 406 1
748 413 1
748 448 1
748 462 1
748 465 1
748 476 1
748 487 1
748 505 1
748 519 1
748 531 1
748 540 1
748 542 1
748 546 1
748 563 1
748 605 1
748 625 1
748 712 1
748 727 1
748 735 1
748 749 1
748 797 1
749 19 1
749 51 1
749 52 1
749 65 1
749 70 1
749 72 1
749 96 1
749 177 1
749 178 1
749 180 1
749 203 1
749 224 1
749 237 1
749 247 1
749 253 1
749 290 1
749 301 1
749 322 1
749 366 1
749 390 1
749 400 1
749 410 1
749 412 1
749 416 1
749 476 1
749 480 1
749 491 1
749 492 1
749 495 1
749 527 1
749 546 1
749 567 1
749 593 1
749 597 1
749 649 1
749 666 1
749 677 1
749 687 1
749 692 1
749 693 1
749 709 1
749 712 1
749 719 1
749 748 1
749 753 1
749 770 1
749 772 1
749 791 1
749 794 1
749 800 1
750 7 1
750 33 1
750 37 1
750 39 1
750 51 1
750 64 1
750 142 1
750 220 1
750 228 1
750 248 1
750 284 1
750 331 1
750 341 1
750 360 1
750 367 1
750 383 1
750 389 1
750 403 1
750 404 1
750 427 1
750 435 1
750 445 1
750 461 1
750 466 1
750 471 1
750 477 1
750 481 1
750 507 1
750 564 1
750 589 1
750 608 1
750 624 1
750 638 1
750 657 1
750 677 1
750 682 1
750 691 1
750 757 1
750 775 1
750 777 1
750 788 1
750 794 1
751 29 1
751 52 1
751 63 1
751 73 1
751 81 1
751 82 1
751 104 1
751 130 1
751 143 1
751 157 1
751 166 1
751 175 1
751 185 1
751 199 1
751 200 1
751 203 1
751 204 1
751 216 1
751 222 1
751 228 1
751 241 1
751 258 1
751 280 1
751 333 1
751 361 1
751 374 1
751 376 1
751 380 1
751 431 1
751 445 1
751 471 1
751 485 1
751 513 1
751 522 1
751 544 1
751 560 1
751 586 1
751 627 1
751 630 1
751 687 1
751 700 1
751 714 1
751 715 1
751 752 1
751 754 1
751 797 1
752 10 1
752 29 1
752 42 1
752 48 1
752 59 1
752 63 1
752 98 1
752 104 1
752 112 1
752 142 1
752 164 1
752 189 1
752 202 1
752 223 1
752 235 1
752 239 1
752 240 1
752 262 1
752 270 1
752 278 1
752 283 1
752 317 1
752 330 1
752 373 1
752 379 1
752 410 1
752 426 1
752 440 1
752 468 1
752 482 1
752 488 1
752 506 1
752 519 1
752 534 1
752 567 1
752 583 1
752 585 1
752 599 1
752 601 1
752 662 1
752 666 1
752 682 1
752 683 1
752 694 1
752 704 1
752 724 1
752 738 1
752 751 1
752 782 1
752 791 1
753 2 1
753 10 1
753 36 1
753 42 1
753 53 1
753 64 1
753 98 1
753 100 1
753 101 1
753 121 1
753 153 1
753 176 1
753 181 1
753 203 1
753 214 1
753 217 1
753 231 1
753 281 1
753 284 1
753 358 1
753 373 1
753 379 1
753 420 1
753 423 1
753 441 1
753 442 1
753 457 1
753 473 1
753 491 1
753 523 1
753 553 1
753 568 1
753 570 1
753 591 1
753 609 1
753 629 1
753 642 1
753 644 1
753 646 1
753 648 1
753 663 1
753 670 1
753 690 1
753 718 1
753 734 1
753 749 1
753 761 1
753 769 1
754 6 1
754 50 1
754 130 1
754 134 1
754 151 1
754 183 1
754 186 1
754 194 1
754 197 1
754 210 1
754 221 1
754 233 1
754 246 1
754 256 1
754 259 1
754 269 1
754 271 1
754 332 1
754 340 1
754 379 1
754 384 1
754 396 1
754 404 1
754 406 1
754 420 1
754 458 1
754 462 1
754 495 1
754 499 1
754 518 1
754 556 1
754 566 1
754 573 1
754 615 1
754 641 1
754 644 1
754 661 1
754 667 1
754 671 1
754 696 1
754 727 1
754 736 1
754 751 1
754 758 1
754 764 1
754 797 1
754 799 1
755 27 1
755 50 1
755 131 1
755 167 1
755 177 1
755 180 1
755 206 1
755 225 1
755 241 1
755 254 1
755 309 1
755 331 1
755 333 1
755 343 1
755 399 1
755 428 1
755 437 1
755 445 1
755 448 1
755 473 1
755 475 1
755 510 1
755 513 1
755 541 1
755 590 1
755 602 1
755 616 1
755 633 1
755 638 1
755 643 1
755 652 1
755 710 1
755 712 1
755 726 1
755 788 1
755 799 1
756 41 1
756 81 1
756 114 1
756 123 1
756 126 1
756 145 1
756 159 1
756 196 1
756 225 1
756 241 1
756 243 1
756 258 1
756 271 1
756 285 1
756 291 1
756 312 1
756 340 1
756 348 1
756 359 1
756 360 1
756 389 1
756 417 1
756 422 1
756 425 1
756 468 1
756 469 1
756 488 1
756 489 1
756 493 1
756 518 1
756 583 1
756 590 1
756 628 1
756 633 1
756 652 1
756 657 1
756 660 1
756 673 1
756 679 1
756 713 1
756 732 1
756 757 1
756 765 1
756 785 1
757 21 1
757 39 1
757 55 1
757 68 1
757 107 1
757 134 1
757 161 1
757 166 1
757 167 1
757 217 1
757 241 1
757 304 1
757 315 1
757 330 1
757 333 1
757 336 1
757 337 1
757 362 1
757 385 1
757 414 1
757 431 1
757 442 1
757 475 1
757 517 1
757 552 1
757 557 1
757 571 1
757 577 1
757 610 1
757 617 1
757 637 1
757 639 1
757 689 1
757 698 1
757 727 1
757 728 1
757 750 1
757 756 1
757 786 1
758 37 1
758 59 1
758 88 1
758 104 1
758 105 1
758 106 1
758 120 1
758 141 1
758 151 1
758 180 1
758 209 1
758 237 1
758 262 1
758 268 1
758 287 1
758 322 1
758 335 1
758 353 1
758 362 1
758 371 1
758 399 1
758 408 1
758 447 1
758 466 1
758 470 1
758 489 1
758 492 1
758 511 1
758 512 1
758 543 1
758 577 1
758 581 1
758 591 1
758 679 1
758 687 1
758 691 1
758 710 1
758 729 1
758 754 1
758 767 1
758 773 1
758 782 1
758 791 1
758 794 1
759 22 1
759 23 1
759 34 1
759 38 1
759 49 1
759 59 1
759 106 1
759 113 1
759 120 1
759 128 1
759 129 1
759 132 1
759 133 1
759 137 1
759 148 1
759 152 1
759 195 1
759 277 1
759 292 1
759 300 1
759 323 1
759 350 1
759 368 1
759 389 1
759 402 1
759 412 1
759 448 1
759 461 1
759 487 1
759 501 1
759 503 1
759 515 1
759 522 1
759 542 1
759 544 1
759 546 1
759 556 1
759 582 1
759 602 1
759 606 1
759 610 1
759 614 1
759 635 1
759 645 1
759 647 1
759 683 1
759 714 1
759 716 1
759 735 1
759 746 1
759 773 1
759 796 1
759 797 1
760 18 1
760 25 1
760 38 1
760 41 1
760 53 1
760 78 1
760 90 1
760 129 1
760 134 1
760 159 1
760 204 1
760 206 1
760 207 1
760 235 1
760 249 1
760 257 1
760 265 1
760 266 1
760 307 1
760 310 1
760 346 1
760 370 1
760 376 1
760 384 1
760 410 1
760 460 1
760 487 1
760 494 1
760 500 1
760 506 1
760 525 1
760 538 1
760 547 1
760 596 1
760 608 1
760 609 1
760 619 1
760 627 1
760 663 1
760 668 1
760 669 1
760 671 1
760 714 1
760 719 1
760 726 1
760 790 1
761 30 1
761 34 1
761 39 1
761 53 1
761 89 1
761 115 1
761 125 1
761 133 1
761 143 1
761 169 1
761 201 1
761 236 1
761 284 1
761 290 1
761 309 1
761 332 1
761 365 1
761 368 1
761 408 1
761 425 1
761 430 1
761 434 1
761 441 1
761 444 1
761 455 1
761 463 1
761 468 1
761 505 1
761 531 1
761 540 1
761 562 1
761 598 1
761 603 1
761 620 1
761 648 1
761 656 1
761 673 1
761 674 1
761 701 1
761 714 1
761 753 1
761 772 1
761 785 1
761 796 1
761 800 1
762 1 1
762 3 1
762 15 1
762 25 1
762 62 1
762 65 1
762 66 1
762 79 1
762 82 1
762 91 1
762 104 1
762 135 1
762 150 1
762 188 1
762 238 1
762 287 1
762 306 1
762 308 1
762 323 1
762 324 1
762 328 1
762 337 1
762 344 1
762 347 1
762 351 1
762 353 1
762 372 1
762 384 1
762 400 1
762 418 1
762 427 1
762 437 1
762 473 1
762 475 1
762 482 1
762 491 1
762 511 1
762 526 1
762 528 1
762 562 1
762 576 1
762 580 1
762 588 1
762 603 1
762 652 1
762 722 1
762 767 1
763 27 1
763 28 1
763 44 1
763 57 1
763 80 1
763 95 1
763 125 1
763 137 1
763 139 1
763 146 1
763 159 1
763 162 1
763 166 1
763 168 1
763 175 1
763 186 1
763 189 1
763 228 1
763 240 1
763 242 1
763 253 1
763 259 1
763 293 1
763 332 1
763 342 1
763 356 1
763 377 1
763 386 1
763 403 1
763 406 1
763 411 1
763 455 1
763 458 1
763 470 1
763 484 1
763 501 1
763 519 1
763 530 1
763 533 1
763 540 1
763 541 1
763 560 1
763 580 1
763 589 1
763 645 1
763 670 1
763 672 1
763 678 1
763 691 1
763 735 1
763 766 1
763 796 1
764 5 1
764 6 1
764 72 1
764 74 1
764 79 1
764 85 1
764 93 1
764 110 1
764 121 1
764 128 1
764 145 1
764 158 1
764 178 1
764 184 1
764 213 1
764 248 1
764 259 1
764 262 1
764 277 1
764 288 1
764 372 1
764 377 1
764 389 1
764 411 1
764 437 1
764 464 1
764 490 1
764 496 1
764 507 1
764 599 1
764 604 1
764 615 1
764 650 1
764 663 1
764 696 1
764 698 1
764 712 1
764 718 1
764 729 1
764 754 1
764 774 1
764 783 1
764 788 1
764 792 1
764 799 1
765 6 1
765 16 1
765 24 1
765 98 1
765 116 1
765 139 1
765 174 1
765 201 1
765 209 1
765 261 1
765 264 1
765 270 1
765 280 1
765 300 1
765 308 1
765 310 1
765 311 1
765 336 1
765 347 1
765 352 1
765 421 1
765 449 1
765 465 1
765 475 1
765 503 1
765 513 1
765 535 1
765 538 1
765 542 1
765 543 1
765 586 1
765 587 1
765 694 1
765 700 1
765 707 1
765 739 1
765 743 1
765 756 1
765 767 1
765 789 1
766 12 1
766 35 1
766 66 1
766 79 1
766 85 1
766 106 1
766 124 1
766 136 1
766 160 1
766 174 1
766 208 1
766 219 1
766 224 1
766 227 1
766 229 1
766 295 1
766 313 1
766 318 1
766 323 1
766 325 1
766 348 1
766 373 1
766 383 1
766 385 1
766 413 1
766 417 1
766 444 1
766 471 1
766 493 1
766 544 1
766 590 1
766 628 1
766 633 1
766 682 1
766 704 1
766 722 1
766 746 1
766 763 1
766 795 1
767 17 1
767 44 1
767 61 1
767 68 1
767 72 1
767 79 1
767 84 1
767 87 1
767 91 1
767 111 1
767 112 1
767 122 1
767 149 1
767 151 1
767 160 1
767 161 1
767 205 1
767 214 1
767 220 1
767 241 1
767 253 1
767 270 1
767 276 1
767 307 1
767 312 1
767 328 1
767 338 1
767 349 1
767 372 1
767 384 1
767 402 1
767 404 1
767 435 1
767 451 1
767 481 1
767 498 1
767 514 1
767 531 1
767 535 1
767 540 1
767 547 1
767 561 1
767 594 1
767 613 1
767 614 1
767 618 1
767 630 1
767 638 1
767 664 1
767 666 1
767 670 1
767 698 1
767 711 1
767 723 1
767 730 1
767 738 1
767 758 1
767 762 1
767 765 1
767 798 1
768 7 1
768 21 1
768 82 1
768 85 1
768 91 1
768 136 1
768 139 1
768 143 1
768 156 1
768 182 1
768 203 1
768 207 1
768 308 1
768 312 1
768 327 1
768 346 1
768 357 1
768 378 1
768 390 1
768 428 1
768 449 1
768 451 1
768 458 1
768 466 1
768 473 1
768 485 1
768 487 1
768 505 1
768 531 1
768 574 1
768 601 1
768 608 1
768 615 1
768 630 1
768 657 1
768 663 1
768 667 1
768 672 1
768 680 1
768 691 1
768 704 1
768 707 1
768 738 1
768 772 1
768 774 1
768 779 1
768 782 1
768 790 1
769 4 1
769 16 1
769 18 1
769 29 1
769 37 1
769 45 1
769 71 1
769 84 1
769 113 1
769 120 1
769 128 1
769 139 1
769 140 1
769 146 1
769 160 1
769 168 1
769 190 1
769 213 1
769 215 1
769 232 1
769 260 1
769 263 1
769 269 1
769 276 1
769 278 1
769 320 1
769 345 1
769 373 1
769 384 1
769 402 1
769 416 1
769 440 1
769 452 1
769 457 1
769 458 1
769 486 1
769 503 1
769 509 1
769 541 1
769 555 1
769 592 1
769 617 1
769 628 1
769 664 1
769 668 1
769 697 1
769 753 1
769 772 1
769 782 1
770 42 1
770 73 1
770 88 1
770 104 1
770 107 1
770 117 1
770 120 1
770 136 1
770 138 1
770 141 1
770 144 1
770 160 1
770 167 1
770 170 1
770 185 1
770 191 1
770 197 1
770 216 1
770 220 1
770 224 1
770 225 1
770 244 1
770 249 1
770 285 1
770 316 1
770 381 1
770 388 1
770 403 1
770 407 1
770 430 1
770 479 1
770 488 1
770 505 1
770 508 1
770 524 1
770 552 1
770 558 1
770 591 1
770 606 1
770 615 1
770 622 1
770 631 1
770 641 1
770 674 1
770 691 1
770 696 1
770 706 1
770 714 1
770 733 1
770 735 1
770 749 1
770 784 1
771 6 1
771 73 1
771 76 1
771 96 1
771 112 1
771 264 1
771 282 1
771 298 1
771 342 1
771 349 1
771 358 1
771 364 1
771 376 1
771 415 1
771 416 1
771 442 1
771 466 1
771 492 1
771 494 1
771 523 1
771 527 1
771 547 1
771 584 1
771 613 1
771 652 1
771 661 1
771 680 1
771 696 1
771 709 1
771 724 1
771 736 1
771 737 1
771 793 1
771 794 1
772 6 1
772 20 1
772 40 1
772 42 1
772 55 1
772 57 1
772 74 1
772 88 1
772 91 1
772 98 1
772 107 1
772 113 1
772 142 1
772 155 1
772 158 1
772 179 1
772 185 1
772 209 1
772 212 1
772 219 1
772 222 1
772 234 1
772 238 1
772 264 1
772 272 1
772 278 1
772 290 1
772 328 1
772 331 1
772 338 1
772 376 1
772 379 1
772 388 1
772 415 1
772 448 1
772 472 1
772 473 1
772 486 1
772 496 1
772 521 1
772 571 1
772 576 1
772 639 1
772 649 1
772 658 1
772 662 1
772 668 1
772 671 1
772 673 1
772 674 1
772 685 1
772 688 1
772 700 1
772 727 1
772 749 1
772 761 1
772 768 1
772 769 1
772 789 1
772 794 1
772 795 1
773 24 1
773 37 1
773 70 1
773 75 1
773 77 1
773 101 1
773 118 1
773 147 1
773 153 1
773 161 1
773 166 1
773 181 1
773 184 1
773 187 1
773 197 1
773 202 1
773 232 1
773 240 1
773 243 1
773 274 1
773 287 1
773 311 1
773 329 1
773 385 1
773 389 1
773 391 1
773 400 1
773 408 1
773 432 1
773 438 1
773 490 1
773 491 1
773 525 1
773 527 1
773 538 1
773 539 1
773 548 1
773 560 1
773 619 1
773 646 1
773 655 1
773 740 1
773 745 1
773 758 1
773 759 1
773 775 1
774 7 1
774 9 1
774 10 1
774 49 1
774 52 1
774 60 1
774 63 1
774 86 1
774 105 1
774 126 1
774 128 1
774 129 1
774 130 1
774 151 1
774 160 1
774 205 1
774 245 1
774 255 1
774 263 1
774 272 1
774 274 1
774 285 1
774 293 1
774 315 1
774 329 1
774 348 1
774 350 1
774 372 1
774 378 1
774 403 1
774 413 1
774 414 1
774 469 1
774 523 1
774 572 1
774 598 1
774 620 1
774 630 1
774 639 1
774 650 1
774 655 1
774 694 1
774 718 1
774 730 1
774 735 1
774 764 1
774 768 1
774 796 1
775 9 1
775 12 1
775 37 1
775 38 1
775 42 1
775 65 1
775 74 1
775 81 1
775 89 1
775 111 1
775 123 1
775 228 1
775 238 1
775 267 1
775 272 1
775 275 1
775 291 1
775 319 1
775 325 1
775 378 1
775 398 1
775 444 1
775 461 1
775 475 1
775 531 1
775 553 1
775 557 1
775 569 1
775 574 1
775 603 1
775 622 1
775 623 1
775 625 1
775 626 1
775 633 1
775 640 1
775 657 1
775 711 1
775 723 1
775 747 1
775 750 1
775 773 1
775 777 1
775 788 1
775 798 1
776 1 1
776 8 1
776 18 1
776 22 1
776 33 1
776 86 1
776 115 1
776 171 1
776 174 1
776 175 1
776 176 1
776 196 1
776 203 1
776 221 1
776 237 1
776 268 1
776 270 1
776 279 1
776 342 1
776 382 1
776 393 1
776 456 1
776 504 1
776 511 1
776 533 1
776 549 1
776 558 1
776 608 1
776 633 1
776 641 1
776 642 1
776 649 1
776 705 1
776 714 1
776 742 1
776 746 1
776 783 1
776 795 1
777 10 1
777 84 1
777 96 1
777 102 1
777 104 1
777 107 1
777 128 1
777 151 1
777 207 1
777 209 1
777 217 1
777 288 1
777 296 1
777 365 1
777 403 1
777 408 1
777 413 1
777 421 1
777 440 1
777 442 1
777 446 1
777 451 1
777 464 1
777 475 1
777 481 1
777 494 1
777 503 1
777 507 1
777 512 1
777 544 1
777 561 1
777 570 1
777 571 1
777 574 1
777 604 1
777 613 1
777 614 1
777 624 1
777 657 1
777 664 1
777 693 1
777 698 1
777 750 1
777 775 1
777 783 1
778 3 1
778 55 1
778 122 1
778 132 1
778 136 1
778 145 1
778 149 1
778 177 1
778 180 1
778 182 1
778 200 1
778 212 1
778 216 1
778 223 1
778 268 1
778 305 1
778 328 1
778 335 1
778 344 1
778 359 1
778 371 1
778 397 1
778 398 1
778 417 1
778 420 1
778 466 1
778 469 1
778 502 1
778 507 1
778 508 1
778 531 1
778 539 1
778 543 1
778 557 1
778 569 1
778 617 1
778 629 1
778 630 1
778 638 1
778 658 1
778 696 1
778 698 1
778 709 1
778 739 1
778 743 1
778 794 1
779 15 1
779 26 1
779 38 1
779 47 1
779 60 1
779 73 1
779 85 1
779 108 1
779 184 1
779 206 1
779 234 1
779 256 1
779 260 1
779 286 1
779 287 1
779 291 1
779 299 1
779 301 1
779 314 1
779 326 1
779 348 1
779 379 1
779 388 1
779 404 1
779 428 1
779 453 1
779 476 1
779 480 1
779 488 1
779 499 1
779 504 1
779 506 1
779 541 1
779 551 1
779 558 1
779 593 1
779 603 1
779 622 1
779 629 1
779 643 1
779 673 1
779 689 1
779 691 1
779 698 1
779 720 1
779 722 1
779 768 1
779 783 1
780 6 1
780 50 1
780 54 1
780 59 1
780 61 1
780 85 1
780 92 1
780 97 1
780 102 1
780 104 1
780 110 1
780 139 1
780 140 1
780 150 1
780 169 1
780 173 1
780 196 1
780 224 1
780 245 1
780 270 1
780 279 1
780 302 1
780 314 1
780 331 1
780 338 1
780 344 1
780 355 1
780 369 1
780 370 1
780 373 1
780 420 1
780 421 1
780 435 1
780 447 1
780 458 1
780 481 1
780 493 1
780 521 1
780 546 1
780 548 1
780 563 1
780 565 1
780 589 1
780 615 1
780 618 1
780 648 1
780 651 1
780 660 1
780 662 1
780 663 1
780 675 1
780 704 1
780 710 1
780 724 1
780 731 1
780 738 1
780 786 1
781 23 1
781 26 1
781 91 1
781 95 1
781 107 1
781 134 1
781 190 1
781 237 1
781 269 1
781 275 1
781 279 1
781 308 1
781 334 1
781 335 1
781 351 1
781 379 1
781 466 1
781 480 1
781 498 1
781 559 1
781 560 1
781 570 1
781 572 1
781 577 1
781 590 1
781 604 1
781 605 1
781 627 1
781 634 1
781 656 1
781 664 1
781 705 1
781 723 1
781 745 1
782 3 1
782 43 1
782 54 1
782 74 1
782 80 1
782 86 1
782 90 1
782 97 1
782 104 1
782 107 1
782 193 1
782 245 1
782 307 1
782 308 1
782 368 1
782 383 1
782 392 1
782 411 1
782 415 1
782 429 1
782 432 1
782 448 1
782 459 1
782 468 1
782 489 1
782 494 1
782 541 1
782 551 1
782 556 1
782 570 1
782 592 1
782 611 1
782 616 1
782 618 1
782 640 1
782 660 1
782 676 1
782 677 1
782 681 1
782 687 1
782 736 1
782 752 1
782 758 1
782 768 1
782 769 1
783 6 1
783 10 1
783 19 1
783 23 1
783 25 1
783 78 1
783 85 1
783 102 1
783 112 1
783 118 1
783 136 1
783 141 1
783 161 1
783 165 1
783 171 1
783 189 1
783 195 1
783 207 1
783 212 1
783 246 1
783 313 1
783 320 1
783 324 1
783 342 1
783 386 1
783 394 1
783 415 1
783 444 1
783 456 1
783 464 1
783 493 1
783 503 1
783 519 1
783 530 1
783 548 1
783 573 1
783 576 1
783 581 1
783 613 1
783 617 1
783 635 1
783 641 1
783 657 1
783 660 1
783 690 1
783 697 1
783 702 1
783 747 1
783 764 1
783 776 1
783 777 1
783 779 1
784 8 1
784 11 1
784 19 1
784 95 1
784 126 1
784 143 1
784 151 1
784 154 1
784 174 1
784 177 1
784 183 1
784 220 1
784 234 1
784 242 1
784 264 1
784 313 1
784 317 1
784 325 1
784 344 1
784 354 1
784 363 1
784 365 1
784 367 1
784 372 1
784 375 1
784 382 1
784 403 1
784 416 1
784 451 1
784 562 1
784 569 1
784 589 1
784 608 1
784 620 1
784 625 1
784 629 1
784 636 1
784 647 1
784 653 1
784 677 1
784 684 1
784 694 1
784 704 1
784 706 1
784 710 1
784 723 1
784 734 1
784 738 1
784 740 1
784 770 1
784 785 1
785 15 1
785 23 1
785 27 1
785 37 1
785 61 1
785 75 1
785 91 1
785 110 1
785 126 1
785 175 1
785 215 1
785 221 1
785 246 1
785 251 1
785 252 1
785 256 1
785 264 1
785 282 1
785 287 1
785 288 1
785 303 1
785 312 1
785 327 1
785 344 1
785 354 1
785 358 1
785 368 1
785 410 1
785 414 1
785 417 1
785 429 1
785 438 1
785 459 1
785 466 1
785 472 1
785 477 1
785 480 1
785 505 1
785 514 1
785 524 1
785 554 1
785 557 1
785 559 1
785 564 1
785 606 1
785 617 1
785 630 1
785 640 1
785 641 1
785 648 1
785 664 1
785 670 1
785 674 1
785 676 1
785 691 1
785 719 1
785 720 1
785 731 1
785 733 1
785 735 1
785 756 1
785 761 1
785 784 1
786 44 1
786 48 1
786 50 1
786 65 1
786 84 1
786 93 1
786 108 1
786 119 1
786 135 1
786 143 1
786 153 1
786 178 1
786 202 1
786 218 1
786 248 1
786 270 1
786 275 1
786 301 1
786 320 1
786 335 1
786 351 1
786 355 1
786 356 1
786 364 1
786 368 1
786 375 1
786 383 1
786 422 1
786 438 1
786 453 1
786 461 1
786 477 1
786 506 1
786 511 1
786 520 1
786 543 1
786 550 1
786 553 1
786 556 1
786 585 1
786 586 1
786 598 1
786 615 1
786 653 1
786 696 1
786 704 1
786 715 1
786 735 1
786 757 1
786 780 1
787 10 1
787 11 1
787 14 1
787 23 1
787 65 1
787 70 1
787 75 1
787 84 1
787 95 1
787 105 1
787 114 1
787 118 1
787 168 1
787 189 1
787 198 1
787 202 1
787 209 1
787 256 1
787 261 1
787 263 1
787 265 1
787 266 1
787 320 1
787 344 1
787 365 1
787 380 1
787 393 1
787 396 1
787 450 1
787 453 1
787 469 1
787 476 1
787 489 1
787 525 1
787 530 1
787 544 1
787 568 1
787 569 1
787 577 1
787 580 1
787 593 1
787 617 1
787 638 1
787 664 1
787 687 1
787 718 1
787 735 1
787 747 1
787 791 1
787 792 1
787 800 1
788 20 1
788 24 1
788 29 1
788 32 1
788 43 1
788 61 1
788 67 1
788 98 1
788 108 1
788 142 1
788 170 1
788 173 1
788 254 1
788 257 1
788 261 1
788 266 1
788 309 1
788 318 1
788 332 1
788 345 1
788 359 1
788 368 1
788 403 1
788 425 1
788 436 1
788 446 1
788 457 1
788 474 1
788 484 1
788 506 1
788 564 1
788 572 1
788 582 1
788 588 1
788 606 1
788 616 1
788 633 1
788 644 1
788 686 1
788 692 1
788 707 1
788 724 1
788 736 1
788 750 1
788 755 1
788 764 1
788 775 1
789 15 1
789 18 1
789 26 1
789 64 1
789 71 1
789 72 1
789 102 1
789 118 1
789 137 1
789 141 1
789 188 1
789 215 1
789 223 1
789 225 1
789 258 1
789 275 1
789 288 1
789 291 1
789 328 1
789 364 1
789 366 1
789 381 1
789 385 1
789 396 1
789 452 1
789 456 1
789 472 1
789 496 1
789 497 1
789 502 1
789 553 1
789 576 1
789 580 1
789 616 1
789 662 1
789 680 1
789 683 1
789 686 1
789 692 1
789 728 1
789 735 1
789 736 1
789 740 1
789 765 1
789 772 1
790 18 1
790 36 1
790 48 1
790 49 1
790 117 1
790 138 1
790 151 1
790 166 1
790 205 1
790 210 1
790 247 1
790 255 1
790 268 1
790 272 1
790 280 1
790 303 1
790 305 1
790 342 1
790 353 1
790 362 1
790 383 1
790 385 1
790 397 1
790 399 1
790 426 1
790 430 1
790 441 1
790 462 1
790 476 1
790 480 1
790 487 1
790 499 1
790 521 1
790 527 1
790 538 1
790 556 1
790 568 1
790 576 1
790 579 1
790 589 1
790 598 1
790 606 1
790 647 1
790 660 1
790 680 1
790 684 1
790 687 1
790 694 1
790 713 1
790 729 1
790 760 1
790 768 1
790 794 1
791 45 1
791 60 1
791 67 1
791 72 1
791 74 1
791 82 1
791 92 1
791 98 1
791 121 1
791 125 1
791 159 1
791 161 1
791 211 1
791 216 1
791 218 1
791 244 1
791 250 1
791 269 1
791 272 1
791 280 1
791 285 1
791 308 1
791 313 1
791 314 1
791 353 1
791 373 1
791 398 1
791 402 1
791 422 1
791 436 1
791 448 1
791 461 1
791 468 1
791 487 1
791 503 1
791 562 1
791 635 1
791 640 1
791 680 1
791 690 1
791 696 1
791 710 1
791 747 1
791 749 1
791 752 1
791 758 1
791 787 1
792 13 1
792 19 1
792 52 1
792 75 1
792 81 1
792 120 1
792 125 1
792 126 1
792 130 1
792 135 1
792 165 1
792 200 1
792 218 1
792 226 1
792 230 1
792 258 1
792 292 1
792 295 1
792 298 1
792 312 1
792 349 1
792 358 1
792 360 1
792 362 1
792 401 1
792 437 1
792 443 1
792 456 1
792 466 1
792 480 1
792 497 1
792 536 1
792 554 1
792 581 1
792 590 1
792 618 1
792 622 1
792 634 1
792 679 1
792 696 1
792 699 1
792 722 1
792 729 1
792 764 1
792 787 1
793 1 1
793 5 1
793 36 1
793 38 1
793 58 1
793 59 1
793 67 1
793 71 1
793 96 1
793 101 1
793 113 1
793 117 1
793 119 1
793 155 1
793 180 1
793 184 1
793 193 1
793 204 1
793 296 1
793 297 1
793 299 1
793 337 1
793 347 1
793 397 1
793 400 1
793 409 1
793 415 1
793 441 1
793 457 1
793 494 1
793 496 1
793 506 1
793 507 1
793 542 1
793 561 1
793 573 1
793 582 1
793 594 1
793 620 1
793 629 1
793 648 1
793 659 1
793 662 1
793 683 1
793 692 1
793 696 1
793 714 1
793 715 1
793 718 1
793 745 1
793 746 1
793 771 1
793 798 1
794 1 1
794 15 1
794 87 1
794 95 1
794 96 1
794 103 1
794 131 1
794 154 1
794 157 1
794 162 1
794 180 1
794 182 1
794 210 1
794 212 1
794 225 1
794 242 1
794 252 1
794 317 1
794 327 1
794 337 1
794 341 1
794 367 1
794 371 1
794 378 1
794 417 1
794 437 1
794 443 1
794 444 1
794 449 1
794 454 1
794 456 1
794 467 1
794 472 1
794 476 1
794 485 1
794 560 1
794 579 1
794 592 1
794 613 1
794 668 1
794 691 1
794 707 1
794 716 1
794 736 1
794 749 1
794 750 1
794 758 1
794 771 1
794 772 1
794 778 1
794 790 1
794 797 1
795 41 1
795 54 1
795 55 1
795 60 1
795 88 1
795 92 1
795 110 1
795 119 1
795 137 1
795 171 1
795 199 1
795 204 1
795 207 1
795 208 1
795 218 1
795 310 1
795 350 1
795 360 1
795 386 1
795 419 1
795 440 1
795 441 1
795 524 1
795 536 1
795 570 1
795 578 1
795 585 1
795 602 1
795 628 1
795 638 1
795 661 1
795 666 1
795 671 1
795 680 1
795 688 1
795 693 1
795 694 1
795 699 1
795 747 1
795 766 1
795 772 1
795 776 1
795 800 1
796 13 1
796 27 1
796 28 1
796 63 1
796 68 1
796 77 1
796 93 1
796 111 1
796 119 1
796 136 1
796 182 1
796 187 1
796 237 1
796 240 1
796 262 1
796 298 1
796 317 1
796 321 1
796 343 1
796 371 1
796 382 1
796 468 1
796 493 1
796 501 1
796 509 1
796 511 1
796 530 1
796 538 1
796 546 1
796 594 1
796 616 1
796 637 1
796 638 1
796 653 1
796 655 1
796 667 1
796 676 1
796 712 1
796 759 1
796 761 1
796 763 1
796 774 1
797 16 1
797 27 1
797 52 1
797 61 1
797 70 1
797 89 1
797 99 1
797 119 1
797 122 1
797 157 1
797 197 1
797 199 1
797 215 1
797 241 1
797 243 1
797 307 1
797 341 1
797 373 1
797 396 1
797 413 1
797 421 1
797 461 1
797 473 1
797 499 1
797 500 1
797 506 1
797 512 1
797 547 1
797 578 1
797 588 1
797 596 1
797 616 1
797 634 1
797 642 1
797 659 1
797 677 1
797 679 1
797 685 1
797 687 1
797 690 1
797 692 1
797 744 1
797 748 1
797 751 1
797 754 1
797 759 1
797 794 1
798 64 1
798 77 1
798 110 1
798 121 1
798 133 1
798 137 1
798 141 1
798 152 1
798 161 1
798 166 1
798 198 1
798 220 1
798 224 1
798 278 1
798 294 1
798 298 1
798 308 1
798 324 1
798 371 1
798 383 1
798 420 1
798 425 1
798 448 1
798 463 1
798 564 1
798 577 1
798 610 1
798 629 1
798 631 1
798 642 1
798 650 1
798 680 1
798 686 1
798 729 1
798 736 1
798 767 1
798 775 1
798 793 1
798 800 1
799 26 1
799 35 1
799 55 1
799 72 1
799 77 1
799 83 1
799 92 1
799 93 1
799 96 1
799 102 1
799 118 1
799 138 1
799 147 1
799 149 1
799 167 1
799 182 1
799 197 1
799 208 1
799 244 1
799 260 1
799 268 1
799 275 1
799 306 1
799 307 1
799 328 1
799 344 1
799 404 1
799 407 1
799 450 1
799 458 1
799 484 1
799 525 1
799 554 1
799 567 1
799 598 1
799 622 1
799 626 1
799 629 1
799 640 1
799 653 1
799 681 1
799 682 1
799 698 1
799 724 1
799 737 1
799 754 1
799 755 1
799 764 1
800 8 1
800 23 1
800 34 1
800 98 1
800 103 1
800 104 1
800 106 1
800 113 1
800 125 1
800 126 1
800 132 1
800 185 1
800 201 1
800 219 1
800 223 1
800 227 1
800 238 1
800 254 1
800 265 1
800 289 1
800 305 1
800 326 1
800 334 1
800 353 1
800 388 1
800 434 1
800 442 1
800 462 1
800 465 1
800 472 1
800 479 1
800 480 1
800 512 1
800 546 1
800 561 1
800 562 1
800 581 1
800 596 1
800 670 1
800 676 1
800 682 1
800 692 1
800 693 1
800 699 1
800 702 1
800 749 1
800 761 1
800 787 1
800 795 1
800 798 1
