%%MatrixMarket matrix coordinate real general
%
800 800 38352
1 4 1
1 18 1
1 44 1
1 52 1
1 58 1
1 97 1
1 135 1
1 143 1
1 163 1
1 173 1
1 184 1
1 186 1
1 210 1
1 213 1
1 220 1
1 233 1
1 236 1
1 238 1
1 265 1
1 293 1
1 338 1
1 357 1
1 373 1
1 378 1
1 413 1
1 418 1
1 428 1
1 465 1
1 482 1
1 486 1
1 515 1
1 568 1
1 578 1
1 581 1
1 595 1
1 599 1
1 611 1
1 626 1
1 646 1
1 661 1
1 690 1
1 738 1
1 740 1
1 756 1
2 5 1
2 8 1
2 14 1
2 17 1
2 72 1
2 131 1
2 137 1
2 141 1
2 146 1
2 152 1
2 164 1
2 178 1
2 193 1
2 219 1
2 233 1
2 242 1
2 262 1
2 271 1
2 272 1
2 285 1
2 294 1
2 297 1
2 305 1
2 338 1
2 345 1
2 355 1
2 377 1
2 384 1
2 385 1
2 389 1
2 401 1
2 423 1
2 454 1
2 461 1
2 472 1
2 486 1
2 497 1
2 520 1
2 573 1
2 580 1
2 582 1
2 586 1
2 607 1
2 613 1
2 614 1
2 622 1
2 630 1
2 650 1
2 665 1
2 677 1
2 702 1
2 704 1
2 716 1
2 724 1
2 769 1
2 771 1
2 772 1
3 15 1
3 22 1
3 55 1
3 57 1
3 68 1
3 76 1
3 85 1
3 122 1
3 133 1
3 169 1
3 192 1
3 207 1
3 212 1
3 226 1
3 276 1
3 284 1
3 293 1
3 303 1
3 381 1
3 386 1
3 397 1
3 423 1
3 477 1
3 479 1
3 480 1
3 492 1
3 497 1
3 536 1
3 570 1
3 590 1
3 594 1
3 629 1
3 638 1
3 658 1
3 659 1
3 665 1
3 731 1
3 758 1
3 769 1
3 779 1
3 799 1
4 1 1
4 42 1
4 48 1
4 57 1
4 79 1
4 80 1
4 89 1
4 144 1
4 147 1
4 260 1
4 268 1
4 272 1
4 307 1
4 315 1
4 330 1
4 332 1
4 376 1
4 377 1
4 378 1
4 386 1
4 426 1
4 427 1
4 428 1
4 443 1
4 475 1
4 507 1
4 520 1
4 529 1
4 535 1
4 545 1
4 559 1
4 564 1
4 568 1
4 572 1
4 576 1
4 584 1
4 594 1
4 600 1
4 603 1
4 605 1
4 612 1
4 633 1
4 681 1
4 685 1
4 686 1
4 695 1
4 702 1
4 709 1
4 720 1
4 725 1
4 737 1
4 765 1
4 768 1
4 794 1
5 2 1
5 6 1
5 26 1
5 39 1
5 63 1
5 75 1
5 82 1
5 112 1
5 113 1
5 156 1
5 165 1
5 182 1
5 205 1
5 209 1
5 221 1
5 227 1
5 256 1
5 278 1
5 305 1
5 330 1
5 366 1
5 371 1
5 382 1
5 423 1
5 432 1
5 496 1
5 509 1
5 512 1
5 526 1
5 542 1
5 564 1
5 568 1
5 580 1
5 596 1
5 609 1
5 616 1
5 646 1
5 648 1
5 665 1
5 712 1
5 720 1
5 740 1
5 768 1
5 794 1
6 5 1
6 20 1
6 50 1
6 66 1
6 71 1
6 85 1
6 138 1
6 221 1
6 231 1
6 233 1
6 242 1
6 267 1
6 278 1
6 279 1
6 291 1
6 294 1
6 308 1
6 342 1
6 354 1
6 363 1
6 376 1
6 378 1
6 379 1
6 387 1
6 390 1
6 414 1
6 437 1
6 501 1
6 579 1
6 588 1
6 681 1
6 688 1
6 702 1
6 727 1
6 740 1
6 759 1
6 762 1
6 790 1
7 24 1
7 54 1
7 64 1
7 93 1
7 102 1
7 113 1
7 135 1
7 136 1
7 153 1
7 169 1
7 173 1
7 192 1
7 219 1
7 226 1
7 231 1
7 236 1
7 250 1
7 254 1
7 272 1
7 323 1
7 341 1
7 345 1
7 367 1
7 386 1
7 401 1
7 439 1
7 448 1
7 465 1
7 488 1
7 491 1
7 506 1
7 531 1
7 539 1
7 548 1
7 570 1
7 596 1
7 679 1
7 681 1
7 689 1
7 737 1
7 738 1
7 758 1
7 768 1
7 778 1
7 791 1
8 2 1
8 13 1
8 27 1
8 51 1
8 73 1
8 74 1
8 80 1
8 85 1
8 96 1
8 122 1
8 134 1
8 154 1
8 157 1
8 199 1
8 210 1
8 255 1
8 260 1
8 280 1
8 302 1
8 308 1
8 322 1
8 325 1
8 329 1
8 341 1
8 359 1
8 390 1
8 432 1
8 434 1
8 478 1
8 500 1
8 534 1
8 543 1
8 548 1
8 596 1
8 599 1
8 602 1
8 619 1
8 624 1
8 637 1
8 651 1
8 662 1
8 665 1
8 668 1
8 698 1
8 717 1
8 719 1
8 741 1
9 45 1
9 56 1
9 91 1
9 124 1
9 125 1
9 143 1
9 161 1
9 172 1
9 178 1
9 194 1
9 197 1
9 217 1
9 253 1
9 272 1
9 281 1
9 300 1
9 309 1
9 329 1
9 347 1
9 350 1
9 364 1
9 365 1
9 397 1
9 409 1
9 419 1
9 421 1
9 426 1
9 429 1
9 438 1
9 441 1
9 461 1
9 490 1
9 499 1
9 536 1
9 564 1
9 577 1
9 610 1
9 654 1
9 661 1
9 700 1
9 705 1
9 752 1
9 755 1
9 770 1
9 798 1
10 48 1
10 50 1
10 58 1
10 63 1
10 70 1
10 95 1
10 103 1
10 134 1
10 159 1
10 167 1
10 175 1
10 180 1
10 218 1
10 259 1
10 308 1
10 310 1
10 313 1
10 331 1
10 338 1
10 348 1
10 355 1
10 373 1
10 388 1
10 431 1
10 491 1
10 496 1
10 510 1
10 527 1
10 546 1
10 553 1
10 558 1
10 560 1
10 580 1
10 587 1
10 596 1
10 606 1
10 617 1
10 624 1
10 631 1
10 664 1
10 696 1
10 698 1
10 721 1
10 727 1
11 19 1
11 31 1
11 40 1
11 49 1
11 56 1
11 69 1
11 81 1
11 85 1
11 136 1
11 155 1
11 160 1
11 179 1
11 184 1
11 195 1
11 232 1
11 247 1
11 283 1
11 300 1
11 311 1
11 317 1
11 322 1
11 338 1
11 346 1
11 367 1
11 385 1
11 408 1
11 411 1
11 435 1
11 460 1
11 467 1
11 472 1
11 510 1
11 540 1
11 544 1
11 553 1
11 559 1
11 576 1
11 624 1
11 681 1
11 688 1
11 691 1
11 694 1
11 699 1
11 714 1
11 737 1
11 743 1
11 752 1
11 798 1
12 32 1
12 44 1
12 47 1
12 65 1
12 70 1
12 75 1
12 93 1
12 104 1
12 105 1
12 124 1
12 138 1
12 147 1
12 214 1
12 252 1
12 265 1
12 273 1
12 310 1
12 332 1
12 371 1
12 397 1
12 417 1
12 428 1
12 437 1
12 481 1
12 495 1
12 505 1
12 536 1
12 550 1
12 576 1
12 629 1
12 638 1
12 640 1
12 645 1
12 661 1
12 670 1
12 691 1
12 696 1
12 735 1
12 753 1
12 773 1
12 791 1
12 796 1
12 797 1
13 8 1
13 20 1
13 23 1
13 32 1
13 37 1
13 45 1
13 49 1
13 54 1
13 56 1
13 93 1
13 100 1
13 121 1
13 127 1
13 138 1
13 145 1
13 151 1
13 161 1
13 207 1
13 235 1
13 244 1
13 285 1
13 295 1
13 304 1
13 342 1
13 345 1
13 359 1
13 360 1
13 381 1
13 387 1
13 400 1
13 420 1
13 438 1
13 472 1
13 509 1
13 512 1
13 540 1
13 544 1
13 553 1
13 566 1
13 575 1
13 600 1
13 616 1
13 619 1
13 643 1
13 658 1
13 727 1
13 731 1
13 748 1
13 757 1
13 765 1
13 782 1
14 2 1
14 20 1
14 59 1
14 71 1
14 75 1
14 102 1
14 112 1
14 140 1
14 142 1
14 157 1
14 162 1
14 165 1
14 177 1
14 183 1
14 234 1
14 240 1
14 260 1
14 274 1
14 318 1
14 321 1
14 325 1
14 328 1
14 330 1
14 334 1
14 345 1
14 361 1
14 362 1
14 396 1
14 399 1
14 402 1
14 441 1
14 453 1
14 466 1
14 470 1
14 485 1
14 500 1
14 511 1
14 519 1
14 523 1
14 537 1
14 545 1
14 551 1
14 561 1
14 566 1
14 567 1
14 597 1
14 608 1
14 609 1
14 612 1
14 624 1
14 625 1
14 637 1
14 653 1
14 663 1
14 692 1
14 706 1
14 708 1
14 715 1
14 767 1
14 786 1
14 798 1
15 3 1
15 30 1
15 40 1
15 55 1
15 66 1
15 106 1
15 119 1
15 136 1
15 200 1
15 222 1
15 229 1
15 241 1
15 269 1
15 290 1
15 297 1
15 324 1
15 347 1
15 348 1
15 354 1
15 412 1
15 435 1
15 440 1
15 449 1
15 460 1
15 482 1
15 492 1
15 493 1
15 496 1
15 500 1
15 522 1
15 540 1
15 543 1
15 550 1
15 553 1
15 563 1
15 570 1
15 581 1
15 596 1
15 635 1
15 677 1
15 695 1
15 697 1
15 709 1
15 745 1
15 790 1
16 23 1
16 29 1
16 47 1
16 105 1
16 121 1
16 122 1
16 124 1
16 135 1
16 138 1
16 144 1
16 175 1
16 185 1
16 191 1
16 193 1
16 206 1
16 224 1
16 227 1
16 248 1
16 251 1
16 258 1
16 265 1
16 279 1
16 302 1
16 317 1
16 337 1
16 342 1
16 370 1
16 412 1
16 432 1
16 442 1
16 464 1
16 467 1
16 470 1
16 483 1
16 494 1
16 503 1
16 521 1
16 524 1
16 552 1
16 563 1
16 580 1
16 602 1
16 604 1
16 607 1
16 611 1
16 613 1
16 619 1
16 630 1
16 645 1
16 664 1
16 666 1
16 673 1
16 708 1
16 737 1
16 742 1
16 753 1
16 761 1
17 2 1
17 21 1
17 26 1
17 27 1
17 55 1
17 70 1
17 116 1
17 166 1
17 190 1
17 193 1
17 210 1
17 237 1
17 264 1
17 278 1
17 314 1
17 319 1
17 327 1
17 402 1
17 408 1
17 427 1
17 431 1
17 476 1
17 485 1
17 487 1
17 505 1
17 523 1
17 534 1
17 536 1
17 540 1
17 541 1
17 578 1
17 613 1
17 626 1
17 628 1
17 677 1
17 681 1
17 694 1
17 709 1
17 719 1
17 724 1
17 734 1
17 741 1
17 746 1
17 792 1
18 1 1
18 39 1
18 80 1
18 91 1
18 101 1
18 113 1
18 124 1
18 133 1
18 182 1
18 209 1
18 231 1
18 282 1
18 284 1
18 291 1
18 296 1
18 333 1
18 376 1
18 383 1
18 398 1
18 399 1
18 401 1
18 411 1
18 415 1
18 451 1
18 452 1
18 459 1
18 462 1
18 466 1
18 538 1
18 558 1
18 559 1
18 584 1
18 609 1
18 612 1
18 627 1
18 631 1
18 643 1
18 727 1
18 732 1
18 734 1
18 748 1
18 750 1
19 11 1
19 26 1
19 32 1
19 38 1
19 41 1
19 52 1
19 60 1
19 78 1
19 105 1
19 151 1
19 158 1
19 171 1
19 188 1
19 189 1
19 201 1
19 207 1
19 222 1
19 233 1
19 235 1
19 245 1
19 262 1
19 264 1
19 275 1
19 277 1
19 281 1
19 300 1
19 310 1
19 319 1
19 339 1
19 340 1
19 354 1
19 367 1
19 400 1
19 411 1
19 427 1
19 504 1
19 514 1
19 568 1
19 583 1
19 585 1
19 593 1
19 610 1
19 618 1
19 631 1
19 634 1
19 651 1
19 661 1
19 662 1
19 703 1
19 705 1
19 714 1
19 724 1
19 730 1
19 732 1
19 746 1
19 755 1
20 6 1
20 13 1
20 14 1
20 39 1
20 69 1
20 80 1
20 101 1
20 105 1
20 124 1
20 188 1
20 191 1
20 194 1
20 237 1
20 246 1
20 264 1
20 272 1
20 275 1
20 289 1
20 302 1
20 322 1
20 340 1
20 368 1
20 376 1
20 381 1
20 401 1
20 433 1
20 452 1
20 458 1
20 502 1
20 521 1
20 548 1
20 554 1
20 581 1
20 591 1
20 648 1
20 683 1
20 703 1
20 748 1
20 772 1
20 778 1
20 790 1
21 17 1
21 28 1
21 48 1
21 62 1
21 69 1
21 76 1
21 82 1
21 91 1
21 111 1
21 129 1
21 146 1
21 158 1
21 166 1
21 170 1
21 171 1
21 193 1
21 197 1
21 243 1
21 262 1
21 270 1
21 283 1
21 285 1
21 324 1
21 338 1
21 342 1
21 363 1
21 367 1
21 388 1
21 399 1
21 404 1
21 409 1
21 414 1
21 422 1
21 426 1
21 466 1
21 469 1
21 472 1
21 495 1
21 507 1
21 511 1
21 525 1
21 554 1
21 600 1
21 603 1
21 605 1
21 619 1
21 628 1
21 646 1
21 668 1
21 671 1
21 675 1
21 676 1
21 694 1
21 720 1
21 750 1
21 757 1
21 762 1
21 770 1
21 778 1
21 783 1
22 3 1
22 23 1
22 50 1
22 64 1
22 85 1
22 86 1
22 87 1
22 93 1
22 122 1
22 126 1
22 133 1
22 139 1
22 160 1
22 162 1
22 166 1
22 181 1
22 218 1
22 251 1
22 328 1
22 329 1
22 337 1
22 350 1
22 352 1
22 359 1
22 376 1
22 398 1
22 402 1
22 422 1
22 451 1
22 457 1
22 474 1
22 480 1
22 482 1
22 499 1
22 533 1
22 537 1
22 538 1
22 557 1
22 570 1
22 582 1
22 583 1
22 587 1
22 601 1
22 602 1
22 617 1
22 629 1
22 641 1
22 645 1
22 648 1
22 677 1
22 681 1
22 688 1
22 698 1
22 704 1
22 715 1
22 741 1
22 763 1
22 794 1
23 13 1
23 16 1
23 22 1
23 36 1
23 51 1
23 59 1
23 61 1
23 82 1
23 96 1
23 105 1
23 120 1
23 132 1
23 141 1
23 147 1
23 157 1
23 191 1
23 196 1
23 197 1
23 218 1
23 230 1
23 256 1
23 259 1
23 279 1
23 301 1
23 305 1
23 313 1
23 347 1
23 353 1
23 372 1
23 381 1
23 392 1
23 394 1
23 396 1
23 406 1
23 423 1
23 425 1
23 478 1
23 499 1
23 511 1
23 527 1
23 556 1
23 560 1
23 633 1
23 652 1
23 669 1
23 701 1
23 705 1
23 726 1
23 789 1
24 7 1
24 38 1
24 57 1
24 91 1
24 97 1
24 105 1
24 109 1
24 110 1
24 113 1
24 176 1
24 181 1
24 223 1
24 226 1
24 247 1
24 261 1
24 296 1
24 340 1
24 356 1
24 375 1
24 380 1
24 392 1
24 407 1
24 447 1
24 457 1
24 459 1
24 466 1
24 478 1
24 482 1
24 506 1
24 512 1
24 543 1
24 552 1
24 600 1
24 607 1
24 621 1
24 622 1
24 623 1
24 638 1
24 692 1
24 725 1
24 741 1
24 743 1
24 756 1
24 792 1
25 31 1
25 36 1
25 88 1
25 102 1
25 110 1
25 119 1
25 138 1
25 157 1
25 222 1
25 238 1
25 253 1
25 263 1
25 328 1
25 331 1
25 342 1
25 345 1
25 359 1
25 385 1
25 428 1
25 461 1
25 465 1
25 492 1
25 506 1
25 545 1
25 598 1
25 599 1
25 625 1
25 661 1
25 662 1
25 663 1
25 667 1
25 672 1
25 689 1
25 690 1
25 700 1
25 734 1
25 769 1
26 5 1
26 17 1
26 19 1
26 30 1
26 39 1
26 57 1
26 67 1
26 71 1
26 78 1
26 81 1
26 85 1
26 108 1
26 109 1
26 112 1
26 124 1
26 137 1
26 140 1
26 148 1
26 156 1
26 171 1
26 174 1
26 206 1
26 221 1
26 241 1
26 286 1
26 299 1
26 316 1
26 334 1
26 337 1
26 341 1
26 365 1
26 366 1
26 436 1
26 513 1
26 571 1
26 593 1
26 600 1
26 603 1
26 623 1
26 624 1
26 631 1
26 674 1
26 703 1
26 706 1
26 736 1
26 763 1
26 790 1
27 8 1
27 17 1
27 35 1
27 41 1
27 50 1
27 68 1
27 73 1
27 92 1
27 109 1
27 120 1
27 135 1
27 136 1
27 157 1
27 161 1
27 167 1
27 170 1
27 198 1
27 205 1
27 235 1
27 236 1
27 255 1
27 257 1
27 260 1
27 299 1
27 315 1
27 316 1
27 319 1
27 347 1
27 352 1
27 359 1
27 372 1
27 380 1
27 404 1
27 418 1
27 462 1
27 475 1
27 514 1
27 556 1
27 559 1
27 580 1
27 603 1
27 611 1
27 626 1
27 663 1
27 684 1
27 685 1
27 762 1
27 779 1
28 21 1
28 46 1
28 76 1
28 83 1
28 85 1
28 94 1
28 97 1
28 147 1
28 173 1
28 178 1
28 196 1
28 205 1
28 223 1
28 232 1
28 313 1
28 377 1
28 388 1
28 421 1
28 428 1
28 432 1
28 447 1
28 451 1
28 455 1
28 458 1
28 474 1
28 478 1
28 508 1
28 563 1
28 573 1
28 576 1
28 613 1
28 669 1
28 700 1
28 707 1
28 732 1
28 782 1
29 16 1
29 34 1
29 47 1
29 72 1
29 80 1
29 81 1
29 98 1
29 114 1
29 125 1
29 158 1
29 180 1
29 192 1
29 196 1
29 215 1
29 233 1
29 240 1
29 258 1
29 289 1
29 318 1
29 319 1
29 320 1
29 334 1
29 353 1
29 368 1
29 387 1
29 410 1
29 412 1
29 437 1
29 443 1
29 453 1
29 458 1
29 464 1
29 469 1
29 474 1
29 478 1
29 482 1
29 518 1
29 519 1
29 520 1
29 522 1
29 526 1
29 547 1
29 610 1
29 616 1
29 617 1
29 646 1
29 648 1
29 652 1
29 659 1
29 694 1
29 708 1
29 721 1
29 724 1
29 739 1
29 777 1
29 797 1
30 15 1
30 26 1
30 36 1
30 58 1
30 71 1
30 91 1
30 109 1
30 112 1
30 118 1
30 152 1
30 205 1
30 212 1
30 218 1
30 224 1
30 226 1
30 284 1
30 318 1
30 342 1
30 343 1
30 365 1
30 375 1
30 382 1
30 387 1
30 390 1
30 395 1
30 416 1
30 482 1
30 491 1
30 511 1
30 530 1
30 535 1
30 552 1
30 556 1
30 581 1
30 596 1
30 608 1
30 614 1
30 647 1
30 668 1
30 679 1
30 691 1
30 694 1
30 697 1
30 699 1
30 700 1
30 713 1
30 740 1
30 742 1
30 749 1
31 11 1
31 25 1
31 39 1
31 59 1
31 62 1
31 120 1
31 151 1
31 168 1
31 174 1
31 199 1
31 203 1
31 227 1
31 264 1
31 276 1
31 300 1
31 305 1
31 314 1
31 320 1
31 330 1
31 343 1
31 363 1
31 378 1
31 385 1
31 396 1
31 400 1
31 408 1
31 458 1
31 472 1
31 478 1
31 491 1
31 508 1
31 512 1
31 556 1
31 561 1
31 567 1
31 588 1
31 609 1
31 616 1
31 633 1
31 640 1
31 651 1
31 652 1
31 670 1
31 673 1
31 678 1
31 715 1
31 755 1
31 765 1
31 788 1
31 798 1
32 12 1
32 13 1
32 19 1
32 38 1
32 43 1
32 54 1
32 58 1
32 87 1
32 119 1
32 148 1
32 158 1
32 171 1
32 182 1
32 206 1
32 213 1
32 220 1
32 224 1
32 252 1
32 276 1
32 334 1
32 336 1
32 355 1
32 363 1
32 365 1
32 388 1
32 393 1
32 394 1
32 396 1
32 437 1
32 438 1
32 443 1
32 448 1
32 454 1
32 467 1
32 478 1
32 485 1
32 517 1
32 521 1
32 523 1
32 539 1
32 546 1
32 552 1
32 553 1
32 554 1
32 562 1
32 568 1
32 574 1
32 588 1
32 597 1
32 611 1
32 635 1
32 685 1
32 686 1
32 703 1
32 713 1
32 716 1
32 721 1
32 778 1
32 786 1
32 797 1
32 799 1
33 39 1
33 89 1
33 135 1
33 146 1
33 148 1
33 199 1
33 209 1
33 232 1
33 233 1
33 244 1
33 246 1
33 261 1
33 273 1
33 287 1
33 313 1
33 357 1
33 372 1
33 376 1
33 392 1
33 429 1
33 438 1
33 449 1
33 454 1
33 466 1
33 468 1
33 474 1
33 508 1
33 528 1
33 551 1
33 571 1
33 573 1
33 612 1
33 613 1
33 616 1
33 640 1
33 664 1
33 680 1
33 708 1
33 710 1
33 735 1
33 747 1
33 769 1
33 771 1
33 772 1
33 773 1
33 799 1
34 29 1
34 40 1
34 45 1
34 47 1
34 66 1
34 72 1
34 90 1
34 148 1
34 177 1
34 206 1
34 227 1
34 230 1
34 235 1
34 244 1
34 250 1
34 265 1
34 319 1
34 337 1
34 352 1
34 381 1
34 386 1
34 402 1
34 409 1
34 411 1
34 417 1
34 421 1
34 463 1
34 477 1
34 488 1
34 494 1
34 513 1
34 515 1
34 540 1
34 542 1
34 556 1
34 565 1
34 567 1
34 573 1
34 600 1
34 601 1
34 605 1
34 617 1
34 619 1
34 632 1
34 644 1
34 654 1
34 677 1
34 678 1
34 693 1
34 714 1
34 722 1
34 723 1
34 730 1
34 736 1
34 744 1
34 785 1
35 27 1
35 47 1
35 60 1
35 65 1
35 69 1
35 73 1
35 79 1
35 87 1
35 88 1
35 95 1
35 118 1
35 153 1
35 167 1
35 175 1
35 186 1
35 200 1
35 225 1
35 246 1
35 269 1
35 297 1
35 326 1
35 360 1
35 394 1
35 395 1
35 406 1
35 444 1
35 460 1
35 462 1
35 464 1
35 473 1
35 517 1
35 538 1
35 545 1
35 558 1
35 593 1
35 614 1
35 641 1
35 647 1
35 654 1
35 668 1
35 683 1
35 710 1
35 750 1
35 761 1
36 23 1
36 25 1
36 30 1
36 54 1
36 55 1
36 63 1
36 65 1
36 76 1
36 83 1
36 94 1
36 99 1
36 111 1
36 134 1
36 171 1
36 176 1
36 182 1
36 195 1
36 200 1
36 207 1
36 221 1
36 238 1
36 251 1
36 270 1
36 425 1
36 435 1
36 469 1
36 470 1
36 477 1
36 494 1
36 499 1
36 526 1
36 577 1
36 578 1
36 580 1
36 584 1
36 598 1
36 613 1
36 623 1
36 637 1
36 638 1
36 644 1
36 649 1
36 666 1
36 671 1
36 681 1
36 703 1
36 710 1
36 728 1
36 747 1
36 755 1
36 762 1
36 779 1
36 787 1
37 13 1
37 51 1
37 71 1
37 81 1
37 101 1
37 124 1
37 133 1
37 142 1
37 214 1
37 223 1
37 237 1
37 245 1
37 252 1
37 271 1
37 307 1
37 311 1
37 317 1
37 345 1
37 368 1
37 415 1
37 417 1
37 461 1
37 465 1
37 491 1
37 504 1
37 513 1
37 518 1
37 603 1
37 618 1
37 626 1
37 642 1
37 647 1
37 671 1
37 697 1
37 762 1
37 768 1
38 19 1
38 24 1
38 32 1
38 48 1
38 64 1
38 98 1
38 130 1
38 138 1
38 143 1
38 154 1
38 186 1
38 214 1
38 223 1
38 237 1
38 272 1
38 301 1
38 309 1
38 323 1
38 327 1
38 333 1
38 352 1
38 358 1
38 369 1
38 373 1
38 381 1
38 391 1
38 433 1
38 435 1
38 472 1
38 475 1
38 482 1
38 498 1
38 517 1
38 544 1
38 553 1
38 557 1
38 558 1
38 592 1
38 633 1
38 649 1
38 672 1
38 683 1
38 700 1
38 703 1
38 766 1
38 773 1
39 5 1
39 18 1
39 20 1
39 26 1
39 31 1
39 33 1
39 40 1
39 70 1
39 79 1
39 95 1
39 97 1
39 123 1
39 142 1
39 176 1
39 188 1
39 195 1
39 245 1
39 250 1
39 285 1
39 292 1
39 348 1
39 378 1
39 386 1
39 422 1
39 429 1
39 444 1
39 473 1
39 525 1
39 527 1
39 565 1
39 579 1
39 598 1
39 613 1
39 615 1
39 651 1
39 653 1
39 666 1
39 668 1
39 672 1
39 680 1
39 684 1
39 704 1
39 713 1
39 726 1
39 740 1
39 741 1
39 744 1
39 749 1
39 751 1
39 754 1
39 790 1
39 794 1
39 798 1
39 800 1
40 11 1
40 15 1
40 34 1
40 39 1
40 48 1
40 64 1
40 119 1
40 147 1
40 162 1
40 168 1
40 173 1
40 200 1
40 210 1
40 232 1
40 235 1
40 259 1
40 291 1
40 300 1
40 302 1
40 331 1
40 337 1
40 347 1
40 355 1
40 376 1
40 389 1
40 394 1
40 395 1
40 410 1
40 424 1
40 484 1
40 492 1
40 516 1
40 565 1
40 566 1
40 568 1
40 569 1
40 571 1
40 614 1
40 636 1
40 653 1
40 668 1
40 671 1
40 719 1
40 789 1
40 790 1
40 792 1
40 793 1
41 19 1
41 27 1
41 48 1
41 66 1
41 86 1
41 89 1
41 124 1
41 129 1
41 137 1
41 142 1
41 156 1
41 173 1
41 174 1
41 186 1
41 201 1
41 235 1
41 259 1
41 269 1
41 304 1
41 307 1
41 323 1
41 366 1
41 384 1
41 392 1
41 393 1
41 394 1
41 402 1
41 424 1
41 437 1
41 447 1
41 467 1
41 507 1
41 531 1
41 537 1
41 539 1
41 552 1
41 593 1
41 600 1
41 606 1
41 621 1
41 625 1
41 626 1
41 631 1
41 639 1
41 671 1
41 697 1
41 722 1
41 728 1
41 765 1
41 796 1
42 4 1
42 62 1
42 98 1
42 104 1
42 113 1
42 123 1
42 164 1
42 169 1
42 172 1
42 190 1
42 214 1
42 236 1
42 237 1
42 245 1
42 273 1
42 319 1
42 360 1
42 367 1
42 372 1
42 374 1
42 392 1
42 397 1
42 410 1
42 428 1
42 477 1
42 483 1
42 490 1
42 491 1
42 513 1
42 514 1
42 545 1
42 580 1
42 631 1
42 640 1
42 661 1
42 674 1
42 676 1
42 683 1
42 695 1
42 710 1
42 719 1
42 728 1
42 736 1
42 759 1
42 762 1
42 771 1
43 32 1
43 49 1
43 52 1
43 111 1
43 117 1
43 138 1
43 146 1
43 199 1
43 201 1
43 232 1
43 241 1
43 248 1
43 255 1
43 291 1
43 296 1
43 336 1
43 369 1
43 371 1
43 374 1
43 390 1
43 394 1
43 417 1
43 427 1
43 446 1
43 455 1
43 494 1
43 531 1
43 545 1
43 569 1
43 587 1
43 609 1
43 611 1
43 623 1
43 656 1
43 663 1
43 700 1
43 703 1
43 733 1
43 744 1
43 755 1
43 772 1
43 798 1
44 1 1
44 12 1
44 50 1
44 87 1
44 95 1
44 113 1
44 122 1
44 165 1
44 166 1
44 181 1
44 182 1
44 218 1
44 245 1
44 265 1
44 268 1
44 286 1
44 312 1
44 362 1
44 363 1
44 370 1
44 386 1
44 411 1
44 489 1
44 505 1
44 521 1
44 524 1
44 550 1
44 570 1
44 582 1
44 602 1
44 610 1
44 618 1
44 640 1
44 650 1
44 673 1
44 721 1
44 731 1
44 740 1
44 768 1
44 769 1
44 778 1
44 784 1
44 797 1
44 800 1
45 9 1
45 13 1
45 34 1
45 77 1
45 82 1
45 93 1
45 112 1
45 122 1
45 138 1
45 153 1
45 157 1
45 158 1
45 173 1
45 183 1
45 209 1
45 221 1
45 240 1
45 249 1
45 259 1
45 290 1
45 306 1
45 329 1
45 341 1
45 356 1
45 363 1
45 378 1
45 383 1
45 449 1
45 453 1
45 473 1
45 555 1
45 564 1
45 568 1
45 578 1
45 593 1
45 594 1
45 618 1
45 639 1
45 651 1
45 654 1
45 667 1
45 682 1
45 700 1
45 707 1
45 720 1
45 727 1
45 730 1
45 734 1
45 750 1
45 761 1
45 765 1
45 780 1
45 784 1
45 796 1
46 28 1
46 58 1
46 75 1
46 100 1
46 123 1
46 126 1
46 150 1
46 159 1
46 185 1
46 198 1
46 207 1
46 229 1
46 230 1
46 231 1
46 249 1
46 266 1
46 276 1
46 297 1
46 314 1
46 335 1
46 346 1
46 383 1
46 396 1
46 407 1
46 410 1
46 412 1
46 447 1
46 454 1
46 495 1
46 498 1
46 509 1
46 513 1
46 520 1
46 521 1
46 553 1
46 564 1
46 623 1
46 648 1
46 662 1
46 670 1
46 675 1
46 681 1
46 714 1
46 730 1
46 793 1
47 12 1
47 16 1
47 29 1
47 34 1
47 35 1
47 54 1
47 66 1
47 87 1
47 111 1
47 123 1
47 131 1
47 150 1
47 189 1
47 201 1
47 210 1
47 219 1
47 238 1
47 253 1
47 262 1
47 266 1
47 295 1
47 312 1
47 315 1
47 325 1
47 348 1
47 354 1
47 381 1
47 395 1
47 397 1
47 417 1
47 424 1
47 425 1
47 443 1
47 450 1
47 460 1
47 477 1
47 479 1
47 507 1
47 520 1
47 533 1
47 546 1
47 562 1
47 585 1
47 588 1
47 653 1
47 670 1
47 694 1
47 716 1
47 730 1
47 794 1
48 4 1
48 10 1
48 21 1
48 38 1
48 40 1
48 41 1
48 53 1
48 60 1
48 69 1
48 74 1
48 83 1
48 94 1
48 104 1
48 108 1
48 122 1
48 127 1
48 153 1
48 157 1
48 170 1
48 201 1
48 204 1
48 224 1
48 243 1
48 246 1
48 264 1
48 323 1
48 338 1
48 358 1
48 360 1
48 368 1
48 392 1
48 400 1
48 407 1
48 490 1
48 491 1
48 518 1
48 522 1
48 523 1
48 532 1
48 543 1
48 550 1
48 560 1
48 570 1
48 602 1
48 604 1
48 616 1
48 619 1
48 627 1
48 630 1
48 632 1
48 634 1
48 637 1
48 648 1
48 675 1
48 682 1
48 693 1
48 695 1
48 709 1
48 714 1
48 726 1
48 728 1
48 735 1
48 767 1
48 774 1
48 783 1
49 11 1
49 13 1
49 43 1
49 88 1
49 168 1
49 177 1
49 182 1
49 196 1
49 232 1
49 246 1
49 326 1
49 327 1
49 329 1
49 359 1
49 368 1
49 388 1
49 434 1
49 482 1
49 484 1
49 491 1
49 496 1
49 575 1
49 594 1
49 596 1
49 601 1
49 673 1
49 688 1
49 697 1
49 717 1
49 719 1
49 725 1
49 729 1
49 734 1
49 739 1
49 770 1
49 774 1
49 787 1
50 6 1
50 10 1
50 22 1
50 27 1
50 44 1
50 71 1
50 85 1
50 91 1
50 92 1
50 94 1
50 116 1
50 120 1
50 124 1
50 126 1
50 169 1
50 171 1
50 173 1
50 188 1
50 189 1
50 237 1
50 270 1
50 277 1
50 299 1
50 313 1
50 319 1
50 320 1
50 335 1
50 337 1
50 342 1
50 347 1
50 364 1
50 369 1
50 396 1
50 411 1
50 415 1
50 489 1
50 504 1
50 524 1
50 569 1
50 619 1
50 625 1
50 653 1
50 699 1
50 719 1
50 728 1
50 737 1
50 747 1
50 748 1
50 775 1
51 8 1
51 23 1
51 37 1
51 65 1
51 76 1
51 83 1
51 93 1
51 117 1
51 155 1
51 170 1
51 190 1
51 228 1
51 246 1
51 250 1
51 271 1
51 292 1
51 383 1
51 384 1
51 394 1
51 415 1
51 420 1
51 523 1
51 527 1
51 534 1
51 544 1
51 571 1
51 581 1
51 596 1
51 616 1
51 620 1
51 639 1
51 642 1
51 645 1
51 651 1
51 679 1
51 687 1
51 770 1
51 776 1
51 783 1
51 784 1
51 789 1
52 1 1
52 19 1
52 43 1
52 69 1
52 100 1
52 119 1
52 124 1
52 129 1
52 133 1
52 161 1
52 216 1
52 238 1
52 242 1
52 248 1
52 277 1
52 278 1
52 280 1
52 348 1
52 390 1
52 430 1
52 461 1
52 464 1
52 475 1
52 522 1
52 525 1
52 529 1
52 530 1
52 549 1
52 590 1
52 616 1
52 653 1
52 654 1
52 681 1
52 684 1
52 695 1
52 697 1
52 717 1
52 729 1
52 779 1
53 48 1
53 71 1
53 138 1
53 149 1
53 169 1
53 176 1
53 221 1
53 236 1
53 238 1
53 251 1
53 295 1
53 326 1
53 339 1
53 349 1
53 362 1
53 401 1
53 429 1
53 463 1
53 501 1
53 520 1
53 521 1
53 591 1
53 601 1
53 618 1
53 622 1
53 636 1
53 666 1
53 671 1
53 691 1
53 694 1
53 704 1
53 707 1
53 719 1
54 7 1
54 13 1
54 32 1
54 36 1
54 47 1
54 67 1
54 74 1
54 84 1
54 88 1
54 92 1
54 95 1
54 98 1
54 134 1
54 147 1
54 155 1
54 159 1
54 161 1
54 177 1
54 204 1
54 217 1
54 219 1
54 243 1
54 246 1
54 259 1
54 270 1
54 279 1
54 310 1
54 322 1
54 331 1
54 342 1
54 359 1
54 371 1
54 423 1
54 425 1
54 464 1
54 481 1
54 486 1
54 497 1
54 499 1
54 527 1
54 532 1
54 537 1
54 579 1
54 585 1
54 587 1
54 606 1
54 626 1
54 699 1
54 717 1
54 741 1
54 779 1
55 3 1
55 15 1
55 17 1
55 36 1
55 79 1
55 84 1
55 139 1
55 156 1
55 168 1
55 173 1
55 188 1
55 195 1
55 204 1
55 229 1
55 241 1
55 247 1
55 259 1
55 285 1
55 288 1
55 295 1
55 317 1
55 335 1
55 346 1
55 351 1
55 370 1
55 460 1
55 463 1
55 481 1
55 484 1
55 492 1
55 498 1
55 578 1
55 592 1
55 618 1
55 624 1
55 651 1
55 660 1
55 666 1
55 674 1
55 721 1
55 725 1
55 758 1
55 763 1
55 788 1
55 797 1
56 9 1
56 11 1
56 13 1
56 81 1
56 105 1
56 109 1
56 113 1
56 123 1
56 161 1
56 204 1
56 210 1
56 216 1
56 219 1
56 224 1
56 225 1
56 236 1
56 248 1
56 256 1
56 296 1
56 323 1
56 345 1
56 381 1
56 386 1
56 390 1
56 402 1
56 426 1
56 464 1
56 474 1
56 478 1
56 479 1
56 483 1
56 497 1
56 552 1
56 553 1
56 557 1
56 567 1
56 594 1
56 615 1
56 646 1
56 658 1
56 662 1
56 672 1
56 673 1
56 674 1
56 697 1
56 747 1
56 750 1
56 758 1
56 765 1
56 775 1
56 777 1
56 799 1
57 3 1
57 4 1
57 24 1
57 26 1
57 80 1
57 81 1
57 84 1
57 92 1
57 134 1
57 147 1
57 149 1
57 152 1
57 180 1
57 192 1
57 198 1
57 223 1
57 231 1
57 241 1
57 244 1
57 255 1
57 302 1
57 324 1
57 339 1
57 365 1
57 368 1
57 371 1
57 374 1
57 377 1
57 390 1
57 418 1
57 421 1
57 440 1
57 448 1
57 449 1
57 456 1
57 478 1
57 504 1
57 506 1
57 511 1
57 516 1
57 518 1
57 519 1
57 544 1
57 601 1
57 607 1
57 620 1
57 646 1
57 676 1
57 682 1
57 683 1
57 699 1
57 700 1
57 701 1
57 704 1
57 711 1
57 713 1
57 714 1
57 740 1
57 745 1
57 774 1
58 1 1
58 10 1
58 30 1
58 32 1
58 46 1
58 77 1
58 86 1
58 160 1
58 166 1
58 178 1
58 191 1
58 220 1
58 230 1
58 237 1
58 259 1
58 301 1
58 321 1
58 333 1
58 340 1
58 343 1
58 345 1
58 353 1
58 397 1
58 411 1
58 432 1
58 462 1
58 472 1
58 479 1
58 504 1
58 550 1
58 571 1
58 573 1
58 679 1
58 687 1
58 727 1
58 733 1
58 754 1
58 766 1
58 782 1
58 791 1
59 14 1
59 23 1
59 31 1
59 62 1
59 78 1
59 91 1
59 152 1
59 164 1
59 171 1
59 174 1
59 195 1
59 207 1
59 213 1
59 215 1
59 230 1
59 267 1
59 286 1
59 320 1
59 326 1
59 363 1
59 383 1
59 404 1
59 405 1
59 406 1
59 413 1
59 415 1
59 440 1
59 455 1
59 458 1
59 461 1
59 479 1
59 495 1
59 525 1
59 544 1
59 576 1
59 593 1
59 604 1
59 607 1
59 630 1
59 659 1
59 667 1
59 670 1
59 693 1
59 741 1
59 749 1
59 753 1
59 788 1
59 800 1
60 19 1
60 35 1
60 48 1
60 62 1
60 86 1
60 123 1
60 141 1
60 148 1
60 152 1
60 175 1
60 176 1
60 178 1
60 193 1
60 196 1
60 225 1
60 255 1
60 262 1
60 292 1
60 295 1
60 312 1
60 318 1
60 319 1
60 330 1
60 340 1
60 354 1
60 361 1
60 362 1
60 377 1
60 378 1
60 385 1
60 443 1
60 463 1
60 473 1
60 485 1
60 505 1
60 516 1
60 520 1
60 531 1
60 544 1
60 554 1
60 556 1
60 567 1
60 570 1
60 611 1
60 626 1
60 630 1
60 643 1
60 690 1
60 701 1
60 715 1
60 754 1
60 769 1
60 797 1
61 23 1
61 71 1
61 89 1
61 92 1
61 94 1
61 106 1
61 147 1
61 196 1
61 207 1
61 215 1
61 237 1
61 269 1
61 299 1
61 342 1
61 351 1
61 396 1
61 472 1
61 490 1
61 503 1
61 525 1
61 540 1
61 544 1
61 578 1
61 579 1
61 649 1
61 652 1
61 673 1
61 682 1
61 683 1
61 687 1
61 691 1
61 718 1
61 737 1
61 775 1
61 782 1
62 21 1
62 31 1
62 42 1
62 59 1
62 60 1
62 100 1
62 106 1
62 119 1
62 122 1
62 168 1
62 215 1
62 217 1
62 233 1
62 250 1
62 281 1
62 300 1
62 308 1
62 356 1
62 376 1
62 383 1
62 388 1
62 411 1
62 432 1
62 465 1
62 480 1
62 482 1
62 495 1
62 506 1
62 515 1
62 534 1
62 538 1
62 567 1
62 570 1
62 593 1
62 598 1
62 605 1
62 627 1
62 687 1
62 730 1
62 762 1
62 776 1
62 785 1
62 792 1
62 796 1
63 5 1
63 10 1
63 36 1
63 99 1
63 104 1
63 126 1
63 170 1
63 197 1
63 218 1
63 225 1
63 252 1
63 259 1
63 268 1
63 301 1
63 305 1
63 337 1
63 381 1
63 390 1
63 416 1
63 477 1
63 480 1
63 484 1
63 522 1
63 525 1
63 561 1
63 628 1
63 649 1
63 656 1
63 668 1
63 694 1
63 704 1
63 712 1
63 718 1
63 722 1
63 726 1
63 753 1
63 755 1
63 771 1
63 798 1
64 7 1
64 22 1
64 38 1
64 40 1
64 114 1
64 168 1
64 171 1
64 175 1
64 180 1
64 184 1
64 224 1
64 231 1
64 232 1
64 235 1
64 255 1
64 266 1
64 268 1
64 279 1
64 329 1
64 331 1
64 363 1
64 378 1
64 383 1
64 385 1
64 387 1
64 405 1
64 419 1
64 423 1
64 440 1
64 446 1
64 454 1
64 460 1
64 518 1
64 529 1
64 540 1
64 549 1
64 554 1
64 581 1
64 595 1
64 601 1
64 605 1
64 635 1
64 643 1
64 646 1
64 688 1
64 704 1
64 710 1
64 722 1
64 734 1
64 739 1
64 772 1
64 775 1
64 792 1
65 12 1
65 35 1
65 36 1
65 51 1
65 89 1
65 124 1
65 149 1
65 151 1
65 153 1
65 187 1
65 192 1
65 224 1
65 227 1
65 234 1
65 256 1
65 262 1
65 267 1
65 277 1
65 286 1
65 291 1
65 340 1
65 385 1
65 400 1
65 411 1
65 415 1
65 419 1
65 439 1
65 443 1
65 460 1
65 465 1
65 494 1
65 504 1
65 506 1
65 544 1
65 565 1
65 589 1
65 649 1
65 663 1
65 667 1
65 668 1
65 675 1
65 689 1
65 755 1
65 767 1
66 6 1
66 15 1
66 34 1
66 41 1
66 47 1
66 77 1
66 78 1
66 107 1
66 123 1
66 145 1
66 167 1
66 187 1
66 200 1
66 233 1
66 259 1
66 279 1
66 295 1
66 301 1
66 325 1
66 327 1
66 334 1
66 335 1
66 347 1
66 434 1
66 473 1
66 485 1
66 493 1
66 511 1
66 528 1
66 544 1
66 563 1
66 571 1
66 572 1
66 578 1
66 588 1
66 625 1
66 642 1
66 649 1
66 652 1
66 674 1
66 679 1
66 683 1
66 685 1
66 696 1
66 698 1
66 702 1
66 734 1
66 737 1
66 748 1
66 762 1
66 771 1
66 796 1
67 26 1
67 54 1
67 71 1
67 78 1
67 84 1
67 103 1
67 110 1
67 149 1
67 167 1
67 197 1
67 212 1
67 217 1
67 229 1
67 241 1
67 243 1
67 248 1
67 262 1
67 268 1
67 300 1
67 400 1
67 405 1
67 411 1
67 440 1
67 455 1
67 471 1
67 477 1
67 480 1
67 492 1
67 509 1
67 537 1
67 538 1
67 546 1
67 548 1
67 559 1
67 592 1
67 593 1
67 603 1
67 606 1
67 622 1
67 627 1
67 647 1
67 648 1
67 682 1
67 700 1
67 705 1
67 725 1
67 732 1
67 757 1
67 788 1
67 796 1
68 3 1
68 27 1
68 76 1
68 80 1
68 90 1
68 91 1
68 121 1
68 124 1
68 126 1
68 182 1
68 191 1
68 204 1
68 216 1
68 224 1
68 253 1
68 255 1
68 271 1
68 282 1
68 316 1
68 325 1
68 355 1
68 369 1
68 382 1
68 384 1
68 424 1
68 442 1
68 447 1
68 448 1
68 464 1
68 470 1
68 471 1
68 473 1
68 510 1
68 516 1
68 529 1
68 536 1
68 561 1
68 584 1
68 588 1
68 628 1
68 629 1
68 635 1
68 651 1
68 654 1
68 687 1
68 700 1
68 778 1
68 799 1
69 11 1
69 20 1
69 21 1
69 35 1
69 48 1
69 52 1
69 80 1
69 85 1
69 100 1
69 108 1
69 150 1
69 153 1
69 188 1
69 196 1
69 214 1
69 257 1
69 317 1
69 335 1
69 337 1
69 343 1
69 350 1
69 377 1
69 423 1
69 438 1
69 440 1
69 443 1
69 444 1
69 452 1
69 484 1
69 506 1
69 520 1
69 529 1
69 536 1
69 546 1
69 604 1
69 618 1
69 620 1
69 624 1
69 628 1
69 652 1
69 688 1
69 692 1
69 747 1
69 754 1
69 772 1
69 773 1
69 781 1
70 10 1
70 12 1
70 17 1
70 39 1
70 105 1
70 114 1
70 117 1
70 133 1
70 144 1
70 165 1
70 176 1
70 178 1
70 207 1
70 212 1
70 233 1
70 243 1
70 246 1
70 257 1
70 263 1
70 268 1
70 312 1
70 318 1
70 351 1
70 361 1
70 363 1
70 375 1
70 376 1
70 440 1
70 464 1
70 472 1
70 491 1
70 503 1
70 505 1
70 515 1
70 544 1
70 570 1
70 612 1
70 618 1
70 644 1
70 653 1
70 663 1
70 716 1
70 793 1
70 797 1
71 6 1
71 14 1
71 26 1
71 30 1
71 37 1
71 50 1
71 53 1
71 61 1
71 67 1
71 91 1
71 95 1
71 112 1
71 125 1
71 135 1
71 137 1
71 141 1
71 166 1
71 176 1
71 221 1
71 223 1
71 246 1
71 285 1
71 319 1
71 354 1
71 402 1
71 414 1
71 419 1
71 434 1
71 453 1
71 462 1
71 465 1
71 469 1
71 473 1
71 479 1
71 501 1
71 503 1
71 527 1
71 543 1
71 576 1
71 583 1
71 587 1
71 623 1
71 637 1
71 648 1
71 655 1
71 711 1
71 717 1
71 745 1
71 756 1
71 763 1
71 775 1
72 2 1
72 29 1
72 34 1
72 75 1
72 83 1
72 84 1
72 102 1
72 120 1
72 150 1
72 156 1
72 180 1
72 188 1
72 189 1
72 205 1
72 209 1
72 220 1
72 242 1
72 250 1
72 257 1
72 264 1
72 279 1
72 300 1
72 316 1
72 330 1
72 350 1
72 355 1
72 376 1
72 396 1
72 397 1
72 400 1
72 467 1
72 477 1
72 485 1
72 493 1
72 497 1
72 500 1
72 510 1
72 512 1
72 544 1
72 562 1
72 607 1
72 638 1
72 639 1
72 651 1
72 654 1
72 657 1
72 658 1
72 684 1
72 693 1
72 715 1
72 726 1
72 762 1
72 770 1
72 777 1
72 791 1
73 8 1
73 27 1
73 35 1
73 107 1
73 140 1
73 155 1
73 167 1
73 198 1
73 204 1
73 234 1
73 237 1
73 240 1
73 252 1
73 260 1
73 272 1
73 278 1
73 281 1
73 292 1
73 319 1
73 327 1
73 385 1
73 386 1
73 423 1
73 436 1
73 470 1
73 474 1
73 511 1
73 567 1
73 611 1
73 651 1
73 662 1
73 666 1
73 667 1
73 688 1
73 709 1
73 720 1
73 733 1
73 775 1
73 777 1
73 791 1
74 8 1
74 48 1
74 54 1
74 76 1
74 94 1
74 169 1
74 182 1
74 190 1
74 195 1
74 228 1
74 250 1
74 260 1
74 270 1
74 293 1
74 307 1
74 314 1
74 316 1
74 333 1
74 346 1
74 349 1
74 359 1
74 374 1
74 391 1
74 403 1
74 423 1
74 454 1
74 503 1
74 513 1
74 519 1
74 545 1
74 560 1
74 568 1
74 580 1
74 608 1
74 613 1
74 620 1
74 726 1
74 748 1
74 752 1
74 765 1
74 776 1
74 790 1
74 793 1
74 795 1
75 5 1
75 12 1
75 14 1
75 46 1
75 72 1
75 80 1
75 123 1
75 138 1
75 153 1
75 186 1
75 188 1
75 220 1
75 225 1
75 228 1
75 233 1
75 258 1
75 259 1
75 262 1
75 269 1
75 319 1
75 344 1
75 357 1
75 370 1
75 381 1
75 399 1
75 408 1
75 441 1
75 443 1
75 460 1
75 469 1
75 482 1
75 494 1
75 497 1
75 510 1
75 525 1
75 540 1
75 554 1
75 591 1
75 594 1
75 601 1
75 604 1
75 632 1
75 633 1
75 642 1
75 653 1
75 674 1
75 685 1
75 688 1
75 744 1
75 756 1
75 769 1
75 780 1
75 798 1
76 3 1
76 21 1
76 28 1
76 36 1
76 51 1
76 68 1
76 74 1
76 82 1
76 106 1
76 121 1
76 135 1
76 153 1
76 182 1
76 187 1
76 232 1
76 237 1
76 268 1
76 281 1
76 282 1
76 310 1
76 315 1
76 316 1
76 331 1
76 342 1
76 345 1
76 351 1
76 352 1
76 356 1
76 393 1
76 394 1
76 416 1
76 420 1
76 461 1
76 464 1
76 488 1
76 493 1
76 495 1
76 502 1
76 530 1
76 592 1
76 608 1
76 617 1
76 639 1
76 643 1
76 660 1
76 699 1
76 736 1
76 738 1
76 739 1
76 771 1
76 793 1
77 45 1
77 58 1
77 66 1
77 102 1
77 158 1
77 182 1
77 185 1
77 190 1
77 197 1
77 217 1
77 221 1
77 239 1
77 240 1
77 314 1
77 317 1
77 322 1
77 323 1
77 357 1
77 373 1
77 388 1
77 398 1
77 402 1
77 407 1
77 500 1
77 501 1
77 526 1
77 540 1
77 559 1
77 560 1
77 570 1
77 575 1
77 581 1
77 584 1
77 639 1
77 640 1
77 655 1
77 663 1
77 711 1
77 725 1
77 730 1
77 755 1
77 776 1
77 797 1
78 19 1
78 26 1
78 59 1
78 66 1
78 67 1
78 110 1
78 117 1
78 125 1
78 162 1
78 167 1
78 173 1
78 190 1
78 202 1
78 203 1
78 213 1
78 217 1
78 240 1
78 248 1
78 276 1
78 287 1
78 307 1
78 308 1
78 378 1
78 384 1
78 399 1
78 406 1
78 411 1
78 417 1
78 431 1
78 433 1
78 499 1
78 527 1
78 535 1
78 544 1
78 570 1
78 600 1
78 614 1
78 625 1
78 648 1
78 674 1
78 683 1
78 712 1
78 716 1
78 741 1
78 787 1
78 798 1
79 4 1
79 35 1
79 39 1
79 55 1
79 89 1
79 91 1
79 111 1
79 124 1
79 135 1
79 153 1
79 180 1
79 197 1
79 229 1
79 277 1
79 280 1
79 284 1
79 316 1
79 336 1
79 404 1
79 437 1
79 450 1
79 451 1
79 473 1
79 493 1
79 494 1
79 504 1
79 531 1
79 544 1
79 562 1
79 567 1
79 582 1
79 587 1
79 599 1
79 605 1
79 608 1
79 635 1
79 638 1
79 657 1
79 673 1
79 675 1
79 678 1
79 723 1
79 730 1
79 761 1
79 765 1
79 768 1
80 4 1
80 8 1
80 18 1
80 20 1
80 29 1
80 57 1
80 68 1
80 69 1
80 75 1
80 89 1
80 97 1
80 141 1
80 192 1
80 211 1
80 235 1
80 242 1
80 247 1
80 248 1
80 271 1
80 276 1
80 288 1
80 296 1
80 297 1
80 304 1
80 311 1
80 315 1
80 326 1
80 353 1
80 354 1
80 359 1
80 365 1
80 381 1
80 385 1
80 389 1
80 400 1
80 406 1
80 408 1
80 420 1
80 427 1
80 487 1
80 543 1
80 548 1
80 550 1
80 569 1
80 584 1
80 585 1
80 601 1
80 609 1
80 618 1
80 622 1
80 630 1
80 644 1
80 694 1
80 697 1
80 698 1
80 712 1
80 733 1
80 737 1
80 776 1
80 789 1
80 797 1
81 11 1
81 26 1
81 29 1
81 37 1
81 56 1
81 57 1
81 86 1
81 113 1
81 124 1
81 131 1
81 141 1
81 142 1
81 152 1
81 220 1
81 241 1
81 251 1
81 274 1
81 281 1
81 283 1
81 285 1
81 287 1
81 304 1
81 323 1
81 339 1
81 341 1
81 350 1
81 354 1
81 364 1
81 385 1
81 390 1
81 397 1
81 398 1
81 414 1
81 419 1
81 435 1
81 474 1
81 481 1
81 510 1
81 540 1
81 590 1
81 596 1
81 609 1
81 667 1
81 692 1
81 730 1
81 752 1
81 757 1
81 793 1
82 5 1
82 21 1
82 23 1
82 45 1
82 76 1
82 83 1
82 95 1
82 96 1
82 100 1
82 162 1
82 164 1
82 172 1
82 274 1
82 275 1
82 309 1
82 357 1
82 380 1
82 428 1
82 430 1
82 440 1
82 443 1
82 447 1
82 464 1
82 466 1
82 470 1
82 479 1
82 508 1
82 514 1
82 537 1
82 553 1
82 557 1
82 562 1
82 568 1
82 571 1
82 578 1
82 584 1
82 592 1
82 638 1
82 639 1
82 687 1
82 702 1
82 723 1
82 743 1
82 750 1
82 766 1
82 769 1
82 773 1
82 799 1
83 28 1
83 36 1
83 48 1
83 51 1
83 72 1
83 82 1
83 101 1
83 110 1
83 132 1
83 145 1
83 170 1
83 178 1
83 215 1
83 247 1
83 263 1
83 287 1
83 288 1
83 309 1
83 311 1
83 316 1
83 330 1
83 364 1
83 379 1
83 383 1
83 393 1
83 394 1
83 401 1
83 404 1
83 426 1
83 442 1
83 446 1
83 470 1
83 474 1
83 502 1
83 530 1
83 544 1
83 550 1
83 563 1
83 575 1
83 588 1
83 594 1
83 599 1
83 600 1
83 602 1
83 604 1
83 655 1
83 679 1
83 682 1
83 683 1
83 703 1
83 734 1
83 759 1
83 772 1
83 800 1
84 54 1
84 55 1
84 57 1
84 67 1
84 72 1
84 91 1
84 122 1
84 144 1
84 155 1
84 159 1
84 173 1
84 176 1
84 177 1
84 180 1
84 217 1
84 228 1
84 303 1
84 351 1
84 357 1
84 383 1
84 415 1
84 435 1
84 438 1
84 497 1
84 533 1
84 539 1
84 548 1
84 557 1
84 569 1
84 570 1
84 588 1
84 604 1
84 628 1
84 635 1
84 637 1
84 661 1
84 687 1
84 689 1
84 690 1
84 692 1
84 693 1
84 722 1
84 761 1
84 767 1
84 778 1
84 793 1
85 3 1
85 6 1
85 8 1
85 11 1
85 22 1
85 26 1
85 28 1
85 50 1
85 69 1
85 89 1
85 99 1
85 114 1
85 139 1
85 145 1
85 148 1
85 152 1
85 156 1
85 188 1
85 191 1
85 215 1
85 216 1
85 223 1
85 293 1
85 311 1
85 335 1
85 393 1
85 396 1
85 400 1
85 406 1
85 417 1
85 432 1
85 463 1
85 481 1
85 482 1
85 486 1
85 528 1
85 544 1
85 567 1
85 578 1
85 594 1
85 599 1
85 609 1
85 645 1
85 687 1
85 735 1
85 758 1
85 760 1
85 781 1
85 796 1
86 22 1
86 41 1
86 58 1
86 60 1
86 81 1
86 102 1
86 104 1
86 112 1
86 133 1
86 166 1
86 191 1
86 198 1
86 274 1
86 280 1
86 294 1
86 296 1
86 297 1
86 302 1
86 304 1
86 316 1
86 320 1
86 324 1
86 350 1
86 351 1
86 375 1
86 380 1
86 416 1
86 432 1
86 443 1
86 453 1
86 457 1
86 498 1
86 505 1
86 512 1
86 516 1
86 519 1
86 523 1
86 559 1
86 572 1
86 573 1
86 640 1
86 649 1
86 656 1
86 659 1
86 692 1
86 698 1
86 723 1
86 750 1
86 751 1
86 766 1
87 22 1
87 32 1
87 35 1
87 44 1
87 47 1
87 116 1
87 122 1
87 126 1
87 132 1
87 140 1
87 144 1
87 146 1
87 164 1
87 166 1
87 183 1
87 215 1
87 238 1
87 246 1
87 256 1
87 261 1
87 265 1
87 275 1
87 293 1
87 304 1
87 307 1
87 357 1
87 359 1
87 377 1
87 382 1
87 387 1
87 392 1
87 428 1
87 443 1
87 450 1
87 455 1
87 458 1
87 463 1
87 508 1
87 510 1
87 511 1
87 517 1
87 538 1
87 539 1
87 549 1
87 554 1
87 557 1
87 565 1
87 591 1
87 607 1
87 650 1
87 652 1
87 663 1
87 664 1
87 688 1
87 698 1
87 711 1
87 741 1
87 762 1
87 770 1
87 775 1
87 783 1
88 25 1
88 35 1
88 49 1
88 54 1
88 93 1
88 98 1
88 99 1
88 124 1
88 137 1
88 154 1
88 173 1
88 196 1
88 204 1
88 218 1
88 220 1
88 227 1
88 245 1
88 247 1
88 257 1
88 260 1
88 264 1
88 279 1
88 290 1
88 295 1
88 302 1
88 335 1
88 340 1
88 374 1
88 376 1
88 384 1
88 393 1
88 395 1
88 426 1
88 436 1
88 450 1
88 472 1
88 572 1
88 591 1
88 620 1
88 626 1
88 637 1
88 642 1
88 651 1
88 666 1
88 675 1
88 694 1
88 717 1
88 720 1
88 755 1
88 777 1
88 780 1
89 4 1
89 33 1
89 41 1
89 61 1
89 65 1
89 79 1
89 80 1
89 85 1
89 102 1
89 114 1
89 128 1
89 213 1
89 234 1
89 251 1
89 287 1
89 296 1
89 301 1
89 359 1
89 373 1
89 382 1
89 421 1
89 422 1
89 425 1
89 433 1
89 457 1
89 474 1
89 510 1
89 555 1
89 568 1
89 590 1
89 618 1
89 669 1
89 692 1
89 694 1
89 738 1
89 752 1
89 756 1
89 761 1
89 775 1
89 783 1
90 34 1
90 68 1
90 91 1
90 100 1
90 105 1
90 114 1
90 116 1
90 119 1
90 130 1
90 135 1
90 137 1
90 144 1
90 147 1
90 159 1
90 183 1
90 185 1
90 199 1
90 216 1
90 228 1
90 236 1
90 255 1
90 258 1
90 259 1
90 261 1
90 265 1
90 290 1
90 291 1
90 365 1
90 374 1
90 387 1
90 389 1
90 452 1
90 474 1
90 487 1
90 539 1
90 588 1
90 597 1
90 600 1
90 601 1
90 658 1
90 666 1
90 716 1
90 748 1
90 763 1
90 776 1
91 9 1
91 18 1
91 21 1
91 24 1
91 30 1
91 50 1
91 59 1
91 68 1
91 71 1
91 79 1
91 84 1
91 90 1
91 115 1
91 135 1
91 148 1
91 175 1
91 222 1
91 239 1
91 254 1
91 286 1
91 287 1
91 353 1
91 358 1
91 369 1
91 383 1
91 399 1
91 411 1
91 441 1
91 460 1
91 479 1
91 523 1
91 549 1
91 566 1
91 573 1
91 589 1
91 596 1
91 600 1
91 648 1
91 655 1
91 656 1
91 663 1
91 665 1
91 666 1
91 674 1
91 717 1
91 769 1
92 27 1
92 50 1
92 54 1
92 57 1
92 61 1
92 107 1
92 118 1
92 127 1
92 132 1
92 135 1
92 147 1
92 151 1
92 167 1
92 172 1
92 217 1
92 224 1
92 228 1
92 229 1
92 256 1
92 269 1
92 274 1
92 329 1
92 342 1
92 356 1
92 368 1
92 376 1
92 379 1
92 474 1
92 477 1
92 489 1
92 490 1
92 522 1
92 558 1
92 597 1
92 613 1
92 635 1
92 674 1
92 712 1
92 714 1
92 715 1
92 767 1
92 775 1
93 7 1
93 12 1
93 13 1
93 22 1
93 45 1
93 51 1
93 88 1
93 101 1
93 126 1
93 140 1
93 146 1
93 187 1
93 206 1
93 209 1
93 315 1
93 321 1
93 335 1
93 348 1
93 359 1
93 373 1
93 380 1
93 382 1
93 387 1
93 396 1
93 397 1
93 426 1
93 432 1
93 440 1
93 469 1
93 476 1
93 480 1
93 497 1
93 519 1
93 557 1
93 577 1
93 592 1
93 598 1
93 609 1
93 637 1
93 643 1
93 651 1
93 664 1
93 671 1
93 680 1
93 691 1
93 697 1
93 743 1
93 789 1
94 28 1
94 36 1
94 48 1
94 50 1
94 61 1
94 74 1
94 95 1
94 99 1
94 108 1
94 131 1
94 135 1
94 145 1
94 158 1
94 189 1
94 190 1
94 194 1
94 197 1
94 213 1
94 215 1
94 224 1
94 250 1
94 256 1
94 273 1
94 327 1
94 349 1
94 427 1
94 440 1
94 461 1
94 491 1
94 495 1
94 524 1
94 599 1
94 615 1
94 631 1
94 651 1
94 729 1
94 767 1
94 775 1
94 785 1
94 793 1
95 10 1
95 35 1
95 39 1
95 44 1
95 54 1
95 71 1
95 82 1
95 94 1
95 123 1
95 139 1
95 153 1
95 157 1
95 163 1
95 171 1
95 176 1
95 187 1
95 189 1
95 192 1
95 194 1
95 201 1
95 263 1
95 296 1
95 343 1
95 359 1
95 361 1
95 363 1
95 364 1
95 390 1
95 398 1
95 413 1
95 443 1
95 452 1
95 465 1
95 477 1
95 485 1
95 507 1
95 508 1
95 518 1
95 560 1
95 565 1
95 653 1
95 673 1
95 681 1
95 706 1
95 768 1
96 8 1
96 23 1
96 82 1
96 109 1
96 121 1
96 138 1
96 159 1
96 238 1
96 250 1
96 281 1
96 283 1
96 287 1
96 291 1
96 301 1
96 389 1
96 394 1
96 401 1
96 421 1
96 443 1
96 446 1
96 488 1
96 499 1
96 509 1
96 544 1
96 571 1
96 578 1
96 594 1
96 597 1
96 607 1
96 612 1
96 613 1
96 660 1
96 661 1
96 670 1
96 671 1
96 672 1
96 687 1
96 710 1
96 718 1
96 747 1
96 750 1
96 774 1
96 780 1
97 1 1
97 24 1
97 28 1
97 39 1
97 80 1
97 105 1
97 123 1
97 127 1
97 142 1
97 144 1
97 153 1
97 177 1
97 181 1
97 197 1
97 209 1
97 225 1
97 232 1
97 253 1
97 295 1
97 302 1
97 303 1
97 400 1
97 401 1
97 405 1
97 429 1
97 432 1
97 439 1
97 449 1
97 463 1
97 464 1
97 468 1
97 493 1
97 510 1
97 512 1
97 553 1
97 582 1
97 592 1
97 602 1
97 604 1
97 605 1
97 606 1
97 613 1
97 669 1
97 675 1
97 677 1
97 696 1
97 698 1
97 716 1
97 727 1
97 729 1
97 749 1
97 763 1
97 798 1
98 29 1
98 38 1
98 42 1
98 54 1
98 88 1
98 100 1
98 108 1
98 118 1
98 122 1
98 159 1
98 167 1
98 169 1
98 182 1
98 191 1
98 192 1
98 200 1
98 274 1
98 279 1
98 292 1
98 297 1
98 344 1
98 350 1
98 365 1
98 393 1
98 414 1
98 418 1
98 425 1
98 435 1
98 456 1
98 506 1
98 530 1
98 553 1
98 576 1
98 591 1
98 592 1
98 600 1
98 618 1
98 634 1
98 659 1
98 664 1
98 677 1
98 694 1
98 698 1
98 710 1
98 728 1
98 735 1
98 740 1
98 747 1
99 36 1
99 63 1
99 85 1
99 88 1
99 94 1
99 108 1
99 120 1
99 123 1
99 125 1
99 128 1
99 135 1
99 178 1
99 185 1
99 187 1
99 188 1
99 207 1
99 217 1
99 254 1
99 257 1
99 273 1
99 297 1
99 307 1
99 321 1
99 337 1
99 344 1
99 383 1
99 414 1
99 441 1
99 446 1
99 480 1
99 483 1
99 499 1
99 512 1
99 565 1
99 595 1
99 607 1
99 624 1
99 641 1
99 672 1
99 722 1
99 723 1
99 730 1
99 733 1
99 737 1
99 743 1
99 783 1
99 787 1
99 794 1
100 13 1
100 46 1
100 52 1
100 62 1
100 69 1
100 82 1
100 90 1
100 98 1
100 101 1
100 103 1
100 106 1
100 112 1
100 130 1
100 146 1
100 162 1
100 170 1
100 183 1
100 260 1
100 280 1
100 283 1
100 285 1
100 287 1
100 331 1
100 344 1
100 346 1
100 348 1
100 361 1
100 384 1
100 401 1
100 406 1
100 418 1
100 419 1
100 424 1
100 430 1
100 437 1
100 449 1
100 481 1
100 492 1
100 494 1
100 506 1
100 509 1
100 518 1
100 552 1
100 562 1
100 566 1
100 581 1
100 600 1
100 629 1
100 685 1
100 709 1
100 758 1
100 767 1
100 787 1
101 18 1
101 20 1
101 37 1
101 83 1
101 93 1
101 100 1
101 121 1
101 125 1
101 144 1
101 172 1
101 208 1
101 234 1
101 240 1
101 248 1
101 261 1
101 303 1
101 321 1
101 341 1
101 373 1
101 384 1
101 401 1
101 415 1
101 416 1
101 422 1
101 427 1
101 429 1
101 431 1
101 515 1
101 527 1
101 548 1
101 557 1
101 569 1
101 579 1
101 619 1
101 640 1
101 649 1
101 676 1
101 678 1
101 690 1
101 711 1
101 722 1
101 733 1
101 768 1
101 799 1
102 7 1
102 14 1
102 25 1
102 72 1
102 77 1
102 86 1
102 89 1
102 106 1
102 107 1
102 119 1
102 121 1
102 122 1
102 131 1
102 142 1
102 150 1
102 195 1
102 209 1
102 210 1
102 225 1
102 234 1
102 251 1
102 294 1
102 298 1
102 299 1
102 320 1
102 340 1
102 361 1
102 362 1
102 369 1
102 446 1
102 452 1
102 454 1
102 468 1
102 505 1
102 507 1
102 538 1
102 552 1
102 564 1
102 575 1
102 581 1
102 590 1
102 619 1
102 646 1
102 656 1
102 657 1
102 664 1
102 679 1
102 690 1
102 709 1
102 712 1
102 743 1
102 750 1
102 759 1
103 10 1
103 67 1
103 100 1
103 121 1
103 143 1
103 145 1
103 178 1
103 182 1
103 189 1
103 239 1
103 262 1
103 274 1
103 275 1
103 277 1
103 286 1
103 354 1
103 380 1
103 383 1
103 390 1
103 394 1
103 400 1
103 416 1
103 437 1
103 441 1
103 488 1
103 499 1
103 525 1
103 528 1
103 548 1
103 622 1
103 627 1
103 671 1
103 676 1
103 696 1
103 713 1
103 723 1
103 761 1
103 782 1
103 784 1
104 12 1
104 42 1
104 48 1
104 63 1
104 86 1
104 106 1
104 119 1
104 127 1
104 139 1
104 144 1
104 198 1
104 204 1
104 211 1
104 220 1
104 247 1
104 259 1
104 281 1
104 296 1
104 299 1
104 314 1
104 315 1
104 350 1
104 354 1
104 357 1
104 364 1
104 367 1
104 390 1
104 399 1
104 435 1
104 436 1
104 492 1
104 494 1
104 516 1
104 524 1
104 525 1
104 540 1
104 553 1
104 554 1
104 556 1
104 568 1
104 597 1
104 605 1
104 610 1
104 613 1
104 686 1
104 747 1
104 795 1
105 12 1
105 16 1
105 19 1
105 20 1
105 23 1
105 24 1
105 56 1
105 70 1
105 90 1
105 97 1
105 108 1
105 109 1
105 132 1
105 134 1
105 156 1
105 180 1
105 249 1
105 260 1
105 267 1
105 301 1
105 303 1
105 322 1
105 323 1
105 336 1
105 371 1
105 387 1
105 412 1
105 422 1
105 437 1
105 446 1
105 464 1
105 467 1
105 469 1
105 487 1
105 497 1
105 508 1
105 509 1
105 542 1
105 586 1
105 636 1
105 670 1
105 673 1
105 696 1
105 717 1
105 720 1
105 733 1
105 743 1
105 750 1
105 766 1
106 15 1
106 61 1
106 62 1
106 76 1
106 100 1
106 102 1
106 104 1
106 137 1
106 210 1
106 213 1
106 249 1
106 264 1
106 280 1
106 309 1
106 314 1
106 342 1
106 355 1
106 389 1
106 419 1
106 439 1
106 465 1
106 469 1
106 492 1
106 493 1
106 504 1
106 544 1
106 545 1
106 547 1
106 554 1
106 556 1
106 582 1
106 583 1
106 598 1
106 644 1
106 668 1
106 673 1
106 687 1
106 698 1
106 730 1
106 733 1
106 774 1
106 782 1
106 788 1
107 66 1
107 73 1
107 92 1
107 102 1
107 118 1
107 120 1
107 147 1
107 163 1
107 165 1
107 181 1
107 229 1
107 236 1
107 247 1
107 257 1
107 299 1
107 301 1
107 305 1
107 317 1
107 327 1
107 347 1
107 384 1
107 385 1
107 446 1
107 482 1
107 484 1
107 490 1
107 550 1
107 566 1
107 594 1
107 605 1
107 639 1
107 642 1
107 646 1
107 663 1
107 671 1
107 672 1
107 680 1
107 708 1
107 725 1
107 734 1
107 741 1
107 756 1
107 763 1
107 765 1
107 796 1
108 26 1
108 48 1
108 69 1
108 94 1
108 98 1
108 99 1
108 105 1
108 122 1
108 198 1
108 220 1
108 248 1
108 259 1
108 270 1
108 271 1
108 279 1
108 319 1
108 374 1
108 383 1
108 437 1
108 445 1
108 448 1
108 454 1
108 455 1
108 498 1
108 512 1
108 522 1
108 537 1
108 542 1
108 543 1
108 551 1
108 662 1
108 667 1
108 678 1
108 705 1
108 709 1
108 714 1
108 715 1
108 720 1
108 730 1
108 734 1
108 754 1
108 764 1
108 781 1
108 794 1
109 24 1
109 26 1
109 27 1
109 30 1
109 56 1
109 96 1
109 105 1
109 118 1
109 147 1
109 152 1
109 160 1
109 163 1
109 166 1
109 182 1
109 194 1
109 204 1
109 224 1
109 288 1
109 332 1
109 338 1
109 340 1
109 359 1
109 371 1
109 376 1
109 408 1
109 417 1
109 418 1
109 490 1
109 507 1
109 535 1
109 537 1
109 568 1
109 590 1
109 593 1
109 607 1
109 635 1
109 654 1
109 673 1
109 700 1
109 708 1
109 715 1
109 717 1
109 727 1
109 755 1
109 771 1
109 772 1
110 24 1
110 25 1
110 67 1
110 78 1
110 83 1
110 124 1
110 139 1
110 143 1
110 158 1
110 166 1
110 189 1
110 214 1
110 217 1
110 270 1
110 273 1
110 304 1
110 321 1
110 329 1
110 345 1
110 348 1
110 354 1
110 377 1
110 437 1
110 469 1
110 490 1
110 510 1
110 535 1
110 552 1
110 559 1
110 594 1
110 596 1
110 601 1
110 606 1
110 609 1
110 643 1
110 659 1
110 668 1
110 678 1
110 684 1
110 706 1
110 723 1
110 731 1
110 744 1
110 784 1
110 798 1
111 21 1
111 36 1
111 43 1
111 47 1
111 79 1
111 126 1
111 129 1
111 130 1
111 169 1
111 185 1
111 224 1
111 247 1
111 261 1
111 278 1
111 295 1
111 297 1
111 322 1
111 347 1
111 375 1
111 398 1
111 455 1
111 456 1
111 490 1
111 535 1
111 540 1
111 559 1
111 597 1
111 610 1
111 628 1
111 658 1
111 667 1
111 672 1
111 733 1
111 751 1
111 769 1
111 779 1
111 785 1
112 5 1
112 14 1
112 26 1
112 30 1
112 45 1
112 71 1
112 86 1
112 100 1
112 114 1
112 128 1
112 147 1
112 149 1
112 173 1
112 281 1
112 288 1
112 296 1
112 305 1
112 310 1
112 317 1
112 320 1
112 359 1
112 374 1
112 395 1
112 398 1
112 408 1
112 417 1
112 432 1
112 461 1
112 476 1
112 482 1
112 500 1
112 505 1
112 511 1
112 521 1
112 522 1
112 545 1
112 560 1
112 589 1
112 598 1
112 661 1
112 677 1
112 714 1
112 727 1
112 729 1
112 733 1
112 734 1
112 738 1
112 741 1
112 748 1
112 759 1
112 775 1
113 5 1
113 7 1
113 18 1
113 24 1
113 42 1
113 44 1
113 56 1
113 81 1
113 115 1
113 134 1
113 140 1
113 151 1
113 159 1
113 165 1
113 178 1
113 200 1
113 201 1
113 226 1
113 240 1
113 248 1
113 251 1
113 255 1
113 271 1
113 277 1
113 286 1
113 288 1
113 291 1
113 317 1
113 319 1
113 350 1
113 354 1
113 355 1
113 373 1
113 395 1
113 402 1
113 423 1
113 424 1
113 452 1
113 456 1
113 483 1
113 485 1
113 486 1
113 504 1
113 506 1
113 526 1
113 541 1
113 542 1
113 551 1
113 616 1
113 619 1
113 659 1
113 695 1
113 706 1
113 730 1
113 732 1
113 746 1
113 787 1
113 791 1
114 29 1
114 64 1
114 70 1
114 85 1
114 89 1
114 90 1
114 112 1
114 123 1
114 132 1
114 215 1
114 222 1
114 223 1
114 248 1
114 258 1
114 276 1
114 279 1
114 320 1
114 342 1
114 345 1
114 347 1
114 357 1
114 373 1
114 399 1
114 411 1
114 444 1
114 447 1
114 453 1
114 476 1
114 481 1
114 513 1
114 538 1
114 596 1
114 599 1
114 608 1
114 618 1
114 653 1
114 673 1
114 679 1
114 685 1
114 688 1
114 722 1
114 724 1
114 742 1
114 751 1
114 754 1
114 775 1
114 781 1
115 91 1
115 113 1
115 120 1
115 152 1
115 159 1
115 171 1
115 175 1
115 189 1
115 190 1
115 196 1
115 201 1
115 203 1
115 215 1
115 253 1
115 259 1
115 288 1
115 304 1
115 307 1
115 315 1
115 346 1
115 369 1
115 402 1
115 408 1
115 423 1
115 425 1
115 436 1
115 448 1
115 452 1
115 459 1
115 525 1
115 551 1
115 552 1
115 589 1
115 618 1
115 623 1
115 640 1
115 641 1
115 705 1
115 706 1
115 719 1
115 767 1
115 769 1
115 789 1
115 799 1
116 17 1
116 50 1
116 87 1
116 90 1
116 141 1
116 147 1
116 158 1
116 166 1
116 196 1
116 200 1
116 202 1
116 205 1
116 206 1
116 219 1
116 222 1
116 278 1
116 318 1
116 351 1
116 352 1
116 364 1
116 370 1
116 385 1
116 391 1
116 402 1
116 405 1
116 428 1
116 439 1
116 452 1
116 476 1
116 487 1
116 535 1
116 577 1
116 595 1
116 609 1
116 658 1
116 690 1
116 698 1
116 701 1
116 737 1
116 769 1
116 779 1
116 798 1
117 43 1
117 51 1
117 70 1
117 78 1
117 157 1
117 178 1
117 187 1
117 190 1
117 219 1
117 289 1
117 296 1
117 316 1
117 320 1
117 326 1
117 349 1
117 403 1
117 415 1
117 423 1
117 440 1
117 444 1
117 457 1
117 469 1
117 541 1
117 542 1
117 548 1
117 550 1
117 552 1
117 607 1
117 612 1
117 615 1
117 635 1
117 658 1
118 30 1
118 35 1
118 92 1
118 98 1
118 107 1
118 109 1
118 160 1
118 163 1
118 174 1
118 194 1
118 213 1
118 219 1
118 231 1
118 243 1
118 261 1
118 287 1
118 295 1
118 296 1
118 317 1
118 320 1
118 339 1
118 373 1
118 391 1
118 392 1
118 424 1
118 433 1
118 458 1
118 477 1
118 497 1
118 501 1
118 503 1
118 508 1
118 517 1
118 518 1
118 533 1
118 590 1
118 598 1
118 599 1
118 613 1
118 620 1
118 643 1
118 645 1
118 650 1
118 660 1
118 666 1
118 695 1
118 720 1
118 725 1
118 735 1
118 779 1
119 15 1
119 25 1
119 32 1
119 40 1
119 52 1
119 62 1
119 90 1
119 102 1
119 104 1
119 133 1
119 134 1
119 149 1
119 181 1
119 190 1
119 197 1
119 207 1
119 290 1
119 295 1
119 350 1
119 352 1
119 395 1
119 427 1
119 435 1
119 470 1
119 493 1
119 503 1
119 507 1
119 524 1
119 525 1
119 553 1
119 568 1
119 588 1
119 600 1
119 654 1
119 673 1
119 675 1
119 681 1
119 691 1
119 707 1
119 708 1
119 733 1
119 745 1
119 757 1
119 765 1
119 772 1
119 779 1
119 790 1
119 800 1
120 23 1
120 27 1
120 31 1
120 50 1
120 72 1
120 99 1
120 107 1
120 115 1
120 137 1
120 160 1
120 219 1
120 231 1
120 264 1
120 268 1
120 276 1
120 283 1
120 308 1
120 321 1
120 376 1
120 381 1
120 392 1
120 447 1
120 454 1
120 505 1
120 512 1
120 515 1
120 548 1
120 550 1
120 569 1
120 597 1
120 599 1
120 614 1
120 630 1
120 656 1
120 664 1
120 672 1
120 710 1
120 712 1
120 720 1
120 763 1
120 782 1
120 794 1
121 13 1
121 16 1
121 68 1
121 76 1
121 96 1
121 101 1
121 102 1
121 103 1
121 177 1
121 188 1
121 191 1
121 251 1
121 255 1
121 259 1
121 289 1
121 292 1
121 313 1
121 321 1
121 322 1
121 334 1
121 342 1
121 380 1
121 398 1
121 405 1
121 407 1
121 410 1
121 439 1
121 513 1
121 518 1
121 563 1
121 575 1
121 598 1
121 614 1
121 677 1
121 694 1
121 734 1
121 771 1
121 790 1
121 791 1
121 799 1
122 3 1
122 8 1
122 16 1
122 22 1
122 44 1
122 45 1
122 48 1
122 62 1
122 84 1
122 87 1
122 98 1
122 102 1
122 108 1
122 131 1
122 133 1
122 149 1
122 171 1
122 172 1
122 174 1
122 244 1
122 253 1
122 257 1
122 269 1
122 287 1
122 295 1
122 298 1
122 309 1
122 327 1
122 330 1
122 346 1
122 347 1
122 352 1
122 356 1
122 358 1
122 403 1
122 421 1
122 434 1
122 440 1
122 468 1
122 487 1
122 488 1
122 527 1
122 534 1
122 554 1
122 570 1
122 584 1
122 589 1
122 594 1
122 606 1
122 616 1
122 632 1
122 637 1
122 661 1
122 662 1
122 682 1
122 700 1
122 711 1
122 734 1
122 741 1
122 759 1
122 765 1
122 779 1
122 782 1
122 789 1
122 791 1
123 39 1
123 42 1
123 46 1
123 47 1
123 56 1
123 60 1
123 66 1
123 75 1
123 95 1
123 97 1
123 99 1
123 114 1
123 163 1
123 166 1
123 172 1
123 177 1
123 210 1
123 230 1
123 247 1
123 257 1
123 283 1
123 285 1
123 299 1
123 305 1
123 344 1
123 358 1
123 359 1
123 368 1
123 404 1
123 408 1
123 410 1
123 430 1
123 447 1
123 476 1
123 496 1
123 511 1
123 515 1
123 519 1
123 538 1
123 563 1
123 609 1
123 611 1
123 614 1
123 623 1
123 636 1
123 643 1
123 647 1
123 664 1
123 685 1
123 691 1
123 701 1
123 706 1
123 719 1
123 721 1
123 735 1
123 741 1
123 756 1
124 9 1
124 12 1
124 16 1
124 18 1
124 20 1
124 26 1
124 37 1
124 41 1
124 50 1
124 52 1
124 65 1
124 68 1
124 79 1
124 81 1
124 88 1
124 110 1
124 146 1
124 150 1
124 156 1
124 178 1
124 191 1
124 204 1
124 206 1
124 226 1
124 230 1
124 246 1
124 257 1
124 266 1
124 286 1
124 313 1
124 350 1
124 353 1
124 365 1
124 373 1
124 377 1
124 378 1
124 383 1
124 405 1
124 412 1
124 431 1
124 439 1
124 451 1
124 460 1
124 461 1
124 466 1
124 471 1
124 501 1
124 504 1
124 525 1
124 530 1
124 540 1
124 579 1
124 581 1
124 617 1
124 632 1
124 636 1
124 639 1
124 672 1
124 687 1
124 712 1
124 783 1
124 800 1
125 9 1
125 29 1
125 71 1
125 78 1
125 99 1
125 101 1
125 142 1
125 200 1
125 227 1
125 242 1
125 250 1
125 252 1
125 263 1
125 265 1
125 282 1
125 291 1
125 299 1
125 302 1
125 327 1
125 350 1
125 372 1
125 387 1
125 389 1
125 410 1
125 415 1
125 449 1
125 466 1
125 497 1
125 507 1
125 513 1
125 601 1
125 624 1
125 646 1
125 656 1
125 663 1
125 665 1
125 670 1
125 678 1
125 702 1
125 733 1
125 742 1
125 745 1
125 777 1
126 22 1
126 46 1
126 50 1
126 63 1
126 68 1
126 87 1
126 93 1
126 111 1
126 127 1
126 129 1
126 132 1
126 133 1
126 150 1
126 153 1
126 198 1
126 219 1
126 220 1
126 226 1
126 230 1
126 287 1
126 326 1
126 330 1
126 331 1
126 356 1
126 381 1
126 385 1
126 393 1
126 403 1
126 419 1
126 421 1
126 438 1
126 448 1
126 451 1
126 481 1
126 522 1
126 550 1
126 597 1
126 610 1
126 620 1
126 642 1
126 675 1
126 676 1
126 678 1
126 704 1
126 706 1
126 720 1
126 741 1
126 743 1
126 754 1
126 759 1
126 763 1
126 766 1
126 790 1
127 13 1
127 48 1
127 92 1
127 97 1
127 104 1
127 126 1
127 138 1
127 148 1
127 156 1
127 158 1
127 161 1
127 241 1
127 245 1
127 246 1
127 250 1
127 257 1
127 282 1
127 290 1
127 310 1
127 322 1
127 360 1
127 394 1
127 408 1
127 430 1
127 477 1
127 485 1
127 490 1
127 507 1
127 550 1
127 561 1
127 568 1
127 601 1
127 622 1
127 629 1
127 639 1
127 651 1
127 657 1
127 671 1
127 702 1
127 745 1
127 749 1
127 766 1
127 778 1
127 787 1
127 792 1
128 89 1
128 99 1
128 112 1
128 143 1
128 159 1
128 183 1
128 200 1
128 202 1
128 210 1
128 227 1
128 231 1
128 273 1
128 275 1
128 290 1
128 305 1
128 315 1
128 318 1
128 330 1
128 355 1
128 363 1
128 393 1
128 410 1
128 415 1
128 418 1
128 432 1
128 448 1
128 449 1
128 463 1
128 477 1
128 492 1
128 496 1
128 510 1
128 511 1
128 531 1
128 553 1
128 571 1
128 573 1
128 579 1
128 612 1
128 628 1
128 645 1
128 647 1
128 662 1
128 671 1
128 695 1
128 696 1
128 706 1
128 717 1
128 723 1
128 763 1
128 790 1
128 793 1
129 21 1
129 41 1
129 52 1
129 111 1
129 126 1
129 148 1
129 154 1
129 167 1
129 169 1
129 184 1
129 185 1
129 199 1
129 201 1
129 212 1
129 230 1
129 246 1
129 256 1
129 261 1
129 313 1
129 322 1
129 363 1
129 379 1
129 414 1
129 459 1
129 465 1
129 474 1
129 516 1
129 547 1
129 551 1
129 554 1
129 563 1
129 590 1
129 598 1
129 619 1
129 624 1
129 628 1
129 629 1
129 634 1
129 650 1
129 659 1
129 707 1
129 710 1
129 715 1
129 733 1
129 774 1
129 786 1
129 795 1
130 38 1
130 90 1
130 100 1
130 111 1
130 166 1
130 192 1
130 226 1
130 234 1
130 237 1
130 258 1
130 279 1
130 287 1
130 299 1
130 304 1
130 329 1
130 344 1
130 359 1
130 364 1
130 384 1
130 402 1
130 416 1
130 434 1
130 435 1
130 455 1
130 464 1
130 483 1
130 489 1
130 494 1
130 503 1
130 522 1
130 532 1
130 552 1
130 560 1
130 580 1
130 609 1
130 630 1
130 640 1
130 643 1
130 661 1
130 668 1
130 672 1
130 674 1
130 675 1
130 682 1
130 696 1
130 703 1
130 704 1
130 710 1
130 714 1
130 720 1
130 733 1
130 757 1
130 760 1
130 762 1
130 796 1
130 800 1
131 2 1
131 47 1
131 81 1
131 94 1
131 102 1
131 122 1
131 145 1
131 155 1
131 185 1
131 188 1
131 228 1
131 234 1
131 248 1
131 259 1
131 276 1
131 282 1
131 299 1
131 319 1
131 347 1
131 359 1
131 379 1
131 385 1
131 412 1
131 418 1
131 455 1
131 466 1
131 477 1
131 515 1
131 525 1
131 564 1
131 583 1
131 605 1
131 648 1
131 656 1
131 663 1
131 670 1
131 671 1
131 699 1
131 756 1
131 763 1
131 765 1
131 775 1
131 786 1
131 790 1
131 794 1
131 797 1
132 23 1
132 83 1
132 87 1
132 92 1
132 105 1
132 114 1
132 126 1
132 139 1
132 142 1
132 144 1
132 165 1
132 167 1
132 171 1
132 174 1
132 175 1
132 185 1
132 188 1
132 191 1
132 192 1
132 208 1
132 218 1
132 221 1
132 228 1
132 229 1
132 245 1
132 283 1
132 355 1
132 378 1
132 426 1
132 443 1
132 467 1
132 471 1
132 477 1
132 503 1
132 531 1
132 535 1
132 556 1
132 574 1
132 593 1
132 609 1
132 660 1
132 675 1
132 678 1
132 692 1
132 751 1
132 795 1
132 798 1
133 3 1
133 18 1
133 22 1
133 37 1
133 52 1
133 70 1
133 86 1
133 119 1
133 122 1
133 126 1
133 151 1
133 158 1
133 164 1
133 166 1
133 167 1
133 170 1
133 181 1
133 208 1
133 215 1
133 218 1
133 254 1
133 256 1
133 284 1
133 286 1
133 293 1
133 308 1
133 338 1
133 348 1
133 374 1
133 399 1
133 420 1
133 437 1
133 454 1
133 462 1
133 469 1
133 483 1
133 492 1
133 493 1
133 504 1
133 510 1
133 532 1
133 540 1
133 566 1
133 655 1
133 663 1
133 669 1
133 692 1
133 718 1
133 766 1
133 767 1
133 794 1
134 8 1
134 10 1
134 36 1
134 54 1
134 57 1
134 105 1
134 113 1
134 119 1
134 146 1
134 147 1
134 153 1
134 156 1
134 162 1
134 166 1
134 204 1
134 209 1
134 221 1
134 247 1
134 250 1
134 276 1
134 288 1
134 311 1
134 314 1
134 330 1
134 349 1
134 372 1
134 420 1
134 452 1
134 453 1
134 461 1
134 463 1
134 470 1
134 519 1
134 536 1
134 570 1
134 614 1
134 655 1
134 661 1
134 662 1
134 663 1
134 672 1
134 680 1
134 689 1
134 697 1
134 707 1
134 742 1
134 755 1
134 766 1
134 767 1
134 778 1
134 797 1
135 1 1
135 7 1
135 16 1
135 27 1
135 33 1
135 71 1
135 76 1
135 79 1
135 90 1
135 91 1
135 92 1
135 94 1
135 99 1
135 145 1
135 163 1
135 172 1
135 221 1
135 228 1
135 243 1
135 263 1
135 287 1
135 289 1
135 314 1
135 325 1
135 338 1
135 352 1
135 372 1
135 392 1
135 400 1
135 436 1
135 456 1
135 459 1
135 463 1
135 525 1
135 531 1
135 542 1
135 559 1
135 563 1
135 564 1
135 588 1
135 614 1
135 631 1
135 636 1
135 657 1
135 671 1
135 673 1
135 681 1
135 685 1
135 719 1
135 721 1
135 746 1
135 753 1
135 754 1
135 792 1
135 799 1
136 7 1
136 11 1
136 15 1
136 27 1
136 149 1
136 161 1
136 166 1
136 171 1
136 175 1
136 219 1
136 223 1
136 243 1
136 248 1
136 283 1
136 299 1
136 304 1
136 316 1
136 338 1
136 341 1
136 343 1
136 375 1
136 401 1
136 448 1
136 454 1
136 470 1
136 480 1
136 495 1
136 512 1
136 523 1
136 525 1
136 532 1
136 545 1
136 580 1
136 581 1
136 585 1
136 652 1
136 662 1
136 712 1
136 719 1
136 722 1
136 740 1
136 754 1
136 763 1
136 766 1
136 769 1
136 775 1
137 2 1
137 26 1
137 41 1
137 71 1
137 88 1
137 90 1
137 106 1
137 120 1
137 159 1
137 160 1
137 178 1
137 188 1
137 199 1
137 222 1
137 223 1
137 264 1
137 266 1
137 267 1
137 274 1
137 321 1
137 327 1
137 339 1
137 372 1
137 375 1
137 379 1
137 414 1
137 422 1
137 438 1
137 443 1
137 463 1
137 483 1
137 509 1
137 520 1
137 533 1
137 539 1
137 547 1
137 549 1
137 569 1
137 571 1
137 590 1
137 592 1
137 602 1
137 657 1
137 660 1
137 698 1
137 713 1
137 736 1
137 744 1
137 787 1
138 6 1
138 12 1
138 13 1
138 16 1
138 25 1
138 38 1
138 43 1
138 45 1
138 53 1
138 75 1
138 96 1
138 127 1
138 174 1
138 195 1
138 217 1
138 224 1
138 250 1
138 263 1
138 267 1
138 288 1
138 305 1
138 306 1
138 320 1
138 348 1
138 366 1
138 369 1
138 423 1
138 455 1
138 486 1
138 488 1
138 506 1
138 508 1
138 547 1
138 571 1
138 572 1
138 575 1
138 577 1
138 613 1
138 617 1
138 626 1
138 628 1
138 634 1
138 635 1
138 713 1
138 759 1
138 762 1
138 764 1
138 793 1
139 22 1
139 55 1
139 85 1
139 95 1
139 104 1
139 110 1
139 132 1
139 149 1
139 191 1
139 228 1
139 279 1
139 291 1
139 318 1
139 324 1
139 330 1
139 406 1
139 470 1
139 498 1
139 504 1
139 528 1
139 534 1
139 567 1
139 591 1
139 598 1
139 601 1
139 614 1
139 616 1
139 643 1
139 646 1
139 691 1
139 697 1
139 737 1
139 753 1
139 785 1
139 793 1
140 14 1
140 26 1
140 73 1
140 87 1
140 93 1
140 113 1
140 148 1
140 165 1
140 178 1
140 179 1
140 239 1
140 262 1
140 264 1
140 284 1
140 288 1
140 308 1
140 367 1
140 372 1
140 379 1
140 386 1
140 428 1
140 431 1
140 434 1
140 438 1
140 442 1
140 447 1
140 461 1
140 462 1
140 497 1
140 505 1
140 531 1
140 542 1
140 544 1
140 588 1
140 595 1
140 614 1
140 620 1
140 630 1
140 643 1
140 661 1
140 676 1
140 708 1
140 716 1
140 719 1
140 720 1
140 724 1
140 757 1
140 769 1
140 785 1
140 800 1
141 2 1
141 23 1
141 60 1
141 71 1
141 80 1
141 81 1
141 116 1
141 175 1
141 177 1
141 189 1
141 265 1
141 303 1
141 314 1
141 319 1
141 321 1
141 328 1
141 338 1
141 350 1
141 352 1
141 361 1
141 368 1
141 369 1
141 375 1
141 385 1
141 412 1
141 425 1
141 540 1
141 556 1
141 559 1
141 566 1
141 578 1
141 579 1
141 583 1
141 591 1
141 594 1
141 613 1
141 627 1
141 657 1
141 660 1
141 664 1
141 669 1
141 679 1
141 684 1
141 689 1
141 706 1
141 730 1
141 732 1
141 770 1
141 791 1
141 799 1
142 14 1
142 37 1
142 39 1
142 41 1
142 81 1
142 97 1
142 102 1
142 125 1
142 132 1
142 144 1
142 149 1
142 175 1
142 202 1
142 204 1
142 212 1
142 221 1
142 241 1
142 246 1
142 250 1
142 255 1
142 263 1
142 273 1
142 340 1
142 406 1
142 421 1
142 429 1
142 432 1
142 435 1
142 440 1
142 445 1
142 451 1
142 459 1
142 480 1
142 503 1
142 517 1
142 522 1
142 552 1
142 578 1
142 583 1
142 584 1
142 596 1
142 614 1
142 618 1
142 631 1
142 656 1
142 659 1
142 672 1
142 673 1
142 689 1
142 696 1
142 704 1
142 717 1
142 721 1
142 723 1
142 729 1
142 730 1
142 731 1
142 773 1
142 776 1
142 784 1
142 785 1
143 1 1
143 9 1
143 38 1
143 103 1
143 110 1
143 128 1
143 152 1
143 166 1
143 171 1
143 219 1
143 250 1
143 356 1
143 390 1
143 396 1
143 399 1
143 416 1
143 443 1
143 481 1
143 520 1
143 521 1
143 525 1
143 539 1
143 548 1
143 583 1
143 587 1
143 602 1
143 609 1
143 629 1
143 630 1
143 638 1
143 652 1
143 656 1
143 665 1
143 712 1
143 745 1
143 762 1
143 766 1
143 774 1
143 793 1
144 4 1
144 16 1
144 70 1
144 84 1
144 87 1
144 90 1
144 97 1
144 101 1
144 104 1
144 132 1
144 142 1
144 151 1
144 169 1
144 177 1
144 198 1
144 204 1
144 238 1
144 259 1
144 285 1
144 291 1
144 309 1
144 339 1
144 355 1
144 409 1
144 412 1
144 419 1
144 441 1
144 449 1
144 450 1
144 453 1
144 460 1
144 462 1
144 464 1
144 469 1
144 491 1
144 510 1
144 518 1
144 520 1
144 544 1
144 565 1
144 575 1
144 589 1
144 594 1
144 610 1
144 615 1
144 623 1
144 633 1
144 644 1
144 670 1
144 707 1
144 720 1
144 733 1
144 769 1
144 795 1
145 13 1
145 66 1
145 83 1
145 85 1
145 94 1
145 103 1
145 131 1
145 135 1
145 168 1
145 175 1
145 253 1
145 276 1
145 287 1
145 304 1
145 310 1
145 313 1
145 324 1
145 329 1
145 349 1
145 364 1
145 393 1
145 407 1
145 423 1
145 429 1
145 475 1
145 536 1
145 539 1
145 550 1
145 552 1
145 564 1
145 566 1
145 639 1
145 669 1
145 683 1
145 707 1
145 711 1
145 720 1
145 722 1
145 732 1
145 762 1
145 771 1
145 795 1
146 2 1
146 21 1
146 33 1
146 43 1
146 87 1
146 93 1
146 100 1
146 124 1
146 134 1
146 157 1
146 170 1
146 188 1
146 218 1
146 260 1
146 261 1
146 295 1
146 300 1
146 312 1
146 314 1
146 330 1
146 331 1
146 354 1
146 355 1
146 393 1
146 424 1
146 468 1
146 499 1
146 521 1
146 522 1
146 564 1
146 569 1
146 590 1
146 604 1
146 631 1
146 632 1
146 647 1
146 673 1
146 679 1
146 695 1
146 696 1
146 700 1
146 752 1
146 780 1
146 795 1
147 4 1
147 12 1
147 23 1
147 28 1
147 40 1
147 54 1
147 57 1
147 61 1
147 90 1
147 92 1
147 107 1
147 109 1
147 112 1
147 116 1
147 134 1
147 168 1
147 177 1
147 214 1
147 230 1
147 234 1
147 240 1
147 260 1
147 268 1
147 270 1
147 298 1
147 309 1
147 311 1
147 318 1
147 336 1
147 342 1
147 354 1
147 403 1
147 410 1
147 416 1
147 437 1
147 467 1
147 469 1
147 471 1
147 482 1
147 492 1
147 495 1
147 532 1
147 565 1
147 573 1
147 636 1
147 638 1
147 675 1
147 698 1
147 707 1
147 715 1
147 747 1
147 758 1
147 761 1
147 774 1
147 779 1
147 787 1
147 788 1
147 798 1
148 26 1
148 32 1
148 33 1
148 34 1
148 60 1
148 85 1
148 91 1
148 127 1
148 129 1
148 140 1
148 163 1
148 219 1
148 220 1
148 242 1
148 243 1
148 247 1
148 262 1
148 263 1
148 276 1
148 292 1
148 321 1
148 327 1
148 331 1
148 332 1
148 399 1
148 414 1
148 421 1
148 441 1
148 466 1
148 499 1
148 510 1
148 514 1
148 515 1
148 524 1
148 542 1
148 543 1
148 600 1
148 612 1
148 619 1
148 642 1
148 705 1
148 719 1
148 733 1
148 746 1
148 764 1
148 776 1
148 785 1
148 798 1
149 53 1
149 57 1
149 65 1
149 67 1
149 112 1
149 119 1
149 122 1
149 136 1
149 139 1
149 142 1
149 157 1
149 182 1
149 208 1
149 231 1
149 241 1
149 249 1
149 272 1
149 273 1
149 277 1
149 293 1
149 313 1
149 341 1
149 375 1
149 376 1
149 390 1
149 394 1
149 413 1
149 416 1
149 422 1
149 425 1
149 428 1
149 479 1
149 527 1
149 557 1
149 561 1
149 562 1
149 573 1
149 579 1
149 596 1
149 608 1
149 627 1
149 641 1
149 663 1
149 686 1
149 727 1
149 757 1
149 766 1
149 780 1
149 781 1
149 787 1
150 46 1
150 47 1
150 69 1
150 72 1
150 102 1
150 124 1
150 126 1
150 186 1
150 201 1
150 203 1
150 246 1
150 255 1
150 267 1
150 271 1
150 287 1
150 303 1
150 311 1
150 318 1
150 327 1
150 329 1
150 348 1
150 366 1
150 384 1
150 394 1
150 397 1
150 399 1
150 423 1
150 433 1
150 437 1
150 478 1
150 487 1
150 494 1
150 499 1
150 518 1
150 547 1
150 557 1
150 558 1
150 564 1
150 566 1
150 580 1
150 598 1
150 625 1
150 632 1
150 646 1
150 670 1
150 689 1
150 704 1
150 738 1
150 749 1
150 750 1
150 759 1
150 796 1
150 800 1
151 13 1
151 19 1
151 31 1
151 65 1
151 92 1
151 113 1
151 133 1
151 144 1
151 172 1
151 186 1
151 208 1
151 209 1
151 248 1
151 256 1
151 262 1
151 271 1
151 289 1
151 311 1
151 335 1
151 337 1
151 341 1
151 343 1
151 347 1
151 379 1
151 382 1
151 391 1
151 394 1
151 403 1
151 413 1
151 421 1
151 422 1
151 428 1
151 437 1
151 459 1
151 479 1
151 482 1
151 503 1
151 512 1
151 539 1
151 561 1
151 564 1
151 618 1
151 626 1
151 635 1
151 641 1
151 657 1
151 686 1
151 689 1
151 723 1
151 730 1
151 736 1
151 737 1
151 740 1
151 782 1
151 787 1
151 796 1
151 799 1
152 2 1
152 30 1
152 57 1
152 59 1
152 60 1
152 81 1
152 85 1
152 109 1
152 115 1
152 143 1
152 175 1
152 176 1
152 178 1
152 209 1
152 212 1
152 219 1
152 224 1
152 238 1
152 240 1
152 244 1
152 248 1
152 272 1
152 284 1
152 303 1
152 309 1
152 328 1
152 348 1
152 352 1
152 378 1
152 381 1
152 393 1
152 421 1
152 461 1
152 463 1
152 469 1
152 472 1
152 474 1
152 477 1
152 493 1
152 501 1
152 525 1
152 534 1
152 548 1
152 549 1
152 564 1
152 570 1
152 590 1
152 599 1
152 622 1
152 634 1
152 636 1
152 648 1
152 653 1
152 654 1
152 655 1
152 656 1
152 657 1
152 660 1
152 700 1
152 717 1
152 723 1
152 746 1
152 753 1
153 7 1
153 35 1
153 45 1
153 48 1
153 65 1
153 69 1
153 75 1
153 76 1
153 79 1
153 95 1
153 97 1
153 126 1
153 134 1
153 162 1
153 177 1
153 198 1
153 212 1
153 219 1
153 223 1
153 234 1
153 250 1
153 258 1
153 272 1
153 279 1
153 291 1
153 293 1
153 312 1
153 321 1
153 326 1
153 350 1
153 372 1
153 374 1
153 377 1
153 386 1
153 399 1
153 406 1
153 413 1
153 416 1
153 427 1
153 432 1
153 461 1
153 476 1
153 487 1
153 509 1
153 532 1
153 535 1
153 562 1
153 570 1
153 580 1
153 584 1
153 592 1
153 613 1
153 623 1
153 700 1
153 705 1
153 733 1
153 753 1
154 8 1
154 38 1
154 88 1
154 129 1
154 173 1
154 182 1
154 206 1
154 242 1
154 249 1
154 265 1
154 266 1
154 274 1
154 281 1
154 289 1
154 316 1
154 328 1
154 361 1
154 363 1
154 378 1
154 413 1
154 431 1
154 453 1
154 476 1
154 483 1
154 496 1
154 503 1
154 508 1
154 538 1
154 552 1
154 559 1
154 565 1
154 587 1
154 590 1
154 612 1
154 625 1
154 629 1
154 633 1
154 728 1
154 737 1
154 775 1
154 778 1
154 795 1
155 11 1
155 51 1
155 54 1
155 73 1
155 84 1
155 131 1
155 181 1
155 209 1
155 213 1
155 238 1
155 249 1
155 254 1
155 277 1
155 336 1
155 343 1
155 360 1
155 364 1
155 416 1
155 486 1
155 490 1
155 519 1
155 526 1
155 533 1
155 541 1
155 605 1
155 621 1
155 640 1
155 662 1
155 674 1
155 700 1
155 723 1
155 732 1
155 736 1
155 740 1
155 761 1
155 765 1
155 776 1
155 785 1
155 786 1
156 5 1
156 26 1
156 41 1
156 55 1
156 72 1
156 85 1
156 105 1
156 124 1
156 127 1
156 134 1
156 161 1
156 178 1
156 189 1
156 255 1
156 259 1
156 272 1
156 289 1
156 291 1
156 296 1
156 332 1
156 341 1
156 350 1
156 377 1
156 412 1
156 414 1
156 437 1
156 459 1
156 465 1
156 490 1
156 497 1
156 499 1
156 504 1
156 510 1
156 514 1
156 533 1
156 619 1
156 620 1
156 634 1
156 635 1
156 646 1
156 676 1
156 677 1
156 741 1
156 755 1
156 774 1
156 796 1
157 8 1
157 14 1
157 23 1
157 25 1
157 27 1
157 45 1
157 48 1
157 95 1
157 117 1
157 146 1
157 149 1
157 173 1
157 178 1
157 185 1
157 228 1
157 233 1
157 245 1
157 262 1
157 266 1
157 269 1
157 287 1
157 299 1
157 307 1
157 319 1
157 326 1
157 327 1
157 359 1
157 388 1
157 400 1
157 420 1
157 502 1
157 514 1
157 524 1
157 525 1
157 543 1
157 583 1
157 590 1
157 595 1
157 633 1
157 636 1
157 644 1
157 658 1
157 665 1
157 697 1
157 698 1
157 710 1
157 726 1
157 771 1
157 783 1
157 785 1
157 792 1
157 794 1
157 798 1
158 19 1
158 21 1
158 29 1
158 32 1
158 45 1
158 77 1
158 94 1
158 110 1
158 116 1
158 127 1
158 133 1
158 162 1
158 167 1
158 170 1
158 179 1
158 225 1
158 245 1
158 248 1
158 253 1
158 263 1
158 264 1
158 266 1
158 282 1
158 283 1
158 289 1
158 290 1
158 295 1
158 302 1
158 305 1
158 309 1
158 311 1
158 323 1
158 332 1
158 353 1
158 364 1
158 369 1
158 377 1
158 397 1
158 451 1
158 459 1
158 473 1
158 483 1
158 487 1
158 489 1
158 493 1
158 500 1
158 546 1
158 564 1
158 576 1
158 584 1
158 661 1
158 678 1
158 686 1
158 707 1
158 712 1
158 728 1
158 758 1
158 760 1
158 767 1
159 10 1
159 46 1
159 54 1
159 84 1
159 90 1
159 96 1
159 98 1
159 113 1
159 115 1
159 128 1
159 137 1
159 164 1
159 171 1
159 190 1
159 192 1
159 214 1
159 225 1
159 231 1
159 283 1
159 321 1
159 340 1
159 353 1
159 354 1
159 372 1
159 423 1
159 438 1
159 442 1
159 453 1
159 460 1
159 473 1
159 499 1
159 510 1
159 511 1
159 522 1
159 533 1
159 570 1
159 595 1
159 599 1
159 616 1
159 618 1
159 619 1
159 622 1
159 646 1
159 647 1
159 655 1
159 658 1
159 667 1
159 668 1
159 687 1
159 715 1
159 716 1
159 756 1
159 763 1
159 773 1
159 793 1
160 11 1
160 22 1
160 58 1
160 109 1
160 118 1
160 120 1
160 137 1
160 170 1
160 175 1
160 192 1
160 204 1
160 216 1
160 251 1
160 278 1
160 297 1
160 330 1
160 363 1
160 374 1
160 380 1
160 388 1
160 390 1
160 409 1
160 412 1
160 452 1
160 459 1
160 460 1
160 487 1
160 502 1
160 574 1
160 583 1
160 586 1
160 619 1
160 639 1
160 660 1
160 672 1
160 674 1
160 759 1
160 769 1
160 796 1
161 9 1
161 13 1
161 27 1
161 52 1
161 54 1
161 56 1
161 127 1
161 136 1
161 156 1
161 170 1
161 171 1
161 180 1
161 182 1
161 187 1
161 188 1
161 189 1
161 196 1
161 211 1
161 224 1
161 251 1
161 297 1
161 303 1
161 316 1
161 318 1
161 340 1
161 365 1
161 367 1
161 379 1
161 381 1
161 382 1
161 395 1
161 409 1
161 413 1
161 446 1
161 459 1
161 463 1
161 465 1
161 486 1
161 503 1
161 510 1
161 559 1
161 571 1
161 582 1
161 589 1
161 604 1
161 612 1
161 615 1
161 631 1
161 684 1
161 686 1
161 719 1
161 723 1
161 729 1
161 743 1
161 752 1
161 761 1
161 767 1
161 794 1
162 14 1
162 22 1
162 40 1
162 78 1
162 82 1
162 100 1
162 134 1
162 153 1
162 158 1
162 169 1
162 184 1
162 207 1
162 243 1
162 261 1
162 307 1
162 327 1
162 336 1
162 357 1
162 365 1
162 390 1
162 405 1
162 424 1
162 430 1
162 439 1
162 454 1
162 485 1
162 518 1
162 524 1
162 560 1
162 565 1
162 590 1
162 601 1
162 605 1
162 632 1
162 633 1
162 651 1
162 662 1
162 694 1
162 720 1
162 725 1
162 743 1
162 748 1
162 753 1
162 762 1
162 763 1
162 781 1
163 1 1
163 95 1
163 107 1
163 109 1
163 118 1
163 123 1
163 135 1
163 148 1
163 174 1
163 199 1
163 203 1
163 214 1
163 230 1
163 236 1
163 282 1
163 294 1
163 344 1
163 366 1
163 377 1
163 418 1
163 444 1
163 446 1
163 529 1
163 550 1
163 554 1
163 612 1
163 633 1
163 649 1
163 681 1
163 695 1
163 696 1
163 731 1
163 736 1
163 771 1
163 773 1
163 789 1
164 2 1
164 42 1
164 59 1
164 82 1
164 87 1
164 133 1
164 159 1
164 176 1
164 195 1
164 209 1
164 261 1
164 263 1
164 303 1
164 375 1
164 397 1
164 424 1
164 429 1
164 480 1
164 486 1
164 493 1
164 496 1
164 516 1
164 518 1
164 529 1
164 571 1
164 572 1
164 577 1
164 650 1
164 665 1
164 729 1
164 744 1
164 751 1
164 785 1
165 5 1
165 14 1
165 44 1
165 70 1
165 107 1
165 113 1
165 132 1
165 140 1
165 169 1
165 185 1
165 221 1
165 286 1
165 293 1
165 296 1
165 303 1
165 314 1
165 338 1
165 346 1
165 351 1
165 361 1
165 372 1
165 427 1
165 430 1
165 446 1
165 457 1
165 473 1
165 498 1
165 504 1
165 529 1
165 562 1
165 568 1
165 578 1
165 597 1
165 604 1
165 619 1
165 646 1
165 656 1
165 683 1
165 685 1
165 695 1
165 699 1
165 708 1
165 732 1
165 751 1
165 757 1
165 782 1
165 788 1
165 790 1
166 17 1
166 21 1
166 22 1
166 44 1
166 58 1
166 71 1
166 86 1
166 87 1
166 109 1
166 110 1
166 116 1
166 123 1
166 130 1
166 133 1
166 134 1
166 136 1
166 143 1
166 201 1
166 224 1
166 269 1
166 288 1
166 322 1
166 324 1
166 362 1
166 367 1
166 391 1
166 392 1
166 397 1
166 398 1
166 413 1
166 441 1
166 460 1
166 483 1
166 487 1
166 493 1
166 498 1
166 542 1
166 555 1
166 586 1
166 591 1
166 602 1
166 634 1
166 644 1
166 647 1
166 651 1
166 653 1
166 727 1
166 742 1
166 764 1
166 768 1
166 779 1
167 10 1
167 27 1
167 35 1
167 66 1
167 67 1
167 73 1
167 78 1
167 92 1
167 98 1
167 129 1
167 132 1
167 133 1
167 158 1
167 176 1
167 177 1
167 184 1
167 190 1
167 216 1
167 235 1
167 246 1
167 252 1
167 268 1
167 293 1
167 312 1
167 328 1
167 333 1
167 341 1
167 347 1
167 352 1
167 386 1
167 388 1
167 394 1
167 401 1
167 409 1
167 448 1
167 451 1
167 470 1
167 471 1
167 483 1
167 498 1
167 534 1
167 551 1
167 559 1
167 586 1
167 589 1
167 593 1
167 594 1
167 600 1
167 653 1
167 655 1
167 656 1
167 664 1
167 671 1
167 679 1
167 682 1
167 701 1
167 727 1
167 736 1
167 744 1
167 753 1
167 775 1
168 31 1
168 40 1
168 49 1
168 55 1
168 62 1
168 64 1
168 145 1
168 147 1
168 190 1
168 194 1
168 199 1
168 204 1
168 207 1
168 208 1
168 209 1
168 219 1
168 257 1
168 263 1
168 291 1
168 295 1
168 328 1
168 382 1
168 387 1
168 391 1
168 402 1
168 459 1
168 474 1
168 487 1
168 529 1
168 539 1
168 540 1
168 570 1
168 577 1
168 579 1
168 589 1
168 598 1
168 603 1
168 623 1
168 634 1
168 658 1
168 672 1
168 708 1
168 724 1
168 752 1
168 765 1
168 777 1
168 798 1
168 799 1
169 3 1
169 7 1
169 42 1
169 50 1
169 53 1
169 74 1
169 98 1
169 111 1
169 129 1
169 144 1
169 162 1
169 165 1
169 189 1
169 197 1
169 214 1
169 224 1
169 239 1
169 261 1
169 272 1
169 281 1
169 282 1
169 296 1
169 302 1
169 352 1
169 375 1
169 377 1
169 383 1
169 393 1
169 404 1
169 444 1
169 460 1
169 482 1
169 491 1
169 496 1
169 535 1
169 558 1
169 573 1
169 574 1
169 622 1
169 656 1
169 664 1
169 688 1
169 689 1
169 699 1
169 742 1
169 757 1
169 771 1
170 21 1
170 27 1
170 48 1
170 51 1
170 63 1
170 83 1
170 100 1
170 133 1
170 146 1
170 158 1
170 160 1
170 161 1
170 206 1
170 207 1
170 208 1
170 245 1
170 248 1
170 260 1
170 317 1
170 325 1
170 328 1
170 363 1
170 373 1
170 394 1
170 404 1
170 429 1
170 444 1
170 445 1
170 447 1
170 463 1
170 472 1
170 476 1
170 496 1
170 514 1
170 524 1
170 533 1
170 538 1
170 553 1
170 569 1
170 580 1
170 583 1
170 592 1
170 600 1
170 612 1
170 641 1
170 664 1
170 678 1
170 716 1
170 733 1
170 736 1
170 761 1
170 783 1
170 789 1
171 19 1
171 21 1
171 26 1
171 32 1
171 36 1
171 50 1
171 59 1
171 64 1
171 95 1
171 115 1
171 122 1
171 132 1
171 136 1
171 143 1
171 159 1
171 161 1
171 174 1
171 181 1
171 182 1
171 206 1
171 212 1
171 217 1
171 250 1
171 270 1
171 304 1
171 335 1
171 341 1
171 344 1
171 345 1
171 387 1
171 407 1
171 409 1
171 415 1
171 447 1
171 470 1
171 499 1
171 527 1
171 559 1
171 578 1
171 579 1
171 585 1
171 600 1
171 606 1
171 608 1
171 619 1
171 650 1
171 656 1
171 690 1
171 700 1
171 701 1
171 705 1
171 710 1
171 751 1
171 752 1
171 767 1
171 777 1
172 9 1
172 42 1
172 82 1
172 92 1
172 101 1
172 122 1
172 123 1
172 135 1
172 151 1
172 176 1
172 208 1
172 218 1
172 221 1
172 227 1
172 229 1
172 252 1
172 263 1
172 291 1
172 307 1
172 333 1
172 340 1
172 401 1
172 422 1
172 431 1
172 467 1
172 482 1
172 485 1
172 487 1
172 491 1
172 494 1
172 502 1
172 536 1
172 553 1
172 559 1
172 578 1
172 605 1
172 626 1
172 649 1
172 686 1
172 719 1
172 740 1
172 745 1
172 760 1
172 763 1
172 776 1
172 796 1
173 1 1
173 7 1
173 28 1
173 40 1
173 41 1
173 45 1
173 50 1
173 55 1
173 78 1
173 84 1
173 88 1
173 112 1
173 154 1
173 157 1
173 181 1
173 188 1
173 199 1
173 201 1
173 235 1
173 260 1
173 276 1
173 289 1
173 326 1
173 333 1
173 335 1
173 357 1
173 369 1
173 371 1
173 379 1
173 390 1
173 402 1
173 405 1
173 419 1
173 471 1
173 473 1
173 486 1
173 524 1
173 529 1
173 584 1
173 587 1
173 589 1
173 590 1
173 606 1
173 608 1
173 624 1
173 647 1
173 668 1
173 671 1
173 676 1
173 680 1
173 682 1
173 687 1
173 724 1
173 728 1
173 739 1
173 744 1
173 761 1
173 766 1
173 777 1
173 798 1
174 26 1
174 31 1
174 41 1
174 59 1
174 118 1
174 122 1
174 132 1
174 138 1
174 163 1
174 171 1
174 177 1
174 185 1
174 187 1
174 207 1
174 261 1
174 284 1
174 286 1
174 301 1
174 340 1
174 352 1
174 360 1
174 366 1
174 370 1
174 380 1
174 391 1
174 401 1
174 412 1
174 428 1
174 451 1
174 458 1
174 470 1
174 473 1
174 488 1
174 497 1
174 502 1
174 524 1
174 554 1
174 563 1
174 570 1
174 598 1
174 599 1
174 608 1
174 648 1
174 652 1
174 666 1
174 678 1
174 681 1
174 698 1
174 723 1
174 734 1
174 740 1
174 758 1
174 792 1
175 10 1
175 16 1
175 35 1
175 60 1
175 64 1
175 91 1
175 115 1
175 132 1
175 136 1
175 141 1
175 142 1
175 145 1
175 152 1
175 160 1
175 178 1
175 179 1
175 202 1
175 231 1
175 238 1
175 239 1
175 244 1
175 249 1
175 260 1
175 283 1
175 308 1
175 315 1
175 334 1
175 343 1
175 347 1
175 360 1
175 370 1
175 421 1
175 462 1
175 463 1
175 464 1
175 469 1
175 533 1
175 551 1
175 578 1
175 657 1
175 702 1
175 710 1
175 742 1
175 767 1
175 800 1
176 24 1
176 36 1
176 39 1
176 53 1
176 60 1
176 70 1
176 71 1
176 84 1
176 95 1
176 152 1
176 164 1
176 167 1
176 172 1
176 182 1
176 209 1
176 228 1
176 240 1
176 250 1
176 252 1
176 272 1
176 277 1
176 280 1
176 290 1
176 297 1
176 321 1
176 326 1
176 344 1
176 362 1
176 369 1
176 370 1
176 375 1
176 382 1
176 388 1
176 397 1
176 419 1
176 448 1
176 475 1
176 488 1
176 501 1
176 525 1
176 534 1
176 545 1
176 561 1
176 575 1
176 605 1
176 609 1
176 625 1
176 654 1
176 699 1
176 761 1
176 763 1
177 14 1
177 34 1
177 49 1
177 54 1
177 84 1
177 97 1
177 121 1
177 123 1
177 141 1
177 144 1
177 147 1
177 153 1
177 167 1
177 174 1
177 183 1
177 184 1
177 252 1
177 257 1
177 290 1
177 334 1
177 350 1
177 364 1
177 371 1
177 402 1
177 403 1
177 414 1
177 421 1
177 425 1
177 451 1
177 457 1
177 475 1
177 491 1
177 495 1
177 530 1
177 615 1
177 647 1
177 665 1
177 678 1
177 688 1
177 692 1
177 725 1
177 734 1
177 748 1
177 775 1
177 781 1
177 794 1
178 2 1
178 9 1
178 28 1
178 58 1
178 60 1
178 70 1
178 83 1
178 99 1
178 103 1
178 113 1
178 117 1
178 124 1
178 137 1
178 140 1
178 152 1
178 156 1
178 157 1
178 175 1
178 216 1
178 222 1
178 234 1
178 244 1
178 291 1
178 367 1
178 374 1
178 389 1
178 409 1
178 415 1
178 433 1
178 456 1
178 485 1
178 504 1
178 521 1
178 538 1
178 553 1
178 564 1
178 569 1
178 599 1
178 618 1
178 631 1
178 641 1
178 649 1
178 697 1
178 707 1
178 711 1
178 712 1
178 713 1
178 716 1
178 717 1
178 723 1
178 727 1
178 734 1
178 767 1
178 783 1
178 800 1
179 11 1
179 140 1
179 158 1
179 175 1
179 183 1
179 187 1
179 192 1
179 198 1
179 214 1
179 221 1
179 222 1
179 256 1
179 278 1
179 284 1
179 311 1
179 312 1
179 316 1
179 317 1
179 337 1
179 340 1
179 352 1
179 355 1
179 401 1
179 410 1
179 417 1
179 450 1
179 469 1
179 503 1
179 508 1
179 521 1
179 539 1
179 570 1
179 575 1
179 590 1
179 608 1
179 616 1
179 625 1
179 646 1
179 656 1
179 659 1
179 731 1
179 749 1
179 753 1
179 790 1
179 797 1
180 10 1
180 29 1
180 57 1
180 64 1
180 72 1
180 79 1
180 84 1
180 105 1
180 161 1
180 186 1
180 194 1
180 210 1
180 225 1
180 261 1
180 290 1
180 316 1
180 337 1
180 355 1
180 362 1
180 371 1
180 401 1
180 412 1
180 420 1
180 432 1
180 459 1
180 507 1
180 536 1
180 545 1
180 549 1
180 552 1
180 560 1
180 562 1
180 663 1
180 726 1
180 747 1
180 754 1
180 764 1
180 782 1
180 784 1
180 792 1
181 22 1
181 24 1
181 44 1
181 97 1
181 107 1
181 119 1
181 133 1
181 155 1
181 171 1
181 173 1
181 191 1
181 194 1
181 204 1
181 230 1
181 233 1
181 312 1
181 319 1
181 328 1
181 332 1
181 366 1
181 382 1
181 386 1
181 403 1
181 441 1
181 468 1
181 547 1
181 555 1
181 577 1
181 608 1
181 646 1
181 665 1
181 681 1
181 689 1
181 727 1
181 743 1
181 748 1
181 765 1
181 777 1
181 779 1
181 784 1
181 793 1
182 5 1
182 18 1
182 32 1
182 36 1
182 44 1
182 49 1
182 68 1
182 74 1
182 76 1
182 77 1
182 98 1
182 103 1
182 109 1
182 149 1
182 154 1
182 161 1
182 171 1
182 176 1
182 192 1
182 195 1
182 206 1
182 210 1
182 231 1
182 254 1
182 259 1
182 264 1
182 278 1
182 342 1
182 372 1
182 385 1
182 389 1
182 399 1
182 406 1
182 407 1
182 447 1
182 454 1
182 461 1
182 462 1
182 464 1
182 471 1
182 472 1
182 484 1
182 502 1
182 524 1
182 530 1
182 541 1
182 581 1
182 582 1
182 619 1
182 636 1
182 647 1
182 658 1
182 660 1
182 721 1
182 742 1
182 743 1
182 754 1
182 769 1
182 798 1
182 799 1
183 14 1
183 45 1
183 87 1
183 90 1
183 100 1
183 128 1
183 177 1
183 179 1
183 195 1
183 204 1
183 215 1
183 252 1
183 272 1
183 298 1
183 332 1
183 349 1
183 358 1
183 381 1
183 391 1
183 394 1
183 405 1
183 407 1
183 414 1
183 424 1
183 431 1
183 438 1
183 445 1
183 452 1
183 467 1
183 471 1
183 477 1
183 505 1
183 531 1
183 540 1
183 552 1
183 581 1
183 598 1
183 603 1
183 616 1
183 639 1
183 641 1
183 648 1
183 687 1
183 707 1
183 734 1
183 749 1
183 755 1
183 789 1
183 793 1
183 798 1
184 1 1
184 11 1
184 64 1
184 129 1
184 162 1
184 167 1
184 177 1
184 189 1
184 209 1
184 247 1
184 248 1
184 277 1
184 292 1
184 364 1
184 390 1
184 423 1
184 437 1
184 477 1
184 481 1
184 482 1
184 492 1
184 507 1
184 510 1
184 537 1
184 539 1
184 559 1
184 623 1
184 700 1
184 726 1
184 751 1
184 754 1
185 16 1
185 46 1
185 77 1
185 90 1
185 99 1
185 111 1
185 129 1
185 131 1
185 132 1
185 157 1
185 165 1
185 174 1
185 204 1
185 208 1
185 217 1
185 248 1
185 271 1
185 332 1
185 339 1
185 371 1
185 383 1
185 391 1
185 405 1
185 418 1
185 443 1
185 477 1
185 480 1
185 493 1
185 494 1
185 498 1
185 529 1
185 535 1
185 543 1
185 570 1
185 572 1
185 581 1
185 587 1
185 602 1
185 632 1
185 650 1
185 652 1
185 694 1
185 789 1
185 791 1
186 1 1
186 35 1
186 38 1
186 41 1
186 75 1
186 150 1
186 151 1
186 180 1
186 204 1
186 228 1
186 235 1
186 249 1
186 261 1
186 275 1
186 284 1
186 299 1
186 302 1
186 342 1
186 353 1
186 359 1
186 374 1
186 385 1
186 407 1
186 415 1
186 424 1
186 444 1
186 500 1
186 510 1
186 514 1
186 517 1
186 519 1
186 523 1
186 534 1
186 544 1
186 564 1
186 588 1
186 591 1
186 612 1
186 617 1
186 618 1
186 621 1
186 629 1
186 680 1
186 689 1
186 691 1
186 699 1
186 706 1
186 723 1
186 726 1
186 742 1
186 753 1
186 755 1
186 764 1
186 775 1
186 776 1
186 784 1
187 65 1
187 66 1
187 76 1
187 93 1
187 95 1
187 99 1
187 117 1
187 161 1
187 174 1
187 179 1
187 195 1
187 201 1
187 204 1
187 206 1
187 218 1
187 225 1
187 230 1
187 270 1
187 300 1
187 338 1
187 346 1
187 354 1
187 376 1
187 392 1
187 426 1
187 447 1
187 499 1
187 535 1
187 538 1
187 561 1
187 562 1
187 569 1
187 592 1
187 601 1
187 604 1
187 614 1
187 619 1
187 625 1
187 644 1
187 658 1
187 667 1
187 669 1
187 672 1
187 695 1
187 715 1
187 756 1
187 762 1
187 783 1
187 786 1
188 19 1
188 20 1
188 39 1
188 50 1
188 55 1
188 69 1
188 72 1
188 75 1
188 85 1
188 99 1
188 121 1
188 131 1
188 132 1
188 137 1
188 146 1
188 161 1
188 173 1
188 196 1
188 217 1
188 269 1
188 277 1
188 372 1
188 386 1
188 402 1
188 406 1
188 423 1
188 425 1
188 446 1
188 447 1
188 451 1
188 536 1
188 551 1
188 558 1
188 565 1
188 616 1
188 651 1
188 652 1
188 669 1
188 671 1
188 676 1
188 685 1
188 689 1
188 700 1
188 739 1
188 742 1
188 785 1
189 19 1
189 47 1
189 50 1
189 72 1
189 94 1
189 95 1
189 103 1
189 110 1
189 115 1
189 141 1
189 156 1
189 161 1
189 169 1
189 184 1
189 196 1
189 200 1
189 208 1
189 235 1
189 265 1
189 297 1
189 309 1
189 316 1
189 332 1
189 336 1
189 385 1
189 409 1
189 423 1
189 426 1
189 463 1
189 509 1
189 513 1
189 518 1
189 531 1
189 534 1
189 603 1
189 623 1
189 627 1
189 635 1
189 651 1
189 652 1
189 655 1
189 656 1
189 676 1
189 680 1
189 683 1
189 687 1
189 691 1
189 712 1
189 762 1
189 777 1
190 17 1
190 42 1
190 51 1
190 74 1
190 77 1
190 78 1
190 94 1
190 115 1
190 117 1
190 119 1
190 159 1
190 167 1
190 168 1
190 195 1
190 200 1
190 205 1
190 218 1
190 222 1
190 233 1
190 243 1
190 245 1
190 274 1
190 301 1
190 305 1
190 315 1
190 338 1
190 341 1
190 351 1
190 354 1
190 361 1
190 380 1
190 419 1
190 427 1
190 430 1
190 450 1
190 457 1
190 459 1
190 465 1
190 480 1
190 485 1
190 490 1
190 492 1
190 501 1
190 507 1
190 529 1
190 551 1
190 567 1
190 662 1
190 665 1
190 669 1
190 682 1
190 699 1
190 708 1
190 728 1
190 733 1
190 741 1
190 750 1
190 753 1
191 16 1
191 20 1
191 23 1
191 58 1
191 68 1
191 85 1
191 86 1
191 98 1
191 121 1
191 124 1
191 132 1
191 139 1
191 181 1
191 199 1
191 201 1
191 219 1
191 237 1
191 249 1
191 250 1
191 285 1
191 289 1
191 292 1
191 299 1
191 319 1
191 322 1
191 346 1
191 373 1
191 375 1
191 407 1
191 421 1
191 424 1
191 455 1
191 464 1
191 471 1
191 477 1
191 480 1
191 481 1
191 482 1
191 491 1
191 512 1
191 519 1
191 544 1
191 575 1
191 583 1
191 602 1
191 637 1
191 639 1
191 656 1
191 663 1
191 668 1
191 691 1
191 700 1
191 729 1
191 757 1
191 758 1
191 788 1
191 798 1
192 3 1
192 7 1
192 29 1
192 57 1
192 65 1
192 80 1
192 95 1
192 98 1
192 130 1
192 132 1
192 159 1
192 160 1
192 179 1
192 182 1
192 193 1
192 196 1
192 211 1
192 222 1
192 238 1
192 311 1
192 329 1
192 344 1
192 350 1
192 356 1
192 381 1
192 396 1
192 403 1
192 430 1
192 461 1
192 462 1
192 472 1
192 477 1
192 509 1
192 523 1
192 559 1
192 595 1
192 608 1
192 612 1
192 639 1
192 693 1
192 695 1
192 702 1
192 707 1
192 734 1
192 748 1
192 752 1
192 764 1
192 791 1
192 793 1
193 2 1
193 16 1
193 17 1
193 21 1
193 60 1
193 192 1
193 223 1
193 229 1
193 237 1
193 247 1
193 249 1
193 252 1
193 272 1
193 319 1
193 327 1
193 337 1
193 394 1
193 407 1
193 423 1
193 424 1
193 461 1
193 465 1
193 467 1
193 468 1
193 481 1
193 506 1
193 513 1
193 517 1
193 563 1
193 609 1
193 612 1
193 626 1
193 635 1
193 656 1
193 661 1
193 685 1
193 692 1
193 706 1
193 738 1
193 747 1
193 783 1
194 9 1
194 20 1
194 94 1
194 95 1
194 109 1
194 118 1
194 168 1
194 180 1
194 181 1
194 253 1
194 262 1
194 267 1
194 273 1
194 293 1
194 294 1
194 331 1
194 377 1
194 404 1
194 465 1
194 480 1
194 490 1
194 525 1
194 529 1
194 531 1
194 540 1
194 543 1
194 573 1
194 606 1
194 610 1
194 634 1
194 659 1
194 661 1
194 666 1
194 692 1
194 698 1
194 704 1
194 760 1
194 768 1
194 782 1
195 11 1
195 36 1
195 39 1
195 55 1
195 59 1
195 74 1
195 102 1
195 138 1
195 164 1
195 182 1
195 183 1
195 187 1
195 190 1
195 210 1
195 257 1
195 285 1
195 307 1
195 315 1
195 323 1
195 339 1
195 347 1
195 369 1
195 384 1
195 410 1
195 412 1
195 416 1
195 435 1
195 467 1
195 510 1
195 518 1
195 542 1
195 546 1
195 556 1
195 562 1
195 593 1
195 596 1
195 598 1
195 659 1
195 668 1
195 714 1
195 720 1
195 728 1
195 748 1
195 787 1
195 797 1
195 799 1
195 800 1
196 23 1
196 28 1
196 29 1
196 49 1
196 60 1
196 61 1
196 69 1
196 88 1
196 115 1
196 116 1
196 161 1
196 188 1
196 189 1
196 192 1
196 205 1
196 207 1
196 224 1
196 234 1
196 269 1
196 271 1
196 289 1
196 291 1
196 318 1
196 324 1
196 367 1
196 369 1
196 399 1
196 414 1
196 417 1
196 422 1
196 430 1
196 432 1
196 437 1
196 464 1
196 519 1
196 524 1
196 531 1
196 588 1
196 608 1
196 630 1
196 639 1
196 686 1
196 688 1
196 689 1
196 737 1
196 739 1
196 762 1
196 770 1
196 792 1
196 797 1
196 799 1
197 9 1
197 21 1
197 23 1
197 63 1
197 67 1
197 77 1
197 79 1
197 94 1
197 97 1
197 119 1
197 169 1
197 214 1
197 236 1
197 253 1
197 275 1
197 283 1
197 296 1
197 299 1
197 301 1
197 307 1
197 314 1
197 315 1
197 318 1
197 337 1
197 355 1
197 377 1
197 384 1
197 390 1
197 400 1
197 409 1
197 419 1
197 427 1
197 438 1
197 448 1
197 451 1
197 460 1
197 525 1
197 530 1
197 535 1
197 584 1
197 599 1
197 604 1
197 622 1
197 635 1
197 639 1
197 641 1
197 670 1
197 672 1
197 703 1
197 707 1
197 738 1
197 745 1
197 762 1
197 765 1
197 787 1
198 27 1
198 46 1
198 57 1
198 73 1
198 86 1
198 104 1
198 108 1
198 126 1
198 144 1
198 153 1
198 179 1
198 224 1
198 250 1
198 251 1
198 255 1
198 258 1
198 279 1
198 284 1
198 291 1
198 333 1
198 355 1
198 366 1
198 379 1
198 410 1
198 425 1
198 436 1
198 484 1
198 503 1
198 532 1
198 534 1
198 547 1
198 570 1
198 581 1
198 605 1
198 618 1
198 626 1
198 640 1
198 655 1
198 711 1
198 754 1
198 757 1
198 764 1
198 765 1
198 768 1
198 769 1
198 771 1
198 789 1
198 796 1
199 8 1
199 31 1
199 33 1
199 43 1
199 90 1
199 129 1
199 137 1
199 163 1
199 168 1
199 173 1
199 191 1
199 201 1
199 212 1
199 214 1
199 224 1
199 234 1
199 258 1
199 270 1
199 280 1
199 283 1
199 287 1
199 290 1
199 314 1
199 343 1
199 367 1
199 369 1
199 374 1
199 389 1
199 390 1
199 422 1
199 436 1
199 457 1
199 489 1
199 532 1
199 551 1
199 555 1
199 576 1
199 587 1
199 589 1
199 628 1
199 636 1
199 642 1
199 644 1
199 662 1
199 666 1
199 680 1
199 686 1
199 687 1
199 713 1
199 734 1
199 738 1
199 777 1
200 15 1
200 35 1
200 36 1
200 40 1
200 66 1
200 98 1
200 113 1
200 116 1
200 125 1
200 128 1
200 189 1
200 190 1
200 207 1
200 217 1
200 228 1
200 255 1
200 276 1
200 277 1
200 279 1
200 339 1
200 346 1
200 398 1
200 412 1
200 422 1
200 431 1
200 462 1
200 470 1
200 485 1
200 487 1
200 489 1
200 491 1
200 492 1
200 496 1
200 501 1
200 531 1
200 541 1
200 573 1
200 594 1
200 632 1
200 633 1
200 639 1
200 643 1
200 651 1
200 683 1
200 695 1
200 704 1
200 719 1
200 728 1
200 773 1
200 781 1
200 792 1
201 19 1
201 41 1
201 43 1
201 47 1
201 48 1
201 95 1
201 113 1
201 115 1
201 129 1
201 150 1
201 166 1
201 173 1
201 187 1
201 191 1
201 199 1
201 204 1
201 207 1
201 212 1
201 228 1
201 241 1
201 256 1
201 269 1
201 298 1
201 358 1
201 368 1
201 448 1
201 460 1
201 468 1
201 477 1
201 482 1
201 499 1
201 503 1
201 507 1
201 508 1
201 535 1
201 549 1
201 559 1
201 585 1
201 614 1
201 635 1
201 645 1
201 655 1
201 657 1
201 678 1
201 695 1
201 729 1
201 753 1
201 759 1
201 768 1
201 789 1
201 797 1
201 799 1
202 78 1
202 116 1
202 128 1
202 142 1
202 175 1
202 213 1
202 233 1
202 294 1
202 297 1
202 299 1
202 310 1
202 338 1
202 341 1
202 360 1
202 373 1
202 379 1
202 394 1
202 395 1
202 405 1
202 415 1
202 426 1
202 429 1
202 458 1
202 554 1
202 572 1
202 602 1
202 613 1
202 623 1
202 624 1
202 655 1
202 668 1
202 688 1
202 691 1
202 720 1
202 731 1
202 756 1
202 767 1
202 778 1
202 790 1
203 31 1
203 78 1
203 115 1
203 150 1
203 163 1
203 240 1
203 294 1
203 298 1
203 303 1
203 304 1
203 305 1
203 306 1
203 316 1
203 332 1
203 357 1
203 404 1
203 418 1
203 422 1
203 446 1
203 494 1
203 501 1
203 530 1
203 539 1
203 568 1
203 599 1
203 636 1
203 656 1
203 692 1
203 698 1
203 699 1
203 764 1
203 791 1
204 48 1
204 54 1
204 55 1
204 56 1
204 68 1
204 73 1
204 88 1
204 104 1
204 109 1
204 124 1
204 134 1
204 142 1
204 144 1
204 160 1
204 168 1
204 181 1
204 183 1
204 185 1
204 186 1
204 187 1
204 201 1
204 214 1
204 219 1
204 246 1
204 288 1
204 304 1
204 325 1
204 338 1
204 340 1
204 341 1
204 391 1
204 404 1
204 431 1
204 439 1
204 481 1
204 512 1
204 513 1
204 520 1
204 536 1
204 541 1
204 547 1
204 554 1
204 562 1
204 568 1
204 627 1
204 631 1
204 632 1
204 637 1
204 641 1
204 645 1
204 681 1
204 693 1
204 729 1
204 737 1
204 748 1
204 780 1
204 799 1
205 5 1
205 27 1
205 28 1
205 30 1
205 72 1
205 116 1
205 190 1
205 196 1
205 210 1
205 217 1
205 230 1
205 231 1
205 262 1
205 282 1
205 290 1
205 297 1
205 299 1
205 307 1
205 324 1
205 353 1
205 357 1
205 388 1
205 406 1
205 429 1
205 454 1
205 470 1
205 471 1
205 475 1
205 492 1
205 513 1
205 525 1
205 605 1
205 655 1
205 673 1
205 674 1
205 699 1
205 701 1
205 723 1
205 741 1
205 751 1
205 752 1
205 788 1
205 794 1
206 16 1
206 26 1
206 32 1
206 34 1
206 93 1
206 116 1
206 124 1
206 154 1
206 170 1
206 171 1
206 182 1
206 187 1
206 295 1
206 341 1
206 346 1
206 355 1
206 364 1
206 374 1
206 398 1
206 417 1
206 454 1
206 470 1
206 479 1
206 534 1
206 552 1
206 621 1
206 622 1
206 626 1
206 636 1
206 668 1
206 691 1
206 708 1
206 757 1
206 759 1
207 3 1
207 13 1
207 19 1
207 36 1
207 46 1
207 59 1
207 61 1
207 70 1
207 99 1
207 119 1
207 162 1
207 168 1
207 170 1
207 174 1
207 196 1
207 200 1
207 201 1
207 218 1
207 227 1
207 236 1
207 262 1
207 271 1
207 274 1
207 330 1
207 341 1
207 357 1
207 360 1
207 414 1
207 420 1
207 437 1
207 440 1
207 444 1
207 459 1
207 463 1
207 488 1
207 504 1
207 518 1
207 527 1
207 528 1
207 546 1
207 562 1
207 573 1
207 593 1
207 604 1
207 659 1
207 667 1
207 696 1
207 699 1
207 706 1
207 734 1
207 774 1
207 798 1
208 101 1
208 132 1
208 133 1
208 149 1
208 151 1
208 168 1
208 170 1
208 172 1
208 185 1
208 189 1
208 211 1
208 232 1
208 257 1
208 258 1
208 259 1
208 279 1
208 295 1
208 296 1
208 302 1
208 312 1
208 320 1
208 327 1
208 329 1
208 333 1
208 338 1
208 377 1
208 407 1
208 414 1
208 421 1
208 432 1
208 459 1
208 462 1
208 489 1
208 511 1
208 514 1
208 516 1
208 532 1
208 548 1
208 550 1
208 576 1
208 617 1
208 633 1
208 651 1
208 655 1
208 661 1
208 714 1
208 742 1
208 770 1
208 781 1
209 5 1
209 18 1
209 33 1
209 45 1
209 72 1
209 93 1
209 97 1
209 102 1
209 134 1
209 151 1
209 152 1
209 155 1
209 164 1
209 168 1
209 176 1
209 184 1
209 210 1
209 224 1
209 247 1
209 265 1
209 307 1
209 330 1
209 334 1
209 335 1
209 341 1
209 395 1
209 439 1
209 452 1
209 461 1
209 473 1
209 475 1
209 496 1
209 503 1
209 512 1
209 513 1
209 514 1
209 527 1
209 532 1
209 550 1
209 555 1
209 593 1
209 596 1
209 610 1
209 637 1
209 695 1
209 697 1
209 717 1
209 758 1
209 770 1
209 788 1
210 1 1
210 8 1
210 17 1
210 40 1
210 47 1
210 56 1
210 102 1
210 106 1
210 123 1
210 128 1
210 180 1
210 182 1
210 195 1
210 205 1
210 209 1
210 284 1
210 296 1
210 298 1
210 307 1
210 312 1
210 324 1
210 330 1
210 336 1
210 349 1
210 381 1
210 382 1
210 386 1
210 410 1
210 417 1
210 485 1
210 508 1
210 523 1
210 537 1
210 538 1
210 542 1
210 577 1
210 585 1
210 605 1
210 616 1
210 621 1
210 694 1
210 712 1
210 715 1
210 723 1
210 749 1
210 766 1
211 80 1
211 104 1
211 161 1
211 192 1
211 208 1
211 239 1
211 241 1
211 257 1
211 286 1
211 309 1
211 333 1
211 334 1
211 363 1
211 382 1
211 384 1
211 430 1
211 431 1
211 439 1
211 450 1
211 474 1
211 477 1
211 487 1
211 524 1
211 529 1
211 531 1
211 532 1
211 537 1
211 540 1
211 552 1
211 555 1
211 558 1
211 562 1
211 563 1
211 569 1
211 591 1
211 622 1
211 623 1
211 681 1
211 685 1
211 693 1
211 695 1
211 705 1
211 709 1
211 725 1
211 744 1
211 745 1
211 748 1
211 750 1
211 768 1
212 3 1
212 30 1
212 67 1
212 70 1
212 129 1
212 142 1
212 152 1
212 153 1
212 171 1
212 199 1
212 201 1
212 222 1
212 229 1
212 265 1
212 273 1
212 284 1
212 286 1
212 291 1
212 293 1
212 330 1
212 333 1
212 369 1
212 376 1
212 385 1
212 399 1
212 434 1
212 451 1
212 456 1
212 474 1
212 501 1
212 547 1
212 562 1
212 573 1
212 618 1
212 646 1
212 658 1
212 663 1
212 672 1
212 677 1
212 682 1
212 716 1
212 744 1
212 770 1
213 1 1
213 32 1
213 59 1
213 78 1
213 89 1
213 94 1
213 106 1
213 118 1
213 155 1
213 202 1
213 221 1
213 222 1
213 235 1
213 244 1
213 250 1
213 253 1
213 257 1
213 262 1
213 265 1
213 268 1
213 269 1
213 270 1
213 275 1
213 283 1
213 312 1
213 333 1
213 340 1
213 342 1
213 348 1
213 351 1
213 368 1
213 397 1
213 405 1
213 430 1
213 436 1
213 448 1
213 472 1
213 486 1
213 547 1
213 554 1
213 558 1
213 569 1
213 619 1
213 620 1
213 633 1
213 636 1
213 647 1
213 675 1
213 705 1
213 745 1
213 793 1
214 12 1
214 37 1
214 38 1
214 42 1
214 69 1
214 110 1
214 147 1
214 159 1
214 163 1
214 169 1
214 179 1
214 197 1
214 199 1
214 204 1
214 228 1
214 232 1
214 239 1
214 284 1
214 297 1
214 317 1
214 326 1
214 330 1
214 339 1
214 365 1
214 366 1
214 392 1
214 407 1
214 424 1
214 426 1
214 436 1
214 459 1
214 469 1
214 479 1
214 487 1
214 490 1
214 497 1
214 508 1
214 594 1
214 598 1
214 621 1
214 628 1
214 651 1
214 653 1
214 657 1
214 691 1
214 709 1
214 713 1
214 730 1
214 733 1
214 742 1
214 743 1
214 771 1
214 781 1
214 795 1
215 29 1
215 59 1
215 61 1
215 62 1
215 83 1
215 85 1
215 87 1
215 94 1
215 114 1
215 115 1
215 133 1
215 183 1
215 237 1
215 239 1
215 257 1
215 260 1
215 284 1
215 285 1
215 341 1
215 384 1
215 390 1
215 401 1
215 409 1
215 460 1
215 575 1
215 584 1
215 610 1
215 636 1
215 656 1
215 661 1
215 672 1
215 679 1
215 776 1
216 52 1
216 56 1
216 68 1
216 85 1
216 90 1
216 160 1
216 167 1
216 178 1
216 217 1
216 231 1
216 262 1
216 269 1
216 272 1
216 282 1
216 299 1
216 308 1
216 337 1
216 358 1
216 371 1
216 378 1
216 411 1
216 417 1
216 436 1
216 461 1
216 472 1
216 497 1
216 498 1
216 505 1
216 510 1
216 528 1
216 562 1
216 588 1
216 590 1
216 613 1
216 628 1
216 631 1
216 650 1
216 660 1
216 666 1
216 716 1
216 762 1
216 763 1
216 778 1
216 796 1
216 800 1
217 9 1
217 54 1
217 62 1
217 67 1
217 77 1
217 78 1
217 84 1
217 92 1
217 99 1
217 110 1
217 138 1
217 171 1
217 185 1
217 188 1
217 200 1
217 205 1
217 216 1
217 262 1
217 263 1
217 282 1
217 290 1
217 303 1
217 307 1
217 321 1
217 326 1
217 330 1
217 333 1
217 344 1
217 418 1
217 426 1
217 436 1
217 454 1
217 455 1
217 493 1
217 513 1
217 518 1
217 527 1
217 530 1
217 553 1
217 564 1
217 565 1
217 572 1
217 597 1
217 606 1
217 624 1
217 643 1
217 660 1
217 667 1
217 696 1
217 724 1
217 737 1
217 758 1
217 761 1
217 764 1
217 771 1
217 779 1
217 800 1
218 10 1
218 22 1
218 23 1
218 30 1
218 44 1
218 63 1
218 88 1
218 132 1
218 133 1
218 146 1
218 172 1
218 187 1
218 190 1
218 207 1
218 243 1
218 248 1
218 265 1
218 284 1
218 286 1
218 288 1
218 312 1
218 316 1
218 318 1
218 324 1
218 334 1
218 347 1
218 415 1
218 429 1
218 433 1
218 442 1
218 445 1
218 449 1
218 468 1
218 476 1
218 487 1
218 496 1
218 513 1
218 514 1
218 525 1
218 526 1
218 536 1
218 553 1
218 590 1
218 603 1
218 620 1
218 621 1
218 650 1
218 654 1
218 656 1
218 666 1
218 684 1
218 698 1
218 728 1
218 736 1
218 759 1
218 767 1
218 783 1
219 2 1
219 7 1
219 47 1
219 54 1
219 56 1
219 116 1
219 117 1
219 118 1
219 120 1
219 126 1
219 136 1
219 143 1
219 148 1
219 152 1
219 153 1
219 168 1
219 191 1
219 204 1
219 239 1
219 241 1
219 286 1
219 297 1
219 309 1
219 325 1
219 331 1
219 339 1
219 365 1
219 410 1
219 422 1
219 449 1
219 487 1
219 497 1
219 521 1
219 534 1
219 538 1
219 544 1
219 566 1
219 578 1
219 581 1
219 605 1
219 621 1
219 657 1
219 663 1
219 675 1
219 693 1
219 720 1
219 728 1
219 732 1
219 733 1
219 734 1
219 747 1
219 751 1
219 789 1
219 793 1
220 1 1
220 32 1
220 58 1
220 72 1
220 75 1
220 81 1
220 88 1
220 104 1
220 108 1
220 126 1
220 148 1
220 221 1
220 224 1
220 261 1
220 285 1
220 297 1
220 313 1
220 321 1
220 341 1
220 356 1
220 361 1
220 379 1
220 405 1
220 444 1
220 452 1
220 481 1
220 486 1
220 503 1
220 507 1
220 514 1
220 518 1
220 519 1
220 530 1
220 534 1
220 551 1
220 566 1
220 572 1
220 585 1
220 601 1
220 639 1
220 641 1
220 662 1
220 697 1
220 727 1
220 733 1
220 770 1
220 793 1
221 5 1
221 6 1
221 26 1
221 36 1
221 45 1
221 53 1
221 71 1
221 77 1
221 132 1
221 134 1
221 135 1
221 142 1
221 165 1
221 172 1
221 179 1
221 213 1
221 220 1
221 233 1
221 236 1
221 238 1
221 254 1
221 259 1
221 278 1
221 309 1
221 318 1
221 323 1
221 332 1
221 337 1
221 388 1
221 399 1
221 420 1
221 455 1
221 471 1
221 486 1
221 508 1
221 514 1
221 567 1
221 584 1
221 592 1
221 667 1
221 683 1
221 693 1
221 756 1
221 765 1
221 778 1
222 15 1
222 19 1
222 25 1
222 91 1
222 114 1
222 116 1
222 137 1
222 178 1
222 179 1
222 190 1
222 192 1
222 212 1
222 213 1
222 223 1
222 228 1
222 258 1
222 279 1
222 289 1
222 301 1
222 355 1
222 365 1
222 376 1
222 387 1
222 391 1
222 407 1
222 424 1
222 439 1
222 444 1
222 475 1
222 490 1
222 495 1
222 520 1
222 541 1
222 586 1
222 612 1
222 672 1
222 688 1
222 697 1
222 698 1
222 718 1
222 730 1
222 736 1
222 746 1
222 772 1
222 784 1
223 24 1
223 28 1
223 37 1
223 38 1
223 57 1
223 71 1
223 85 1
223 114 1
223 136 1
223 137 1
223 153 1
223 193 1
223 222 1
223 226 1
223 233 1
223 248 1
223 272 1
223 273 1
223 276 1
223 287 1
223 294 1
223 303 1
223 319 1
223 322 1
223 347 1
223 356 1
223 386 1
223 388 1
223 394 1
223 412 1
223 426 1
223 432 1
223 434 1
223 436 1
223 444 1
223 451 1
223 485 1
223 524 1
223 544 1
223 560 1
223 569 1
223 583 1
223 596 1
223 631 1
223 633 1
223 647 1
223 656 1
223 669 1
223 675 1
223 679 1
223 684 1
223 711 1
223 713 1
223 722 1
223 768 1
223 776 1
223 789 1
223 800 1
224 16 1
224 30 1
224 32 1
224 48 1
224 56 1
224 64 1
224 65 1
224 68 1
224 92 1
224 94 1
224 109 1
224 111 1
224 138 1
224 152 1
224 161 1
224 166 1
224 169 1
224 196 1
224 198 1
224 199 1
224 209 1
224 220 1
224 230 1
224 272 1
224 292 1
224 294 1
224 306 1
224 313 1
224 334 1
224 361 1
224 382 1
224 401 1
224 413 1
224 426 1
224 429 1
224 444 1
224 451 1
224 453 1
224 481 1
224 492 1
224 504 1
224 520 1
224 538 1
224 562 1
224 566 1
224 575 1
224 577 1
224 585 1
224 613 1
224 618 1
224 634 1
224 637 1
224 647 1
224 660 1
224 694 1
224 713 1
224 740 1
224 773 1
224 791 1
225 35 1
225 56 1
225 60 1
225 63 1
225 75 1
225 97 1
225 102 1
225 158 1
225 159 1
225 180 1
225 187 1
225 269 1
225 274 1
225 312 1
225 318 1
225 325 1
225 333 1
225 342 1
225 357 1
225 378 1
225 388 1
225 433 1
225 434 1
225 455 1
225 460 1
225 473 1
225 488 1
225 491 1
225 506 1
225 508 1
225 541 1
225 564 1
225 578 1
225 582 1
225 605 1
225 616 1
225 620 1
225 624 1
225 630 1
225 633 1
225 687 1
225 690 1
225 692 1
225 737 1
225 764 1
225 793 1
226 3 1
226 7 1
226 24 1
226 30 1
226 113 1
226 124 1
226 126 1
226 130 1
226 223 1
226 256 1
226 296 1
226 309 1
226 346 1
226 373 1
226 431 1
226 451 1
226 462 1
226 467 1
226 488 1
226 501 1
226 504 1
226 525 1
226 528 1
226 535 1
226 588 1
226 618 1
226 627 1
226 637 1
226 657 1
226 671 1
226 690 1
226 697 1
226 701 1
226 715 1
226 717 1
226 718 1
226 732 1
226 767 1
226 773 1
226 774 1
226 780 1
227 5 1
227 16 1
227 31 1
227 34 1
227 65 1
227 88 1
227 125 1
227 128 1
227 172 1
227 207 1
227 244 1
227 267 1
227 272 1
227 274 1
227 284 1
227 294 1
227 303 1
227 334 1
227 339 1
227 347 1
227 409 1
227 435 1
227 469 1
227 470 1
227 473 1
227 486 1
227 494 1
227 507 1
227 578 1
227 589 1
227 602 1
227 613 1
227 625 1
227 639 1
227 693 1
227 696 1
227 713 1
227 714 1
227 779 1
227 785 1
227 796 1
228 51 1
228 74 1
228 75 1
228 84 1
228 90 1
228 92 1
228 131 1
228 132 1
228 135 1
228 139 1
228 157 1
228 176 1
228 186 1
228 200 1
228 201 1
228 214 1
228 222 1
228 255 1
228 260 1
228 298 1
228 304 1
228 306 1
228 311 1
228 327 1
228 330 1
228 333 1
228 362 1
228 374 1
228 402 1
228 424 1
228 433 1
228 442 1
228 474 1
228 501 1
228 508 1
228 512 1
228 520 1
228 589 1
228 600 1
228 604 1
228 605 1
228 625 1
228 629 1
228 630 1
228 634 1
228 637 1
228 662 1
228 664 1
228 676 1
228 732 1
228 746 1
228 771 1
228 788 1
229 15 1
229 46 1
229 55 1
229 67 1
229 79 1
229 92 1
229 107 1
229 132 1
229 172 1
229 193 1
229 212 1
229 268 1
229 289 1
229 291 1
229 302 1
229 314 1
229 320 1
229 326 1
229 344 1
229 418 1
229 467 1
229 521 1
229 529 1
229 538 1
229 552 1
229 558 1
229 569 1
229 571 1
229 586 1
229 620 1
229 623 1
229 631 1
229 634 1
229 636 1
229 670 1
229 693 1
229 717 1
229 723 1
229 754 1
229 755 1
229 758 1
229 786 1
229 792 1
229 798 1
230 23 1
230 34 1
230 46 1
230 58 1
230 59 1
230 123 1
230 124 1
230 126 1
230 129 1
230 147 1
230 163 1
230 181 1
230 187 1
230 205 1
230 224 1
230 254 1
230 263 1
230 274 1
230 296 1
230 334 1
230 337 1
230 356 1
230 381 1
230 385 1
230 405 1
230 426 1
230 439 1
230 441 1
230 449 1
230 460 1
230 471 1
230 481 1
230 520 1
230 539 1
230 554 1
230 556 1
230 558 1
230 583 1
230 584 1
230 586 1
230 605 1
230 628 1
230 654 1
230 657 1
230 662 1
230 671 1
230 679 1
230 685 1
230 686 1
230 694 1
230 705 1
230 710 1
230 714 1
230 722 1
230 725 1
230 741 1
230 756 1
230 773 1
230 782 1
231 6 1
231 7 1
231 18 1
231 46 1
231 57 1
231 64 1
231 118 1
231 120 1
231 128 1
231 149 1
231 159 1
231 175 1
231 182 1
231 205 1
231 216 1
231 243 1
231 256 1
231 268 1
231 279 1
231 300 1
231 325 1
231 337 1
231 359 1
231 360 1
231 367 1
231 371 1
231 387 1
231 392 1
231 404 1
231 422 1
231 429 1
231 430 1
231 450 1
231 565 1
231 576 1
231 599 1
231 603 1
231 645 1
231 661 1
231 678 1
231 719 1
231 732 1
231 772 1
232 11 1
232 28 1
232 33 1
232 40 1
232 43 1
232 49 1
232 64 1
232 76 1
232 97 1
232 208 1
232 214 1
232 236 1
232 250 1
232 276 1
232 279 1
232 284 1
232 293 1
232 301 1
232 316 1
232 320 1
232 321 1
232 426 1
232 436 1
232 453 1
232 464 1
232 495 1
232 509 1
232 513 1
232 569 1
232 573 1
232 574 1
232 589 1
232 617 1
232 622 1
232 636 1
232 637 1
232 658 1
232 718 1
232 746 1
232 747 1
232 759 1
232 799 1
233 1 1
233 2 1
233 6 1
233 19 1
233 29 1
233 33 1
233 62 1
233 66 1
233 70 1
233 75 1
233 157 1
233 181 1
233 190 1
233 202 1
233 221 1
233 223 1
233 236 1
233 253 1
233 292 1
233 309 1
233 316 1
233 322 1
233 328 1
233 337 1
233 357 1
233 367 1
233 387 1
233 393 1
233 408 1
233 409 1
233 412 1
233 414 1
233 437 1
233 446 1
233 449 1
233 450 1
233 452 1
233 469 1
233 475 1
233 484 1
233 486 1
233 499 1
233 505 1
233 524 1
233 561 1
233 603 1
233 660 1
233 743 1
233 748 1
233 787 1
234 14 1
234 65 1
234 73 1
234 89 1
234 101 1
234 102 1
234 130 1
234 131 1
234 147 1
234 153 1
234 178 1
234 196 1
234 199 1
234 297 1
234 313 1
234 319 1
234 333 1
234 337 1
234 377 1
234 378 1
234 388 1
234 404 1
234 424 1
234 427 1
234 441 1
234 481 1
234 483 1
234 514 1
234 541 1
234 546 1
234 564 1
234 578 1
234 618 1
234 627 1
234 654 1
234 673 1
234 682 1
234 692 1
234 697 1
234 705 1
234 710 1
234 720 1
234 746 1
234 750 1
234 753 1
234 785 1
234 795 1
235 13 1
235 19 1
235 27 1
235 34 1
235 40 1
235 41 1
235 64 1
235 80 1
235 167 1
235 173 1
235 186 1
235 189 1
235 213 1
235 259 1
235 273 1
235 296 1
235 302 1
235 303 1
235 314 1
235 328 1
235 336 1
235 337 1
235 382 1
235 406 1
235 420 1
235 433 1
235 445 1
235 447 1
235 451 1
235 452 1
235 453 1
235 460 1
235 500 1
235 544 1
235 556 1
235 559 1
235 562 1
235 599 1
235 606 1
235 631 1
235 644 1
235 652 1
235 659 1
235 695 1
235 702 1
235 732 1
235 747 1
235 748 1
235 752 1
235 784 1
236 1 1
236 7 1
236 27 1
236 42 1
236 53 1
236 56 1
236 90 1
236 107 1
236 163 1
236 197 1
236 207 1
236 221 1
236 232 1
236 233 1
236 253 1
236 271 1
236 284 1
236 303 1
236 323 1
236 330 1
236 396 1
236 419 1
236 437 1
236 474 1
236 478 1
236 487 1
236 507 1
236 548 1
236 555 1
236 560 1
236 575 1
236 629 1
236 640 1
236 657 1
236 673 1
236 700 1
236 723 1
236 727 1
236 761 1
236 768 1
236 769 1
236 794 1
237 17 1
237 20 1
237 37 1
237 38 1
237 42 1
237 50 1
237 58 1
237 61 1
237 73 1
237 76 1
237 130 1
237 191 1
237 193 1
237 215 1
237 257 1
237 261 1
237 267 1
237 288 1
237 315 1
237 335 1
237 337 1
237 341 1
237 354 1
237 356 1
237 361 1
237 384 1
237 392 1
237 432 1
237 442 1
237 451 1
237 492 1
237 522 1
237 531 1
237 535 1
237 565 1
237 591 1
237 612 1
237 634 1
237 637 1
237 655 1
237 659 1
237 669 1
237 682 1
237 707 1
237 713 1
237 779 1
238 1 1
238 25 1
238 36 1
238 47 1
238 52 1
238 53 1
238 87 1
238 96 1
238 144 1
238 152 1
238 155 1
238 175 1
238 192 1
238 221 1
238 255 1
238 269 1
238 282 1
238 289 1
238 301 1
238 315 1
238 316 1
238 338 1
238 352 1
238 366 1
238 368 1
238 380 1
238 387 1
238 422 1
238 437 1
238 458 1
238 470 1
238 485 1
238 487 1
238 489 1
238 499 1
238 503 1
238 505 1
238 516 1
238 521 1
238 544 1
238 546 1
238 551 1
238 558 1
238 559 1
238 560 1
238 561 1
238 571 1
238 591 1
238 594 1
238 612 1
238 634 1
238 650 1
238 652 1
238 662 1
238 664 1
238 724 1
238 732 1
238 782 1
238 785 1
239 77 1
239 91 1
239 103 1
239 140 1
239 169 1
239 175 1
239 211 1
239 214 1
239 215 1
239 219 1
239 246 1
239 258 1
239 277 1
239 292 1
239 293 1
239 299 1
239 311 1
239 330 1
239 332 1
239 364 1
239 387 1
239 410 1
239 424 1
239 426 1
239 434 1
239 439 1
239 447 1
239 449 1
239 463 1
239 501 1
239 514 1
239 521 1
239 555 1
239 573 1
239 585 1
239 601 1
239 607 1
239 626 1
239 654 1
239 657 1
239 661 1
239 690 1
239 704 1
239 714 1
239 717 1
239 723 1
239 740 1
239 741 1
239 760 1
239 761 1
239 771 1
239 780 1
239 793 1
239 799 1
240 14 1
240 29 1
240 45 1
240 73 1
240 77 1
240 78 1
240 101 1
240 113 1
240 147 1
240 152 1
240 176 1
240 203 1
240 264 1
240 266 1
240 269 1
240 273 1
240 281 1
240 284 1
240 291 1
240 324 1
240 327 1
240 331 1
240 340 1
240 353 1
240 380 1
240 406 1
240 410 1
240 411 1
240 421 1
240 464 1
240 473 1
240 485 1
240 495 1
240 499 1
240 524 1
240 546 1
240 557 1
240 590 1
240 592 1
240 605 1
240 620 1
240 629 1
240 643 1
240 650 1
240 667 1
240 669 1
240 671 1
240 707 1
240 714 1
240 720 1
240 742 1
240 757 1
240 775 1
240 780 1
240 789 1
240 791 1
240 798 1
241 15 1
241 26 1
241 43 1
241 55 1
241 57 1
241 67 1
241 81 1
241 127 1
241 142 1
241 149 1
241 201 1
241 211 1
241 219 1
241 256 1
241 288 1
241 333 1
241 352 1
241 354 1
241 370 1
241 376 1
241 425 1
241 428 1
241 441 1
241 445 1
241 458 1
241 472 1
241 501 1
241 504 1
241 519 1
241 547 1
241 577 1
241 609 1
241 635 1
241 678 1
241 680 1
241 703 1
241 710 1
241 738 1
241 740 1
241 746 1
241 764 1
241 765 1
241 775 1
241 777 1
241 792 1
242 2 1
242 6 1
242 52 1
242 72 1
242 80 1
242 125 1
242 148 1
242 154 1
242 273 1
242 294 1
242 298 1
242 311 1
242 314 1
242 340 1
242 342 1
242 345 1
242 348 1
242 356 1
242 359 1
242 371 1
242 379 1
242 390 1
242 398 1
242 399 1
242 436 1
242 449 1
242 489 1
242 496 1
242 501 1
242 507 1
242 523 1
242 528 1
242 564 1
242 576 1
242 591 1
242 594 1
242 603 1
242 678 1
242 699 1
242 703 1
242 719 1
242 747 1
242 749 1
242 777 1
242 799 1
243 21 1
243 48 1
243 54 1
243 67 1
243 70 1
243 118 1
243 135 1
243 136 1
243 148 1
243 162 1
243 190 1
243 218 1
243 231 1
243 250 1
243 263 1
243 305 1
243 326 1
243 342 1
243 358 1
243 422 1
243 431 1
243 465 1
243 470 1
243 480 1
243 497 1
243 498 1
243 511 1
243 545 1
243 548 1
243 589 1
243 607 1
243 616 1
243 629 1
243 686 1
243 692 1
243 693 1
243 718 1
243 723 1
243 729 1
243 731 1
243 741 1
243 784 1
244 13 1
244 33 1
244 34 1
244 57 1
244 122 1
244 152 1
244 175 1
244 178 1
244 213 1
244 227 1
244 250 1
244 276 1
244 280 1
244 282 1
244 295 1
244 319 1
244 322 1
244 326 1
244 367 1
244 386 1
244 397 1
244 458 1
244 461 1
244 462 1
244 465 1
244 530 1
244 535 1
244 558 1
244 587 1
244 589 1
244 603 1
244 607 1
244 615 1
244 623 1
244 669 1
244 710 1
244 713 1
244 730 1
244 737 1
244 741 1
244 750 1
244 762 1
244 764 1
244 785 1
245 19 1
245 37 1
245 39 1
245 42 1
245 44 1
245 88 1
245 127 1
245 132 1
245 157 1
245 158 1
245 170 1
245 190 1
245 247 1
245 248 1
245 268 1
245 283 1
245 376 1
245 382 1
245 383 1
245 385 1
245 389 1
245 402 1
245 404 1
245 411 1
245 412 1
245 436 1
245 458 1
245 462 1
245 468 1
245 473 1
245 482 1
245 497 1
245 499 1
245 500 1
245 502 1
245 536 1
245 573 1
245 579 1
245 590 1
245 670 1
245 674 1
245 677 1
245 678 1
245 684 1
245 699 1
245 710 1
245 735 1
245 743 1
245 756 1
245 767 1
245 771 1
245 777 1
246 20 1
246 33 1
246 35 1
246 48 1
246 49 1
246 51 1
246 54 1
246 70 1
246 71 1
246 87 1
246 124 1
246 127 1
246 129 1
246 142 1
246 150 1
246 167 1
246 204 1
246 239 1
246 260 1
246 261 1
246 265 1
246 279 1
246 299 1
246 319 1
246 337 1
246 366 1
246 370 1
246 396 1
246 401 1
246 408 1
246 426 1
246 439 1
246 442 1
246 448 1
246 457 1
246 468 1
246 471 1
246 492 1
246 520 1
246 539 1
246 542 1
246 585 1
246 597 1
246 622 1
246 638 1
246 645 1
246 669 1
246 673 1
246 676 1
246 677 1
246 684 1
246 705 1
246 725 1
246 732 1
246 791 1
246 793 1
246 794 1
247 11 1
247 24 1
247 55 1
247 80 1
247 83 1
247 88 1
247 104 1
247 107 1
247 111 1
247 123 1
247 134 1
247 148 1
247 184 1
247 193 1
247 209 1
247 245 1
247 276 1
247 279 1
247 284 1
247 289 1
247 298 1
247 299 1
247 311 1
247 391 1
247 400 1
247 430 1
247 434 1
247 440 1
247 442 1
247 446 1
247 489 1
247 532 1
247 549 1
247 559 1
247 571 1
247 577 1
247 581 1
247 586 1
247 596 1
247 598 1
247 603 1
247 605 1
247 614 1
247 652 1
247 675 1
247 682 1
247 701 1
247 705 1
247 707 1
247 708 1
247 735 1
247 742 1
247 748 1
247 764 1
247 773 1
247 780 1
247 783 1
248 16 1
248 43 1
248 52 1
248 56 1
248 67 1
248 78 1
248 80 1
248 101 1
248 108 1
248 113 1
248 114 1
248 131 1
248 136 1
248 151 1
248 152 1
248 158 1
248 170 1
248 184 1
248 185 1
248 218 1
248 223 1
248 245 1
248 275 1
248 323 1
248 328 1
248 343 1
248 358 1
248 364 1
248 377 1
248 384 1
248 404 1
248 416 1
248 432 1
248 434 1
248 449 1
248 493 1
248 513 1
248 519 1
248 522 1
248 525 1
248 530 1
248 532 1
248 536 1
248 545 1
248 558 1
248 559 1
248 567 1
248 592 1
248 612 1
248 640 1
248 649 1
248 675 1
248 694 1
248 695 1
248 722 1
248 729 1
248 761 1
248 783 1
248 798 1
249 45 1
249 46 1
249 105 1
249 106 1
249 149 1
249 154 1
249 155 1
249 175 1
249 186 1
249 191 1
249 193 1
249 252 1
249 270 1
249 325 1
249 334 1
249 364 1
249 388 1
249 396 1
249 409 1
249 437 1
249 503 1
249 523 1
249 541 1
249 543 1
249 557 1
249 560 1
249 565 1
249 567 1
249 571 1
249 593 1
249 646 1
249 651 1
249 657 1
249 666 1
249 746 1
249 752 1
249 764 1
250 7 1
250 34 1
250 39 1
250 51 1
250 62 1
250 72 1
250 74 1
250 94 1
250 96 1
250 125 1
250 127 1
250 134 1
250 138 1
250 142 1
250 143 1
250 153 1
250 171 1
250 176 1
250 191 1
250 198 1
250 213 1
250 232 1
250 243 1
250 244 1
250 268 1
250 292 1
250 295 1
250 298 1
250 300 1
250 303 1
250 332 1
250 343 1
250 351 1
250 356 1
250 362 1
250 363 1
250 399 1
250 416 1
250 444 1
250 447 1
250 450 1
250 540 1
250 551 1
250 558 1
250 568 1
250 571 1
250 574 1
250 580 1
250 595 1
250 625 1
250 632 1
250 708 1
250 710 1
250 718 1
250 729 1
250 731 1
250 794 1
251 16 1
251 22 1
251 36 1
251 53 1
251 81 1
251 89 1
251 102 1
251 113 1
251 121 1
251 160 1
251 161 1
251 198 1
251 257 1
251 260 1
251 267 1
251 273 1
251 277 1
251 282 1
251 304 1
251 317 1
251 319 1
251 323 1
251 341 1
251 374 1
251 375 1
251 390 1
251 394 1
251 406 1
251 407 1
251 420 1
251 425 1
251 454 1
251 469 1
251 518 1
251 591 1
251 605 1
251 629 1
251 630 1
251 670 1
251 675 1
251 676 1
251 677 1
251 685 1
251 687 1
251 690 1
251 695 1
251 740 1
252 12 1
252 32 1
252 37 1
252 63 1
252 73 1
252 125 1
252 167 1
252 172 1
252 176 1
252 177 1
252 183 1
252 193 1
252 249 1
252 312 1
252 324 1
252 356 1
252 410 1
252 423 1
252 424 1
252 445 1
252 479 1
252 481 1
252 483 1
252 489 1
252 496 1
252 515 1
252 522 1
252 576 1
252 580 1
252 609 1
252 634 1
252 636 1
252 638 1
252 642 1
252 652 1
252 661 1
252 680 1
252 705 1
252 722 1
252 738 1
252 756 1
252 763 1
252 765 1
252 771 1
252 776 1
253 9 1
253 25 1
253 47 1
253 68 1
253 97 1
253 115 1
253 122 1
253 145 1
253 158 1
253 194 1
253 197 1
253 213 1
253 233 1
253 236 1
253 264 1
253 280 1
253 296 1
253 320 1
253 324 1
253 369 1
253 389 1
253 396 1
253 409 1
253 413 1
253 424 1
253 436 1
253 437 1
253 450 1
253 453 1
253 492 1
253 501 1
253 513 1
253 530 1
253 534 1
253 541 1
253 547 1
253 566 1
253 609 1
253 610 1
253 630 1
253 642 1
253 653 1
253 662 1
253 682 1
253 690 1
253 691 1
253 709 1
253 725 1
253 733 1
253 759 1
253 785 1
254 7 1
254 91 1
254 99 1
254 133 1
254 155 1
254 182 1
254 221 1
254 230 1
254 304 1
254 311 1
254 312 1
254 380 1
254 395 1
254 455 1
254 469 1
254 471 1
254 486 1
254 491 1
254 515 1
254 531 1
254 532 1
254 534 1
254 555 1
254 580 1
254 593 1
254 595 1
254 622 1
254 694 1
254 703 1
254 708 1
254 741 1
254 742 1
254 754 1
254 760 1
254 771 1
254 779 1
254 790 1
255 8 1
255 27 1
255 43 1
255 57 1
255 60 1
255 64 1
255 68 1
255 90 1
255 113 1
255 121 1
255 142 1
255 150 1
255 156 1
255 198 1
255 200 1
255 228 1
255 238 1
255 267 1
255 274 1
255 275 1
255 306 1
255 315 1
255 332 1
255 336 1
255 349 1
255 355 1
255 368 1
255 392 1
255 408 1
255 424 1
255 432 1
255 454 1
255 456 1
255 487 1
255 500 1
255 513 1
255 543 1
255 560 1
255 609 1
255 613 1
255 633 1
255 646 1
255 653 1
255 666 1
255 713 1
255 719 1
255 739 1
255 775 1
255 786 1
255 788 1
255 794 1
256 5 1
256 23 1
256 56 1
256 65 1
256 87 1
256 92 1
256 94 1
256 129 1
256 133 1
256 151 1
256 179 1
256 201 1
256 226 1
256 231 1
256 241 1
256 263 1
256 265 1
256 298 1
256 315 1
256 323 1
256 446 1
256 454 1
256 458 1
256 480 1
256 518 1
256 561 1
256 596 1
256 618 1
256 639 1
256 659 1
256 663 1
256 688 1
256 703 1
256 705 1
256 714 1
256 721 1
256 753 1
256 772 1
257 27 1
257 69 1
257 70 1
257 72 1
257 88 1
257 99 1
257 107 1
257 122 1
257 123 1
257 124 1
257 127 1
257 168 1
257 177 1
257 195 1
257 208 1
257 211 1
257 213 1
257 215 1
257 237 1
257 251 1
257 265 1
257 291 1
257 308 1
257 313 1
257 320 1
257 326 1
257 357 1
257 361 1
257 370 1
257 376 1
257 385 1
257 394 1
257 414 1
257 418 1
257 434 1
257 444 1
257 445 1
257 467 1
257 472 1
257 474 1
257 480 1
257 485 1
257 486 1
257 494 1
257 497 1
257 501 1
257 512 1
257 530 1
257 566 1
257 584 1
257 624 1
257 625 1
257 628 1
257 632 1
257 637 1
257 646 1
257 653 1
257 654 1
257 667 1
257 672 1
257 675 1
257 690 1
257 725 1
257 736 1
257 748 1
257 761 1
257 766 1
257 781 1
258 16 1
258 29 1
258 75 1
258 90 1
258 114 1
258 130 1
258 153 1
258 198 1
258 199 1
258 208 1
258 222 1
258 239 1
258 322 1
258 351 1
258 355 1
258 397 1
258 416 1
258 429 1
258 436 1
258 438 1
258 453 1
258 464 1
258 465 1
258 480 1
258 484 1
258 536 1
258 538 1
258 542 1
258 555 1
258 557 1
258 565 1
258 621 1
258 625 1
258 629 1
258 647 1
258 672 1
258 750 1
258 773 1
258 782 1
258 784 1
259 10 1
259 23 1
259 40 1
259 41 1
259 45 1
259 54 1
259 55 1
259 58 1
259 63 1
259 66 1
259 75 1
259 90 1
259 104 1
259 108 1
259 115 1
259 121 1
259 131 1
259 144 1
259 156 1
259 182 1
259 208 1
259 221 1
259 235 1
259 265 1
259 266 1
259 268 1
259 273 1
259 293 1
259 306 1
259 325 1
259 339 1
259 396 1
259 410 1
259 419 1
259 436 1
259 446 1
259 473 1
259 500 1
259 507 1
259 530 1
259 534 1
259 589 1
259 612 1
259 628 1
259 657 1
259 673 1
259 676 1
259 701 1
259 718 1
259 729 1
259 739 1
259 772 1
259 780 1
260 4 1
260 8 1
260 14 1
260 27 1
260 73 1
260 74 1
260 88 1
260 100 1
260 105 1
260 146 1
260 147 1
260 170 1
260 173 1
260 175 1
260 215 1
260 228 1
260 246 1
260 251 1
260 264 1
260 285 1
260 316 1
260 375 1
260 388 1
260 395 1
260 396 1
260 421 1
260 426 1
260 457 1
260 473 1
260 517 1
260 520 1
260 522 1
260 535 1
260 545 1
260 556 1
260 560 1
260 601 1
260 603 1
260 640 1
260 656 1
260 680 1
260 709 1
260 724 1
260 736 1
260 739 1
260 745 1
260 764 1
260 766 1
260 774 1
260 779 1
260 793 1
261 24 1
261 33 1
261 87 1
261 90 1
261 101 1
261 111 1
261 118 1
261 129 1
261 146 1
261 162 1
261 164 1
261 169 1
261 174 1
261 180 1
261 186 1
261 220 1
261 237 1
261 246 1
261 270 1
261 294 1
261 295 1
261 301 1
261 305 1
261 336 1
261 343 1
261 366 1
261 367 1
261 373 1
261 384 1
261 388 1
261 396 1
261 398 1
261 401 1
261 416 1
261 417 1
261 454 1
261 456 1
261 457 1
261 473 1
261 488 1
261 508 1
261 533 1
261 537 1
261 550 1
261 555 1
261 561 1
261 601 1
261 619 1
261 620 1
261 632 1
261 637 1
261 663 1
261 697 1
261 700 1
261 720 1
261 724 1
261 727 1
261 735 1
261 746 1
261 754 1
261 784 1
261 799 1
262 2 1
262 19 1
262 21 1
262 47 1
262 60 1
262 65 1
262 67 1
262 75 1
262 103 1
262 140 1
262 148 1
262 151 1
262 157 1
262 194 1
262 205 1
262 207 1
262 213 1
262 216 1
262 217 1
262 263 1
262 299 1
262 316 1
262 355 1
262 401 1
262 424 1
262 493 1
262 503 1
262 511 1
262 515 1
262 520 1
262 537 1
262 584 1
262 585 1
262 586 1
262 619 1
262 621 1
262 670 1
262 700 1
262 701 1
262 707 1
262 713 1
262 721 1
262 731 1
262 754 1
262 788 1
262 792 1
263 25 1
263 70 1
263 83 1
263 95 1
263 125 1
263 135 1
263 138 1
263 142 1
263 148 1
263 158 1
263 164 1
263 168 1
263 172 1
263 217 1
263 230 1
263 243 1
263 256 1
263 262 1
263 290 1
263 303 1
263 304 1
263 305 1
263 309 1
263 311 1
263 315 1
263 323 1
263 338 1
263 345 1
263 353 1
263 357 1
263 385 1
263 396 1
263 421 1
263 447 1
263 448 1
263 450 1
263 466 1
263 472 1
263 478 1
263 488 1
263 514 1
263 530 1
263 565 1
263 602 1
263 618 1
263 640 1
263 655 1
263 686 1
263 698 1
263 700 1
263 715 1
263 719 1
263 735 1
263 744 1
263 751 1
264 17 1
264 19 1
264 20 1
264 31 1
264 48 1
264 72 1
264 88 1
264 106 1
264 120 1
264 137 1
264 140 1
264 158 1
264 182 1
264 240 1
264 253 1
264 260 1
264 291 1
264 295 1
264 297 1
264 299 1
264 305 1
264 330 1
264 365 1
264 372 1
264 380 1
264 386 1
264 399 1
264 415 1
264 442 1
264 455 1
264 464 1
264 500 1
264 509 1
264 523 1
264 544 1
264 546 1
264 601 1
264 610 1
264 650 1
264 655 1
264 722 1
264 725 1
264 733 1
264 756 1
264 780 1
264 781 1
265 1 1
265 12 1
265 16 1
265 34 1
265 44 1
265 87 1
265 90 1
265 125 1
265 141 1
265 154 1
265 189 1
265 209 1
265 212 1
265 213 1
265 218 1
265 246 1
265 256 1
265 257 1
265 259 1
265 273 1
265 277 1
265 287 1
265 289 1
265 316 1
265 326 1
265 359 1
265 367 1
265 388 1
265 393 1
265 439 1
265 463 1
265 465 1
265 482 1
265 489 1
265 515 1
265 532 1
265 539 1
265 546 1
265 552 1
265 581 1
265 591 1
265 617 1
265 636 1
265 655 1
265 669 1
265 674 1
265 678 1
265 691 1
265 696 1
265 714 1
265 776 1
265 777 1
265 778 1
265 794 1
265 795 1
266 46 1
266 47 1
266 64 1
266 124 1
266 137 1
266 154 1
266 157 1
266 158 1
266 240 1
266 259 1
266 275 1
266 320 1
266 332 1
266 344 1
266 351 1
266 366 1
266 423 1
266 459 1
266 464 1
266 495 1
266 498 1
266 526 1
266 542 1
266 571 1
266 599 1
266 603 1
266 612 1
266 668 1
266 670 1
266 677 1
266 684 1
266 737 1
266 762 1
266 769 1
266 773 1
267 6 1
267 59 1
267 65 1
267 105 1
267 137 1
267 138 1
267 150 1
267 194 1
267 227 1
267 237 1
267 251 1
267 255 1
267 270 1
267 290 1
267 292 1
267 304 1
267 361 1
267 396 1
267 421 1
267 442 1
267 444 1
267 447 1
267 466 1
267 470 1
267 503 1
267 505 1
267 523 1
267 532 1
267 561 1
267 580 1
267 592 1
267 616 1
267 628 1
267 651 1
267 673 1
267 676 1
267 684 1
267 703 1
267 743 1
267 772 1
267 784 1
268 4 1
268 44 1
268 63 1
268 64 1
268 67 1
268 70 1
268 76 1
268 120 1
268 147 1
268 167 1
268 213 1
268 229 1
268 231 1
268 245 1
268 250 1
268 259 1
268 289 1
268 303 1
268 307 1
268 328 1
268 388 1
268 393 1
268 402 1
268 405 1
268 407 1
268 410 1
268 414 1
268 429 1
268 435 1
268 440 1
268 451 1
268 454 1
268 458 1
268 460 1
268 487 1
268 491 1
268 509 1
268 520 1
268 531 1
268 554 1
268 564 1
268 604 1
268 608 1
268 648 1
268 651 1
268 682 1
268 719 1
268 732 1
268 741 1
268 755 1
268 756 1
268 776 1
268 790 1
269 15 1
269 35 1
269 41 1
269 61 1
269 75 1
269 92 1
269 122 1
269 157 1
269 166 1
269 188 1
269 196 1
269 201 1
269 213 1
269 216 1
269 225 1
269 238 1
269 240 1
269 275 1
269 278 1
269 279 1
269 297 1
269 337 1
269 411 1
269 442 1
269 443 1
269 477 1
269 515 1
269 530 1
269 533 1
269 556 1
269 574 1
269 579 1
269 615 1
269 645 1
269 651 1
269 671 1
269 692 1
269 697 1
269 721 1
269 753 1
269 756 1
269 766 1
269 778 1
269 783 1
269 799 1
270 21 1
270 36 1
270 50 1
270 54 1
270 74 1
270 108 1
270 110 1
270 147 1
270 171 1
270 187 1
270 199 1
270 213 1
270 249 1
270 261 1
270 267 1
270 274 1
270 284 1
270 300 1
270 310 1
270 364 1
270 371 1
270 386 1
270 394 1
270 395 1
270 400 1
270 405 1
270 411 1
270 449 1
270 496 1
270 519 1
270 542 1
270 566 1
270 569 1
270 574 1
270 577 1
270 602 1
270 604 1
270 622 1
270 630 1
270 667 1
270 670 1
270 682 1
270 687 1
270 722 1
270 732 1
270 784 1
271 2 1
271 37 1
271 51 1
271 68 1
271 80 1
271 108 1
271 113 1
271 150 1
271 151 1
271 185 1
271 196 1
271 207 1
271 236 1
271 272 1
271 279 1
271 288 1
271 312 1
271 317 1
271 322 1
271 341 1
271 353 1
271 354 1
271 365 1
271 398 1
271 399 1
271 446 1
271 464 1
271 466 1
271 470 1
271 485 1
271 503 1
271 566 1
271 583 1
271 596 1
271 680 1
271 681 1
271 682 1
271 733 1
271 743 1
271 771 1
271 776 1
271 785 1
271 797 1
271 798 1
272 2 1
272 4 1
272 7 1
272 9 1
272 20 1
272 38 1
272 73 1
272 149 1
272 152 1
272 153 1
272 156 1
272 169 1
272 176 1
272 183 1
272 193 1
272 216 1
272 223 1
272 224 1
272 227 1
272 271 1
272 303 1
272 329 1
272 341 1
272 350 1
272 356 1
272 368 1
272 386 1
272 425 1
272 456 1
272 511 1
272 534 1
272 538 1
272 554 1
272 574 1
272 584 1
272 592 1
272 608 1
272 652 1
272 659 1
272 686 1
272 717 1
272 727 1
272 744 1
272 746 1
272 753 1
272 767 1
272 774 1
272 776 1
272 781 1
272 797 1
273 12 1
273 33 1
273 42 1
273 94 1
273 99 1
273 110 1
273 128 1
273 142 1
273 149 1
273 194 1
273 212 1
273 223 1
273 235 1
273 240 1
273 242 1
273 251 1
273 259 1
273 265 1
273 281 1
273 288 1
273 302 1
273 304 1
273 328 1
273 339 1
273 349 1
273 358 1
273 359 1
273 362 1
273 376 1
273 377 1
273 381 1
273 395 1
273 397 1
273 404 1
273 406 1
273 425 1
273 430 1
273 469 1
273 475 1
273 481 1
273 482 1
273 488 1
273 504 1
273 505 1
273 549 1
273 550 1
273 565 1
273 606 1
273 607 1
273 608 1
273 620 1
273 629 1
273 645 1
273 653 1
273 695 1
273 709 1
273 718 1
273 749 1
273 752 1
273 767 1
273 770 1
274 14 1
274 81 1
274 82 1
274 86 1
274 92 1
274 98 1
274 103 1
274 137 1
274 154 1
274 190 1
274 207 1
274 225 1
274 227 1
274 230 1
274 255 1
274 270 1
274 304 1
274 382 1
274 418 1
274 444 1
274 484 1
274 496 1
274 544 1
274 546 1
274 554 1
274 579 1
274 605 1
274 606 1
274 613 1
274 619 1
274 631 1
274 637 1
274 643 1
274 682 1
274 687 1
274 716 1
274 743 1
274 776 1
274 780 1
274 789 1
274 797 1
275 19 1
275 20 1
275 82 1
275 87 1
275 103 1
275 128 1
275 186 1
275 197 1
275 213 1
275 248 1
275 255 1
275 266 1
275 269 1
275 284 1
275 309 1
275 310 1
275 320 1
275 323 1
275 328 1
275 373 1
275 375 1
275 377 1
275 390 1
275 419 1
275 427 1
275 434 1
275 446 1
275 473 1
275 477 1
275 510 1
275 536 1
275 543 1
275 573 1
275 590 1
275 594 1
275 606 1
275 639 1
275 649 1
275 689 1
275 701 1
275 705 1
275 726 1
275 728 1
275 736 1
275 745 1
275 764 1
276 3 1
276 31 1
276 32 1
276 46 1
276 78 1
276 80 1
276 114 1
276 120 1
276 131 1
276 134 1
276 145 1
276 148 1
276 173 1
276 200 1
276 223 1
276 232 1
276 244 1
276 247 1
276 286 1
276 335 1
276 343 1
276 353 1
276 366 1
276 386 1
276 393 1
276 396 1
276 399 1
276 407 1
276 414 1
276 415 1
276 433 1
276 434 1
276 457 1
276 464 1
276 475 1
276 478 1
276 509 1
276 523 1
276 531 1
276 559 1
276 561 1
276 579 1
276 581 1
276 602 1
276 604 1
276 620 1
276 626 1
276 646 1
276 663 1
276 680 1
276 685 1
276 716 1
276 723 1
276 770 1
276 798 1
277 19 1
277 50 1
277 52 1
277 65 1
277 79 1
277 103 1
277 113 1
277 149 1
277 155 1
277 176 1
277 184 1
277 188 1
277 200 1
277 239 1
277 251 1
277 265 1
277 300 1
277 307 1
277 310 1
277 340 1
277 346 1
277 377 1
277 379 1
277 407 1
277 434 1
277 491 1
277 494 1
277 503 1
277 522 1
277 558 1
277 579 1
277 606 1
277 625 1
277 653 1
277 684 1
277 686 1
277 752 1
277 758 1
277 762 1
278 5 1
278 6 1
278 17 1
278 52 1
278 73 1
278 111 1
278 116 1
278 160 1
278 179 1
278 182 1
278 221 1
278 269 1
278 298 1
278 310 1
278 335 1
278 336 1
278 356 1
278 361 1
278 369 1
278 371 1
278 389 1
278 394 1
278 402 1
278 421 1
278 425 1
278 426 1
278 427 1
278 444 1
278 462 1
278 541 1
278 542 1
278 543 1
278 558 1
278 564 1
278 573 1
278 595 1
278 637 1
278 646 1
278 649 1
278 675 1
278 687 1
278 707 1
278 725 1
278 738 1
278 771 1
278 779 1
278 782 1
278 800 1
279 6 1
279 16 1
279 23 1
279 54 1
279 64 1
279 66 1
279 72 1
279 88 1
279 98 1
279 108 1
279 114 1
279 130 1
279 139 1
279 153 1
279 198 1
279 200 1
279 208 1
279 222 1
279 231 1
279 232 1
279 246 1
279 247 1
279 269 1
279 271 1
279 294 1
279 350 1
279 360 1
279 361 1
279 412 1
279 423 1
279 431 1
279 437 1
279 453 1
279 461 1
279 464 1
279 492 1
279 517 1
279 567 1
279 592 1
279 595 1
279 604 1
279 607 1
279 622 1
279 626 1
279 660 1
279 663 1
279 673 1
279 711 1
279 715 1
279 734 1
279 739 1
279 746 1
280 8 1
280 52 1
280 79 1
280 86 1
280 100 1
280 106 1
280 176 1
280 199 1
280 244 1
280 253 1
280 284 1
280 285 1
280 329 1
280 338 1
280 339 1
280 361 1
280 365 1
280 380 1
280 382 1
280 388 1
280 402 1
280 404 1
280 418 1
280 424 1
280 439 1
280 452 1
280 508 1
280 528 1
280 532 1
280 544 1
280 584 1
280 586 1
280 595 1
280 618 1
280 625 1
280 637 1
280 641 1
280 642 1
280 656 1
280 681 1
280 687 1
280 704 1
280 715 1
280 744 1
280 757 1
281 9 1
281 19 1
281 62 1
281 73 1
281 76 1
281 81 1
281 96 1
281 104 1
281 112 1
281 154 1
281 169 1
281 240 1
281 273 1
281 289 1
281 304 1
281 319 1
281 322 1
281 353 1
281 357 1
281 362 1
281 380 1
281 384 1
281 390 1
281 399 1
281 414 1
281 420 1
281 464 1
281 503 1
281 520 1
281 562 1
281 575 1
281 576 1
281 643 1
281 658 1
281 662 1
281 675 1
281 705 1
281 737 1
281 755 1
281 791 1
282 18 1
282 68 1
282 76 1
282 125 1
282 127 1
282 131 1
282 158 1
282 163 1
282 169 1
282 205 1
282 216 1
282 217 1
282 238 1
282 244 1
282 251 1
282 284 1
282 335 1
282 364 1
282 367 1
282 372 1
282 374 1
282 446 1
282 478 1
282 538 1
282 567 1
282 593 1
282 609 1
282 611 1
282 621 1
282 638 1
282 663 1
282 665 1
282 671 1
282 675 1
282 713 1
282 722 1
282 742 1
282 750 1
282 751 1
282 752 1
282 777 1
283 11 1
283 21 1
283 81 1
283 96 1
283 100 1
283 120 1
283 123 1
283 132 1
283 136 1
283 158 1
283 159 1
283 175 1
283 197 1
283 199 1
283 213 1
283 245 1
283 284 1
283 296 1
283 325 1
283 356 1
283 405 1
283 429 1
283 439 1
283 440 1
283 461 1
283 481 1
283 482 1
283 484 1
283 499 1
283 517 1
283 518 1
283 523 1
283 528 1
283 536 1
283 547 1
283 562 1
283 590 1
283 591 1
283 596 1
283 599 1
283 608 1
283 630 1
283 634 1
283 639 1
283 656 1
283 667 1
283 670 1
283 688 1
283 705 1
283 736 1
283 758 1
283 766 1
284 3 1
284 18 1
284 30 1
284 79 1
284 133 1
284 140 1
284 152 1
284 174 1
284 179 1
284 186 1
284 198 1
284 210 1
284 212 1
284 214 1
284 215 1
284 218 1
284 227 1
284 232 1
284 236 1
284 240 1
284 247 1
284 270 1
284 275 1
284 280 1
284 282 1
284 283 1
284 285 1
284 293 1
284 353 1
284 356 1
284 357 1
284 373 1
284 377 1
284 382 1
284 386 1
284 404 1
284 419 1
284 438 1
284 451 1
284 464 1
284 483 1
284 494 1
284 517 1
284 545 1
284 549 1
284 556 1
284 571 1
284 573 1
284 587 1
284 643 1
284 649 1
284 668 1
284 709 1
284 725 1
284 753 1
284 782 1
285 2 1
285 13 1
285 21 1
285 39 1
285 55 1
285 71 1
285 81 1
285 100 1
285 123 1
285 144 1
285 191 1
285 195 1
285 215 1
285 220 1
285 260 1
285 280 1
285 284 1
285 321 1
285 347 1
285 349 1
285 358 1
285 385 1
285 395 1
285 414 1
285 419 1
285 451 1
285 461 1
285 464 1
285 500 1
285 506 1
285 525 1
285 532 1
285 553 1
285 555 1
285 559 1
285 562 1
285 574 1
285 605 1
285 607 1
285 617 1
285 622 1
285 625 1
285 644 1
285 659 1
285 661 1
285 670 1
285 674 1
285 681 1
285 688 1
285 695 1
285 702 1
285 734 1
285 757 1
285 761 1
285 777 1
285 782 1
286 26 1
286 44 1
286 59 1
286 65 1
286 91 1
286 103 1
286 113 1
286 124 1
286 133 1
286 165 1
286 174 1
286 211 1
286 212 1
286 218 1
286 219 1
286 276 1
286 312 1
286 333 1
286 350 1
286 388 1
286 392 1
286 421 1
286 444 1
286 464 1
286 472 1
286 513 1
286 522 1
286 526 1
286 527 1
286 536 1
286 546 1
286 553 1
286 560 1
286 573 1
286 576 1
286 584 1
286 599 1
286 627 1
286 635 1
286 665 1
286 687 1
286 719 1
286 721 1
286 742 1
286 760 1
286 764 1
286 765 1
286 780 1
287 33 1
287 78 1
287 81 1
287 83 1
287 89 1
287 91 1
287 96 1
287 100 1
287 118 1
287 122 1
287 126 1
287 130 1
287 135 1
287 145 1
287 150 1
287 157 1
287 199 1
287 223 1
287 265 1
287 317 1
287 338 1
287 375 1
287 388 1
287 425 1
287 471 1
287 482 1
287 549 1
287 562 1
287 565 1
287 577 1
287 593 1
287 609 1
287 616 1
287 617 1
287 628 1
287 631 1
287 649 1
287 650 1
287 653 1
287 663 1
287 667 1
287 672 1
287 678 1
287 689 1
287 742 1
287 749 1
287 760 1
287 774 1
287 786 1
288 55 1
288 80 1
288 83 1
288 109 1
288 112 1
288 113 1
288 115 1
288 134 1
288 138 1
288 140 1
288 166 1
288 204 1
288 218 1
288 237 1
288 241 1
288 271 1
288 273 1
288 321 1
288 329 1
288 352 1
288 373 1
288 374 1
288 383 1
288 390 1
288 411 1
288 428 1
288 430 1
288 487 1
288 494 1
288 527 1
288 548 1
288 560 1
288 570 1
288 571 1
288 593 1
288 635 1
288 639 1
288 666 1
288 676 1
288 713 1
288 718 1
288 719 1
288 752 1
288 768 1
288 779 1
288 786 1
289 20 1
289 29 1
289 117 1
289 121 1
289 135 1
289 151 1
289 154 1
289 156 1
289 158 1
289 173 1
289 191 1
289 196 1
289 222 1
289 229 1
289 238 1
289 247 1
289 265 1
289 268 1
289 281 1
289 308 1
289 322 1
289 323 1
289 347 1
289 356 1
289 362 1
289 363 1
289 372 1
289 380 1
289 396 1
289 406 1
289 435 1
289 445 1
289 455 1
289 468 1
289 484 1
289 521 1
289 525 1
289 545 1
289 573 1
289 577 1
289 590 1
289 592 1
289 600 1
289 630 1
289 633 1
289 651 1
289 673 1
289 722 1
289 738 1
289 798 1
290 15 1
290 45 1
290 88 1
290 90 1
290 119 1
290 127 1
290 128 1
290 158 1
290 176 1
290 177 1
290 180 1
290 199 1
290 205 1
290 217 1
290 263 1
290 267 1
290 318 1
290 324 1
290 351 1
290 354 1
290 365 1
290 404 1
290 406 1
290 454 1
290 473 1
290 476 1
290 501 1
290 506 1
290 510 1
290 519 1
290 536 1
290 548 1
290 573 1
290 575 1
290 577 1
290 589 1
290 595 1
290 617 1
290 651 1
290 652 1
290 659 1
290 665 1
290 669 1
290 676 1
290 721 1
290 732 1
290 744 1
290 750 1
290 754 1
290 800 1
291 6 1
291 18 1
291 40 1
291 43 1
291 65 1
291 90 1
291 96 1
291 113 1
291 125 1
291 139 1
291 144 1
291 153 1
291 156 1
291 168 1
291 172 1
291 178 1
291 196 1
291 198 1
291 212 1
291 229 1
291 240 1
291 257 1
291 264 1
291 296 1
291 298 1
291 299 1
291 312 1
291 314 1
291 338 1
291 389 1
291 410 1
291 428 1
291 444 1
291 449 1
291 451 1
291 476 1
291 479 1
291 484 1
291 487 1
291 504 1
291 519 1
291 554 1
291 557 1
291 558 1
291 580 1
291 597 1
291 601 1
291 643 1
291 667 1
291 677 1
291 702 1
291 724 1
291 752 1
291 767 1
291 778 1
291 799 1
292 39 1
292 51 1
292 60 1
292 73 1
292 98 1
292 121 1
292 148 1
292 184 1
292 191 1
292 224 1
292 233 1
292 239 1
292 250 1
292 267 1
292 311 1
292 324 1
292 330 1
292 335 1
292 350 1
292 374 1
292 404 1
292 452 1
292 466 1
292 484 1
292 507 1
292 516 1
292 526 1
292 552 1
292 574 1
292 609 1
292 614 1
292 615 1
292 647 1
292 666 1
292 671 1
292 674 1
292 711 1
292 717 1
292 736 1
292 749 1
292 754 1
292 766 1
292 778 1
292 793 1
292 799 1
293 1 1
293 3 1
293 74 1
293 85 1
293 87 1
293 133 1
293 149 1
293 153 1
293 165 1
293 167 1
293 194 1
293 212 1
293 232 1
293 239 1
293 259 1
293 284 1
293 337 1
293 342 1
293 344 1
293 346 1
293 347 1
293 370 1
293 391 1
293 405 1
293 447 1
293 454 1
293 467 1
293 473 1
293 520 1
293 527 1
293 566 1
293 578 1
293 592 1
293 593 1
293 596 1
293 607 1
293 609 1
293 644 1
293 653 1
293 662 1
293 687 1
293 696 1
293 718 1
293 737 1
293 751 1
293 758 1
293 759 1
293 768 1
293 771 1
294 2 1
294 6 1
294 86 1
294 102 1
294 163 1
294 194 1
294 202 1
294 203 1
294 223 1
294 224 1
294 227 1
294 242 1
294 261 1
294 279 1
294 308 1
294 354 1
294 365 1
294 377 1
294 380 1
294 391 1
294 446 1
294 454 1
294 458 1
294 462 1
294 475 1
294 476 1
294 513 1
294 534 1
294 547 1
294 555 1
294 611 1
294 622 1
294 698 1
294 728 1
294 729 1
294 744 1
294 770 1
294 797 1
295 13 1
295 47 1
295 53 1
295 55 1
295 60 1
295 66 1
295 88 1
295 97 1
295 111 1
295 118 1
295 119 1
295 122 1
295 146 1
295 158 1
295 168 1
295 206 1
295 208 1
295 244 1
295 250 1
295 261 1
295 264 1
295 296 1
295 345 1
295 355 1
295 366 1
295 400 1
295 409 1
295 425 1
295 433 1
295 445 1
295 476 1
295 479 1
295 485 1
295 487 1
295 512 1
295 522 1
295 527 1
295 575 1
295 591 1
295 637 1
295 648 1
295 677 1
295 678 1
295 695 1
295 728 1
295 731 1
296 18 1
296 24 1
296 43 1
296 56 1
296 80 1
296 86 1
296 89 1
296 95 1
296 104 1
296 112 1
296 117 1
296 118 1
296 156 1
296 165 1
296 169 1
296 197 1
296 208 1
296 210 1
296 226 1
296 230 1
296 235 1
296 253 1
296 283 1
296 291 1
296 295 1
296 301 1
296 312 1
296 342 1
296 350 1
296 387 1
296 399 1
296 417 1
296 469 1
296 492 1
296 502 1
296 509 1
296 516 1
296 534 1
296 570 1
296 605 1
296 675 1
296 692 1
296 701 1
296 719 1
296 721 1
296 745 1
296 754 1
296 774 1
296 795 1
296 796 1
297 2 1
297 15 1
297 35 1
297 46 1
297 80 1
297 86 1
297 98 1
297 99 1
297 111 1
297 160 1
297 161 1
297 176 1
297 189 1
297 202 1
297 205 1
297 214 1
297 219 1
297 220 1
297 234 1
297 264 1
297 269 1
297 310 1
297 349 1
297 358 1
297 368 1
297 372 1
297 374 1
297 392 1
297 393 1
297 402 1
297 445 1
297 480 1
297 528 1
297 541 1
297 546 1
297 549 1
297 584 1
297 595 1
297 600 1
297 644 1
297 645 1
297 652 1
297 654 1
297 671 1
297 687 1
297 695 1
297 725 1
297 743 1
297 746 1
297 748 1
297 765 1
297 797 1
298 102 1
298 122 1
298 147 1
298 183 1
298 201 1
298 203 1
298 210 1
298 228 1
298 242 1
298 247 1
298 250 1
298 256 1
298 278 1
298 291 1
298 302 1
298 316 1
298 348 1
298 352 1
298 372 1
298 376 1
298 391 1
298 404 1
298 406 1
298 473 1
298 483 1
298 492 1
298 502 1
298 504 1
298 574 1
298 591 1
298 607 1
298 608 1
298 631 1
298 639 1
298 648 1
298 652 1
298 669 1
298 729 1
298 743 1
298 752 1
298 755 1
298 793 1
299 26 1
299 27 1
299 50 1
299 61 1
299 102 1
299 104 1
299 107 1
299 123 1
299 125 1
299 130 1
299 131 1
299 136 1
299 157 1
299 186 1
299 191 1
299 197 1
299 202 1
299 205 1
299 216 1
299 239 1
299 246 1
299 247 1
299 262 1
299 264 1
299 291 1
299 307 1
299 373 1
299 439 1
299 463 1
299 484 1
299 502 1
299 519 1
299 520 1
299 669 1
299 693 1
299 705 1
299 730 1
299 755 1
299 796 1
300 9 1
300 11 1
300 19 1
300 31 1
300 40 1
300 62 1
300 67 1
300 72 1
300 146 1
300 187 1
300 231 1
300 250 1
300 270 1
300 277 1
300 301 1
300 309 1
300 324 1
300 330 1
300 338 1
300 358 1
300 444 1
300 470 1
300 478 1
300 488 1
300 536 1
300 558 1
300 564 1
300 569 1
300 575 1
300 580 1
300 629 1
300 633 1
300 654 1
300 660 1
300 667 1
300 670 1
300 674 1
300 679 1
300 692 1
300 696 1
300 703 1
300 711 1
300 723 1
300 751 1
300 768 1
301 23 1
301 38 1
301 58 1
301 63 1
301 66 1
301 89 1
301 96 1
301 105 1
301 107 1
301 174 1
301 190 1
301 197 1
301 222 1
301 232 1
301 238 1
301 261 1
301 296 1
301 300 1
301 338 1
301 367 1
301 391 1
301 449 1
301 456 1
301 463 1
301 471 1
301 490 1
301 500 1
301 504 1
301 513 1
301 562 1
301 572 1
301 590 1
301 593 1
301 605 1
301 645 1
301 658 1
301 674 1
301 705 1
301 712 1
301 735 1
301 739 1
301 784 1
302 8 1
302 16 1
302 20 1
302 40 1
302 57 1
302 86 1
302 88 1
302 97 1
302 125 1
302 158 1
302 169 1
302 186 1
302 208 1
302 229 1
302 235 1
302 273 1
302 298 1
302 313 1
302 320 1
302 329 1
302 333 1
302 338 1
302 342 1
302 355 1
302 366 1
302 378 1
302 379 1
302 411 1
302 429 1
302 444 1
302 456 1
302 483 1
302 495 1
302 517 1
302 541 1
302 549 1
302 560 1
302 562 1
302 581 1
302 593 1
302 611 1
302 614 1
302 617 1
302 648 1
302 653 1
302 671 1
302 677 1
302 678 1
302 692 1
302 693 1
302 694 1
302 708 1
302 709 1
302 722 1
302 738 1
302 745 1
302 768 1
302 784 1
303 3 1
303 84 1
303 97 1
303 101 1
303 105 1
303 141 1
303 150 1
303 152 1
303 161 1
303 164 1
303 165 1
303 203 1
303 217 1
303 223 1
303 227 1
303 235 1
303 236 1
303 250 1
303 263 1
303 268 1
303 272 1
303 328 1
303 331 1
303 356 1
303 358 1
303 385 1
303 389 1
303 415 1
303 422 1
303 460 1
303 462 1
303 470 1
303 554 1
303 562 1
303 564 1
303 574 1
303 600 1
303 622 1
303 633 1
303 653 1
303 685 1
303 687 1
303 703 1
303 741 1
303 776 1
303 778 1
303 787 1
304 13 1
304 41 1
304 80 1
304 81 1
304 86 1
304 87 1
304 110 1
304 115 1
304 130 1
304 136 1
304 145 1
304 171 1
304 203 1
304 204 1
304 228 1
304 251 1
304 254 1
304 263 1
304 267 1
304 273 1
304 274 1
304 281 1
304 345 1
304 358 1
304 362 1
304 363 1
304 365 1
304 376 1
304 393 1
304 400 1
304 402 1
304 406 1
304 410 1
304 421 1
304 444 1
304 481 1
304 507 1
304 528 1
304 534 1
304 543 1
304 552 1
304 577 1
304 584 1
304 589 1
304 591 1
304 606 1
304 607 1
304 621 1
304 629 1
304 648 1
304 653 1
304 674 1
304 678 1
304 730 1
305 2 1
305 5 1
305 23 1
305 31 1
305 63 1
305 107 1
305 112 1
305 123 1
305 128 1
305 138 1
305 158 1
305 190 1
305 203 1
305 243 1
305 261 1
305 263 1
305 264 1
305 321 1
305 340 1
305 372 1
305 375 1
305 385 1
305 444 1
305 475 1
305 493 1
305 515 1
305 526 1
305 529 1
305 577 1
305 599 1
305 601 1
305 604 1
305 626 1
305 628 1
305 649 1
305 687 1
305 698 1
305 719 1
305 761 1
305 777 1
305 790 1
306 45 1
306 138 1
306 203 1
306 224 1
306 228 1
306 255 1
306 259 1
306 311 1
306 363 1
306 369 1
306 380 1
306 406 1
306 426 1
306 457 1
306 462 1
306 497 1
306 509 1
306 524 1
306 528 1
306 542 1
306 567 1
306 569 1
306 573 1
306 575 1
306 578 1
306 592 1
306 593 1
306 603 1
306 610 1
306 620 1
306 651 1
306 662 1
306 674 1
306 710 1
306 715 1
306 721 1
306 788 1
307 4 1
307 37 1
307 41 1
307 74 1
307 78 1
307 87 1
307 99 1
307 115 1
307 157 1
307 162 1
307 172 1
307 195 1
307 197 1
307 205 1
307 209 1
307 210 1
307 217 1
307 268 1
307 277 1
307 299 1
307 309 1
307 351 1
307 368 1
307 371 1
307 402 1
307 403 1
307 418 1
307 452 1
307 457 1
307 469 1
307 478 1
307 492 1
307 507 1
307 520 1
307 527 1
307 531 1
307 532 1
307 555 1
307 557 1
307 590 1
307 615 1
307 631 1
307 653 1
307 654 1
307 725 1
307 752 1
307 761 1
307 773 1
307 783 1
308 6 1
308 8 1
308 10 1
308 62 1
308 78 1
308 120 1
308 133 1
308 140 1
308 175 1
308 216 1
308 257 1
308 289 1
308 294 1
308 312 1
308 328 1
308 336 1
308 364 1
308 424 1
308 474 1
308 482 1
308 496 1
308 512 1
308 526 1
308 531 1
308 532 1
308 553 1
308 561 1
308 569 1
308 570 1
308 572 1
308 589 1
308 595 1
308 608 1
308 613 1
308 631 1
308 632 1
308 651 1
308 671 1
308 674 1
308 676 1
308 680 1
308 717 1
308 799 1
309 9 1
309 38 1
309 82 1
309 83 1
309 106 1
309 122 1
309 144 1
309 147 1
309 152 1
309 158 1
309 189 1
309 211 1
309 219 1
309 221 1
309 226 1
309 233 1
309 263 1
309 275 1
309 300 1
309 307 1
309 312 1
309 323 1
309 338 1
309 360 1
309 373 1
309 389 1
309 399 1
309 407 1
309 425 1
309 431 1
309 432 1
309 442 1
309 460 1
309 480 1
309 497 1
309 503 1
309 532 1
309 544 1
309 560 1
309 586 1
309 591 1
309 604 1
309 629 1
309 643 1
309 651 1
309 683 1
309 689 1
309 714 1
309 736 1
309 740 1
309 770 1
309 796 1
309 798 1
310 10 1
310 12 1
310 19 1
310 54 1
310 76 1
310 112 1
310 127 1
310 145 1
310 202 1
310 270 1
310 275 1
310 277 1
310 278 1
310 297 1
310 318 1
310 333 1
310 339 1
310 353 1
310 365 1
310 411 1
310 433 1
310 434 1
310 473 1
310 497 1
310 542 1
310 548 1
310 558 1
310 559 1
310 562 1
310 604 1
310 616 1
310 636 1
310 645 1
310 652 1
310 663 1
310 684 1
310 689 1
310 731 1
311 11 1
311 37 1
311 80 1
311 83 1
311 85 1
311 134 1
311 147 1
311 150 1
311 151 1
311 158 1
311 179 1
311 192 1
311 228 1
311 239 1
311 242 1
311 247 1
311 254 1
311 263 1
311 292 1
311 306 1
311 318 1
311 339 1
311 350 1
311 368 1
311 376 1
311 430 1
311 462 1
311 474 1
311 479 1
311 486 1
311 546 1
311 556 1
311 600 1
311 608 1
311 616 1
311 645 1
311 681 1
311 684 1
311 688 1
311 704 1
311 728 1
311 731 1
311 743 1
311 758 1
311 761 1
311 791 1
312 44 1
312 47 1
312 60 1
312 70 1
312 146 1
312 153 1
312 167 1
312 179 1
312 181 1
312 208 1
312 210 1
312 213 1
312 218 1
312 225 1
312 252 1
312 254 1
312 271 1
312 286 1
312 291 1
312 296 1
312 308 1
312 309 1
312 329 1
312 355 1
312 384 1
312 390 1
312 391 1
312 430 1
312 431 1
312 442 1
312 480 1
312 491 1
312 504 1
312 517 1
312 549 1
312 554 1
312 562 1
312 570 1
312 595 1
312 598 1
312 625 1
312 629 1
312 639 1
312 687 1
312 695 1
312 702 1
312 731 1
312 737 1
312 756 1
312 779 1
312 794 1
312 797 1
313 10 1
313 23 1
313 28 1
313 33 1
313 50 1
313 121 1
313 124 1
313 129 1
313 145 1
313 149 1
313 220 1
313 224 1
313 234 1
313 257 1
313 302 1
313 328 1
313 346 1
313 354 1
313 356 1
313 359 1
313 360 1
313 375 1
313 402 1
313 411 1
313 447 1
313 458 1
313 482 1
313 500 1
313 556 1
313 562 1
313 574 1
313 575 1
313 576 1
313 610 1
313 620 1
313 659 1
313 667 1
313 688 1
313 705 1
313 733 1
313 738 1
313 742 1
313 759 1
313 796 1
313 798 1
313 799 1
314 17 1
314 31 1
314 46 1
314 74 1
314 77 1
314 104 1
314 106 1
314 134 1
314 135 1
314 141 1
314 146 1
314 165 1
314 197 1
314 199 1
314 229 1
314 235 1
314 242 1
314 291 1
314 345 1
314 375 1
314 396 1
314 401 1
314 422 1
314 426 1
314 440 1
314 451 1
314 456 1
314 517 1
314 518 1
314 525 1
314 548 1
314 553 1
314 567 1
314 590 1
314 611 1
314 617 1
314 643 1
314 656 1
314 659 1
314 683 1
314 687 1
314 690 1
314 730 1
314 771 1
314 795 1
314 796 1
315 4 1
315 27 1
315 47 1
315 76 1
315 80 1
315 93 1
315 104 1
315 115 1
315 128 1
315 175 1
315 190 1
315 195 1
315 197 1
315 237 1
315 238 1
315 255 1
315 256 1
315 263 1
315 354 1
315 373 1
315 400 1
315 402 1
315 426 1
315 442 1
315 465 1
315 481 1
315 489 1
315 495 1
315 500 1
315 508 1
315 523 1
315 525 1
315 527 1
315 544 1
315 551 1
315 552 1
315 564 1
315 566 1
315 590 1
315 596 1
315 642 1
315 676 1
315 692 1
315 698 1
315 715 1
315 731 1
315 754 1
315 771 1
315 785 1
315 788 1
315 793 1
315 795 1
316 26 1
316 27 1
316 68 1
316 72 1
316 74 1
316 76 1
316 79 1
316 83 1
316 86 1
316 117 1
316 136 1
316 154 1
316 161 1
316 179 1
316 180 1
316 189 1
316 203 1
316 218 1
316 232 1
316 233 1
316 238 1
316 260 1
316 262 1
316 265 1
316 298 1
316 396 1
316 423 1
316 452 1
316 492 1
316 506 1
316 511 1
316 517 1
316 584 1
316 586 1
316 587 1
316 607 1
316 618 1
316 633 1
316 646 1
316 651 1
316 664 1
316 670 1
316 714 1
316 739 1
316 757 1
316 772 1
317 11 1
317 16 1
317 37 1
317 55 1
317 69 1
317 77 1
317 107 1
317 112 1
317 113 1
317 118 1
317 170 1
317 179 1
317 214 1
317 251 1
317 271 1
317 287 1
317 332 1
317 339 1
317 404 1
317 409 1
317 418 1
317 454 1
317 472 1
317 485 1
317 513 1
317 515 1
317 520 1
317 526 1
317 530 1
317 542 1
317 556 1
317 560 1
317 590 1
317 596 1
317 615 1
317 628 1
317 672 1
317 677 1
317 680 1
317 700 1
317 717 1
317 743 1
317 754 1
317 790 1
318 14 1
318 29 1
318 30 1
318 60 1
318 70 1
318 116 1
318 128 1
318 139 1
318 147 1
318 150 1
318 161 1
318 196 1
318 197 1
318 218 1
318 221 1
318 225 1
318 290 1
318 310 1
318 311 1
318 328 1
318 362 1
318 379 1
318 387 1
318 395 1
318 406 1
318 418 1
318 424 1
318 425 1
318 452 1
318 457 1
318 495 1
318 498 1
318 533 1
318 578 1
318 596 1
318 619 1
318 661 1
318 674 1
318 692 1
318 699 1
318 701 1
318 718 1
318 769 1
319 17 1
319 19 1
319 27 1
319 29 1
319 34 1
319 42 1
319 50 1
319 60 1
319 71 1
319 73 1
319 75 1
319 108 1
319 113 1
319 131 1
319 141 1
319 157 1
319 181 1
319 191 1
319 193 1
319 223 1
319 234 1
319 244 1
319 246 1
319 251 1
319 281 1
319 322 1
319 328 1
319 350 1
319 376 1
319 387 1
319 395 1
319 405 1
319 438 1
319 439 1
319 469 1
319 477 1
319 484 1
319 491 1
319 493 1
319 504 1
319 553 1
319 560 1
319 584 1
319 590 1
319 591 1
319 633 1
319 643 1
319 663 1
319 665 1
319 667 1
319 686 1
319 701 1
319 709 1
319 748 1
319 788 1
320 29 1
320 31 1
320 50 1
320 59 1
320 86 1
320 102 1
320 112 1
320 114 1
320 117 1
320 118 1
320 138 1
320 208 1
320 229 1
320 232 1
320 253 1
320 257 1
320 266 1
320 275 1
320 302 1
320 329 1
320 342 1
320 370 1
320 391 1
320 392 1
320 395 1
320 412 1
320 440 1
320 453 1
320 498 1
320 513 1
320 544 1
320 553 1
320 559 1
320 568 1
320 572 1
320 629 1
320 654 1
320 655 1
320 667 1
320 677 1
320 703 1
320 708 1
320 713 1
320 744 1
320 745 1
320 768 1
320 771 1
320 772 1
320 775 1
320 788 1
320 789 1
321 14 1
321 58 1
321 93 1
321 99 1
321 101 1
321 110 1
321 120 1
321 121 1
321 137 1
321 141 1
321 148 1
321 153 1
321 159 1
321 176 1
321 217 1
321 220 1
321 232 1
321 285 1
321 288 1
321 305 1
321 324 1
321 353 1
321 354 1
321 357 1
321 365 1
321 386 1
321 411 1
321 418 1
321 458 1
321 506 1
321 525 1
321 528 1
321 531 1
321 534 1
321 536 1
321 542 1
321 563 1
321 579 1
321 585 1
321 588 1
321 591 1
321 594 1
321 622 1
321 624 1
321 636 1
321 644 1
321 672 1
321 675 1
321 698 1
321 707 1
321 716 1
321 734 1
321 796 1
322 8 1
322 11 1
322 20 1
322 54 1
322 77 1
322 105 1
322 111 1
322 121 1
322 127 1
322 129 1
322 166 1
322 191 1
322 223 1
322 233 1
322 244 1
322 258 1
322 271 1
322 281 1
322 289 1
322 319 1
322 325 1
322 338 1
322 347 1
322 360 1
322 387 1
322 426 1
322 483 1
322 511 1
322 528 1
322 534 1
322 554 1
322 562 1
322 612 1
322 627 1
322 631 1
322 654 1
322 670 1
322 671 1
322 685 1
322 696 1
322 701 1
322 709 1
322 741 1
322 757 1
322 762 1
322 766 1
323 7 1
323 38 1
323 41 1
323 48 1
323 56 1
323 77 1
323 81 1
323 105 1
323 158 1
323 195 1
323 221 1
323 236 1
323 248 1
323 251 1
323 256 1
323 263 1
323 275 1
323 289 1
323 309 1
323 330 1
323 356 1
323 358 1
323 397 1
323 404 1
323 415 1
323 422 1
323 442 1
323 461 1
323 463 1
323 467 1
323 482 1
323 516 1
323 518 1
323 519 1
323 536 1
323 544 1
323 547 1
323 560 1
323 590 1
323 631 1
323 642 1
323 669 1
323 674 1
323 677 1
323 690 1
323 708 1
323 755 1
323 764 1
323 773 1
324 15 1
324 21 1
324 57 1
324 86 1
324 139 1
324 145 1
324 166 1
324 196 1
324 205 1
324 210 1
324 218 1
324 240 1
324 252 1
324 253 1
324 290 1
324 292 1
324 300 1
324 321 1
324 328 1
324 337 1
324 349 1
324 352 1
324 355 1
324 363 1
324 384 1
324 391 1
324 423 1
324 436 1
324 469 1
324 492 1
324 506 1
324 525 1
324 540 1
324 567 1
324 570 1
324 571 1
324 589 1
324 590 1
324 602 1
324 661 1
324 678 1
324 680 1
324 710 1
324 711 1
324 719 1
324 720 1
324 732 1
324 746 1
324 756 1
324 780 1
325 8 1
325 14 1
325 47 1
325 66 1
325 68 1
325 135 1
325 170 1
325 204 1
325 219 1
325 225 1
325 231 1
325 249 1
325 259 1
325 283 1
325 322 1
325 332 1
325 337 1
325 338 1
325 352 1
325 364 1
325 401 1
325 402 1
325 409 1
325 415 1
325 424 1
325 436 1
325 439 1
325 440 1
325 444 1
325 462 1
325 481 1
325 483 1
325 519 1
325 545 1
325 599 1
325 606 1
325 657 1
325 670 1
325 715 1
325 763 1
325 772 1
325 781 1
326 35 1
326 49 1
326 53 1
326 59 1
326 80 1
326 117 1
326 126 1
326 153 1
326 157 1
326 173 1
326 176 1
326 214 1
326 217 1
326 229 1
326 243 1
326 244 1
326 257 1
326 265 1
326 358 1
326 379 1
326 409 1
326 415 1
326 516 1
326 517 1
326 532 1
326 539 1
326 555 1
326 563 1
326 570 1
326 572 1
326 577 1
326 607 1
326 612 1
326 626 1
326 642 1
326 648 1
326 651 1
326 661 1
326 721 1
326 724 1
326 737 1
326 766 1
326 785 1
326 787 1
326 790 1
327 17 1
327 38 1
327 49 1
327 66 1
327 73 1
327 94 1
327 107 1
327 122 1
327 125 1
327 137 1
327 148 1
327 150 1
327 157 1
327 162 1
327 193 1
327 208 1
327 228 1
327 240 1
327 333 1
327 338 1
327 356 1
327 382 1
327 391 1
327 403 1
327 406 1
327 411 1
327 422 1
327 441 1
327 452 1
327 509 1
327 544 1
327 594 1
327 607 1
327 628 1
327 697 1
327 703 1
327 730 1
327 734 1
327 737 1
327 758 1
327 772 1
328 14 1
328 22 1
328 25 1
328 141 1
328 152 1
328 154 1
328 167 1
328 168 1
328 170 1
328 181 1
328 233 1
328 235 1
328 248 1
328 268 1
328 273 1
328 275 1
328 303 1
328 308 1
328 313 1
328 318 1
328 319 1
328 324 1
328 347 1
328 355 1
328 361 1
328 408 1
328 411 1
328 424 1
328 491 1
328 538 1
328 552 1
328 566 1
328 587 1
328 613 1
328 630 1
328 638 1
328 641 1
328 645 1
328 668 1
328 673 1
328 674 1
328 701 1
328 719 1
328 721 1
328 768 1
328 789 1
328 795 1
328 796 1
329 8 1
329 9 1
329 22 1
329 45 1
329 49 1
329 64 1
329 92 1
329 110 1
329 130 1
329 145 1
329 150 1
329 192 1
329 208 1
329 272 1
329 280 1
329 288 1
329 302 1
329 312 1
329 320 1
329 337 1
329 366 1
329 368 1
329 398 1
329 416 1
329 479 1
329 480 1
329 513 1
329 521 1
329 522 1
329 533 1
329 577 1
329 585 1
329 607 1
329 623 1
329 634 1
329 657 1
329 658 1
329 664 1
329 672 1
329 706 1
329 745 1
329 748 1
329 758 1
329 767 1
329 798 1
330 4 1
330 5 1
330 14 1
330 31 1
330 60 1
330 72 1
330 83 1
330 122 1
330 126 1
330 128 1
330 134 1
330 139 1
330 146 1
330 160 1
330 207 1
330 209 1
330 210 1
330 212 1
330 214 1
330 217 1
330 228 1
330 236 1
330 239 1
330 264 1
330 292 1
330 300 1
330 323 1
330 334 1
330 349 1
330 364 1
330 374 1
330 379 1
330 406 1
330 457 1
330 459 1
330 474 1
330 485 1
330 498 1
330 530 1
330 534 1
330 555 1
330 568 1
330 584 1
330 592 1
330 594 1
330 612 1
330 613 1
330 622 1
330 627 1
330 645 1
330 677 1
330 697 1
330 736 1
330 738 1
330 762 1
331 10 1
331 25 1
331 40 1
331 54 1
331 64 1
331 76 1
331 100 1
331 126 1
331 146 1
331 148 1
331 194 1
331 219 1
331 240 1
331 303 1
331 332 1
331 392 1
331 400 1
331 401 1
331 435 1
331 441 1
331 470 1
331 474 1
331 480 1
331 506 1
331 529 1
331 539 1
331 548 1
331 554 1
331 557 1
331 564 1
331 576 1
331 590 1
331 605 1
331 639 1
331 666 1
331 727 1
331 730 1
331 737 1
332 4 1
332 12 1
332 109 1
332 148 1
332 156 1
332 158 1
332 181 1
332 183 1
332 185 1
332 189 1
332 203 1
332 221 1
332 239 1
332 250 1
332 255 1
332 266 1
332 317 1
332 325 1
332 331 1
332 337 1
332 348 1
332 364 1
332 369 1
332 379 1
332 420 1
332 437 1
332 458 1
332 463 1
332 475 1
332 504 1
332 527 1
332 528 1
332 547 1
332 551 1
332 553 1
332 597 1
332 628 1
332 634 1
332 651 1
332 657 1
332 665 1
332 682 1
332 699 1
332 702 1
332 733 1
332 742 1
332 757 1
332 758 1
332 762 1
332 769 1
332 792 1
333 18 1
333 38 1
333 58 1
333 74 1
333 167 1
333 172 1
333 173 1
333 198 1
333 208 1
333 211 1
333 212 1
333 213 1
333 217 1
333 225 1
333 228 1
333 234 1
333 241 1
333 286 1
333 302 1
333 310 1
333 327 1
333 335 1
333 347 1
333 356 1
333 369 1
333 401 1
333 420 1
333 450 1
333 453 1
333 456 1
333 468 1
333 504 1
333 520 1
333 545 1
333 566 1
333 625 1
333 629 1
333 632 1
333 660 1
333 674 1
333 675 1
333 687 1
333 688 1
333 692 1
333 693 1
333 698 1
333 709 1
333 711 1
333 751 1
333 754 1
333 777 1
333 794 1
334 14 1
334 26 1
334 29 1
334 32 1
334 66 1
334 121 1
334 175 1
334 177 1
334 209 1
334 211 1
334 218 1
334 224 1
334 227 1
334 230 1
334 249 1
334 330 1
334 370 1
334 378 1
334 392 1
334 399 1
334 406 1
334 419 1
334 421 1
334 464 1
334 468 1
334 493 1
334 499 1
334 537 1
334 539 1
334 550 1
334 551 1
334 579 1
334 588 1
334 592 1
334 594 1
334 600 1
334 601 1
334 614 1
334 651 1
334 673 1
334 684 1
334 693 1
334 714 1
334 771 1
335 46 1
335 50 1
335 55 1
335 66 1
335 69 1
335 85 1
335 88 1
335 93 1
335 151 1
335 171 1
335 173 1
335 209 1
335 237 1
335 276 1
335 278 1
335 282 1
335 292 1
335 333 1
335 339 1
335 362 1
335 382 1
335 396 1
335 403 1
335 409 1
335 416 1
335 433 1
335 439 1
335 448 1
335 466 1
335 475 1
335 494 1
335 497 1
335 502 1
335 518 1
335 520 1
335 553 1
335 578 1
335 586 1
335 592 1
335 607 1
335 654 1
335 661 1
335 702 1
335 711 1
335 725 1
335 747 1
335 756 1
335 763 1
336 32 1
336 43 1
336 79 1
336 105 1
336 147 1
336 155 1
336 162 1
336 189 1
336 210 1
336 235 1
336 255 1
336 261 1
336 278 1
336 308 1
336 405 1
336 437 1
336 439 1
336 446 1
336 459 1
336 465 1
336 470 1
336 499 1
336 567 1
336 597 1
336 605 1
336 649 1
336 682 1
336 787 1
336 795 1
337 16 1
337 22 1
337 26 1
337 34 1
337 40 1
337 50 1
337 63 1
337 69 1
337 99 1
337 151 1
337 179 1
337 180 1
337 193 1
337 197 1
337 216 1
337 221 1
337 230 1
337 231 1
337 233 1
337 234 1
337 235 1
337 237 1
337 246 1
337 269 1
337 293 1
337 324 1
337 325 1
337 329 1
337 332 1
337 341 1
337 359 1
337 366 1
337 374 1
337 378 1
337 448 1
337 456 1
337 463 1
337 498 1
337 521 1
337 536 1
337 605 1
337 618 1
337 634 1
337 659 1
337 693 1
337 702 1
337 716 1
337 719 1
337 730 1
337 736 1
337 749 1
337 778 1
337 790 1
338 1 1
338 2 1
338 10 1
338 11 1
338 21 1
338 48 1
338 109 1
338 133 1
338 135 1
338 136 1
338 141 1
338 165 1
338 187 1
338 190 1
338 202 1
338 204 1
338 208 1
338 238 1
338 263 1
338 280 1
338 287 1
338 291 1
338 300 1
338 301 1
338 302 1
338 309 1
338 322 1
338 325 1
338 327 1
338 341 1
338 344 1
338 397 1
338 409 1
338 411 1
338 418 1
338 421 1
338 458 1
338 471 1
338 474 1
338 478 1
338 498 1
338 530 1
338 544 1
338 556 1
338 569 1
338 593 1
338 620 1
338 635 1
338 639 1
338 666 1
338 692 1
338 697 1
338 701 1
338 703 1
338 709 1
338 721 1
338 734 1
338 742 1
338 747 1
339 19 1
339 53 1
339 57 1
339 81 1
339 118 1
339 137 1
339 144 1
339 185 1
339 195 1
339 200 1
339 214 1
339 219 1
339 227 1
339 259 1
339 273 1
339 280 1
339 310 1
339 311 1
339 317 1
339 335 1
339 342 1
339 357 1
339 358 1
339 370 1
339 398 1
339 425 1
339 477 1
339 489 1
339 494 1
339 514 1
339 518 1
339 530 1
339 597 1
339 629 1
339 641 1
339 645 1
339 662 1
339 705 1
339 724 1
339 736 1
339 756 1
339 757 1
339 765 1
339 769 1
339 795 1
340 19 1
340 20 1
340 24 1
340 58 1
340 60 1
340 65 1
340 88 1
340 102 1
340 109 1
340 142 1
340 159 1
340 161 1
340 172 1
340 174 1
340 179 1
340 204 1
340 213 1
340 240 1
340 242 1
340 277 1
340 305 1
340 355 1
340 357 1
340 382 1
340 399 1
340 407 1
340 411 1
340 417 1
340 435 1
340 442 1
340 444 1
340 472 1
340 514 1
340 542 1
340 544 1
340 567 1
340 583 1
340 647 1
340 666 1
340 670 1
340 685 1
340 744 1
340 750 1
340 758 1
340 797 1
341 7 1
341 8 1
341 26 1
341 45 1
341 81 1
341 101 1
341 136 1
341 149 1
341 151 1
341 156 1
341 167 1
341 171 1
341 190 1
341 202 1
341 204 1
341 206 1
341 207 1
341 209 1
341 215 1
341 220 1
341 237 1
341 251 1
341 271 1
341 272 1
341 337 1
341 338 1
341 386 1
341 402 1
341 417 1
341 436 1
341 508 1
341 546 1
341 558 1
341 570 1
341 600 1
341 606 1
341 617 1
341 655 1
341 657 1
341 659 1
341 677 1
341 678 1
341 679 1
341 721 1
341 739 1
341 782 1
341 785 1
341 791 1
342 6 1
342 13 1
342 16 1
342 21 1
342 25 1
342 30 1
342 50 1
342 54 1
342 61 1
342 76 1
342 92 1
342 106 1
342 114 1
342 121 1
342 147 1
342 182 1
342 186 1
342 213 1
342 225 1
342 242 1
342 243 1
342 293 1
342 296 1
342 302 1
342 320 1
342 339 1
342 365 1
342 375 1
342 384 1
342 392 1
342 393 1
342 415 1
342 428 1
342 431 1
342 456 1
342 480 1
342 485 1
342 500 1
342 503 1
342 548 1
342 564 1
342 569 1
342 573 1
342 602 1
342 607 1
342 629 1
342 645 1
342 649 1
342 656 1
342 687 1
342 695 1
342 717 1
342 720 1
342 730 1
342 733 1
342 758 1
342 766 1
343 30 1
343 31 1
343 58 1
343 69 1
343 95 1
343 136 1
343 151 1
343 155 1
343 175 1
343 199 1
343 248 1
343 250 1
343 261 1
343 276 1
343 344 1
343 361 1
343 375 1
343 423 1
343 431 1
343 459 1
343 466 1
343 490 1
343 492 1
343 522 1
343 605 1
343 613 1
343 624 1
343 645 1
343 663 1
343 678 1
343 698 1
343 704 1
343 711 1
343 745 1
343 760 1
343 772 1
343 781 1
344 75 1
344 98 1
344 99 1
344 100 1
344 123 1
344 130 1
344 163 1
344 171 1
344 176 1
344 192 1
344 217 1
344 229 1
344 266 1
344 293 1
344 338 1
344 343 1
344 352 1
344 381 1
344 388 1
344 392 1
344 417 1
344 422 1
344 423 1
344 434 1
344 451 1
344 458 1
344 459 1
344 490 1
344 551 1
344 556 1
344 563 1
344 575 1
344 585 1
344 592 1
344 596 1
344 598 1
344 611 1
344 623 1
344 644 1
344 653 1
344 662 1
344 681 1
344 685 1
344 698 1
344 702 1
344 707 1
344 716 1
344 733 1
344 741 1
344 749 1
344 776 1
345 2 1
345 7 1
345 13 1
345 14 1
345 25 1
345 37 1
345 56 1
345 58 1
345 76 1
345 110 1
345 114 1
345 171 1
345 242 1
345 263 1
345 295 1
345 304 1
345 314 1
345 359 1
345 398 1
345 424 1
345 435 1
345 443 1
345 499 1
345 527 1
345 532 1
345 539 1
345 568 1
345 580 1
345 608 1
345 626 1
345 644 1
345 657 1
345 664 1
345 708 1
345 787 1
345 788 1
346 11 1
346 46 1
346 55 1
346 74 1
346 100 1
346 115 1
346 122 1
346 165 1
346 187 1
346 191 1
346 200 1
346 206 1
346 226 1
346 277 1
346 293 1
346 313 1
346 353 1
346 371 1
346 403 1
346 417 1
346 418 1
346 434 1
346 435 1
346 442 1
346 460 1
346 470 1
346 488 1
346 501 1
346 530 1
346 566 1
346 580 1
346 594 1
346 601 1
346 610 1
346 680 1
346 721 1
346 727 1
346 742 1
346 762 1
346 793 1
347 9 1
347 15 1
347 23 1
347 27 1
347 40 1
347 50 1
347 66 1
347 107 1
347 111 1
347 114 1
347 122 1
347 131 1
347 151 1
347 167 1
347 175 1
347 195 1
347 218 1
347 223 1
347 227 1
347 285 1
347 289 1
347 293 1
347 322 1
347 328 1
347 333 1
347 353 1
347 366 1
347 375 1
347 390 1
347 407 1
347 430 1
347 439 1
347 471 1
347 472 1
347 507 1
347 514 1
347 525 1
347 571 1
347 639 1
347 643 1
347 652 1
347 663 1
347 666 1
347 681 1
347 686 1
347 693 1
347 694 1
347 700 1
347 702 1
347 703 1
347 704 1
347 724 1
347 735 1
347 771 1
347 794 1
348 10 1
348 15 1
348 39 1
348 47 1
348 52 1
348 93 1
348 100 1
348 110 1
348 133 1
348 138 1
348 150 1
348 152 1
348 213 1
348 242 1
348 298 1
348 332 1
348 354 1
348 377 1
348 392 1
348 408 1
348 436 1
348 465 1
348 476 1
348 486 1
348 519 1
348 521 1
348 527 1
348 569 1
348 605 1
348 625 1
348 627 1
348 664 1
348 692 1
348 697 1
348 724 1
348 760 1
348 786 1
349 53 1
349 74 1
349 94 1
349 117 1
349 134 1
349 145 1
349 183 1
349 210 1
349 255 1
349 273 1
349 285 1
349 297 1
349 324 1
349 330 1
349 377 1
349 392 1
349 400 1
349 456 1
349 468 1
349 508 1
349 548 1
349 578 1
349 583 1
349 586 1
349 593 1
349 600 1
349 629 1
349 685 1
349 694 1
349 702 1
349 735 1
349 736 1
349 755 1
349 767 1
349 771 1
349 785 1
349 787 1
349 795 1
349 798 1
350 9 1
350 22 1
350 69 1
350 72 1
350 81 1
350 86 1
350 98 1
350 104 1
350 113 1
350 119 1
350 124 1
350 125 1
350 141 1
350 153 1
350 156 1
350 177 1
350 192 1
350 272 1
350 279 1
350 286 1
350 292 1
350 296 1
350 311 1
350 319 1
350 363 1
350 379 1
350 383 1
350 406 1
350 409 1
350 410 1
350 424 1
350 486 1
350 487 1
350 512 1
350 517 1
350 523 1
350 559 1
350 570 1
350 575 1
350 611 1
350 633 1
350 648 1
350 667 1
350 681 1
350 684 1
350 691 1
350 742 1
350 748 1
350 749 1
350 769 1
350 771 1
350 788 1
350 789 1
350 798 1
351 55 1
351 61 1
351 70 1
351 76 1
351 84 1
351 86 1
351 116 1
351 165 1
351 190 1
351 213 1
351 250 1
351 258 1
351 266 1
351 290 1
351 307 1
351 367 1
351 388 1
351 430 1
351 463 1
351 528 1
351 532 1
351 534 1
351 535 1
351 540 1
351 578 1
351 580 1
351 583 1
351 605 1
351 636 1
351 666 1
351 684 1
351 719 1
351 744 1
352 22 1
352 27 1
352 34 1
352 38 1
352 76 1
352 116 1
352 119 1
352 122 1
352 135 1
352 141 1
352 152 1
352 167 1
352 169 1
352 174 1
352 179 1
352 238 1
352 241 1
352 288 1
352 298 1
352 324 1
352 325 1
352 344 1
352 367 1
352 368 1
352 376 1
352 382 1
352 383 1
352 386 1
352 406 1
352 451 1
352 488 1
352 510 1
352 529 1
352 549 1
352 564 1
352 589 1
352 591 1
352 608 1
352 612 1
352 622 1
352 661 1
352 676 1
352 688 1
352 695 1
352 698 1
352 720 1
352 726 1
352 729 1
352 732 1
352 737 1
352 741 1
352 751 1
352 753 1
352 764 1
352 787 1
352 788 1
352 800 1
353 23 1
353 29 1
353 58 1
353 80 1
353 91 1
353 124 1
353 158 1
353 159 1
353 186 1
353 205 1
353 240 1
353 263 1
353 271 1
353 276 1
353 281 1
353 284 1
353 310 1
353 321 1
353 346 1
353 347 1
353 363 1
353 364 1
353 374 1
353 383 1
353 428 1
353 429 1
353 437 1
353 438 1
353 445 1
353 495 1
353 502 1
353 511 1
353 522 1
353 547 1
353 551 1
353 561 1
353 568 1
353 604 1
353 619 1
353 656 1
353 665 1
353 676 1
353 680 1
353 701 1
353 740 1
353 747 1
353 761 1
353 766 1
353 778 1
354 6 1
354 15 1
354 19 1
354 47 1
354 60 1
354 71 1
354 80 1
354 81 1
354 103 1
354 104 1
354 110 1
354 113 1
354 146 1
354 147 1
354 159 1
354 187 1
354 190 1
354 237 1
354 241 1
354 271 1
354 290 1
354 294 1
354 313 1
354 315 1
354 321 1
354 348 1
354 421 1
354 451 1
354 464 1
354 491 1
354 520 1
354 533 1
354 535 1
354 551 1
354 559 1
354 572 1
354 612 1
354 615 1
354 628 1
354 637 1
354 653 1
354 660 1
354 673 1
354 709 1
354 729 1
354 731 1
354 752 1
354 792 1
355 2 1
355 10 1
355 32 1
355 40 1
355 68 1
355 72 1
355 106 1
355 113 1
355 128 1
355 132 1
355 144 1
355 146 1
355 179 1
355 180 1
355 197 1
355 198 1
355 206 1
355 222 1
355 255 1
355 258 1
355 262 1
355 295 1
355 302 1
355 312 1
355 324 1
355 328 1
355 340 1
355 373 1
355 378 1
355 406 1
355 432 1
355 445 1
355 479 1
355 488 1
355 489 1
355 498 1
355 529 1
355 533 1
355 561 1
355 585 1
355 647 1
355 652 1
355 682 1
355 698 1
355 720 1
355 734 1
355 773 1
355 774 1
356 24 1
356 45 1
356 62 1
356 76 1
356 92 1
356 122 1
356 126 1
356 143 1
356 192 1
356 220 1
356 223 1
356 230 1
356 237 1
356 242 1
356 250 1
356 252 1
356 272 1
356 278 1
356 283 1
356 284 1
356 289 1
356 303 1
356 313 1
356 323 1
356 327 1
356 333 1
356 376 1
356 386 1
356 389 1
356 391 1
356 405 1
356 408 1
356 442 1
356 460 1
356 464 1
356 476 1
356 501 1
356 515 1
356 527 1
356 540 1
356 550 1
356 555 1
356 562 1
356 568 1
356 577 1
356 594 1
356 595 1
356 723 1
356 729 1
356 739 1
356 755 1
356 758 1
356 764 1
356 769 1
357 1 1
357 33 1
357 75 1
357 77 1
357 82 1
357 84 1
357 87 1
357 104 1
357 114 1
357 162 1
357 173 1
357 203 1
357 205 1
357 207 1
357 225 1
357 233 1
357 257 1
357 263 1
357 281 1
357 284 1
357 321 1
357 339 1
357 340 1
357 358 1
357 369 1
357 405 1
357 413 1
357 423 1
357 424 1
357 444 1
357 457 1
357 459 1
357 463 1
357 494 1
357 521 1
357 524 1
357 568 1
357 581 1
357 626 1
357 637 1
357 654 1
357 663 1
357 669 1
357 672 1
357 673 1
357 676 1
357 678 1
357 697 1
357 699 1
357 712 1
357 713 1
357 755 1
357 768 1
358 38 1
358 48 1
358 91 1
358 122 1
358 123 1
358 183 1
358 201 1
358 216 1
358 243 1
358 248 1
358 273 1
358 285 1
358 297 1
358 300 1
358 303 1
358 304 1
358 323 1
358 326 1
358 339 1
358 357 1
358 392 1
358 421 1
358 430 1
358 433 1
358 446 1
358 447 1
358 470 1
358 473 1
358 478 1
358 500 1
358 503 1
358 507 1
358 549 1
358 589 1
358 636 1
358 652 1
358 691 1
358 692 1
358 738 1
358 739 1
358 755 1
358 757 1
358 794 1
359 8 1
359 13 1
359 22 1
359 25 1
359 27 1
359 49 1
359 54 1
359 74 1
359 80 1
359 87 1
359 89 1
359 93 1
359 95 1
359 109 1
359 112 1
359 123 1
359 130 1
359 131 1
359 157 1
359 186 1
359 231 1
359 242 1
359 265 1
359 273 1
359 313 1
359 337 1
359 345 1
359 368 1
359 379 1
359 389 1
359 427 1
359 428 1
359 475 1
359 478 1
359 492 1
359 506 1
359 530 1
359 587 1
359 601 1
359 625 1
359 671 1
359 684 1
359 725 1
359 735 1
359 750 1
359 760 1
359 767 1
359 775 1
359 798 1
360 13 1
360 35 1
360 42 1
360 48 1
360 127 1
360 155 1
360 174 1
360 175 1
360 202 1
360 207 1
360 231 1
360 279 1
360 309 1
360 313 1
360 322 1
360 366 1
360 387 1
360 399 1
360 472 1
360 493 1
360 498 1
360 510 1
360 545 1
360 587 1
360 630 1
360 631 1
360 656 1
360 658 1
360 683 1
360 700 1
360 711 1
360 726 1
360 757 1
360 787 1
361 14 1
361 60 1
361 70 1
361 95 1
361 100 1
361 102 1
361 141 1
361 154 1
361 165 1
361 190 1
361 220 1
361 224 1
361 237 1
361 257 1
361 267 1
361 278 1
361 279 1
361 280 1
361 328 1
361 343 1
361 386 1
361 405 1
361 419 1
361 439 1
361 449 1
361 467 1
361 475 1
361 553 1
361 566 1
361 577 1
361 587 1
361 602 1
361 615 1
361 651 1
361 653 1
361 670 1
361 693 1
361 740 1
361 743 1
361 749 1
361 757 1
361 758 1
361 773 1
361 779 1
361 797 1
362 14 1
362 44 1
362 53 1
362 60 1
362 102 1
362 166 1
362 176 1
362 180 1
362 228 1
362 250 1
362 273 1
362 281 1
362 289 1
362 304 1
362 318 1
362 335 1
362 387 1
362 396 1
362 409 1
362 411 1
362 414 1
362 440 1
362 459 1
362 460 1
362 478 1
362 498 1
362 516 1
362 520 1
362 523 1
362 550 1
362 551 1
362 557 1
362 564 1
362 566 1
362 578 1
362 585 1
362 594 1
362 602 1
362 607 1
362 610 1
362 640 1
362 665 1
362 677 1
362 686 1
362 700 1
362 708 1
362 716 1
362 746 1
362 766 1
362 770 1
363 6 1
363 21 1
363 31 1
363 32 1
363 44 1
363 45 1
363 59 1
363 64 1
363 70 1
363 95 1
363 128 1
363 129 1
363 154 1
363 160 1
363 170 1
363 211 1
363 250 1
363 289 1
363 304 1
363 306 1
363 324 1
363 350 1
363 353 1
363 374 1
363 417 1
363 418 1
363 459 1
363 466 1
363 482 1
363 504 1
363 524 1
363 537 1
363 543 1
363 551 1
363 580 1
363 584 1
363 588 1
363 589 1
363 619 1
363 620 1
363 621 1
363 622 1
363 652 1
363 663 1
363 719 1
363 743 1
363 760 1
363 770 1
363 781 1
363 798 1
364 9 1
364 50 1
364 81 1
364 83 1
364 95 1
364 104 1
364 116 1
364 130 1
364 145 1
364 155 1
364 158 1
364 177 1
364 184 1
364 206 1
364 239 1
364 248 1
364 249 1
364 270 1
364 282 1
364 308 1
364 325 1
364 330 1
364 332 1
364 353 1
364 374 1
364 396 1
364 438 1
364 457 1
364 502 1
364 510 1
364 512 1
364 528 1
364 556 1
364 574 1
364 596 1
364 629 1
364 654 1
364 662 1
364 678 1
364 679 1
364 683 1
364 687 1
364 689 1
364 692 1
364 727 1
364 732 1
364 740 1
364 744 1
364 749 1
364 783 1
364 794 1
365 9 1
365 26 1
365 30 1
365 32 1
365 57 1
365 80 1
365 90 1
365 98 1
365 124 1
365 161 1
365 162 1
365 214 1
365 219 1
365 222 1
365 264 1
365 271 1
365 280 1
365 290 1
365 294 1
365 304 1
365 310 1
365 321 1
365 342 1
365 368 1
365 401 1
365 413 1
365 430 1
365 431 1
365 437 1
365 450 1
365 461 1
365 475 1
365 495 1
365 515 1
365 535 1
365 542 1
365 570 1
365 584 1
365 609 1
365 643 1
365 664 1
365 683 1
365 689 1
365 693 1
365 695 1
365 704 1
365 742 1
365 769 1
365 783 1
365 793 1
366 5 1
366 26 1
366 41 1
366 138 1
366 150 1
366 163 1
366 174 1
366 181 1
366 198 1
366 214 1
366 238 1
366 246 1
366 261 1
366 266 1
366 276 1
366 295 1
366 302 1
366 329 1
366 337 1
366 347 1
366 360 1
366 374 1
366 385 1
366 401 1
366 436 1
366 440 1
366 452 1
366 469 1
366 473 1
366 475 1
366 493 1
366 500 1
366 526 1
366 530 1
366 537 1
366 542 1
366 559 1
366 572 1
366 626 1
366 630 1
366 648 1
366 650 1
366 664 1
366 667 1
366 720 1
366 725 1
366 726 1
366 741 1
366 748 1
366 750 1
366 771 1
366 773 1
366 788 1
367 7 1
367 11 1
367 19 1
367 21 1
367 42 1
367 104 1
367 140 1
367 161 1
367 166 1
367 178 1
367 196 1
367 199 1
367 231 1
367 233 1
367 244 1
367 261 1
367 265 1
367 282 1
367 301 1
367 351 1
367 352 1
367 369 1
367 384 1
367 414 1
367 441 1
367 462 1
367 469 1
367 544 1
367 552 1
367 564 1
367 567 1
367 585 1
367 592 1
367 617 1
367 623 1
367 694 1
367 696 1
367 701 1
367 730 1
367 771 1
368 20 1
368 29 1
368 37 1
368 48 1
368 49 1
368 57 1
368 92 1
368 123 1
368 141 1
368 201 1
368 213 1
368 238 1
368 255 1
368 272 1
368 297 1
368 307 1
368 311 1
368 329 1
368 352 1
368 359 1
368 365 1
368 369 1
368 370 1
368 414 1
368 442 1
368 448 1
368 455 1
368 461 1
368 462 1
368 466 1
368 479 1
368 485 1
368 512 1
368 514 1
368 534 1
368 553 1
368 559 1
368 561 1
368 600 1
368 609 1
368 612 1
368 695 1
368 709 1
368 712 1
368 740 1
368 757 1
368 759 1
368 778 1
369 38 1
369 43 1
369 50 1
369 68 1
369 91 1
369 102 1
369 115 1
369 138 1
369 141 1
369 158 1
369 173 1
369 176 1
369 195 1
369 196 1
369 199 1
369 212 1
369 253 1
369 278 1
369 306 1
369 332 1
369 333 1
369 357 1
369 367 1
369 368 1
369 373 1
369 380 1
369 400 1
369 411 1
369 413 1
369 435 1
369 456 1
369 469 1
369 480 1
369 501 1
369 504 1
369 513 1
369 542 1
369 545 1
369 553 1
369 557 1
369 576 1
369 584 1
369 600 1
369 607 1
369 608 1
369 613 1
369 622 1
369 678 1
369 682 1
369 690 1
369 691 1
369 709 1
369 714 1
369 720 1
369 727 1
369 747 1
369 754 1
369 759 1
369 786 1
369 792 1
370 16 1
370 44 1
370 55 1
370 75 1
370 116 1
370 174 1
370 175 1
370 176 1
370 241 1
370 246 1
370 257 1
370 293 1
370 320 1
370 334 1
370 339 1
370 368 1
370 374 1
370 381 1
370 400 1
370 403 1
370 408 1
370 409 1
370 432 1
370 433 1
370 444 1
370 473 1
370 477 1
370 479 1
370 491 1
370 498 1
370 543 1
370 592 1
370 595 1
370 599 1
370 643 1
370 646 1
370 679 1
370 694 1
370 719 1
370 729 1
370 745 1
370 753 1
370 761 1
370 763 1
370 775 1
370 779 1
371 5 1
371 12 1
371 43 1
371 54 1
371 57 1
371 105 1
371 109 1
371 173 1
371 177 1
371 180 1
371 185 1
371 216 1
371 231 1
371 242 1
371 270 1
371 278 1
371 307 1
371 346 1
371 379 1
371 398 1
371 400 1
371 432 1
371 434 1
371 441 1
371 443 1
371 449 1
371 450 1
371 468 1
371 472 1
371 476 1
371 481 1
371 508 1
371 540 1
371 542 1
371 553 1
371 555 1
371 556 1
371 566 1
371 574 1
371 612 1
371 648 1
371 718 1
371 724 1
371 730 1
371 733 1
371 759 1
371 779 1
372 23 1
372 27 1
372 33 1
372 42 1
372 125 1
372 134 1
372 135 1
372 137 1
372 140 1
372 153 1
372 159 1
372 165 1
372 182 1
372 188 1
372 264 1
372 282 1
372 289 1
372 297 1
372 298 1
372 305 1
372 380 1
372 391 1
372 437 1
372 446 1
372 477 1
372 481 1
372 482 1
372 502 1
372 515 1
372 542 1
372 546 1
372 567 1
372 605 1
372 617 1
372 634 1
372 657 1
372 690 1
372 691 1
372 695 1
372 718 1
372 747 1
372 749 1
372 769 1
372 791 1
373 1 1
373 10 1
373 38 1
373 77 1
373 89 1
373 93 1
373 101 1
373 113 1
373 114 1
373 118 1
373 124 1
373 170 1
373 191 1
373 202 1
373 226 1
373 261 1
373 275 1
373 284 1
373 288 1
373 299 1
373 309 1
373 315 1
373 355 1
373 369 1
373 395 1
373 425 1
373 471 1
373 473 1
373 519 1
373 524 1
373 528 1
373 572 1
373 611 1
373 622 1
373 640 1
373 689 1
373 706 1
373 767 1
373 778 1
373 783 1
373 793 1
373 800 1
374 42 1
374 43 1
374 57 1
374 74 1
374 88 1
374 90 1
374 108 1
374 112 1
374 133 1
374 153 1
374 160 1
374 178 1
374 186 1
374 199 1
374 206 1
374 228 1
374 251 1
374 282 1
374 288 1
374 292 1
374 297 1
374 330 1
374 337 1
374 353 1
374 363 1
374 364 1
374 366 1
374 370 1
374 381 1
374 400 1
374 417 1
374 420 1
374 430 1
374 458 1
374 489 1
374 491 1
374 530 1
374 544 1
374 561 1
374 568 1
374 594 1
374 598 1
374 661 1
374 679 1
374 686 1
374 723 1
374 724 1
374 736 1
374 753 1
374 758 1
374 786 1
375 24 1
375 30 1
375 70 1
375 86 1
375 111 1
375 136 1
375 137 1
375 141 1
375 149 1
375 164 1
375 169 1
375 176 1
375 191 1
375 251 1
375 260 1
375 275 1
375 287 1
375 305 1
375 313 1
375 314 1
375 342 1
375 343 1
375 347 1
375 387 1
375 393 1
375 395 1
375 398 1
375 405 1
375 422 1
375 455 1
375 468 1
375 514 1
375 525 1
375 552 1
375 554 1
375 604 1
375 631 1
375 674 1
375 685 1
375 688 1
375 690 1
375 696 1
375 704 1
375 710 1
375 711 1
375 712 1
375 721 1
375 763 1
376 4 1
376 6 1
376 18 1
376 20 1
376 22 1
376 33 1
376 40 1
376 62 1
376 70 1
376 72 1
376 88 1
376 92 1
376 109 1
376 120 1
376 149 1
376 187 1
376 212 1
376 222 1
376 241 1
376 245 1
376 257 1
376 273 1
376 298 1
376 304 1
376 311 1
376 319 1
376 352 1
376 356 1
376 438 1
376 447 1
376 450 1
376 467 1
376 476 1
376 497 1
376 504 1
376 529 1
376 538 1
376 550 1
376 554 1
376 660 1
376 663 1
376 701 1
376 725 1
376 739 1
376 740 1
376 743 1
377 2 1
377 4 1
377 28 1
377 57 1
377 60 1
377 69 1
377 87 1
377 110 1
377 124 1
377 153 1
377 156 1
377 158 1
377 163 1
377 169 1
377 194 1
377 197 1
377 208 1
377 234 1
377 248 1
377 273 1
377 275 1
377 277 1
377 284 1
377 294 1
377 348 1
377 349 1
377 383 1
377 394 1
377 468 1
377 483 1
377 484 1
377 485 1
377 532 1
377 550 1
377 567 1
377 615 1
377 620 1
377 636 1
377 646 1
377 647 1
377 664 1
377 670 1
377 695 1
377 702 1
377 710 1
377 714 1
377 738 1
377 756 1
377 769 1
378 1 1
378 4 1
378 6 1
378 31 1
378 39 1
378 45 1
378 60 1
378 64 1
378 78 1
378 124 1
378 132 1
378 152 1
378 154 1
378 216 1
378 225 1
378 234 1
378 302 1
378 334 1
378 337 1
378 355 1
378 387 1
378 388 1
378 400 1
378 408 1
378 426 1
378 442 1
378 456 1
378 476 1
378 485 1
378 487 1
378 498 1
378 521 1
378 539 1
378 548 1
378 555 1
378 586 1
378 613 1
378 614 1
378 632 1
378 635 1
378 638 1
378 645 1
378 646 1
378 655 1
378 691 1
378 701 1
378 710 1
378 714 1
378 727 1
378 730 1
378 748 1
378 797 1
379 6 1
379 83 1
379 92 1
379 129 1
379 131 1
379 137 1
379 140 1
379 151 1
379 161 1
379 173 1
379 198 1
379 202 1
379 220 1
379 242 1
379 277 1
379 302 1
379 318 1
379 326 1
379 330 1
379 332 1
379 350 1
379 359 1
379 371 1
379 380 1
379 412 1
379 432 1
379 451 1
379 458 1
379 472 1
379 476 1
379 481 1
379 487 1
379 527 1
379 577 1
379 597 1
379 609 1
379 638 1
379 641 1
379 651 1
379 667 1
379 689 1
379 737 1
379 767 1
379 774 1
380 24 1
380 27 1
380 82 1
380 86 1
380 93 1
380 103 1
380 121 1
380 160 1
380 174 1
380 190 1
380 238 1
380 240 1
380 254 1
380 264 1
380 280 1
380 281 1
380 289 1
380 294 1
380 306 1
380 369 1
380 372 1
380 379 1
380 397 1
380 410 1
380 474 1
380 510 1
380 514 1
380 518 1
380 530 1
380 535 1
380 537 1
380 543 1
380 587 1
380 590 1
380 600 1
380 601 1
380 610 1
380 619 1
380 620 1
380 622 1
380 633 1
380 655 1
380 657 1
380 676 1
380 678 1
380 698 1
380 728 1
380 729 1
380 738 1
380 745 1
380 756 1
380 779 1
380 784 1
380 788 1
381 3 1
381 13 1
381 20 1
381 23 1
381 34 1
381 38 1
381 47 1
381 56 1
381 63 1
381 75 1
381 80 1
381 120 1
381 126 1
381 152 1
381 161 1
381 183 1
381 192 1
381 210 1
381 230 1
381 273 1
381 344 1
381 370 1
381 374 1
381 394 1
381 408 1
381 433 1
381 453 1
381 461 1
381 505 1
381 508 1
381 549 1
381 557 1
381 564 1
381 577 1
381 602 1
381 604 1
381 607 1
381 637 1
381 662 1
381 699 1
381 728 1
381 732 1
381 752 1
381 765 1
382 5 1
382 30 1
382 68 1
382 87 1
382 89 1
382 93 1
382 151 1
382 161 1
382 168 1
382 176 1
382 181 1
382 210 1
382 211 1
382 224 1
382 235 1
382 245 1
382 274 1
382 280 1
382 284 1
382 327 1
382 335 1
382 340 1
382 352 1
382 410 1
382 426 1
382 438 1
382 446 1
382 458 1
382 476 1
382 480 1
382 483 1
382 487 1
382 518 1
382 524 1
382 529 1
382 544 1
382 549 1
382 559 1
382 563 1
382 568 1
382 593 1
382 636 1
382 671 1
382 691 1
382 695 1
382 707 1
382 717 1
382 722 1
382 790 1
383 18 1
383 45 1
383 46 1
383 51 1
383 59 1
383 62 1
383 64 1
383 83 1
383 84 1
383 91 1
383 99 1
383 103 1
383 108 1
383 124 1
383 169 1
383 185 1
383 245 1
383 288 1
383 350 1
383 352 1
383 353 1
383 377 1
383 398 1
383 412 1
383 416 1
383 435 1
383 436 1
383 475 1
383 489 1
383 492 1
383 501 1
383 523 1
383 534 1
383 535 1
383 546 1
383 547 1
383 573 1
383 591 1
383 594 1
383 618 1
383 685 1
383 687 1
383 704 1
383 745 1
383 765 1
383 772 1
383 792 1
384 2 1
384 41 1
384 51 1
384 68 1
384 78 1
384 88 1
384 100 1
384 101 1
384 107 1
384 130 1
384 150 1
384 195 1
384 197 1
384 211 1
384 215 1
384 237 1
384 248 1
384 261 1
384 281 1
384 312 1
384 324 1
384 342 1
384 367 1
384 387 1
384 418 1
384 420 1
384 428 1
384 430 1
384 457 1
384 463 1
384 474 1
384 486 1
384 489 1
384 504 1
384 505 1
384 510 1
384 540 1
384 569 1
384 574 1
384 589 1
384 610 1
384 627 1
384 630 1
384 690 1
384 700 1
384 723 1
384 734 1
384 749 1
384 754 1
384 755 1
384 758 1
384 760 1
384 778 1
384 789 1
384 794 1
384 799 1
385 2 1
385 11 1
385 25 1
385 31 1
385 60 1
385 64 1
385 65 1
385 73 1
385 80 1
385 81 1
385 107 1
385 116 1
385 126 1
385 131 1
385 141 1
385 182 1
385 186 1
385 189 1
385 212 1
385 230 1
385 245 1
385 257 1
385 263 1
385 285 1
385 303 1
385 305 1
385 366 1
385 421 1
385 422 1
385 461 1
385 504 1
385 552 1
385 573 1
385 588 1
385 628 1
385 629 1
385 660 1
385 716 1
385 750 1
385 764 1
385 784 1
385 789 1
385 793 1
385 794 1
385 798 1
385 799 1
386 3 1
386 4 1
386 7 1
386 34 1
386 39 1
386 44 1
386 56 1
386 73 1
386 140 1
386 153 1
386 167 1
386 181 1
386 188 1
386 210 1
386 223 1
386 244 1
386 264 1
386 270 1
386 272 1
386 276 1
386 284 1
386 321 1
386 341 1
386 352 1
386 356 1
386 361 1
386 398 1
386 422 1
386 428 1
386 444 1
386 448 1
386 469 1
386 471 1
386 472 1
386 473 1
386 489 1
386 522 1
386 541 1
386 551 1
386 556 1
386 592 1
386 619 1
386 624 1
386 632 1
386 651 1
386 653 1
386 676 1
386 715 1
386 738 1
386 753 1
386 766 1
386 777 1
387 6 1
387 13 1
387 29 1
387 30 1
387 64 1
387 87 1
387 90 1
387 93 1
387 105 1
387 125 1
387 168 1
387 171 1
387 222 1
387 231 1
387 233 1
387 238 1
387 239 1
387 296 1
387 318 1
387 319 1
387 322 1
387 360 1
387 362 1
387 375 1
387 378 1
387 384 1
387 409 1
387 421 1
387 422 1
387 423 1
387 450 1
387 456 1
387 465 1
387 500 1
387 506 1
387 510 1
387 517 1
387 540 1
387 548 1
387 551 1
387 599 1
387 607 1
387 608 1
387 627 1
387 643 1
387 651 1
387 661 1
387 673 1
387 678 1
387 696 1
387 715 1
387 738 1
387 764 1
387 773 1
387 792 1
387 798 1
388 10 1
388 21 1
388 28 1
388 32 1
388 49 1
388 62 1
388 77 1
388 157 1
388 160 1
388 167 1
388 176 1
388 205 1
388 221 1
388 223 1
388 225 1
388 234 1
388 249 1
388 260 1
388 261 1
388 265 1
388 268 1
388 280 1
388 286 1
388 287 1
388 344 1
388 351 1
388 378 1
388 396 1
388 429 1
388 477 1
388 479 1
388 485 1
388 486 1
388 499 1
388 516 1
388 527 1
388 533 1
388 536 1
388 537 1
388 547 1
388 551 1
388 567 1
388 580 1
388 585 1
388 611 1
388 619 1
388 620 1
388 627 1
388 630 1
388 653 1
388 656 1
388 681 1
388 694 1
388 696 1
388 703 1
388 713 1
388 720 1
388 750 1
388 753 1
388 762 1
388 767 1
388 769 1
388 782 1
389 2 1
389 40 1
389 80 1
389 90 1
389 96 1
389 106 1
389 125 1
389 178 1
389 182 1
389 199 1
389 245 1
389 253 1
389 278 1
389 291 1
389 303 1
389 309 1
389 356 1
389 359 1
389 408 1
389 420 1
389 422 1
389 423 1
389 430 1
389 432 1
389 471 1
389 489 1
389 490 1
389 505 1
389 515 1
389 516 1
389 518 1
389 521 1
389 541 1
389 550 1
389 555 1
389 566 1
389 606 1
389 607 1
389 611 1
389 645 1
389 649 1
389 652 1
389 663 1
389 714 1
389 751 1
389 753 1
389 764 1
389 779 1
390 6 1
390 8 1
390 30 1
390 43 1
390 52 1
390 56 1
390 57 1
390 63 1
390 81 1
390 95 1
390 103 1
390 104 1
390 143 1
390 149 1
390 160 1
390 162 1
390 173 1
390 184 1
390 197 1
390 199 1
390 215 1
390 242 1
390 251 1
390 275 1
390 281 1
390 288 1
390 312 1
390 347 1
390 405 1
390 407 1
390 415 1
390 423 1
390 424 1
390 443 1
390 463 1
390 464 1
390 489 1
390 506 1
390 566 1
390 570 1
390 588 1
390 594 1
390 624 1
390 625 1
390 652 1
390 681 1
390 702 1
390 721 1
390 727 1
390 742 1
390 764 1
390 778 1
390 798 1
391 38 1
391 74 1
391 116 1
391 118 1
391 151 1
391 166 1
391 168 1
391 174 1
391 183 1
391 185 1
391 204 1
391 222 1
391 247 1
391 293 1
391 294 1
391 298 1
391 301 1
391 312 1
391 320 1
391 324 1
391 327 1
391 356 1
391 372 1
391 427 1
391 439 1
391 462 1
391 465 1
391 469 1
391 473 1
391 504 1
391 505 1
391 509 1
391 526 1
391 554 1
391 557 1
391 560 1
391 591 1
391 608 1
391 612 1
391 616 1
391 618 1
391 627 1
391 636 1
391 689 1
391 710 1
391 744 1
391 749 1
391 764 1
391 768 1
391 797 1
392 23 1
392 24 1
392 33 1
392 41 1
392 42 1
392 48 1
392 87 1
392 118 1
392 120 1
392 135 1
392 166 1
392 187 1
392 214 1
392 231 1
392 237 1
392 255 1
392 286 1
392 297 1
392 320 1
392 331 1
392 334 1
392 342 1
392 344 1
392 348 1
392 349 1
392 358 1
392 396 1
392 408 1
392 410 1
392 540 1
392 541 1
392 555 1
392 563 1
392 566 1
392 568 1
392 582 1
392 612 1
392 635 1
392 636 1
392 661 1
392 666 1
392 669 1
392 683 1
392 701 1
392 713 1
392 726 1
392 752 1
392 765 1
392 777 1
392 785 1
393 32 1
393 41 1
393 76 1
393 83 1
393 85 1
393 88 1
393 98 1
393 126 1
393 128 1
393 145 1
393 146 1
393 152 1
393 169 1
393 233 1
393 265 1
393 268 1
393 276 1
393 297 1
393 304 1
393 342 1
393 375 1
393 397 1
393 432 1
393 452 1
393 456 1
393 481 1
393 529 1
393 539 1
393 548 1
393 574 1
393 607 1
393 613 1
393 651 1
393 671 1
393 676 1
393 694 1
393 706 1
393 710 1
393 720 1
393 724 1
393 749 1
393 767 1
393 800 1
394 23 1
394 32 1
394 35 1
394 40 1
394 41 1
394 43 1
394 51 1
394 76 1
394 83 1
394 96 1
394 103 1
394 127 1
394 149 1
394 150 1
394 151 1
394 167 1
394 170 1
394 183 1
394 193 1
394 202 1
394 223 1
394 251 1
394 257 1
394 270 1
394 278 1
394 377 1
394 381 1
394 407 1
394 433 1
394 458 1
394 462 1
394 522 1
394 530 1
394 540 1
394 598 1
394 608 1
394 619 1
394 629 1
394 636 1
394 692 1
394 701 1
394 738 1
394 741 1
394 745 1
394 751 1
394 754 1
394 758 1
394 765 1
394 791 1
395 30 1
395 35 1
395 40 1
395 47 1
395 88 1
395 112 1
395 113 1
395 119 1
395 161 1
395 202 1
395 209 1
395 254 1
395 260 1
395 270 1
395 273 1
395 285 1
395 318 1
395 319 1
395 320 1
395 373 1
395 375 1
395 409 1
395 423 1
395 429 1
395 438 1
395 446 1
395 465 1
395 481 1
395 482 1
395 502 1
395 524 1
395 528 1
395 538 1
395 540 1
395 547 1
395 581 1
395 582 1
395 607 1
395 622 1
395 637 1
395 639 1
395 656 1
395 679 1
395 684 1
395 687 1
395 699 1
395 712 1
395 720 1
395 744 1
395 761 1
395 784 1
396 14 1
396 23 1
396 31 1
396 32 1
396 46 1
396 50 1
396 61 1
396 72 1
396 85 1
396 93 1
396 143 1
396 192 1
396 236 1
396 246 1
396 249 1
396 253 1
396 259 1
396 260 1
396 261 1
396 263 1
396 267 1
396 276 1
396 289 1
396 314 1
396 316 1
396 335 1
396 362 1
396 364 1
396 388 1
396 392 1
396 397 1
396 401 1
396 408 1
396 412 1
396 416 1
396 421 1
396 436 1
396 447 1
396 459 1
396 461 1
396 467 1
396 475 1
396 484 1
396 503 1
396 518 1
396 532 1
396 543 1
396 563 1
396 567 1
396 625 1
396 634 1
396 641 1
396 653 1
396 670 1
396 686 1
396 698 1
396 699 1
396 701 1
396 726 1
396 754 1
397 3 1
397 9 1
397 12 1
397 42 1
397 47 1
397 58 1
397 72 1
397 81 1
397 93 1
397 150 1
397 158 1
397 164 1
397 166 1
397 176 1
397 213 1
397 244 1
397 258 1
397 273 1
397 323 1
397 338 1
397 380 1
397 393 1
397 396 1
397 410 1
397 423 1
397 436 1
397 439 1
397 463 1
397 468 1
397 505 1
397 508 1
397 548 1
397 554 1
397 558 1
397 573 1
397 579 1
397 606 1
397 657 1
397 667 1
397 681 1
397 720 1
397 749 1
397 753 1
397 760 1
398 18 1
398 22 1
398 77 1
398 81 1
398 95 1
398 111 1
398 112 1
398 121 1
398 166 1
398 200 1
398 206 1
398 242 1
398 261 1
398 271 1
398 329 1
398 339 1
398 345 1
398 371 1
398 375 1
398 383 1
398 386 1
398 410 1
398 418 1
398 422 1
398 429 1
398 455 1
398 486 1
398 508 1
398 546 1
398 552 1
398 555 1
398 589 1
398 611 1
398 618 1
398 627 1
398 636 1
398 645 1
398 651 1
398 661 1
398 672 1
398 680 1
398 696 1
398 735 1
398 737 1
398 745 1
398 754 1
398 767 1
398 788 1
398 795 1
399 14 1
399 18 1
399 21 1
399 75 1
399 78 1
399 91 1
399 104 1
399 114 1
399 133 1
399 143 1
399 148 1
399 150 1
399 153 1
399 182 1
399 196 1
399 212 1
399 221 1
399 242 1
399 250 1
399 264 1
399 271 1
399 276 1
399 281 1
399 296 1
399 309 1
399 334 1
399 340 1
399 360 1
399 424 1
399 445 1
399 464 1
399 466 1
399 487 1
399 489 1
399 490 1
399 506 1
399 545 1
399 548 1
399 557 1
399 558 1
399 573 1
399 615 1
399 653 1
399 656 1
399 689 1
399 713 1
399 723 1
399 739 1
399 750 1
399 754 1
399 757 1
400 13 1
400 19 1
400 31 1
400 48 1
400 65 1
400 67 1
400 72 1
400 80 1
400 85 1
400 97 1
400 103 1
400 135 1
400 157 1
400 197 1
400 247 1
400 270 1
400 295 1
400 304 1
400 315 1
400 331 1
400 349 1
400 369 1
400 370 1
400 371 1
400 374 1
400 378 1
400 412 1
400 419 1
400 425 1
400 435 1
400 538 1
400 557 1
400 566 1
400 569 1
400 573 1
400 588 1
400 624 1
400 637 1
400 638 1
400 641 1
400 648 1
400 649 1
400 654 1
400 699 1
400 714 1
400 732 1
400 752 1
400 774 1
400 775 1
400 787 1
401 2 1
401 7 1
401 18 1
401 20 1
401 53 1
401 83 1
401 96 1
401 97 1
401 100 1
401 101 1
401 136 1
401 167 1
401 172 1
401 174 1
401 179 1
401 180 1
401 215 1
401 224 1
401 246 1
401 261 1
401 262 1
401 314 1
401 325 1
401 331 1
401 333 1
401 365 1
401 366 1
401 396 1
401 452 1
401 453 1
401 454 1
401 468 1
401 486 1
401 489 1
401 490 1
401 494 1
401 507 1
401 536 1
401 568 1
401 585 1
401 593 1
401 616 1
401 620 1
401 626 1
401 627 1
401 636 1
401 638 1
401 661 1
401 704 1
401 709 1
401 756 1
401 789 1
402 14 1
402 17 1
402 22 1
402 34 1
402 41 1
402 56 1
402 71 1
402 77 1
402 113 1
402 115 1
402 116 1
402 130 1
402 168 1
402 173 1
402 177 1
402 188 1
402 228 1
402 245 1
402 268 1
402 278 1
402 280 1
402 297 1
402 304 1
402 307 1
402 313 1
402 315 1
402 325 1
402 341 1
402 403 1
402 431 1
402 456 1
402 461 1
402 465 1
402 484 1
402 505 1
402 514 1
402 524 1
402 530 1
402 546 1
402 566 1
402 568 1
402 570 1
402 579 1
402 580 1
402 634 1
402 669 1
402 684 1
402 692 1
402 710 1
402 727 1
402 731 1
403 74 1
403 117 1
403 122 1
403 126 1
403 147 1
403 151 1
403 177 1
403 181 1
403 192 1
403 307 1
403 327 1
403 335 1
403 346 1
403 370 1
403 402 1
403 418 1
403 441 1
403 458 1
403 463 1
403 466 1
403 500 1
403 502 1
403 510 1
403 543 1
403 593 1
403 594 1
403 595 1
403 606 1
403 631 1
403 658 1
403 677 1
403 686 1
403 699 1
403 726 1
403 751 1
403 792 1
403 797 1
404 21 1
404 27 1
404 59 1
404 79 1
404 83 1
404 123 1
404 169 1
404 170 1
404 194 1
404 203 1
404 204 1
404 231 1
404 234 1
404 245 1
404 248 1
404 273 1
404 280 1
404 284 1
404 290 1
404 292 1
404 298 1
404 317 1
404 323 1
404 407 1
404 415 1
404 421 1
404 422 1
404 425 1
404 431 1
404 445 1
404 551 1
404 578 1
404 584 1
404 593 1
404 600 1
404 601 1
404 615 1
404 621 1
404 637 1
404 640 1
404 670 1
404 676 1
404 688 1
404 693 1
404 761 1
404 762 1
404 774 1
404 790 1
405 59 1
405 64 1
405 67 1
405 97 1
405 116 1
405 121 1
405 124 1
405 162 1
405 173 1
405 183 1
405 185 1
405 202 1
405 213 1
405 220 1
405 230 1
405 268 1
405 270 1
405 283 1
405 293 1
405 319 1
405 336 1
405 356 1
405 357 1
405 361 1
405 375 1
405 390 1
405 406 1
405 423 1
405 434 1
405 472 1
405 478 1
405 581 1
405 597 1
405 608 1
405 621 1
405 623 1
405 630 1
405 648 1
405 650 1
405 696 1
405 697 1
405 707 1
405 730 1
405 750 1
405 758 1
405 770 1
405 793 1
405 799 1
406 23 1
406 35 1
406 59 1
406 78 1
406 80 1
406 85 1
406 100 1
406 139 1
406 142 1
406 153 1
406 182 1
406 188 1
406 205 1
406 235 1
406 240 1
406 251 1
406 273 1
406 289 1
406 290 1
406 298 1
406 304 1
406 306 1
406 318 1
406 327 1
406 330 1
406 334 1
406 350 1
406 352 1
406 355 1
406 405 1
406 413 1
406 428 1
406 492 1
406 495 1
406 497 1
406 520 1
406 521 1
406 531 1
406 535 1
406 540 1
406 551 1
406 555 1
406 561 1
406 572 1
406 578 1
406 590 1
406 600 1
406 604 1
406 621 1
406 635 1
406 659 1
406 663 1
406 684 1
406 695 1
406 698 1
406 711 1
406 772 1
407 24 1
407 46 1
407 48 1
407 77 1
407 121 1
407 145 1
407 171 1
407 182 1
407 183 1
407 186 1
407 191 1
407 193 1
407 208 1
407 214 1
407 222 1
407 251 1
407 268 1
407 276 1
407 277 1
407 309 1
407 340 1
407 347 1
407 390 1
407 394 1
407 404 1
407 419 1
407 462 1
407 503 1
407 528 1
407 567 1
407 570 1
407 612 1
407 645 1
407 686 1
407 698 1
407 740 1
407 744 1
407 757 1
407 764 1
407 775 1
407 777 1
408 11 1
408 17 1
408 31 1
408 75 1
408 80 1
408 109 1
408 112 1
408 115 1
408 123 1
408 127 1
408 233 1
408 246 1
408 255 1
408 328 1
408 348 1
408 356 1
408 370 1
408 378 1
408 381 1
408 389 1
408 392 1
408 396 1
408 419 1
408 440 1
408 471 1
408 474 1
408 480 1
408 486 1
408 492 1
408 503 1
408 524 1
408 529 1
408 540 1
408 550 1
408 557 1
408 563 1
408 566 1
408 571 1
408 586 1
408 588 1
408 607 1
408 612 1
408 619 1
408 621 1
408 626 1
408 636 1
408 667 1
408 674 1
408 678 1
408 694 1
408 700 1
408 706 1
408 732 1
408 757 1
408 770 1
408 773 1
408 777 1
408 779 1
408 790 1
409 9 1
409 21 1
409 34 1
409 144 1
409 160 1
409 161 1
409 167 1
409 171 1
409 178 1
409 189 1
409 197 1
409 215 1
409 227 1
409 233 1
409 249 1
409 253 1
409 295 1
409 317 1
409 325 1
409 326 1
409 335 1
409 338 1
409 350 1
409 362 1
409 370 1
409 387 1
409 395 1
409 417 1
409 425 1
409 427 1
409 457 1
409 474 1
409 485 1
409 495 1
409 504 1
409 527 1
409 531 1
409 558 1
409 565 1
409 576 1
409 597 1
409 617 1
409 653 1
409 657 1
409 701 1
409 709 1
409 722 1
409 771 1
409 783 1
409 793 1
409 797 1
410 29 1
410 40 1
410 42 1
410 46 1
410 121 1
410 123 1
410 125 1
410 128 1
410 147 1
410 179 1
410 195 1
410 198 1
410 210 1
410 219 1
410 239 1
410 240 1
410 252 1
410 259 1
410 268 1
410 291 1
410 304 1
410 350 1
410 380 1
410 382 1
410 392 1
410 397 1
410 398 1
410 413 1
410 421 1
410 430 1
410 431 1
410 434 1
410 441 1
410 449 1
410 452 1
410 464 1
410 550 1
410 584 1
410 590 1
410 591 1
410 627 1
410 636 1
410 663 1
410 665 1
410 709 1
410 726 1
410 742 1
410 762 1
410 768 1
410 779 1
411 11 1
411 18 1
411 19 1
411 34 1
411 44 1
411 50 1
411 58 1
411 62 1
411 65 1
411 67 1
411 78 1
411 91 1
411 114 1
411 216 1
411 240 1
411 245 1
411 269 1
411 270 1
411 288 1
411 302 1
411 310 1
411 313 1
411 321 1
411 327 1
411 328 1
411 338 1
411 340 1
411 362 1
411 369 1
411 417 1
411 429 1
411 431 1
411 437 1
411 450 1
411 483 1
411 501 1
411 511 1
411 522 1
411 541 1
411 545 1
411 547 1
411 558 1
411 564 1
411 599 1
411 600 1
411 611 1
411 663 1
411 700 1
411 717 1
411 732 1
411 736 1
411 768 1
411 775 1
411 783 1
411 796 1
411 798 1
412 15 1
412 16 1
412 29 1
412 46 1
412 105 1
412 124 1
412 131 1
412 141 1
412 144 1
412 156 1
412 160 1
412 174 1
412 180 1
412 195 1
412 200 1
412 223 1
412 233 1
412 245 1
412 279 1
412 320 1
412 379 1
412 383 1
412 396 1
412 400 1
412 426 1
412 451 1
412 482 1
412 517 1
412 520 1
412 537 1
412 547 1
412 548 1
412 568 1
412 569 1
412 593 1
412 621 1
412 637 1
412 638 1
412 655 1
412 664 1
412 724 1
412 731 1
412 747 1
412 753 1
412 789 1
413 1 1
413 59 1
413 95 1
413 149 1
413 151 1
413 153 1
413 154 1
413 161 1
413 166 1
413 224 1
413 253 1
413 357 1
413 365 1
413 369 1
413 406 1
413 410 1
413 416 1
413 417 1
413 428 1
413 433 1
413 463 1
413 472 1
413 496 1
413 547 1
413 552 1
413 601 1
413 624 1
413 625 1
413 644 1
413 671 1
413 678 1
413 692 1
413 697 1
413 706 1
413 708 1
413 748 1
413 753 1
413 754 1
413 763 1
413 776 1
414 6 1
414 21 1
414 71 1
414 81 1
414 98 1
414 99 1
414 129 1
414 137 1
414 148 1
414 156 1
414 177 1
414 183 1
414 196 1
414 207 1
414 208 1
414 233 1
414 257 1
414 268 1
414 276 1
414 281 1
414 285 1
414 362 1
414 367 1
414 368 1
414 415 1
414 426 1
414 464 1
414 490 1
414 498 1
414 515 1
414 532 1
414 554 1
414 574 1
414 586 1
414 588 1
414 594 1
414 624 1
414 632 1
414 633 1
414 670 1
414 771 1
414 786 1
414 794 1
415 18 1
415 37 1
415 50 1
415 51 1
415 59 1
415 65 1
415 84 1
415 101 1
415 117 1
415 125 1
415 128 1
415 171 1
415 178 1
415 186 1
415 202 1
415 218 1
415 264 1
415 276 1
415 303 1
415 323 1
415 325 1
415 326 1
415 342 1
415 390 1
415 404 1
415 414 1
415 419 1
415 430 1
415 490 1
415 494 1
415 503 1
415 543 1
415 573 1
415 579 1
415 583 1
415 591 1
415 599 1
415 602 1
415 614 1
415 657 1
415 677 1
415 685 1
415 691 1
415 730 1
415 746 1
415 755 1
415 758 1
415 786 1
415 787 1
416 30 1
416 63 1
416 76 1
416 86 1
416 101 1
416 103 1
416 130 1
416 143 1
416 147 1
416 149 1
416 153 1
416 155 1
416 195 1
416 248 1
416 250 1
416 258 1
416 261 1
416 329 1
416 335 1
416 383 1
416 396 1
416 413 1
416 418 1
416 436 1
416 457 1
416 463 1
416 474 1
416 480 1
416 502 1
416 514 1
416 534 1
416 564 1
416 579 1
416 582 1
416 583 1
416 584 1
416 591 1
416 598 1
416 608 1
416 617 1
416 635 1
416 637 1
416 652 1
416 654 1
416 658 1
416 661 1
416 687 1
416 688 1
416 717 1
416 729 1
416 773 1
416 778 1
417 12 1
417 34 1
417 37 1
417 43 1
417 47 1
417 78 1
417 85 1
417 109 1
417 112 1
417 179 1
417 196 1
417 206 1
417 210 1
417 216 1
417 261 1
417 296 1
417 340 1
417 341 1
417 344 1
417 346 1
417 363 1
417 374 1
417 409 1
417 411 1
417 413 1
417 441 1
417 449 1
417 475 1
417 551 1
417 652 1
417 653 1
417 659 1
417 694 1
417 700 1
417 708 1
417 726 1
417 743 1
417 787 1
418 1 1
418 27 1
418 57 1
418 98 1
418 100 1
418 109 1
418 128 1
418 131 1
418 163 1
418 185 1
418 203 1
418 217 1
418 229 1
418 257 1
418 274 1
418 280 1
418 307 1
418 317 1
418 318 1
418 321 1
418 338 1
418 346 1
418 363 1
418 384 1
418 398 1
418 403 1
418 416 1
418 448 1
418 485 1
418 487 1
418 495 1
418 497 1
418 514 1
418 524 1
418 557 1
418 597 1
418 609 1
418 614 1
418 630 1
418 637 1
418 640 1
418 664 1
418 675 1
418 690 1
418 693 1
418 697 1
418 698 1
418 722 1
418 732 1
418 733 1
418 734 1
419 9 1
419 64 1
419 65 1
419 71 1
419 81 1
419 100 1
419 106 1
419 126 1
419 144 1
419 173 1
419 176 1
419 190 1
419 197 1
419 236 1
419 259 1
419 275 1
419 284 1
419 285 1
419 334 1
419 361 1
419 400 1
419 407 1
419 408 1
419 415 1
419 421 1
419 448 1
419 461 1
419 484 1
419 521 1
419 532 1
419 537 1
419 543 1
419 552 1
419 557 1
419 575 1
419 586 1
419 589 1
419 604 1
419 605 1
419 617 1
419 632 1
419 638 1
419 660 1
419 664 1
419 701 1
419 704 1
419 709 1
419 710 1
419 726 1
419 733 1
419 742 1
419 755 1
419 773 1
419 787 1
419 792 1
419 796 1
420 13 1
420 51 1
420 76 1
420 80 1
420 133 1
420 134 1
420 157 1
420 180 1
420 207 1
420 221 1
420 235 1
420 251 1
420 281 1
420 332 1
420 333 1
420 374 1
420 384 1
420 389 1
420 489 1
420 514 1
420 528 1
420 529 1
420 539 1
420 551 1
420 577 1
420 601 1
420 603 1
420 615 1
420 636 1
420 649 1
420 682 1
420 721 1
420 749 1
420 785 1
420 797 1
421 9 1
421 28 1
421 34 1
421 57 1
421 89 1
421 96 1
421 122 1
421 126 1
421 142 1
421 148 1
421 151 1
421 152 1
421 175 1
421 177 1
421 191 1
421 208 1
421 240 1
421 260 1
421 263 1
421 267 1
421 278 1
421 286 1
421 304 1
421 334 1
421 338 1
421 354 1
421 358 1
421 385 1
421 387 1
421 396 1
421 404 1
421 410 1
421 419 1
421 445 1
421 462 1
421 499 1
421 503 1
421 515 1
421 517 1
421 540 1
421 592 1
421 607 1
421 610 1
421 622 1
421 627 1
421 638 1
421 673 1
421 690 1
421 695 1
421 710 1
421 712 1
421 738 1
421 747 1
421 759 1
421 769 1
421 772 1
421 783 1
421 789 1
422 21 1
422 22 1
422 39 1
422 89 1
422 101 1
422 105 1
422 137 1
422 149 1
422 151 1
422 172 1
422 196 1
422 199 1
422 200 1
422 203 1
422 219 1
422 231 1
422 238 1
422 243 1
422 303 1
422 314 1
422 323 1
422 327 1
422 344 1
422 375 1
422 385 1
422 386 1
422 387 1
422 389 1
422 398 1
422 404 1
422 478 1
422 480 1
422 483 1
422 505 1
422 515 1
422 531 1
422 541 1
422 542 1
422 553 1
422 594 1
422 619 1
422 631 1
422 640 1
422 647 1
422 665 1
422 703 1
422 708 1
422 716 1
422 752 1
422 758 1
422 773 1
422 787 1
423 2 1
423 3 1
423 5 1
423 23 1
423 54 1
423 64 1
423 69 1
423 73 1
423 74 1
423 113 1
423 115 1
423 117 1
423 138 1
423 145 1
423 150 1
423 159 1
423 184 1
423 188 1
423 189 1
423 193 1
423 252 1
423 266 1
423 279 1
423 316 1
423 324 1
423 343 1
423 344 1
423 357 1
423 387 1
423 389 1
423 390 1
423 395 1
423 397 1
423 405 1
423 437 1
423 445 1
423 447 1
423 455 1
423 457 1
423 471 1
423 502 1
423 503 1
423 507 1
423 525 1
423 546 1
423 552 1
423 555 1
423 563 1
423 575 1
423 578 1
423 584 1
423 622 1
423 682 1
423 690 1
423 697 1
423 703 1
423 713 1
423 715 1
423 745 1
423 770 1
423 787 1
423 788 1
423 797 1
423 798 1
424 40 1
424 41 1
424 47 1
424 68 1
424 100 1
424 113 1
424 118 1
424 146 1
424 162 1
424 164 1
424 183 1
424 186 1
424 191 1
424 193 1
424 214 1
424 222 1
424 228 1
424 234 1
424 239 1
424 252 1
424 253 1
424 255 1
424 262 1
424 280 1
424 308 1
424 318 1
424 325 1
424 328 1
424 345 1
424 350 1
424 357 1
424 390 1
424 399 1
424 427 1
424 429 1
424 432 1
424 438 1
424 444 1
424 447 1
424 448 1
424 490 1
424 493 1
424 505 1
424 507 1
424 539 1
424 545 1
424 546 1
424 565 1
424 572 1
424 595 1
424 602 1
424 616 1
424 618 1
424 648 1
424 668 1
424 710 1
424 721 1
424 724 1
424 738 1
424 747 1
424 760 1
424 787 1
424 789 1
424 800 1
425 23 1
425 36 1
425 47 1
425 54 1
425 89 1
425 98 1
425 115 1
425 141 1
425 149 1
425 177 1
425 188 1
425 198 1
425 241 1
425 251 1
425 272 1
425 273 1
425 278 1
425 287 1
425 295 1
425 309 1
425 318 1
425 339 1
425 373 1
425 400 1
425 404 1
425 409 1
425 426 1
425 437 1
425 447 1
425 478 1
425 489 1
425 515 1
425 527 1
425 530 1
425 559 1
425 564 1
425 570 1
425 614 1
425 625 1
425 631 1
425 634 1
425 657 1
425 678 1
425 679 1
425 697 1
425 704 1
425 710 1
425 714 1
425 734 1
425 735 1
425 741 1
425 759 1
425 788 1
425 790 1
425 794 1
426 4 1
426 9 1
426 21 1
426 56 1
426 83 1
426 88 1
426 93 1
426 132 1
426 187 1
426 189 1
426 202 1
426 214 1
426 217 1
426 223 1
426 224 1
426 230 1
426 232 1
426 239 1
426 246 1
426 260 1
426 278 1
426 306 1
426 314 1
426 315 1
426 322 1
426 378 1
426 382 1
426 412 1
426 414 1
426 425 1
426 431 1
426 436 1
426 449 1
426 461 1
426 474 1
426 487 1
426 537 1
426 559 1
426 560 1
426 563 1
426 594 1
426 599 1
426 625 1
426 626 1
426 627 1
426 628 1
426 648 1
426 657 1
426 670 1
426 678 1
426 686 1
426 700 1
426 723 1
426 735 1
426 747 1
426 754 1
426 755 1
426 765 1
426 767 1
426 785 1
426 787 1
427 4 1
427 17 1
427 19 1
427 43 1
427 80 1
427 94 1
427 101 1
427 119 1
427 153 1
427 165 1
427 190 1
427 197 1
427 234 1
427 275 1
427 278 1
427 359 1
427 391 1
427 409 1
427 424 1
427 493 1
427 503 1
427 527 1
427 562 1
427 573 1
427 575 1
427 583 1
427 606 1
427 626 1
427 643 1
427 646 1
427 650 1
427 669 1
427 686 1
427 703 1
427 718 1
427 735 1
427 737 1
427 750 1
427 761 1
427 762 1
427 787 1
428 1 1
428 4 1
428 12 1
428 25 1
428 28 1
428 42 1
428 82 1
428 87 1
428 116 1
428 140 1
428 149 1
428 151 1
428 174 1
428 241 1
428 288 1
428 291 1
428 342 1
428 353 1
428 359 1
428 384 1
428 386 1
428 406 1
428 413 1
428 453 1
428 510 1
428 538 1
428 564 1
428 588 1
428 592 1
428 599 1
428 613 1
428 614 1
428 618 1
428 680 1
428 686 1
428 713 1
428 733 1
428 746 1
428 764 1
428 786 1
429 9 1
429 33 1
429 39 1
429 53 1
429 97 1
429 101 1
429 142 1
429 145 1
429 164 1
429 170 1
429 202 1
429 205 1
429 218 1
429 224 1
429 231 1
429 258 1
429 268 1
429 283 1
429 302 1
429 353 1
429 388 1
429 395 1
429 398 1
429 411 1
429 424 1
429 434 1
429 505 1
429 525 1
429 546 1
429 559 1
429 581 1
429 616 1
429 623 1
429 667 1
429 685 1
429 699 1
429 737 1
429 798 1
430 52 1
430 82 1
430 100 1
430 123 1
430 127 1
430 162 1
430 165 1
430 190 1
430 192 1
430 196 1
430 211 1
430 213 1
430 231 1
430 247 1
430 273 1
430 288 1
430 311 1
430 312 1
430 347 1
430 351 1
430 358 1
430 365 1
430 374 1
430 384 1
430 389 1
430 410 1
430 415 1
430 459 1
430 484 1
430 505 1
430 519 1
430 531 1
430 532 1
430 533 1
430 539 1
430 547 1
430 548 1
430 560 1
430 574 1
430 581 1
430 584 1
430 589 1
430 613 1
430 621 1
430 657 1
430 668 1
430 670 1
430 697 1
430 706 1
430 726 1
430 749 1
430 779 1
430 782 1
431 10 1
431 17 1
431 78 1
431 101 1
431 124 1
431 140 1
431 154 1
431 172 1
431 183 1
431 200 1
431 204 1
431 211 1
431 226 1
431 243 1
431 279 1
431 309 1
431 312 1
431 342 1
431 343 1
431 365 1
431 402 1
431 404 1
431 410 1
431 411 1
431 426 1
431 453 1
431 488 1
431 547 1
431 557 1
431 574 1
431 583 1
431 589 1
431 611 1
431 616 1
431 655 1
431 684 1
431 722 1
431 730 1
431 741 1
431 753 1
431 755 1
431 762 1
431 765 1
431 769 1
431 774 1
431 793 1
432 5 1
432 8 1
432 16 1
432 28 1
432 58 1
432 62 1
432 85 1
432 86 1
432 93 1
432 97 1
432 112 1
432 128 1
432 142 1
432 153 1
432 180 1
432 196 1
432 208 1
432 223 1
432 237 1
432 248 1
432 255 1
432 309 1
432 355 1
432 370 1
432 371 1
432 379 1
432 389 1
432 393 1
432 424 1
432 445 1
432 468 1
432 471 1
432 484 1
432 533 1
432 557 1
432 573 1
432 576 1
432 583 1
432 584 1
432 589 1
432 598 1
432 630 1
432 634 1
432 639 1
432 659 1
432 667 1
432 690 1
432 696 1
432 705 1
432 734 1
432 742 1
432 756 1
432 776 1
432 795 1
432 798 1
433 20 1
433 38 1
433 78 1
433 89 1
433 118 1
433 150 1
433 178 1
433 218 1
433 225 1
433 228 1
433 235 1
433 276 1
433 295 1
433 310 1
433 335 1
433 358 1
433 370 1
433 381 1
433 394 1
433 413 1
433 449 1
433 464 1
433 485 1
433 492 1
433 512 1
433 521 1
433 530 1
433 539 1
433 548 1
433 551 1
433 554 1
433 555 1
433 556 1
433 558 1
433 583 1
433 588 1
433 592 1
433 614 1
433 649 1
433 674 1
433 687 1
433 709 1
433 710 1
433 713 1
433 722 1
433 726 1
433 732 1
433 739 1
433 749 1
433 765 1
433 796 1
434 8 1
434 49 1
434 66 1
434 71 1
434 122 1
434 130 1
434 140 1
434 212 1
434 223 1
434 225 1
434 239 1
434 247 1
434 248 1
434 257 1
434 275 1
434 276 1
434 277 1
434 310 1
434 344 1
434 346 1
434 371 1
434 405 1
434 410 1
434 429 1
434 442 1
434 448 1
434 562 1
434 576 1
434 599 1
434 604 1
434 607 1
434 616 1
434 631 1
434 648 1
434 679 1
434 693 1
434 700 1
434 728 1
434 732 1
434 770 1
434 796 1
435 11 1
435 15 1
435 36 1
435 38 1
435 81 1
435 84 1
435 98 1
435 104 1
435 119 1
435 130 1
435 142 1
435 195 1
435 227 1
435 268 1
435 289 1
435 331 1
435 340 1
435 345 1
435 346 1
435 369 1
435 383 1
435 400 1
435 517 1
435 521 1
435 543 1
435 552 1
435 603 1
435 609 1
435 619 1
435 631 1
435 650 1
435 651 1
435 654 1
435 655 1
435 663 1
435 694 1
435 702 1
435 704 1
435 743 1
435 761 1
435 767 1
435 785 1
435 790 1
435 800 1
436 26 1
436 73 1
436 88 1
436 104 1
436 115 1
436 135 1
436 198 1
436 199 1
436 213 1
436 214 1
436 216 1
436 217 1
436 223 1
436 232 1
436 242 1
436 245 1
436 253 1
436 258 1
436 259 1
436 324 1
436 325 1
436 341 1
436 348 1
436 366 1
436 383 1
436 396 1
436 397 1
436 416 1
436 426 1
436 452 1
436 470 1
436 516 1
436 542 1
436 621 1
436 622 1
436 662 1
436 697 1
436 706 1
436 714 1
436 715 1
436 733 1
436 794 1
436 800 1
437 6 1
437 12 1
437 29 1
437 32 1
437 41 1
437 79 1
437 100 1
437 103 1
437 105 1
437 108 1
437 110 1
437 133 1
437 147 1
437 150 1
437 151 1
437 156 1
437 184 1
437 196 1
437 207 1
437 233 1
437 236 1
437 238 1
437 249 1
437 253 1
437 279 1
437 332 1
437 336 1
437 353 1
437 365 1
437 372 1
437 411 1
437 423 1
437 425 1
437 467 1
437 471 1
437 491 1
437 494 1
437 544 1
437 555 1
437 576 1
437 586 1
437 589 1
437 602 1
437 643 1
437 645 1
437 662 1
437 685 1
437 687 1
437 692 1
437 706 1
437 733 1
437 792 1
437 798 1
438 9 1
438 13 1
438 32 1
438 33 1
438 69 1
438 84 1
438 126 1
438 137 1
438 140 1
438 159 1
438 183 1
438 197 1
438 258 1
438 284 1
438 319 1
438 353 1
438 364 1
438 376 1
438 382 1
438 395 1
438 424 1
438 439 1
438 440 1
438 554 1
438 561 1
438 566 1
438 571 1
438 576 1
438 578 1
438 584 1
438 620 1
438 632 1
438 642 1
438 687 1
438 693 1
438 695 1
438 742 1
438 760 1
438 800 1
439 7 1
439 65 1
439 97 1
439 106 1
439 116 1
439 121 1
439 124 1
439 162 1
439 204 1
439 209 1
439 211 1
439 222 1
439 230 1
439 239 1
439 246 1
439 265 1
439 280 1
439 283 1
439 299 1
439 319 1
439 325 1
439 335 1
439 336 1
439 347 1
439 361 1
439 391 1
439 397 1
439 438 1
439 442 1
439 446 1
439 497 1
439 527 1
439 586 1
439 592 1
439 615 1
439 632 1
439 638 1
439 692 1
439 698 1
439 719 1
439 734 1
439 793 1
440 15 1
440 57 1
440 59 1
440 64 1
440 67 1
440 69 1
440 70 1
440 82 1
440 93 1
440 94 1
440 117 1
440 122 1
440 142 1
440 207 1
440 247 1
440 268 1
440 283 1
440 314 1
440 320 1
440 325 1
440 362 1
440 366 1
440 408 1
440 438 1
440 441 1
440 448 1
440 453 1
440 456 1
440 481 1
440 504 1
440 518 1
440 528 1
440 529 1
440 532 1
440 541 1
440 551 1
440 555 1
440 574 1
440 583 1
440 598 1
440 610 1
440 629 1
440 644 1
440 680 1
440 683 1
440 686 1
440 712 1
440 737 1
441 9 1
441 14 1
441 75 1
441 91 1
441 99 1
441 103 1
441 144 1
441 148 1
441 166 1
441 181 1
441 230 1
441 234 1
441 241 1
441 327 1
441 331 1
441 367 1
441 371 1
441 403 1
441 410 1
441 417 1
441 440 1
441 453 1
441 466 1
441 477 1
441 491 1
441 501 1
441 505 1
441 510 1
441 515 1
441 523 1
441 556 1
441 560 1
441 569 1
441 593 1
441 641 1
441 646 1
441 659 1
441 681 1
441 700 1
441 720 1
441 774 1
441 797 1
442 16 1
442 68 1
442 83 1
442 140 1
442 159 1
442 218 1
442 228 1
442 237 1
442 246 1
442 247 1
442 264 1
442 267 1
442 269 1
442 309 1
442 312 1
442 315 1
442 323 1
442 340 1
442 346 1
442 356 1
442 368 1
442 378 1
442 434 1
442 439 1
442 489 1
442 497 1
442 536 1
442 539 1
442 545 1
442 546 1
442 560 1
442 598 1
442 606 1
442 643 1
442 662 1
442 667 1
442 671 1
442 679 1
442 703 1
442 706 1
442 730 1
442 759 1
442 761 1
442 763 1
442 790 1
442 796 1
443 4 1
443 29 1
443 32 1
443 47 1
443 60 1
443 65 1
443 69 1
443 75 1
443 82 1
443 86 1
443 87 1
443 95 1
443 96 1
443 132 1
443 137 1
443 143 1
443 185 1
443 269 1
443 345 1
443 371 1
443 390 1
443 453 1
443 479 1
443 487 1
443 488 1
443 504 1
443 508 1
443 516 1
443 518 1
443 539 1
443 601 1
443 621 1
443 631 1
443 657 1
443 697 1
443 708 1
443 723 1
443 747 1
443 773 1
444 35 1
444 39 1
444 69 1
444 114 1
444 117 1
444 163 1
444 169 1
444 170 1
444 186 1
444 207 1
444 220 1
444 222 1
444 223 1
444 224 1
444 250 1
444 257 1
444 267 1
444 274 1
444 278 1
444 286 1
444 291 1
444 300 1
444 302 1
444 304 1
444 305 1
444 325 1
444 340 1
444 357 1
444 370 1
444 386 1
444 424 1
444 447 1
444 452 1
444 487 1
444 529 1
444 559 1
444 567 1
444 595 1
444 611 1
444 633 1
444 646 1
444 655 1
444 675 1
444 680 1
444 691 1
444 698 1
444 707 1
444 722 1
444 737 1
444 749 1
444 785 1
445 108 1
445 142 1
445 170 1
445 183 1
445 218 1
445 235 1
445 241 1
445 252 1
445 257 1
445 289 1
445 295 1
445 297 1
445 353 1
445 355 1
445 399 1
445 404 1
445 421 1
445 423 1
445 432 1
445 447 1
445 470 1
445 498 1
445 504 1
445 524 1
445 531 1
445 535 1
445 544 1
445 553 1
445 630 1
445 650 1
445 655 1
445 666 1
445 670 1
445 715 1
445 722 1
445 737 1
445 757 1
445 761 1
445 773 1
445 791 1
446 43 1
446 64 1
446 83 1
446 96 1
446 99 1
446 102 1
446 105 1
446 107 1
446 161 1
446 163 1
446 165 1
446 188 1
446 203 1
446 233 1
446 247 1
446 256 1
446 259 1
446 271 1
446 275 1
446 282 1
446 294 1
446 336 1
446 358 1
446 372 1
446 382 1
446 395 1
446 439 1
446 484 1
446 492 1
446 494 1
446 502 1
446 511 1
446 529 1
446 531 1
446 571 1
446 618 1
446 640 1
446 649 1
446 657 1
446 658 1
446 673 1
446 674 1
446 683 1
446 757 1
446 760 1
446 794 1
446 800 1
447 24 1
447 28 1
447 41 1
447 46 1
447 68 1
447 82 1
447 114 1
447 120 1
447 123 1
447 140 1
447 170 1
447 171 1
447 182 1
447 187 1
447 188 1
447 235 1
447 239 1
447 250 1
447 263 1
447 267 1
447 293 1
447 313 1
447 358 1
447 376 1
447 396 1
447 423 1
447 424 1
447 425 1
447 444 1
447 445 1
447 449 1
447 458 1
447 468 1
447 472 1
447 478 1
447 498 1
447 510 1
447 575 1
447 583 1
447 587 1
447 588 1
447 595 1
447 630 1
447 650 1
447 656 1
447 671 1
447 706 1
447 724 1
447 725 1
447 743 1
447 762 1
447 775 1
447 785 1
448 7 1
448 32 1
448 57 1
448 68 1
448 108 1
448 115 1
448 126 1
448 128 1
448 136 1
448 167 1
448 176 1
448 197 1
448 201 1
448 213 1
448 246 1
448 263 1
448 335 1
448 337 1
448 368 1
448 386 1
448 418 1
448 419 1
448 424 1
448 434 1
448 440 1
448 461 1
448 471 1
448 477 1
448 493 1
448 498 1
448 503 1
448 510 1
448 529 1
448 550 1
448 588 1
448 598 1
448 607 1
448 625 1
448 641 1
448 653 1
448 665 1
448 670 1
448 677 1
448 678 1
448 681 1
448 684 1
448 693 1
448 713 1
448 724 1
448 774 1
448 776 1
449 15 1
449 33 1
449 45 1
449 57 1
449 97 1
449 100 1
449 125 1
449 128 1
449 144 1
449 218 1
449 219 1
449 230 1
449 233 1
449 239 1
449 242 1
449 248 1
449 270 1
449 291 1
449 301 1
449 361 1
449 371 1
449 410 1
449 417 1
449 426 1
449 433 1
449 447 1
449 482 1
449 506 1
449 517 1
449 519 1
449 566 1
449 580 1
449 596 1
449 611 1
449 613 1
449 622 1
449 625 1
449 642 1
449 651 1
449 655 1
449 660 1
449 706 1
449 734 1
449 738 1
450 47 1
450 79 1
450 87 1
450 88 1
450 144 1
450 179 1
450 190 1
450 211 1
450 231 1
450 233 1
450 250 1
450 253 1
450 263 1
450 333 1
450 365 1
450 371 1
450 376 1
450 387 1
450 411 1
450 457 1
450 463 1
450 488 1
450 500 1
450 523 1
450 529 1
450 530 1
450 541 1
450 562 1
450 568 1
450 574 1
450 595 1
450 637 1
450 670 1
450 697 1
450 700 1
450 708 1
450 726 1
450 753 1
450 781 1
451 18 1
451 22 1
451 28 1
451 79 1
451 124 1
451 126 1
451 142 1
451 158 1
451 167 1
451 174 1
451 177 1
451 188 1
451 197 1
451 212 1
451 223 1
451 224 1
451 226 1
451 235 1
451 237 1
451 268 1
451 284 1
451 285 1
451 291 1
451 314 1
451 344 1
451 352 1
451 354 1
451 379 1
451 412 1
451 456 1
451 458 1
451 461 1
451 507 1
451 512 1
451 517 1
451 522 1
451 560 1
451 564 1
451 601 1
451 615 1
451 630 1
451 646 1
451 657 1
451 671 1
451 681 1
451 712 1
451 744 1
451 750 1
451 759 1
451 767 1
451 773 1
452 18 1
452 20 1
452 69 1
452 90 1
452 95 1
452 102 1
452 113 1
452 115 1
452 116 1
452 134 1
452 160 1
452 183 1
452 209 1
452 220 1
452 233 1
452 235 1
452 280 1
452 292 1
452 307 1
452 316 1
452 318 1
452 327 1
452 366 1
452 393 1
452 401 1
452 410 1
452 436 1
452 444 1
452 504 1
452 508 1
452 510 1
452 513 1
452 523 1
452 524 1
452 527 1
452 547 1
452 569 1
452 580 1
452 587 1
452 623 1
452 650 1
452 679 1
452 697 1
452 709 1
452 719 1
452 747 1
452 750 1
453 14 1
453 29 1
453 45 1
453 71 1
453 86 1
453 114 1
453 134 1
453 144 1
453 154 1
453 159 1
453 224 1
453 232 1
453 235 1
453 253 1
453 258 1
453 279 1
453 320 1
453 333 1
453 381 1
453 401 1
453 428 1
453 431 1
453 440 1
453 441 1
453 443 1
453 459 1
453 473 1
453 484 1
453 497 1
453 511 1
453 541 1
453 551 1
453 555 1
453 563 1
453 572 1
453 573 1
453 596 1
453 597 1
453 619 1
453 621 1
453 627 1
453 628 1
453 645 1
453 680 1
453 681 1
453 721 1
453 723 1
453 748 1
454 2 1
454 32 1
454 33 1
454 46 1
454 64 1
454 74 1
454 102 1
454 108 1
454 120 1
454 133 1
454 136 1
454 162 1
454 182 1
454 205 1
454 206 1
454 217 1
454 251 1
454 255 1
454 256 1
454 261 1
454 268 1
454 290 1
454 293 1
454 294 1
454 317 1
454 401 1
454 482 1
454 511 1
454 524 1
454 527 1
454 532 1
454 545 1
454 591 1
454 603 1
454 606 1
454 618 1
454 630 1
454 648 1
454 650 1
454 652 1
454 676 1
454 684 1
454 694 1
454 709 1
454 734 1
454 751 1
454 766 1
454 800 1
455 28 1
455 43 1
455 59 1
455 67 1
455 87 1
455 108 1
455 111 1
455 130 1
455 131 1
455 138 1
455 191 1
455 217 1
455 221 1
455 225 1
455 254 1
455 264 1
455 289 1
455 368 1
455 375 1
455 398 1
455 423 1
455 457 1
455 459 1
455 479 1
455 501 1
455 557 1
455 561 1
455 567 1
455 617 1
455 643 1
455 677 1
455 678 1
455 719 1
455 732 1
455 765 1
455 768 1
455 786 1
455 787 1
455 789 1
455 796 1
456 57 1
456 98 1
456 111 1
456 113 1
456 135 1
456 178 1
456 212 1
456 255 1
456 261 1
456 272 1
456 301 1
456 302 1
456 314 1
456 333 1
456 337 1
456 342 1
456 349 1
456 369 1
456 378 1
456 387 1
456 393 1
456 402 1
456 440 1
456 451 1
456 457 1
456 458 1
456 486 1
456 495 1
456 502 1
456 516 1
456 519 1
456 525 1
456 534 1
456 554 1
456 555 1
456 586 1
456 591 1
456 595 1
456 608 1
456 620 1
456 630 1
456 631 1
456 640 1
456 642 1
456 643 1
456 672 1
456 680 1
456 686 1
456 699 1
456 702 1
456 727 1
456 730 1
456 745 1
456 753 1
456 798 1
457 22 1
457 24 1
457 86 1
457 89 1
457 117 1
457 165 1
457 177 1
457 190 1
457 199 1
457 246 1
457 260 1
457 261 1
457 276 1
457 306 1
457 307 1
457 318 1
457 330 1
457 357 1
457 364 1
457 384 1
457 409 1
457 416 1
457 423 1
457 450 1
457 455 1
457 456 1
457 467 1
457 480 1
457 511 1
457 528 1
457 534 1
457 538 1
457 559 1
457 571 1
457 575 1
457 594 1
457 596 1
457 613 1
457 628 1
457 669 1
457 700 1
457 705 1
457 726 1
457 728 1
457 740 1
457 750 1
457 753 1
457 766 1
457 773 1
457 780 1
457 786 1
457 800 1
458 20 1
458 28 1
458 29 1
458 31 1
458 59 1
458 87 1
458 118 1
458 174 1
458 202 1
458 238 1
458 241 1
458 244 1
458 245 1
458 256 1
458 268 1
458 294 1
458 313 1
458 321 1
458 332 1
458 338 1
458 344 1
458 374 1
458 379 1
458 382 1
458 394 1
458 403 1
458 447 1
458 451 1
458 456 1
458 477 1
458 482 1
458 487 1
458 495 1
458 543 1
458 544 1
458 549 1
458 560 1
458 575 1
458 586 1
458 611 1
458 613 1
458 616 1
458 631 1
458 732 1
458 738 1
458 782 1
459 18 1
459 24 1
459 115 1
459 129 1
459 135 1
459 142 1
459 151 1
459 156 1
459 158 1
459 160 1
459 161 1
459 168 1
459 180 1
459 190 1
459 207 1
459 208 1
459 214 1
459 266 1
459 330 1
459 336 1
459 343 1
459 344 1
459 357 1
459 362 1
459 363 1
459 396 1
459 430 1
459 453 1
459 455 1
459 462 1
459 486 1
459 527 1
459 537 1
459 549 1
459 567 1
459 614 1
459 628 1
459 633 1
459 644 1
459 649 1
459 675 1
459 678 1
459 686 1
459 698 1
459 703 1
459 716 1
459 717 1
459 720 1
459 771 1
459 779 1
459 793 1
459 799 1
460 11 1
460 15 1
460 35 1
460 47 1
460 55 1
460 64 1
460 65 1
460 75 1
460 91 1
460 124 1
460 144 1
460 159 1
460 160 1
460 166 1
460 169 1
460 197 1
460 201 1
460 215 1
460 225 1
460 230 1
460 235 1
460 268 1
460 303 1
460 309 1
460 346 1
460 356 1
460 362 1
460 469 1
460 475 1
460 483 1
460 508 1
460 512 1
460 517 1
460 519 1
460 533 1
460 536 1
460 541 1
460 552 1
460 555 1
460 590 1
460 620 1
460 630 1
460 636 1
460 659 1
460 665 1
460 670 1
460 673 1
460 702 1
460 708 1
460 758 1
460 770 1
460 773 1
460 775 1
460 796 1
460 799 1
461 2 1
461 9 1
461 25 1
461 37 1
461 52 1
461 59 1
461 76 1
461 94 1
461 112 1
461 124 1
461 134 1
461 140 1
461 152 1
461 153 1
461 182 1
461 192 1
461 193 1
461 209 1
461 216 1
461 244 1
461 279 1
461 283 1
461 285 1
461 323 1
461 365 1
461 368 1
461 381 1
461 385 1
461 396 1
461 402 1
461 419 1
461 426 1
461 448 1
461 451 1
461 468 1
461 524 1
461 529 1
461 539 1
461 547 1
461 564 1
461 565 1
461 586 1
461 591 1
461 609 1
461 613 1
461 619 1
461 633 1
461 642 1
461 656 1
461 666 1
461 670 1
461 694 1
461 734 1
461 771 1
461 793 1
462 18 1
462 27 1
462 35 1
462 58 1
462 71 1
462 133 1
462 140 1
462 144 1
462 175 1
462 182 1
462 192 1
462 200 1
462 208 1
462 226 1
462 244 1
462 245 1
462 278 1
462 294 1
462 303 1
462 306 1
462 311 1
462 325 1
462 367 1
462 368 1
462 391 1
462 394 1
462 407 1
462 421 1
462 459 1
462 463 1
462 468 1
462 470 1
462 483 1
462 582 1
462 606 1
462 611 1
462 614 1
462 621 1
462 625 1
462 627 1
462 683 1
462 707 1
462 739 1
462 763 1
462 786 1
462 797 1
463 34 1
463 53 1
463 55 1
463 60 1
463 85 1
463 87 1
463 97 1
463 128 1
463 134 1
463 135 1
463 137 1
463 152 1
463 161 1
463 170 1
463 175 1
463 189 1
463 207 1
463 239 1
463 265 1
463 299 1
463 301 1
463 323 1
463 332 1
463 337 1
463 351 1
463 357 1
463 384 1
463 390 1
463 397 1
463 403 1
463 413 1
463 416 1
463 450 1
463 462 1
463 473 1
463 474 1
463 481 1
463 513 1
463 553 1
463 556 1
463 610 1
463 620 1
463 654 1
463 665 1
463 669 1
463 705 1
463 706 1
463 719 1
463 723 1
463 733 1
463 765 1
463 777 1
463 790 1
464 16 1
464 29 1
464 35 1
464 52 1
464 54 1
464 56 1
464 68 1
464 70 1
464 76 1
464 82 1
464 97 1
464 105 1
464 130 1
464 144 1
464 175 1
464 182 1
464 191 1
464 196 1
464 232 1
464 240 1
464 258 1
464 264 1
464 266 1
464 271 1
464 276 1
464 279 1
464 281 1
464 284 1
464 285 1
464 286 1
464 334 1
464 354 1
464 356 1
464 390 1
464 399 1
464 410 1
464 414 1
464 433 1
464 467 1
464 506 1
464 524 1
464 527 1
464 539 1
464 541 1
464 559 1
464 562 1
464 608 1
464 640 1
464 657 1
464 661 1
464 679 1
464 686 1
464 688 1
464 692 1
464 693 1
464 705 1
464 735 1
464 750 1
464 761 1
465 1 1
465 7 1
465 25 1
465 37 1
465 62 1
465 65 1
465 71 1
465 95 1
465 106 1
465 129 1
465 156 1
465 161 1
465 190 1
465 193 1
465 194 1
465 243 1
465 244 1
465 258 1
465 265 1
465 315 1
465 336 1
465 348 1
465 387 1
465 391 1
465 395 1
465 402 1
465 469 1
465 494 1
465 518 1
465 520 1
465 524 1
465 543 1
465 544 1
465 560 1
465 562 1
465 568 1
465 607 1
465 626 1
465 681 1
465 686 1
465 697 1
465 731 1
465 747 1
465 750 1
465 757 1
465 766 1
465 783 1
465 791 1
466 14 1
466 18 1
466 21 1
466 24 1
466 33 1
466 82 1
466 124 1
466 125 1
466 131 1
466 148 1
466 263 1
466 267 1
466 271 1
466 292 1
466 335 1
466 343 1
466 363 1
466 368 1
466 399 1
466 403 1
466 441 1
466 478 1
466 505 1
466 553 1
466 576 1
466 582 1
466 590 1
466 599 1
466 605 1
466 607 1
466 624 1
466 646 1
466 652 1
466 667 1
466 703 1
466 725 1
466 780 1
466 787 1
467 11 1
467 16 1
467 32 1
467 41 1
467 72 1
467 105 1
467 132 1
467 147 1
467 172 1
467 183 1
467 193 1
467 195 1
467 226 1
467 229 1
467 257 1
467 293 1
467 323 1
467 361 1
467 376 1
467 396 1
467 437 1
467 457 1
467 464 1
467 478 1
467 502 1
467 540 1
467 562 1
467 584 1
467 606 1
467 659 1
467 662 1
467 673 1
467 682 1
467 685 1
467 697 1
467 699 1
467 700 1
467 704 1
467 716 1
467 755 1
467 762 1
467 772 1
468 33 1
468 97 1
468 102 1
468 122 1
468 146 1
468 181 1
468 193 1
468 201 1
468 218 1
468 245 1
468 246 1
468 289 1
468 333 1
468 334 1
468 349 1
468 371 1
468 375 1
468 377 1
468 397 1
468 401 1
468 432 1
468 447 1
468 461 1
468 462 1
468 472 1
468 476 1
468 519 1
468 523 1
468 537 1
468 542 1
468 547 1
468 550 1
468 561 1
468 564 1
468 566 1
468 573 1
468 589 1
468 593 1
468 614 1
468 625 1
468 638 1
468 643 1
468 647 1
468 651 1
468 658 1
468 659 1
468 665 1
468 677 1
468 690 1
468 738 1
468 741 1
468 750 1
468 761 1
468 762 1
469 21 1
469 29 1
469 36 1
469 71 1
469 75 1
469 93 1
469 105 1
469 106 1
469 110 1
469 117 1
469 133 1
469 144 1
469 147 1
469 152 1
469 175 1
469 179 1
469 214 1
469 227 1
469 233 1
469 251 1
469 254 1
469 273 1
469 296 1
469 307 1
469 319 1
469 324 1
469 366 1
469 367 1
469 369 1
469 386 1
469 391 1
469 460 1
469 465 1
469 493 1
469 518 1
469 552 1
469 605 1
469 617 1
469 620 1
469 626 1
469 634 1
469 640 1
469 645 1
469 646 1
469 698 1
469 713 1
469 716 1
469 757 1
470 14 1
470 16 1
470 36 1
470 68 1
470 73 1
470 82 1
470 83 1
470 119 1
470 134 1
470 136 1
470 139 1
470 167 1
470 171 1
470 174 1
470 200 1
470 205 1
470 206 1
470 227 1
470 238 1
470 243 1
470 267 1
470 271 1
470 300 1
470 303 1
470 331 1
470 336 1
470 346 1
470 358 1
470 436 1
470 445 1
470 462 1
470 521 1
470 529 1
470 533 1
470 557 1
470 609 1
470 613 1
470 625 1
470 639 1
470 641 1
470 642 1
470 653 1
470 693 1
470 703 1
470 709 1
470 719 1
470 726 1
470 737 1
470 742 1
470 781 1
470 785 1
471 67 1
471 68 1
471 124 1
471 132 1
471 147 1
471 167 1
471 173 1
471 182 1
471 183 1
471 191 1
471 205 1
471 221 1
471 230 1
471 246 1
471 254 1
471 287 1
471 301 1
471 338 1
471 347 1
471 373 1
471 386 1
471 389 1
471 408 1
471 423 1
471 432 1
471 437 1
471 448 1
471 479 1
471 516 1
471 541 1
471 581 1
471 582 1
471 596 1
471 626 1
471 637 1
471 644 1
471 667 1
471 713 1
471 714 1
471 719 1
471 720 1
471 728 1
471 735 1
471 740 1
471 759 1
471 775 1
471 791 1
471 795 1
472 2 1
472 11 1
472 13 1
472 21 1
472 31 1
472 38 1
472 58 1
472 61 1
472 70 1
472 88 1
472 152 1
472 170 1
472 182 1
472 192 1
472 213 1
472 216 1
472 241 1
472 257 1
472 263 1
472 286 1
472 317 1
472 340 1
472 347 1
472 360 1
472 371 1
472 379 1
472 386 1
472 405 1
472 413 1
472 447 1
472 468 1
472 476 1
472 490 1
472 502 1
472 520 1
472 529 1
472 558 1
472 602 1
472 619 1
472 656 1
472 667 1
472 699 1
472 714 1
472 727 1
472 729 1
472 760 1
472 795 1
473 35 1
473 39 1
473 45 1
473 60 1
473 66 1
473 68 1
473 71 1
473 79 1
473 158 1
473 159 1
473 165 1
473 173 1
473 174 1
473 209 1
473 225 1
473 227 1
473 240 1
473 245 1
473 259 1
473 260 1
473 261 1
473 275 1
473 290 1
473 293 1
473 298 1
473 310 1
473 358 1
473 366 1
473 370 1
473 373 1
473 386 1
473 391 1
473 453 1
473 463 1
473 491 1
473 529 1
473 589 1
473 622 1
473 625 1
473 646 1
473 660 1
473 661 1
473 690 1
473 723 1
473 735 1
473 741 1
473 761 1
473 771 1
474 22 1
474 28 1
474 29 1
474 33 1
474 56 1
474 73 1
474 81 1
474 83 1
474 89 1
474 90 1
474 92 1
474 129 1
474 152 1
474 168 1
474 211 1
474 212 1
474 228 1
474 236 1
474 257 1
474 308 1
474 311 1
474 330 1
474 331 1
474 338 1
474 380 1
474 384 1
474 408 1
474 409 1
474 416 1
474 426 1
474 463 1
474 487 1
474 498 1
474 504 1
474 551 1
474 560 1
474 587 1
474 595 1
474 602 1
474 606 1
474 607 1
474 611 1
474 620 1
474 625 1
474 675 1
474 681 1
474 706 1
474 710 1
474 723 1
474 728 1
474 729 1
474 733 1
474 750 1
474 757 1
474 769 1
475 4 1
475 27 1
475 38 1
475 52 1
475 145 1
475 176 1
475 177 1
475 205 1
475 209 1
475 222 1
475 233 1
475 273 1
475 276 1
475 294 1
475 305 1
475 332 1
475 335 1
475 359 1
475 361 1
475 365 1
475 366 1
475 383 1
475 396 1
475 417 1
475 460 1
475 511 1
475 523 1
475 525 1
475 541 1
475 547 1
475 559 1
475 566 1
475 577 1
475 603 1
475 623 1
475 633 1
475 636 1
475 681 1
475 682 1
475 686 1
475 700 1
475 713 1
475 735 1
475 764 1
475 770 1
475 773 1
475 783 1
476 17 1
476 93 1
476 112 1
476 114 1
476 116 1
476 123 1
476 153 1
476 154 1
476 170 1
476 218 1
476 290 1
476 291 1
476 294 1
476 295 1
476 348 1
476 356 1
476 371 1
476 376 1
476 378 1
476 379 1
476 382 1
476 468 1
476 472 1
476 488 1
476 511 1
476 517 1
476 518 1
476 525 1
476 532 1
476 536 1
476 543 1
476 550 1
476 562 1
476 585 1
476 590 1
476 613 1
476 661 1
476 708 1
476 777 1
477 3 1
477 34 1
477 36 1
477 42 1
477 47 1
477 63 1
477 67 1
477 72 1
477 92 1
477 95 1
477 118 1
477 127 1
477 128 1
477 131 1
477 132 1
477 152 1
477 183 1
477 184 1
477 185 1
477 191 1
477 192 1
477 201 1
477 211 1
477 269 1
477 275 1
477 319 1
477 339 1
477 370 1
477 372 1
477 388 1
477 441 1
477 448 1
477 458 1
477 522 1
477 549 1
477 566 1
477 568 1
477 576 1
477 590 1
477 612 1
477 620 1
477 635 1
477 661 1
477 687 1
477 689 1
477 699 1
477 708 1
477 730 1
477 748 1
477 771 1
477 789 1
478 8 1
478 23 1
478 24 1
478 28 1
478 29 1
478 31 1
478 32 1
478 56 1
478 57 1
478 150 1
478 236 1
478 263 1
478 276 1
478 282 1
478 300 1
478 307 1
478 338 1
478 358 1
478 359 1
478 362 1
478 405 1
478 422 1
478 425 1
478 447 1
478 466 1
478 467 1
478 520 1
478 538 1
478 541 1
478 547 1
478 612 1
478 620 1
478 634 1
478 641 1
478 645 1
478 671 1
478 679 1
478 689 1
478 706 1
478 719 1
478 728 1
478 740 1
478 747 1
478 753 1
478 757 1
478 759 1
478 778 1
478 790 1
478 792 1
479 3 1
479 47 1
479 56 1
479 58 1
479 59 1
479 71 1
479 82 1
479 91 1
479 149 1
479 151 1
479 206 1
479 214 1
479 252 1
479 291 1
479 295 1
479 311 1
479 329 1
479 355 1
479 368 1
479 370 1
479 388 1
479 443 1
479 455 1
479 471 1
479 482 1
479 483 1
479 510 1
479 554 1
479 570 1
479 616 1
479 638 1
479 675 1
479 691 1
479 702 1
479 709 1
479 720 1
479 726 1
479 779 1
479 780 1
479 797 1
480 3 1
480 22 1
480 62 1
480 63 1
480 67 1
480 93 1
480 99 1
480 136 1
480 142 1
480 164 1
480 185 1
480 190 1
480 191 1
480 194 1
480 243 1
480 256 1
480 257 1
480 258 1
480 297 1
480 309 1
480 312 1
480 329 1
480 331 1
480 342 1
480 369 1
480 382 1
480 408 1
480 416 1
480 422 1
480 457 1
480 482 1
480 488 1
480 521 1
480 528 1
480 544 1
480 589 1
480 605 1
480 606 1
480 611 1
480 619 1
480 635 1
480 641 1
480 650 1
480 678 1
480 695 1
480 709 1
480 720 1
480 747 1
480 750 1
480 757 1
480 760 1
480 788 1
481 12 1
481 54 1
481 55 1
481 81 1
481 85 1
481 100 1
481 114 1
481 126 1
481 143 1
481 184 1
481 191 1
481 193 1
481 204 1
481 220 1
481 224 1
481 230 1
481 234 1
481 252 1
481 273 1
481 283 1
481 304 1
481 315 1
481 325 1
481 371 1
481 372 1
481 379 1
481 393 1
481 395 1
481 440 1
481 463 1
481 514 1
481 548 1
481 550 1
481 568 1
481 595 1
481 599 1
481 619 1
481 625 1
481 644 1
481 671 1
481 675 1
481 683 1
481 698 1
481 700 1
481 726 1
481 734 1
481 737 1
481 767 1
481 776 1
481 777 1
481 788 1
481 790 1
482 1 1
482 15 1
482 22 1
482 24 1
482 29 1
482 30 1
482 38 1
482 49 1
482 62 1
482 75 1
482 85 1
482 107 1
482 112 1
482 147 1
482 151 1
482 169 1
482 172 1
482 184 1
482 191 1
482 201 1
482 245 1
482 265 1
482 273 1
482 283 1
482 287 1
482 308 1
482 313 1
482 323 1
482 363 1
482 372 1
482 395 1
482 412 1
482 449 1
482 454 1
482 458 1
482 479 1
482 480 1
482 486 1
482 489 1
482 530 1
482 549 1
482 551 1
482 562 1
482 565 1
482 576 1
482 578 1
482 580 1
482 609 1
482 622 1
482 627 1
482 632 1
482 634 1
482 663 1
482 668 1
482 687 1
482 722 1
482 745 1
482 759 1
482 797 1
483 16 1
483 42 1
483 56 1
483 99 1
483 113 1
483 130 1
483 133 1
483 137 1
483 154 1
483 158 1
483 166 1
483 167 1
483 234 1
483 252 1
483 284 1
483 298 1
483 302 1
483 322 1
483 325 1
483 377 1
483 382 1
483 411 1
483 422 1
483 460 1
483 462 1
483 479 1
483 522 1
483 525 1
483 536 1
483 538 1
483 542 1
483 581 1
483 593 1
483 603 1
483 611 1
483 643 1
483 653 1
483 654 1
483 676 1
483 688 1
483 696 1
483 726 1
483 735 1
483 749 1
483 757 1
483 767 1
483 777 1
483 786 1
484 40 1
484 49 1
484 55 1
484 63 1
484 69 1
484 107 1
484 182 1
484 198 1
484 233 1
484 258 1
484 274 1
484 283 1
484 289 1
484 291 1
484 292 1
484 299 1
484 319 1
484 377 1
484 396 1
484 402 1
484 419 1
484 430 1
484 432 1
484 446 1
484 453 1
484 525 1
484 527 1
484 542 1
484 567 1
484 597 1
484 598 1
484 617 1
484 641 1
484 649 1
484 662 1
484 676 1
484 716 1
484 748 1
484 754 1
484 764 1
484 768 1
485 14 1
485 17 1
485 32 1
485 60 1
485 66 1
485 72 1
485 95 1
485 113 1
485 127 1
485 162 1
485 172 1
485 178 1
485 190 1
485 200 1
485 210 1
485 223 1
485 238 1
485 240 1
485 257 1
485 271 1
485 295 1
485 317 1
485 330 1
485 342 1
485 368 1
485 377 1
485 378 1
485 388 1
485 409 1
485 418 1
485 433 1
485 497 1
485 516 1
485 522 1
485 525 1
485 533 1
485 539 1
485 579 1
485 583 1
485 603 1
485 621 1
485 625 1
485 630 1
485 666 1
485 667 1
485 720 1
485 775 1
485 788 1
485 790 1
485 791 1
485 797 1
486 1 1
486 2 1
486 54 1
486 85 1
486 113 1
486 138 1
486 155 1
486 161 1
486 164 1
486 173 1
486 213 1
486 220 1
486 221 1
486 227 1
486 233 1
486 254 1
486 257 1
486 311 1
486 348 1
486 350 1
486 384 1
486 388 1
486 398 1
486 401 1
486 408 1
486 456 1
486 459 1
486 482 1
486 499 1
486 513 1
486 525 1
486 544 1
486 551 1
486 553 1
486 572 1
486 634 1
486 664 1
486 708 1
486 752 1
486 771 1
486 790 1
486 798 1
487 17 1
487 80 1
487 90 1
487 105 1
487 116 1
487 122 1
487 150 1
487 153 1
487 158 1
487 160 1
487 166 1
487 168 1
487 172 1
487 200 1
487 211 1
487 214 1
487 218 1
487 219 1
487 236 1
487 238 1
487 255 1
487 268 1
487 288 1
487 291 1
487 295 1
487 350 1
487 378 1
487 379 1
487 382 1
487 399 1
487 418 1
487 426 1
487 443 1
487 444 1
487 458 1
487 474 1
487 518 1
487 531 1
487 533 1
487 560 1
487 577 1
487 606 1
487 620 1
487 649 1
487 653 1
487 662 1
487 668 1
487 676 1
487 677 1
487 680 1
487 686 1
487 689 1
487 700 1
487 721 1
487 727 1
487 737 1
487 744 1
487 751 1
487 753 1
487 765 1
487 778 1
488 7 1
488 34 1
488 76 1
488 96 1
488 103 1
488 122 1
488 138 1
488 174 1
488 176 1
488 207 1
488 225 1
488 226 1
488 261 1
488 263 1
488 273 1
488 300 1
488 346 1
488 352 1
488 355 1
488 431 1
488 443 1
488 450 1
488 476 1
488 480 1
488 489 1
488 493 1
488 498 1
488 500 1
488 504 1
488 512 1
488 515 1
488 535 1
488 543 1
488 551 1
488 576 1
488 582 1
488 590 1
488 600 1
488 607 1
488 615 1
488 618 1
488 626 1
488 708 1
488 711 1
488 763 1
488 780 1
488 788 1
489 44 1
489 50 1
489 92 1
489 130 1
489 158 1
489 199 1
489 200 1
489 208 1
489 238 1
489 242 1
489 247 1
489 252 1
489 265 1
489 315 1
489 339 1
489 355 1
489 374 1
489 383 1
489 384 1
489 386 1
489 389 1
489 390 1
489 399 1
489 401 1
489 420 1
489 425 1
489 442 1
489 482 1
489 488 1
489 502 1
489 524 1
489 540 1
489 553 1
489 573 1
489 584 1
489 585 1
489 610 1
489 615 1
489 622 1
489 658 1
489 662 1
489 688 1
489 690 1
489 738 1
489 747 1
489 778 1
489 790 1
490 9 1
490 42 1
490 48 1
490 61 1
490 92 1
490 107 1
490 109 1
490 110 1
490 111 1
490 127 1
490 155 1
490 156 1
490 190 1
490 194 1
490 214 1
490 222 1
490 301 1
490 343 1
490 344 1
490 389 1
490 399 1
490 401 1
490 414 1
490 415 1
490 424 1
490 472 1
490 503 1
490 523 1
490 529 1
490 553 1
490 555 1
490 567 1
490 569 1
490 574 1
490 579 1
490 581 1
490 592 1
490 598 1
490 609 1
490 626 1
490 630 1
490 681 1
490 710 1
490 725 1
490 730 1
490 742 1
490 751 1
490 773 1
490 791 1
490 799 1
491 7 1
491 10 1
491 30 1
491 31 1
491 37 1
491 42 1
491 48 1
491 49 1
491 70 1
491 94 1
491 144 1
491 169 1
491 172 1
491 177 1
491 191 1
491 200 1
491 225 1
491 254 1
491 268 1
491 277 1
491 312 1
491 319 1
491 328 1
491 354 1
491 370 1
491 374 1
491 437 1
491 441 1
491 473 1
491 508 1
491 527 1
491 531 1
491 534 1
491 539 1
491 551 1
491 607 1
491 619 1
491 640 1
491 686 1
491 700 1
491 743 1
491 781 1
492 3 1
492 15 1
492 25 1
492 40 1
492 55 1
492 67 1
492 100 1
492 104 1
492 106 1
492 128 1
492 133 1
492 147 1
492 184 1
492 190 1
492 200 1
492 205 1
492 224 1
492 237 1
492 246 1
492 253 1
492 279 1
492 296 1
492 298 1
492 307 1
492 316 1
492 324 1
492 343 1
492 359 1
492 383 1
492 406 1
492 408 1
492 433 1
492 446 1
492 544 1
492 548 1
492 553 1
492 583 1
492 603 1
492 624 1
492 637 1
492 669 1
492 671 1
492 680 1
492 740 1
492 759 1
492 766 1
492 783 1
493 15 1
493 66 1
493 72 1
493 76 1
493 79 1
493 97 1
493 106 1
493 119 1
493 133 1
493 152 1
493 158 1
493 164 1
493 166 1
493 185 1
493 217 1
493 248 1
493 262 1
493 305 1
493 319 1
493 334 1
493 360 1
493 366 1
493 424 1
493 427 1
493 448 1
493 469 1
493 488 1
493 513 1
493 517 1
493 537 1
493 571 1
493 578 1
493 579 1
493 672 1
493 701 1
493 709 1
493 714 1
493 738 1
493 744 1
493 745 1
493 756 1
493 759 1
493 760 1
493 777 1
493 778 1
493 780 1
493 788 1
494 16 1
494 34 1
494 36 1
494 43 1
494 65 1
494 75 1
494 79 1
494 100 1
494 104 1
494 130 1
494 150 1
494 172 1
494 185 1
494 203 1
494 227 1
494 257 1
494 277 1
494 284 1
494 288 1
494 335 1
494 339 1
494 357 1
494 401 1
494 415 1
494 437 1
494 446 1
494 465 1
494 495 1
494 518 1
494 528 1
494 534 1
494 540 1
494 606 1
494 629 1
494 674 1
494 706 1
494 709 1
494 724 1
494 739 1
494 767 1
494 779 1
494 784 1
494 788 1
494 789 1
495 12 1
495 21 1
495 46 1
495 59 1
495 62 1
495 76 1
495 94 1
495 136 1
495 147 1
495 177 1
495 222 1
495 232 1
495 240 1
495 266 1
495 302 1
495 315 1
495 318 1
495 353 1
495 365 1
495 406 1
495 409 1
495 418 1
495 456 1
495 458 1
495 494 1
495 547 1
495 553 1
495 583 1
495 605 1
495 626 1
495 633 1
495 646 1
495 647 1
495 674 1
495 686 1
495 702 1
495 711 1
495 720 1
495 748 1
495 758 1
496 5 1
496 10 1
496 15 1
496 49 1
496 123 1
496 128 1
496 154 1
496 164 1
496 169 1
496 170 1
496 200 1
496 209 1
496 218 1
496 242 1
496 252 1
496 270 1
496 274 1
496 308 1
496 413 1
496 512 1
496 513 1
496 551 1
496 579 1
496 606 1
496 626 1
496 649 1
496 654 1
496 685 1
496 697 1
496 716 1
496 724 1
496 728 1
496 752 1
496 761 1
496 767 1
496 773 1
496 774 1
496 780 1
496 784 1
496 797 1
497 2 1
497 3 1
497 54 1
497 56 1
497 72 1
497 75 1
497 84 1
497 93 1
497 105 1
497 118 1
497 125 1
497 140 1
497 156 1
497 174 1
497 214 1
497 216 1
497 219 1
497 243 1
497 245 1
497 257 1
497 306 1
497 309 1
497 310 1
497 335 1
497 376 1
497 406 1
497 418 1
497 439 1
497 442 1
497 453 1
497 485 1
497 501 1
497 506 1
497 511 1
497 522 1
497 543 1
497 559 1
497 597 1
497 605 1
497 624 1
497 671 1
497 684 1
497 685 1
497 686 1
497 694 1
497 719 1
497 733 1
497 737 1
497 745 1
497 762 1
497 773 1
497 780 1
497 781 1
498 38 1
498 46 1
498 55 1
498 86 1
498 108 1
498 139 1
498 165 1
498 166 1
498 167 1
498 185 1
498 216 1
498 243 1
498 266 1
498 318 1
498 320 1
498 330 1
498 337 1
498 338 1
498 355 1
498 360 1
498 362 1
498 370 1
498 378 1
498 414 1
498 445 1
498 447 1
498 448 1
498 474 1
498 488 1
498 502 1
498 508 1
498 568 1
498 572 1
498 576 1
498 582 1
498 613 1
498 628 1
498 634 1
498 668 1
498 674 1
498 697 1
498 710 1
498 721 1
498 727 1
498 733 1
499 9 1
499 22 1
499 23 1
499 36 1
499 54 1
499 78 1
499 96 1
499 99 1
499 103 1
499 146 1
499 148 1
499 150 1
499 156 1
499 159 1
499 171 1
499 187 1
499 201 1
499 233 1
499 238 1
499 240 1
499 245 1
499 283 1
499 334 1
499 336 1
499 345 1
499 388 1
499 421 1
499 486 1
499 512 1
499 522 1
499 529 1
499 544 1
499 556 1
499 565 1
499 592 1
499 608 1
499 616 1
499 634 1
499 659 1
499 660 1
499 665 1
499 674 1
499 677 1
499 694 1
499 739 1
499 748 1
499 772 1
499 778 1
499 780 1
500 8 1
500 14 1
500 15 1
500 72 1
500 77 1
500 112 1
500 158 1
500 186 1
500 235 1
500 245 1
500 255 1
500 259 1
500 264 1
500 285 1
500 301 1
500 313 1
500 315 1
500 342 1
500 358 1
500 366 1
500 387 1
500 403 1
500 450 1
500 488 1
500 506 1
500 508 1
500 567 1
500 576 1
500 582 1
500 587 1
500 594 1
500 624 1
500 653 1
500 681 1
500 687 1
500 690 1
500 737 1
500 743 1
500 754 1
500 782 1
500 788 1
501 6 1
501 53 1
501 71 1
501 77 1
501 118 1
501 124 1
501 152 1
501 176 1
501 190 1
501 200 1
501 203 1
501 212 1
501 226 1
501 228 1
501 239 1
501 241 1
501 242 1
501 253 1
501 257 1
501 290 1
501 346 1
501 356 1
501 369 1
501 383 1
501 411 1
501 441 1
501 455 1
501 497 1
501 511 1
501 519 1
501 523 1
501 529 1
501 531 1
501 546 1
501 589 1
501 598 1
501 604 1
501 613 1
501 626 1
501 645 1
501 649 1
501 655 1
501 697 1
501 699 1
501 715 1
501 736 1
501 763 1
501 766 1
501 767 1
501 794 1
502 20 1
502 76 1
502 83 1
502 157 1
502 160 1
502 172 1
502 174 1
502 182 1
502 245 1
502 296 1
502 298 1
502 299 1
502 335 1
502 353 1
502 364 1
502 372 1
502 395 1
502 403 1
502 416 1
502 423 1
502 446 1
502 456 1
502 467 1
502 472 1
502 489 1
502 498 1
502 540 1
502 541 1
502 545 1
502 549 1
502 552 1
502 553 1
502 563 1
502 584 1
502 587 1
502 601 1
502 603 1
502 606 1
502 675 1
502 695 1
502 708 1
502 728 1
502 752 1
502 753 1
502 769 1
503 16 1
503 61 1
503 70 1
503 71 1
503 74 1
503 118 1
503 119 1
503 130 1
503 132 1
503 142 1
503 151 1
503 154 1
503 161 1
503 179 1
503 198 1
503 201 1
503 209 1
503 220 1
503 238 1
503 249 1
503 262 1
503 267 1
503 271 1
503 277 1
503 281 1
503 309 1
503 342 1
503 358 1
503 396 1
503 407 1
503 408 1
503 415 1
503 421 1
503 423 1
503 427 1
503 448 1
503 490 1
503 507 1
503 509 1
503 521 1
503 541 1
503 560 1
503 572 1
503 601 1
503 602 1
503 636 1
503 646 1
503 662 1
503 667 1
503 680 1
503 685 1
503 694 1
503 705 1
503 707 1
503 724 1
503 725 1
503 762 1
503 764 1
503 799 1
504 19 1
504 37 1
504 50 1
504 57 1
504 58 1
504 65 1
504 79 1
504 106 1
504 113 1
504 124 1
504 133 1
504 139 1
504 156 1
504 165 1
504 178 1
504 207 1
504 224 1
504 226 1
504 241 1
504 273 1
504 291 1
504 298 1
504 301 1
504 312 1
504 319 1
504 332 1
504 333 1
504 363 1
504 369 1
504 376 1
504 384 1
504 385 1
504 391 1
504 409 1
504 440 1
504 443 1
504 445 1
504 452 1
504 474 1
504 488 1
504 532 1
504 535 1
504 538 1
504 566 1
504 603 1
504 636 1
504 639 1
504 642 1
504 644 1
504 652 1
504 660 1
504 661 1
504 670 1
504 707 1
504 712 1
504 780 1
504 800 1
505 12 1
505 17 1
505 44 1
505 60 1
505 70 1
505 86 1
505 102 1
505 112 1
505 120 1
505 140 1
505 183 1
505 216 1
505 233 1
505 238 1
505 267 1
505 273 1
505 381 1
505 384 1
505 389 1
505 391 1
505 397 1
505 402 1
505 422 1
505 424 1
505 429 1
505 430 1
505 441 1
505 466 1
505 548 1
505 552 1
505 553 1
505 559 1
505 575 1
505 577 1
505 579 1
505 600 1
505 605 1
505 632 1
505 655 1
505 658 1
505 664 1
505 666 1
505 668 1
505 761 1
505 784 1
506 7 1
506 24 1
506 25 1
506 57 1
506 62 1
506 65 1
506 69 1
506 98 1
506 100 1
506 113 1
506 138 1
506 193 1
506 225 1
506 285 1
506 290 1
506 316 1
506 321 1
506 324 1
506 331 1
506 359 1
506 387 1
506 390 1
506 399 1
506 449 1
506 464 1
506 497 1
506 500 1
506 513 1
506 545 1
506 550 1
506 599 1
506 618 1
506 643 1
506 669 1
506 687 1
506 693 1
506 715 1
506 755 1
506 764 1
506 767 1
506 800 1
507 4 1
507 21 1
507 41 1
507 47 1
507 95 1
507 102 1
507 109 1
507 119 1
507 125 1
507 127 1
507 180 1
507 184 1
507 190 1
507 201 1
507 220 1
507 227 1
507 236 1
507 242 1
507 259 1
507 292 1
507 304 1
507 307 1
507 347 1
507 358 1
507 401 1
507 423 1
507 424 1
507 451 1
507 503 1
507 539 1
507 556 1
507 566 1
507 571 1
507 574 1
507 587 1
507 607 1
507 612 1
507 617 1
507 635 1
507 650 1
507 680 1
507 703 1
507 745 1
507 772 1
507 789 1
507 794 1
507 798 1
508 28 1
508 31 1
508 33 1
508 82 1
508 87 1
508 95 1
508 105 1
508 118 1
508 138 1
508 154 1
508 179 1
508 201 1
508 210 1
508 214 1
508 221 1
508 225 1
508 228 1
508 261 1
508 280 1
508 315 1
508 341 1
508 349 1
508 371 1
508 381 1
508 397 1
508 398 1
508 443 1
508 452 1
508 460 1
508 491 1
508 498 1
508 500 1
508 516 1
508 537 1
508 539 1
508 562 1
508 567 1
508 584 1
508 589 1
508 593 1
508 604 1
508 606 1
508 610 1
508 647 1
508 653 1
508 700 1
508 722 1
508 733 1
508 746 1
508 747 1
508 755 1
508 761 1
508 769 1
508 771 1
509 5 1
509 13 1
509 46 1
509 67 1
509 96 1
509 100 1
509 105 1
509 137 1
509 153 1
509 189 1
509 192 1
509 232 1
509 264 1
509 268 1
509 276 1
509 296 1
509 306 1
509 327 1
509 391 1
509 503 1
509 522 1
509 547 1
509 558 1
509 565 1
509 570 1
509 609 1
509 616 1
509 661 1
509 678 1
509 698 1
509 729 1
509 746 1
509 765 1
509 795 1
510 10 1
510 11 1
510 68 1
510 72 1
510 75 1
510 81 1
510 87 1
510 89 1
510 97 1
510 110 1
510 128 1
510 133 1
510 144 1
510 148 1
510 156 1
510 159 1
510 161 1
510 184 1
510 186 1
510 195 1
510 216 1
510 275 1
510 290 1
510 352 1
510 360 1
510 364 1
510 380 1
510 384 1
510 387 1
510 403 1
510 428 1
510 441 1
510 447 1
510 448 1
510 452 1
510 479 1
510 516 1
510 517 1
510 526 1
510 531 1
510 534 1
510 541 1
510 547 1
510 549 1
510 555 1
510 556 1
510 566 1
510 577 1
510 583 1
510 594 1
510 602 1
510 617 1
510 631 1
510 641 1
510 649 1
510 695 1
510 739 1
510 742 1
510 769 1
510 780 1
510 781 1
510 793 1
511 14 1
511 21 1
511 23 1
511 30 1
511 57 1
511 66 1
511 73 1
511 87 1
511 112 1
511 123 1
511 128 1
511 159 1
511 208 1
511 243 1
511 262 1
511 272 1
511 316 1
511 322 1
511 353 1
511 411 1
511 446 1
511 453 1
511 454 1
511 457 1
511 475 1
511 476 1
511 497 1
511 501 1
511 516 1
511 624 1
511 627 1
511 645 1
511 705 1
511 730 1
511 743 1
512 5 1
512 13 1
512 24 1
512 31 1
512 72 1
512 86 1
512 97 1
512 99 1
512 108 1
512 120 1
512 136 1
512 151 1
512 191 1
512 204 1
512 209 1
512 228 1
512 257 1
512 295 1
512 308 1
512 350 1
512 364 1
512 368 1
512 433 1
512 451 1
512 460 1
512 488 1
512 496 1
512 499 1
512 513 1
512 531 1
512 538 1
512 548 1
512 549 1
512 575 1
512 586 1
512 599 1
512 639 1
512 661 1
512 662 1
512 663 1
512 672 1
512 677 1
512 694 1
512 707 1
512 708 1
512 735 1
512 740 1
512 766 1
512 770 1
512 771 1
512 773 1
513 26 1
513 34 1
513 37 1
513 42 1
513 46 1
513 74 1
513 114 1
513 121 1
513 125 1
513 189 1
513 193 1
513 204 1
513 205 1
513 209 1
513 217 1
513 218 1
513 232 1
513 248 1
513 253 1
513 255 1
513 286 1
513 294 1
513 301 1
513 317 1
513 320 1
513 329 1
513 369 1
513 452 1
513 463 1
513 486 1
513 493 1
513 496 1
513 506 1
513 512 1
513 552 1
513 655 1
513 678 1
513 729 1
513 739 1
513 743 1
513 755 1
513 786 1
513 790 1
514 19 1
514 27 1
514 42 1
514 82 1
514 148 1
514 156 1
514 157 1
514 170 1
514 186 1
514 208 1
514 209 1
514 218 1
514 220 1
514 221 1
514 234 1
514 239 1
514 263 1
514 339 1
514 340 1
514 347 1
514 368 1
514 375 1
514 380 1
514 402 1
514 416 1
514 418 1
514 420 1
514 481 1
514 522 1
514 544 1
514 561 1
514 578 1
514 591 1
514 601 1
514 614 1
514 618 1
514 632 1
514 635 1
514 636 1
514 683 1
514 684 1
514 700 1
514 704 1
514 714 1
514 723 1
514 737 1
514 749 1
514 764 1
514 765 1
514 773 1
514 786 1
514 787 1
514 793 1
515 1 1
515 34 1
515 62 1
515 70 1
515 101 1
515 120 1
515 123 1
515 131 1
515 148 1
515 252 1
515 254 1
515 262 1
515 265 1
515 269 1
515 305 1
515 317 1
515 356 1
515 365 1
515 372 1
515 389 1
515 414 1
515 421 1
515 422 1
515 425 1
515 441 1
515 488 1
515 533 1
515 537 1
515 560 1
515 593 1
515 631 1
515 644 1
515 686 1
515 707 1
515 711 1
515 733 1
515 734 1
515 764 1
515 774 1
515 780 1
515 781 1
516 40 1
516 57 1
516 60 1
516 68 1
516 86 1
516 104 1
516 129 1
516 164 1
516 208 1
516 238 1
516 292 1
516 296 1
516 323 1
516 326 1
516 362 1
516 388 1
516 389 1
516 436 1
516 443 1
516 456 1
516 471 1
516 485 1
516 508 1
516 510 1
516 511 1
516 528 1
516 537 1
516 540 1
516 559 1
516 562 1
516 571 1
516 575 1
516 589 1
516 613 1
516 639 1
516 642 1
516 681 1
516 696 1
516 719 1
516 726 1
516 736 1
516 738 1
516 747 1
516 751 1
516 776 1
516 791 1
516 799 1
516 800 1
517 32 1
517 35 1
517 38 1
517 87 1
517 118 1
517 142 1
517 186 1
517 193 1
517 260 1
517 279 1
517 283 1
517 284 1
517 302 1
517 312 1
517 314 1
517 316 1
517 326 1
517 350 1
517 387 1
517 412 1
517 421 1
517 435 1
517 449 1
517 451 1
517 460 1
517 476 1
517 493 1
517 510 1
517 522 1
517 564 1
517 582 1
517 585 1
517 592 1
517 609 1
517 612 1
517 622 1
517 630 1
517 662 1
517 682 1
517 685 1
517 687 1
517 688 1
517 695 1
517 697 1
517 711 1
517 715 1
517 740 1
517 747 1
517 776 1
517 784 1
517 791 1
517 796 1
518 29 1
518 37 1
518 48 1
518 57 1
518 64 1
518 95 1
518 100 1
518 118 1
518 121 1
518 144 1
518 150 1
518 162 1
518 164 1
518 189 1
518 195 1
518 207 1
518 217 1
518 220 1
518 251 1
518 256 1
518 283 1
518 314 1
518 323 1
518 335 1
518 339 1
518 380 1
518 382 1
518 389 1
518 396 1
518 440 1
518 443 1
518 465 1
518 469 1
518 476 1
518 487 1
518 494 1
518 548 1
518 565 1
518 585 1
518 593 1
518 599 1
518 621 1
518 628 1
518 634 1
518 682 1
518 684 1
518 704 1
518 717 1
518 725 1
518 733 1
518 785 1
519 14 1
519 29 1
519 57 1
519 74 1
519 86 1
519 93 1
519 123 1
519 134 1
519 155 1
519 186 1
519 191 1
519 196 1
519 220 1
519 241 1
519 248 1
519 270 1
519 290 1
519 291 1
519 299 1
519 323 1
519 325 1
519 348 1
519 373 1
519 430 1
519 449 1
519 456 1
519 460 1
519 468 1
519 501 1
519 522 1
519 533 1
519 548 1
519 559 1
519 599 1
519 602 1
519 622 1
519 691 1
519 712 1
519 740 1
519 744 1
519 747 1
519 762 1
520 2 1
520 4 1
520 29 1
520 46 1
520 47 1
520 53 1
520 60 1
520 69 1
520 137 1
520 143 1
520 144 1
520 204 1
520 222 1
520 224 1
520 228 1
520 230 1
520 246 1
520 260 1
520 262 1
520 268 1
520 281 1
520 293 1
520 299 1
520 307 1
520 317 1
520 333 1
520 335 1
520 354 1
520 362 1
520 406 1
520 412 1
520 465 1
520 472 1
520 478 1
520 522 1
520 523 1
520 542 1
520 549 1
520 554 1
520 585 1
520 628 1
520 639 1
520 702 1
520 725 1
520 726 1
521 16 1
521 20 1
521 32 1
521 44 1
521 46 1
521 53 1
521 112 1
521 143 1
521 146 1
521 178 1
521 179 1
521 219 1
521 229 1
521 238 1
521 239 1
521 289 1
521 329 1
521 337 1
521 348 1
521 357 1
521 378 1
521 389 1
521 406 1
521 419 1
521 433 1
521 435 1
521 470 1
521 480 1
521 503 1
521 525 1
521 555 1
521 570 1
521 592 1
521 623 1
521 695 1
521 699 1
521 704 1
521 727 1
521 735 1
521 757 1
521 766 1
521 783 1
522 15 1
522 29 1
522 48 1
522 52 1
522 63 1
522 92 1
522 108 1
522 112 1
522 126 1
522 130 1
522 142 1
522 146 1
522 159 1
522 237 1
522 248 1
522 252 1
522 260 1
522 277 1
522 286 1
522 295 1
522 329 1
522 343 1
522 353 1
522 386 1
522 394 1
522 411 1
522 451 1
522 477 1
522 483 1
522 485 1
522 497 1
522 499 1
522 509 1
522 514 1
522 517 1
522 519 1
522 520 1
522 532 1
522 535 1
522 547 1
522 567 1
522 581 1
522 594 1
522 604 1
522 609 1
522 643 1
522 670 1
522 699 1
522 703 1
522 711 1
522 722 1
522 724 1
522 744 1
522 748 1
522 791 1
523 14 1
523 17 1
523 32 1
523 48 1
523 51 1
523 86 1
523 91 1
523 136 1
523 186 1
523 192 1
523 210 1
523 242 1
523 249 1
523 264 1
523 267 1
523 276 1
523 283 1
523 315 1
523 350 1
523 362 1
523 383 1
523 441 1
523 450 1
523 452 1
523 468 1
523 475 1
523 490 1
523 501 1
523 520 1
523 532 1
523 534 1
523 574 1
523 587 1
523 595 1
523 606 1
523 650 1
523 651 1
523 668 1
523 681 1
523 720 1
523 726 1
523 766 1
523 773 1
523 796 1
524 16 1
524 44 1
524 50 1
524 94 1
524 104 1
524 119 1
524 148 1
524 157 1
524 162 1
524 170 1
524 173 1
524 174 1
524 182 1
524 196 1
524 211 1
524 223 1
524 233 1
524 240 1
524 306 1
524 357 1
524 363 1
524 373 1
524 382 1
524 395 1
524 402 1
524 408 1
524 418 1
524 445 1
524 452 1
524 454 1
524 461 1
524 464 1
524 465 1
524 489 1
524 531 1
524 536 1
524 543 1
524 585 1
524 594 1
524 597 1
524 612 1
524 615 1
524 627 1
524 661 1
524 674 1
524 684 1
524 701 1
524 711 1
524 733 1
524 751 1
524 765 1
524 774 1
524 779 1
524 787 1
524 789 1
525 21 1
525 39 1
525 52 1
525 59 1
525 61 1
525 63 1
525 75 1
525 103 1
525 104 1
525 115 1
525 119 1
525 124 1
525 131 1
525 135 1
525 136 1
525 143 1
525 152 1
525 157 1
525 176 1
525 194 1
525 197 1
525 205 1
525 218 1
525 226 1
525 248 1
525 285 1
525 289 1
525 314 1
525 315 1
525 321 1
525 324 1
525 347 1
525 375 1
525 423 1
525 429 1
525 456 1
525 475 1
525 476 1
525 483 1
525 484 1
525 485 1
525 486 1
525 521 1
525 527 1
525 539 1
525 614 1
525 624 1
525 692 1
525 695 1
525 714 1
525 728 1
525 731 1
525 737 1
525 741 1
525 742 1
525 753 1
525 774 1
526 5 1
526 29 1
526 36 1
526 77 1
526 113 1
526 155 1
526 218 1
526 266 1
526 286 1
526 292 1
526 305 1
526 308 1
526 317 1
526 366 1
526 391 1
526 510 1
526 551 1
526 564 1
526 565 1
526 593 1
526 612 1
526 642 1
526 644 1
526 681 1
526 697 1
526 699 1
526 706 1
526 713 1
526 718 1
526 763 1
526 776 1
526 779 1
526 800 1
527 10 1
527 23 1
527 39 1
527 51 1
527 54 1
527 71 1
527 78 1
527 101 1
527 122 1
527 149 1
527 171 1
527 207 1
527 209 1
527 217 1
527 286 1
527 288 1
527 293 1
527 295 1
527 307 1
527 315 1
527 332 1
527 345 1
527 348 1
527 356 1
527 379 1
527 388 1
527 409 1
527 425 1
527 427 1
527 439 1
527 452 1
527 454 1
527 459 1
527 464 1
527 484 1
527 491 1
527 525 1
527 533 1
527 540 1
527 578 1
527 579 1
527 598 1
527 655 1
527 656 1
527 660 1
527 688 1
527 691 1
527 701 1
527 721 1
527 785 1
528 33 1
528 66 1
528 85 1
528 103 1
528 139 1
528 207 1
528 216 1
528 226 1
528 242 1
528 280 1
528 283 1
528 297 1
528 304 1
528 306 1
528 321 1
528 322 1
528 332 1
528 351 1
528 364 1
528 373 1
528 395 1
528 407 1
528 420 1
528 440 1
528 457 1
528 480 1
528 494 1
528 516 1
528 529 1
528 550 1
528 565 1
528 569 1
528 577 1
528 659 1
528 661 1
528 662 1
528 663 1
528 669 1
528 704 1
528 708 1
528 748 1
528 760 1
528 771 1
529 4 1
529 52 1
529 64 1
529 68 1
529 69 1
529 163 1
529 164 1
529 165 1
529 168 1
529 173 1
529 185 1
529 190 1
529 194 1
529 211 1
529 229 1
529 305 1
529 331 1
529 352 1
529 355 1
529 376 1
529 382 1
529 393 1
529 408 1
529 420 1
529 440 1
529 444 1
529 446 1
529 448 1
529 450 1
529 461 1
529 470 1
529 472 1
529 473 1
529 490 1
529 499 1
529 501 1
529 528 1
529 532 1
529 560 1
529 583 1
529 605 1
529 668 1
529 682 1
529 693 1
529 705 1
529 739 1
529 755 1
529 768 1
529 774 1
529 788 1
530 30 1
530 52 1
530 76 1
530 83 1
530 98 1
530 124 1
530 177 1
530 182 1
530 197 1
530 203 1
530 217 1
530 220 1
530 244 1
530 248 1
530 253 1
530 257 1
530 259 1
530 263 1
530 269 1
530 317 1
530 330 1
530 338 1
530 339 1
530 346 1
530 359 1
530 366 1
530 374 1
530 380 1
530 394 1
530 402 1
530 425 1
530 433 1
530 450 1
530 482 1
530 531 1
530 555 1
530 560 1
530 562 1
530 575 1
530 588 1
530 611 1
530 647 1
530 657 1
530 681 1
530 683 1
530 737 1
530 781 1
530 791 1
531 7 1
531 41 1
531 43 1
531 60 1
531 79 1
531 128 1
531 132 1
531 135 1
531 140 1
531 183 1
531 189 1
531 194 1
531 196 1
531 200 1
531 211 1
531 237 1
531 254 1
531 268 1
531 276 1
531 307 1
531 308 1
531 321 1
531 406 1
531 409 1
531 422 1
531 430 1
531 445 1
531 446 1
531 487 1
531 491 1
531 501 1
531 510 1
531 512 1
531 524 1
531 530 1
531 580 1
531 594 1
531 598 1
531 624 1
531 632 1
531 654 1
531 661 1
531 670 1
531 677 1
531 696 1
531 723 1
531 748 1
531 791 1
532 48 1
532 54 1
532 130 1
532 133 1
532 136 1
532 147 1
532 153 1
532 198 1
532 199 1
532 208 1
532 209 1
532 211 1
532 247 1
532 248 1
532 254 1
532 265 1
532 267 1
532 280 1
532 285 1
532 307 1
532 308 1
532 309 1
532 326 1
532 345 1
532 351 1
532 377 1
532 396 1
532 414 1
532 419 1
532 430 1
532 440 1
532 454 1
532 476 1
532 504 1
532 522 1
532 523 1
532 529 1
532 544 1
532 545 1
532 569 1
532 612 1
532 624 1
532 637 1
532 640 1
532 651 1
532 682 1
532 693 1
532 694 1
532 705 1
532 706 1
532 771 1
532 772 1
532 774 1
533 22 1
533 47 1
533 84 1
533 118 1
533 137 1
533 155 1
533 156 1
533 159 1
533 170 1
533 175 1
533 261 1
533 269 1
533 318 1
533 329 1
533 354 1
533 355 1
533 388 1
533 430 1
533 432 1
533 460 1
533 470 1
533 485 1
533 487 1
533 515 1
533 519 1
533 527 1
533 556 1
533 612 1
533 637 1
533 641 1
533 666 1
533 736 1
533 749 1
533 762 1
533 766 1
533 767 1
533 778 1
533 781 1
534 8 1
534 17 1
534 51 1
534 62 1
534 122 1
534 139 1
534 152 1
534 167 1
534 176 1
534 186 1
534 189 1
534 198 1
534 206 1
534 219 1
534 220 1
534 253 1
534 254 1
534 259 1
534 272 1
534 294 1
534 296 1
534 304 1
534 321 1
534 322 1
534 330 1
534 351 1
534 368 1
534 383 1
534 416 1
534 456 1
534 457 1
534 491 1
534 494 1
534 510 1
534 523 1
534 540 1
534 553 1
534 558 1
534 569 1
534 586 1
534 587 1
534 588 1
534 606 1
534 614 1
534 655 1
534 681 1
534 701 1
534 745 1
534 748 1
534 754 1
534 762 1
534 783 1
534 788 1
534 797 1
535 4 1
535 30 1
535 78 1
535 109 1
535 110 1
535 111 1
535 116 1
535 132 1
535 153 1
535 169 1
535 185 1
535 187 1
535 197 1
535 201 1
535 226 1
535 237 1
535 244 1
535 260 1
535 351 1
535 354 1
535 365 1
535 380 1
535 383 1
535 406 1
535 445 1
535 488 1
535 504 1
535 522 1
535 552 1
535 553 1
535 572 1
535 573 1
535 576 1
535 585 1
535 586 1
535 596 1
535 606 1
535 607 1
535 639 1
535 643 1
535 681 1
535 695 1
535 708 1
535 725 1
535 745 1
535 759 1
535 789 1
535 800 1
536 3 1
536 9 1
536 12 1
536 17 1
536 68 1
536 69 1
536 134 1
536 145 1
536 172 1
536 180 1
536 188 1
536 204 1
536 218 1
536 245 1
536 248 1
536 258 1
536 275 1
536 283 1
536 286 1
536 290 1
536 300 1
536 321 1
536 323 1
536 337 1
536 388 1
536 401 1
536 442 1
536 460 1
536 476 1
536 483 1
536 524 1
536 564 1
536 599 1
536 620 1
536 622 1
536 642 1
536 673 1
536 695 1
536 727 1
536 729 1
536 730 1
536 739 1
536 750 1
536 751 1
536 752 1
536 764 1
536 765 1
536 771 1
537 14 1
537 22 1
537 41 1
537 54 1
537 67 1
537 82 1
537 108 1
537 109 1
537 184 1
537 210 1
537 211 1
537 261 1
537 262 1
537 334 1
537 363 1
537 366 1
537 380 1
537 388 1
537 412 1
537 419 1
537 426 1
537 459 1
537 468 1
537 493 1
537 508 1
537 515 1
537 516 1
537 561 1
537 574 1
537 587 1
537 655 1
537 676 1
537 701 1
537 715 1
537 723 1
537 732 1
537 749 1
537 753 1
537 754 1
537 761 1
537 783 1
537 789 1
537 792 1
538 18 1
538 22 1
538 35 1
538 62 1
538 67 1
538 87 1
538 102 1
538 114 1
538 123 1
538 154 1
538 170 1
538 178 1
538 187 1
538 210 1
538 219 1
538 224 1
538 229 1
538 258 1
538 272 1
538 282 1
538 328 1
538 376 1
538 395 1
538 400 1
538 428 1
538 457 1
538 478 1
538 483 1
538 504 1
538 512 1
538 554 1
538 570 1
538 574 1
538 584 1
538 585 1
538 596 1
538 598 1
538 617 1
538 634 1
538 635 1
538 640 1
538 655 1
538 663 1
538 673 1
538 677 1
538 702 1
538 717 1
538 730 1
538 739 1
538 767 1
538 787 1
539 7 1
539 32 1
539 41 1
539 84 1
539 87 1
539 90 1
539 137 1
539 143 1
539 145 1
539 151 1
539 168 1
539 179 1
539 184 1
539 203 1
539 230 1
539 246 1
539 265 1
539 326 1
539 331 1
539 334 1
539 345 1
539 378 1
539 393 1
539 420 1
539 424 1
539 430 1
539 433 1
539 442 1
539 443 1
539 461 1
539 464 1
539 485 1
539 491 1
539 507 1
539 508 1
539 525 1
539 549 1
539 579 1
539 584 1
539 606 1
539 613 1
539 628 1
539 636 1
539 637 1
539 650 1
539 658 1
539 696 1
539 704 1
539 707 1
539 729 1
539 733 1
539 771 1
540 11 1
540 13 1
540 15 1
540 17 1
540 34 1
540 61 1
540 64 1
540 75 1
540 77 1
540 81 1
540 104 1
540 111 1
540 124 1
540 133 1
540 141 1
540 168 1
540 183 1
540 194 1
540 211 1
540 250 1
540 324 1
540 351 1
540 356 1
540 371 1
540 384 1
540 387 1
540 392 1
540 394 1
540 395 1
540 406 1
540 408 1
540 421 1
540 467 1
540 489 1
540 494 1
540 502 1
540 516 1
540 527 1
540 534 1
540 548 1
540 551 1
540 564 1
540 588 1
540 590 1
540 596 1
540 643 1
540 658 1
540 673 1
540 717 1
540 745 1
540 752 1
540 761 1
541 17 1
541 113 1
541 117 1
541 155 1
541 182 1
541 200 1
541 204 1
541 222 1
541 225 1
541 234 1
541 249 1
541 253 1
541 278 1
541 297 1
541 302 1
541 386 1
541 389 1
541 392 1
541 411 1
541 422 1
541 440 1
541 450 1
541 453 1
541 460 1
541 464 1
541 471 1
541 475 1
541 478 1
541 502 1
541 503 1
541 510 1
541 550 1
541 574 1
541 581 1
541 588 1
541 603 1
541 611 1
541 618 1
541 623 1
541 631 1
541 645 1
541 648 1
541 687 1
541 707 1
541 719 1
541 745 1
541 751 1
541 761 1
542 5 1
542 34 1
542 105 1
542 108 1
542 113 1
542 117 1
542 135 1
542 140 1
542 148 1
542 166 1
542 195 1
542 210 1
542 246 1
542 258 1
542 266 1
542 270 1
542 278 1
542 306 1
542 310 1
542 317 1
542 321 1
542 340 1
542 365 1
542 366 1
542 369 1
542 371 1
542 372 1
542 422 1
542 436 1
542 468 1
542 483 1
542 484 1
542 520 1
542 576 1
542 577 1
542 638 1
542 644 1
542 668 1
542 724 1
542 742 1
542 791 1
542 798 1
543 8 1
543 15 1
543 24 1
543 48 1
543 71 1
543 80 1
543 108 1
543 148 1
543 157 1
543 185 1
543 194 1
543 249 1
543 255 1
543 275 1
543 278 1
543 304 1
543 363 1
543 370 1
543 380 1
543 396 1
543 403 1
543 415 1
543 419 1
543 435 1
543 458 1
543 465 1
543 476 1
543 488 1
543 497 1
543 524 1
543 580 1
543 602 1
543 615 1
543 641 1
543 649 1
543 662 1
543 668 1
543 677 1
543 710 1
543 742 1
543 766 1
543 791 1
544 11 1
544 13 1
544 38 1
544 51 1
544 57 1
544 59 1
544 60 1
544 61 1
544 65 1
544 66 1
544 70 1
544 72 1
544 78 1
544 79 1
544 83 1
544 85 1
544 96 1
544 106 1
544 140 1
544 144 1
544 186 1
544 191 1
544 219 1
544 223 1
544 235 1
544 238 1
544 264 1
544 274 1
544 280 1
544 309 1
544 315 1
544 320 1
544 323 1
544 327 1
544 338 1
544 340 1
544 367 1
544 374 1
544 382 1
544 437 1
544 445 1
544 458 1
544 465 1
544 480 1
544 486 1
544 492 1
544 499 1
544 514 1
544 532 1
544 556 1
544 568 1
544 589 1
544 626 1
544 634 1
544 643 1
544 654 1
544 658 1
544 663 1
544 670 1
544 743 1
544 754 1
544 764 1
545 4 1
545 14 1
545 25 1
545 35 1
545 42 1
545 43 1
545 74 1
545 106 1
545 112 1
545 136 1
545 176 1
545 180 1
545 243 1
545 248 1
545 260 1
545 284 1
545 289 1
545 325 1
545 333 1
545 360 1
545 369 1
545 399 1
545 411 1
545 424 1
545 442 1
545 454 1
545 502 1
545 506 1
545 532 1
545 549 1
545 583 1
545 615 1
545 621 1
545 625 1
545 631 1
545 645 1
545 661 1
545 714 1
545 717 1
545 721 1
545 757 1
545 760 1
546 10 1
546 32 1
546 47 1
546 67 1
546 69 1
546 158 1
546 195 1
546 207 1
546 234 1
546 238 1
546 240 1
546 264 1
546 265 1
546 274 1
546 286 1
546 297 1
546 311 1
546 341 1
546 372 1
546 383 1
546 398 1
546 402 1
546 423 1
546 424 1
546 429 1
546 442 1
546 501 1
546 623 1
546 644 1
546 649 1
546 659 1
546 671 1
546 674 1
546 704 1
546 727 1
546 745 1
546 755 1
546 756 1
546 758 1
546 761 1
546 798 1
546 800 1
547 29 1
547 106 1
547 129 1
547 137 1
547 138 1
547 150 1
547 181 1
547 198 1
547 204 1
547 212 1
547 213 1
547 241 1
547 253 1
547 283 1
547 294 1
547 323 1
547 332 1
547 353 1
547 383 1
547 388 1
547 395 1
547 411 1
547 412 1
547 413 1
547 430 1
547 431 1
547 452 1
547 461 1
547 468 1
547 475 1
547 478 1
547 495 1
547 509 1
547 510 1
547 522 1
547 557 1
547 560 1
547 594 1
547 607 1
547 609 1
547 610 1
547 620 1
547 650 1
547 659 1
547 660 1
547 664 1
547 714 1
547 720 1
547 752 1
547 766 1
547 781 1
548 7 1
548 8 1
548 20 1
548 67 1
548 80 1
548 84 1
548 101 1
548 103 1
548 117 1
548 120 1
548 143 1
548 152 1
548 208 1
548 236 1
548 243 1
548 288 1
548 290 1
548 310 1
548 314 1
548 331 1
548 342 1
548 349 1
548 378 1
548 387 1
548 393 1
548 397 1
548 399 1
548 412 1
548 430 1
548 433 1
548 481 1
548 492 1
548 505 1
548 512 1
548 518 1
548 519 1
548 540 1
548 549 1
548 551 1
548 554 1
548 555 1
548 556 1
548 560 1
548 600 1
548 621 1
548 630 1
548 639 1
548 643 1
548 656 1
548 660 1
548 672 1
548 673 1
548 717 1
548 724 1
548 732 1
548 759 1
548 774 1
548 794 1
548 795 1
549 52 1
549 64 1
549 87 1
549 91 1
549 137 1
549 152 1
549 180 1
549 201 1
549 247 1
549 273 1
549 284 1
549 287 1
549 297 1
549 302 1
549 312 1
549 352 1
549 358 1
549 381 1
549 382 1
549 458 1
549 459 1
549 477 1
549 482 1
549 502 1
549 510 1
549 512 1
549 520 1
549 539 1
549 545 1
549 548 1
549 591 1
549 602 1
549 614 1
549 632 1
549 669 1
549 674 1
549 727 1
549 740 1
549 797 1
549 798 1
550 12 1
550 15 1
550 44 1
550 48 1
550 58 1
550 80 1
550 83 1
550 107 1
550 117 1
550 120 1
550 126 1
550 127 1
550 145 1
550 163 1
550 208 1
550 209 1
550 261 1
550 273 1
550 334 1
550 356 1
550 362 1
550 376 1
550 377 1
550 389 1
550 408 1
550 410 1
550 448 1
550 468 1
550 476 1
550 481 1
550 506 1
550 528 1
550 541 1
550 555 1
550 602 1
550 616 1
550 620 1
550 663 1
550 713 1
550 725 1
550 756 1
550 798 1
551 14 1
551 33 1
551 108 1
551 113 1
551 115 1
551 129 1
551 167 1
551 175 1
551 188 1
551 190 1
551 199 1
551 220 1
551 238 1
551 250 1
551 315 1
551 332 1
551 334 1
551 344 1
551 353 1
551 354 1
551 362 1
551 363 1
551 386 1
551 387 1
551 388 1
551 404 1
551 406 1
551 417 1
551 420 1
551 433 1
551 440 1
551 453 1
551 474 1
551 482 1
551 486 1
551 488 1
551 491 1
551 496 1
551 526 1
551 540 1
551 548 1
551 577 1
551 584 1
551 589 1
551 592 1
551 596 1
551 634 1
551 643 1
551 654 1
551 659 1
551 667 1
551 669 1
551 683 1
551 711 1
551 717 1
551 720 1
551 751 1
551 765 1
551 777 1
551 787 1
551 799 1
551 800 1
552 16 1
552 24 1
552 30 1
552 32 1
552 41 1
552 56 1
552 100 1
552 102 1
552 110 1
552 115 1
552 117 1
552 130 1
552 142 1
552 145 1
552 154 1
552 180 1
552 183 1
552 206 1
552 211 1
552 229 1
552 265 1
552 292 1
552 304 1
552 315 1
552 328 1
552 367 1
552 375 1
552 385 1
552 398 1
552 413 1
552 419 1
552 423 1
552 435 1
552 460 1
552 469 1
552 502 1
552 505 1
552 513 1
552 535 1
552 571 1
552 580 1
552 593 1
552 600 1
552 609 1
552 620 1
552 622 1
552 642 1
552 653 1
552 679 1
552 724 1
552 725 1
552 744 1
552 771 1
552 778 1
552 783 1
553 10 1
553 11 1
553 13 1
553 15 1
553 32 1
553 38 1
553 46 1
553 56 1
553 82 1
553 97 1
553 98 1
553 104 1
553 119 1
553 128 1
553 170 1
553 172 1
553 178 1
553 217 1
553 218 1
553 285 1
553 286 1
553 308 1
553 314 1
553 319 1
553 320 1
553 332 1
553 335 1
553 361 1
553 368 1
553 369 1
553 371 1
553 422 1
553 445 1
553 463 1
553 466 1
553 486 1
553 489 1
553 490 1
553 492 1
553 495 1
553 502 1
553 505 1
553 534 1
553 535 1
553 562 1
553 571 1
553 582 1
553 584 1
553 596 1
553 612 1
553 616 1
553 647 1
553 648 1
553 660 1
553 661 1
553 680 1
553 723 1
553 742 1
553 778 1
554 20 1
554 21 1
554 32 1
554 60 1
554 64 1
554 75 1
554 87 1
554 104 1
554 106 1
554 122 1
554 129 1
554 163 1
554 174 1
554 202 1
554 204 1
554 213 1
554 230 1
554 268 1
554 272 1
554 274 1
554 291 1
554 303 1
554 312 1
554 322 1
554 331 1
554 375 1
554 376 1
554 391 1
554 397 1
554 414 1
554 433 1
554 438 1
554 456 1
554 479 1
554 520 1
554 538 1
554 548 1
554 577 1
554 587 1
554 608 1
554 732 1
554 747 1
554 755 1
554 773 1
554 777 1
555 45 1
555 89 1
555 166 1
555 181 1
555 199 1
555 209 1
555 211 1
555 236 1
555 239 1
555 254 1
555 258 1
555 261 1
555 285 1
555 294 1
555 307 1
555 326 1
555 330 1
555 356 1
555 371 1
555 378 1
555 389 1
555 392 1
555 398 1
555 406 1
555 423 1
555 433 1
555 437 1
555 440 1
555 453 1
555 456 1
555 460 1
555 490 1
555 510 1
555 521 1
555 530 1
555 548 1
555 550 1
555 557 1
555 558 1
555 567 1
555 582 1
555 594 1
555 635 1
555 711 1
555 762 1
555 764 1
556 23 1
556 27 1
556 30 1
556 31 1
556 34 1
556 60 1
556 104 1
556 106 1
556 132 1
556 141 1
556 195 1
556 230 1
556 235 1
556 260 1
556 269 1
556 284 1
556 311 1
556 313 1
556 317 1
556 338 1
556 344 1
556 364 1
556 371 1
556 386 1
556 433 1
556 441 1
556 463 1
556 499 1
556 507 1
556 510 1
556 533 1
556 544 1
556 548 1
556 569 1
556 585 1
556 587 1
556 599 1
556 626 1
556 638 1
556 659 1
556 662 1
556 686 1
556 714 1
556 732 1
556 761 1
557 22 1
557 38 1
557 56 1
557 82 1
557 84 1
557 87 1
557 93 1
557 101 1
557 149 1
557 150 1
557 240 1
557 249 1
557 258 1
557 291 1
557 307 1
557 331 1
557 362 1
557 369 1
557 381 1
557 391 1
557 399 1
557 400 1
557 408 1
557 418 1
557 419 1
557 431 1
557 432 1
557 455 1
557 470 1
557 547 1
557 555 1
557 575 1
557 589 1
557 600 1
557 683 1
557 723 1
557 740 1
557 741 1
557 751 1
557 793 1
558 10 1
558 18 1
558 35 1
558 38 1
558 92 1
558 150 1
558 169 1
558 188 1
558 211 1
558 213 1
558 229 1
558 230 1
558 238 1
558 244 1
558 248 1
558 250 1
558 277 1
558 278 1
558 291 1
558 300 1
558 310 1
558 341 1
558 397 1
558 399 1
558 409 1
558 411 1
558 433 1
558 472 1
558 509 1
558 534 1
558 555 1
558 571 1
558 574 1
558 584 1
558 590 1
558 636 1
558 638 1
558 700 1
558 731 1
558 737 1
558 753 1
558 757 1
558 765 1
558 780 1
558 797 1
559 4 1
559 11 1
559 18 1
559 27 1
559 67 1
559 77 1
559 86 1
559 110 1
559 111 1
559 135 1
559 141 1
559 154 1
559 161 1
559 167 1
559 171 1
559 172 1
559 184 1
559 192 1
559 201 1
559 235 1
559 238 1
559 247 1
559 248 1
559 276 1
559 285 1
559 310 1
559 320 1
559 350 1
559 354 1
559 366 1
559 368 1
559 382 1
559 425 1
559 426 1
559 429 1
559 444 1
559 457 1
559 464 1
559 475 1
559 497 1
559 505 1
559 516 1
559 519 1
559 560 1
559 573 1
559 575 1
559 580 1
559 593 1
559 638 1
559 653 1
559 693 1
559 694 1
559 711 1
559 731 1
559 776 1
560 10 1
560 23 1
560 48 1
560 74 1
560 77 1
560 95 1
560 112 1
560 130 1
560 162 1
560 180 1
560 223 1
560 236 1
560 238 1
560 249 1
560 255 1
560 260 1
560 286 1
560 288 1
560 302 1
560 309 1
560 317 1
560 319 1
560 323 1
560 391 1
560 426 1
560 430 1
560 441 1
560 442 1
560 451 1
560 458 1
560 465 1
560 474 1
560 487 1
560 503 1
560 515 1
560 529 1
560 530 1
560 547 1
560 548 1
560 559 1
560 599 1
560 646 1
560 687 1
560 712 1
560 727 1
560 750 1
560 760 1
560 794 1
560 800 1
561 14 1
561 31 1
561 63 1
561 68 1
561 127 1
561 149 1
561 151 1
561 176 1
561 187 1
561 233 1
561 238 1
561 256 1
561 261 1
561 267 1
561 276 1
561 308 1
561 353 1
561 355 1
561 368 1
561 374 1
561 406 1
561 438 1
561 455 1
561 468 1
561 514 1
561 537 1
561 579 1
561 603 1
561 611 1
561 643 1
561 651 1
561 665 1
561 679 1
561 686 1
561 737 1
561 751 1
561 768 1
561 795 1
562 32 1
562 47 1
562 72 1
562 79 1
562 82 1
562 100 1
562 149 1
562 153 1
562 165 1
562 180 1
562 187 1
562 195 1
562 204 1
562 207 1
562 211 1
562 212 1
562 216 1
562 224 1
562 235 1
562 281 1
562 283 1
562 285 1
562 287 1
562 301 1
562 302 1
562 303 1
562 310 1
562 312 1
562 313 1
562 322 1
562 356 1
562 427 1
562 434 1
562 450 1
562 464 1
562 465 1
562 467 1
562 476 1
562 482 1
562 508 1
562 516 1
562 530 1
562 553 1
562 569 1
562 610 1
562 653 1
562 679 1
562 710 1
562 715 1
562 717 1
562 724 1
562 728 1
562 740 1
562 753 1
562 765 1
562 776 1
562 798 1
563 15 1
563 16 1
563 28 1
563 66 1
563 83 1
563 121 1
563 123 1
563 129 1
563 135 1
563 174 1
563 193 1
563 211 1
563 321 1
563 326 1
563 344 1
563 382 1
563 392 1
563 396 1
563 408 1
563 423 1
563 426 1
563 453 1
563 502 1
563 574 1
563 577 1
563 586 1
563 615 1
563 628 1
563 636 1
563 642 1
563 653 1
563 668 1
563 718 1
563 727 1
563 741 1
563 749 1
563 768 1
563 779 1
563 788 1
564 4 1
564 5 1
564 9 1
564 45 1
564 46 1
564 102 1
564 131 1
564 135 1
564 145 1
564 146 1
564 150 1
564 151 1
564 152 1
564 158 1
564 178 1
564 186 1
564 217 1
564 225 1
564 234 1
564 242 1
564 268 1
564 278 1
564 300 1
564 303 1
564 315 1
564 331 1
564 342 1
564 352 1
564 362 1
564 367 1
564 381 1
564 411 1
564 416 1
564 425 1
564 428 1
564 451 1
564 461 1
564 468 1
564 517 1
564 526 1
564 536 1
564 540 1
564 568 1
564 569 1
564 573 1
564 575 1
564 595 1
564 661 1
564 665 1
564 668 1
564 697 1
564 716 1
564 727 1
564 786 1
565 34 1
565 39 1
565 40 1
565 65 1
565 87 1
565 95 1
565 99 1
565 144 1
565 147 1
565 154 1
565 162 1
565 188 1
565 217 1
565 231 1
565 237 1
565 249 1
565 258 1
565 263 1
565 273 1
565 287 1
565 409 1
565 424 1
565 461 1
565 482 1
565 499 1
565 509 1
565 518 1
565 526 1
565 528 1
565 634 1
565 638 1
565 653 1
565 695 1
565 699 1
565 701 1
565 741 1
565 744 1
565 756 1
565 794 1
566 13 1
566 14 1
566 40 1
566 91 1
566 100 1
566 107 1
566 133 1
566 141 1
566 145 1
566 150 1
566 219 1
566 220 1
566 224 1
566 253 1
566 257 1
566 270 1
566 271 1
566 293 1
566 315 1
566 328 1
566 333 1
566 346 1
566 361 1
566 362 1
566 371 1
566 389 1
566 390 1
566 392 1
566 400 1
566 402 1
566 408 1
566 438 1
566 449 1
566 468 1
566 475 1
566 477 1
566 504 1
566 507 1
566 510 1
566 578 1
566 581 1
566 596 1
566 601 1
566 610 1
566 689 1
566 690 1
566 697 1
566 701 1
566 704 1
566 716 1
566 723 1
566 737 1
566 766 1
566 768 1
566 777 1
566 779 1
566 794 1
566 795 1
566 797 1
566 800 1
567 14 1
567 31 1
567 34 1
567 56 1
567 60 1
567 62 1
567 73 1
567 79 1
567 85 1
567 139 1
567 190 1
567 221 1
567 248 1
567 249 1
567 279 1
567 282 1
567 306 1
567 314 1
567 324 1
567 336 1
567 340 1
567 367 1
567 372 1
567 377 1
567 388 1
567 396 1
567 407 1
567 444 1
567 455 1
567 459 1
567 484 1
567 490 1
567 500 1
567 508 1
567 522 1
567 555 1
567 568 1
567 578 1
567 619 1
567 649 1
567 652 1
567 670 1
567 699 1
567 717 1
567 745 1
567 789 1
567 796 1
568 1 1
568 4 1
568 5 1
568 19 1
568 32 1
568 40 1
568 45 1
568 74 1
568 82 1
568 89 1
568 104 1
568 109 1
568 119 1
568 127 1
568 165 1
568 203 1
568 204 1
568 250 1
568 320 1
568 330 1
568 345 1
568 353 1
568 356 1
568 357 1
568 374 1
568 382 1
568 392 1
568 401 1
568 402 1
568 412 1
568 450 1
568 465 1
568 477 1
568 481 1
568 498 1
568 544 1
568 564 1
568 567 1
568 581 1
568 596 1
568 597 1
568 611 1
568 626 1
568 632 1
568 675 1
568 700 1
568 709 1
568 724 1
568 753 1
568 760 1
568 788 1
568 790 1
568 794 1
569 40 1
569 43 1
569 50 1
569 80 1
569 84 1
569 101 1
569 120 1
569 137 1
569 146 1
569 170 1
569 178 1
569 187 1
569 211 1
569 213 1
569 223 1
569 229 1
569 232 1
569 270 1
569 300 1
569 306 1
569 308 1
569 338 1
569 342 1
569 348 1
569 384 1
569 400 1
569 412 1
569 441 1
569 452 1
569 490 1
569 528 1
569 532 1
569 534 1
569 556 1
569 562 1
569 564 1
569 577 1
569 603 1
569 606 1
569 632 1
569 671 1
569 682 1
569 684 1
569 694 1
569 696 1
569 703 1
569 731 1
569 782 1
569 783 1
569 796 1
570 3 1
570 7 1
570 15 1
570 22 1
570 44 1
570 48 1
570 60 1
570 62 1
570 70 1
570 77 1
570 78 1
570 84 1
570 122 1
570 134 1
570 152 1
570 153 1
570 159 1
570 168 1
570 174 1
570 179 1
570 185 1
570 198 1
570 288 1
570 296 1
570 308 1
570 312 1
570 324 1
570 326 1
570 341 1
570 350 1
570 365 1
570 390 1
570 402 1
570 407 1
570 425 1
570 479 1
570 509 1
570 521 1
570 538 1
570 588 1
570 614 1
570 618 1
570 676 1
570 679 1
570 686 1
570 688 1
570 693 1
570 708 1
570 712 1
570 731 1
570 737 1
570 745 1
570 751 1
570 764 1
570 779 1
570 800 1
571 26 1
571 33 1
571 40 1
571 51 1
571 58 1
571 66 1
571 82 1
571 96 1
571 128 1
571 137 1
571 138 1
571 161 1
571 164 1
571 229 1
571 238 1
571 247 1
571 249 1
571 250 1
571 266 1
571 284 1
571 288 1
571 324 1
571 347 1
571 408 1
571 438 1
571 446 1
571 457 1
571 493 1
571 507 1
571 516 1
571 552 1
571 553 1
571 558 1
571 573 1
571 588 1
571 608 1
571 623 1
571 626 1
571 650 1
571 663 1
571 689 1
571 726 1
571 748 1
571 755 1
571 764 1
571 795 1
572 4 1
572 66 1
572 86 1
572 88 1
572 138 1
572 164 1
572 185 1
572 202 1
572 217 1
572 220 1
572 301 1
572 308 1
572 320 1
572 326 1
572 354 1
572 366 1
572 373 1
572 406 1
572 424 1
572 453 1
572 486 1
572 498 1
572 503 1
572 535 1
572 577 1
572 598 1
572 621 1
572 631 1
572 632 1
572 646 1
572 659 1
572 672 1
572 705 1
572 735 1
572 736 1
572 751 1
572 755 1
572 763 1
572 767 1
572 777 1
572 796 1
573 2 1
573 28 1
573 33 1
573 34 1
573 58 1
573 86 1
573 91 1
573 128 1
573 147 1
573 149 1
573 169 1
573 194 1
573 200 1
573 207 1
573 212 1
573 232 1
573 239 1
573 245 1
573 275 1
573 278 1
573 284 1
573 286 1
573 289 1
573 290 1
573 306 1
573 342 1
573 383 1
573 385 1
573 397 1
573 399 1
573 400 1
573 415 1
573 427 1
573 432 1
573 453 1
573 468 1
573 489 1
573 535 1
573 559 1
573 564 1
573 571 1
573 579 1
573 611 1
573 622 1
573 644 1
573 652 1
573 666 1
573 667 1
573 672 1
573 723 1
573 724 1
573 731 1
574 32 1
574 132 1
574 160 1
574 169 1
574 232 1
574 250 1
574 269 1
574 270 1
574 272 1
574 285 1
574 292 1
574 298 1
574 303 1
574 313 1
574 364 1
574 371 1
574 384 1
574 393 1
574 414 1
574 430 1
574 431 1
574 440 1
574 450 1
574 490 1
574 507 1
574 523 1
574 537 1
574 538 1
574 541 1
574 558 1
574 563 1
574 657 1
574 663 1
574 672 1
574 729 1
574 739 1
574 799 1
575 13 1
575 49 1
575 77 1
575 83 1
575 102 1
575 121 1
575 138 1
575 144 1
575 176 1
575 179 1
575 191 1
575 215 1
575 224 1
575 236 1
575 281 1
575 290 1
575 295 1
575 300 1
575 306 1
575 313 1
575 344 1
575 350 1
575 419 1
575 423 1
575 427 1
575 447 1
575 457 1
575 458 1
575 505 1
575 512 1
575 516 1
575 530 1
575 557 1
575 559 1
575 564 1
575 577 1
575 598 1
575 604 1
575 609 1
575 644 1
575 661 1
575 664 1
575 689 1
575 704 1
575 736 1
575 753 1
575 792 1
576 4 1
576 11 1
576 12 1
576 28 1
576 59 1
576 71 1
576 98 1
576 158 1
576 199 1
576 208 1
576 231 1
576 242 1
576 252 1
576 281 1
576 286 1
576 313 1
576 331 1
576 369 1
576 409 1
576 432 1
576 434 1
576 437 1
576 438 1
576 466 1
576 477 1
576 482 1
576 488 1
576 498 1
576 500 1
576 535 1
576 542 1
576 583 1
576 602 1
576 615 1
576 619 1
576 621 1
576 633 1
576 638 1
576 640 1
576 651 1
576 665 1
576 726 1
576 730 1
576 762 1
576 763 1
577 9 1
577 36 1
577 93 1
577 116 1
577 138 1
577 164 1
577 168 1
577 181 1
577 210 1
577 224 1
577 241 1
577 247 1
577 270 1
577 287 1
577 289 1
577 290 1
577 304 1
577 305 1
577 326 1
577 329 1
577 356 1
577 361 1
577 379 1
577 381 1
577 420 1
577 475 1
577 487 1
577 505 1
577 510 1
577 528 1
577 542 1
577 551 1
577 554 1
577 563 1
577 569 1
577 572 1
577 575 1
577 597 1
577 607 1
577 611 1
577 622 1
577 632 1
577 686 1
577 695 1
577 708 1
577 728 1
577 733 1
577 758 1
577 787 1
578 1 1
578 17 1
578 36 1
578 45 1
578 55 1
578 61 1
578 66 1
578 82 1
578 85 1
578 96 1
578 141 1
578 142 1
578 165 1
578 171 1
578 172 1
578 175 1
578 219 1
578 225 1
578 227 1
578 234 1
578 293 1
578 306 1
578 318 1
578 335 1
578 349 1
578 351 1
578 362 1
578 404 1
578 406 1
578 423 1
578 438 1
578 482 1
578 493 1
578 514 1
578 527 1
578 566 1
578 567 1
578 599 1
578 624 1
578 628 1
578 633 1
578 654 1
578 656 1
578 662 1
578 673 1
578 692 1
578 719 1
578 725 1
578 733 1
578 741 1
579 6 1
579 39 1
579 54 1
579 61 1
579 101 1
579 124 1
579 128 1
579 141 1
579 149 1
579 168 1
579 171 1
579 245 1
579 269 1
579 274 1
579 276 1
579 277 1
579 321 1
579 334 1
579 397 1
579 402 1
579 415 1
579 416 1
579 485 1
579 490 1
579 493 1
579 496 1
579 505 1
579 527 1
579 539 1
579 561 1
579 573 1
579 600 1
579 627 1
579 653 1
579 672 1
579 697 1
579 698 1
579 733 1
579 742 1
579 752 1
579 784 1
579 793 1
580 2 1
580 5 1
580 10 1
580 16 1
580 27 1
580 36 1
580 42 1
580 74 1
580 130 1
580 136 1
580 150 1
580 153 1
580 170 1
580 250 1
580 252 1
580 254 1
580 267 1
580 291 1
580 300 1
580 345 1
580 346 1
580 351 1
580 363 1
580 388 1
580 402 1
580 449 1
580 452 1
580 482 1
580 531 1
580 543 1
580 552 1
580 559 1
580 586 1
580 600 1
580 618 1
580 628 1
580 659 1
580 726 1
580 730 1
580 735 1
580 754 1
580 758 1
580 782 1
580 783 1
580 797 1
581 1 1
581 15 1
581 20 1
581 30 1
581 51 1
581 64 1
581 77 1
581 100 1
581 102 1
581 124 1
581 136 1
581 182 1
581 183 1
581 185 1
581 198 1
581 219 1
581 247 1
581 265 1
581 276 1
581 302 1
581 357 1
581 395 1
581 405 1
581 429 1
581 430 1
581 471 1
581 483 1
581 490 1
581 522 1
581 541 1
581 566 1
581 568 1
581 686 1
581 706 1
581 708 1
581 720 1
581 725 1
581 786 1
582 2 1
582 22 1
582 44 1
582 79 1
582 97 1
582 106 1
582 161 1
582 182 1
582 225 1
582 392 1
582 395 1
582 416 1
582 462 1
582 466 1
582 471 1
582 488 1
582 498 1
582 500 1
582 517 1
582 553 1
582 555 1
582 600 1
582 620 1
582 630 1
582 636 1
582 637 1
582 641 1
582 650 1
582 656 1
582 668 1
582 703 1
582 710 1
582 778 1
582 797 1
582 800 1
583 19 1
583 22 1
583 71 1
583 106 1
583 131 1
583 141 1
583 142 1
583 143 1
583 157 1
583 160 1
583 170 1
583 191 1
583 223 1
583 230 1
583 271 1
583 340 1
583 349 1
583 351 1
583 415 1
583 416 1
583 427 1
583 431 1
583 432 1
583 433 1
583 440 1
583 447 1
583 485 1
583 492 1
583 495 1
583 510 1
583 529 1
583 545 1
583 576 1
583 587 1
583 622 1
583 623 1
583 627 1
583 677 1
583 685 1
583 694 1
583 729 1
583 730 1
583 735 1
583 749 1
583 766 1
584 4 1
584 18 1
584 36 1
584 68 1
584 77 1
584 80 1
584 82 1
584 122 1
584 142 1
584 153 1
584 158 1
584 173 1
584 197 1
584 215 1
584 221 1
584 230 1
584 257 1
584 262 1
584 272 1
584 280 1
584 286 1
584 297 1
584 304 1
584 316 1
584 319 1
584 330 1
584 363 1
584 365 1
584 369 1
584 404 1
584 410 1
584 416 1
584 423 1
584 430 1
584 432 1
584 438 1
584 467 1
584 489 1
584 502 1
584 508 1
584 538 1
584 539 1
584 551 1
584 553 1
584 558 1
584 585 1
584 620 1
584 623 1
584 649 1
584 666 1
584 685 1
584 697 1
584 701 1
584 708 1
584 715 1
584 741 1
584 799 1
585 19 1
585 47 1
585 54 1
585 80 1
585 136 1
585 171 1
585 201 1
585 210 1
585 220 1
585 224 1
585 239 1
585 246 1
585 262 1
585 321 1
585 329 1
585 344 1
585 355 1
585 362 1
585 367 1
585 388 1
585 401 1
585 476 1
585 489 1
585 517 1
585 518 1
585 520 1
585 524 1
585 535 1
585 538 1
585 556 1
585 584 1
585 589 1
585 601 1
585 690 1
585 699 1
585 702 1
585 713 1
585 745 1
585 755 1
585 759 1
585 774 1
585 795 1
585 798 1
586 2 1
586 105 1
586 160 1
586 166 1
586 167 1
586 222 1
586 229 1
586 230 1
586 247 1
586 262 1
586 280 1
586 309 1
586 316 1
586 335 1
586 349 1
586 378 1
586 408 1
586 414 1
586 419 1
586 437 1
586 439 1
586 456 1
586 458 1
586 461 1
586 512 1
586 534 1
586 535 1
586 563 1
586 580 1
586 611 1
586 632 1
586 637 1
586 638 1
586 641 1
586 666 1
586 694 1
586 737 1
586 752 1
586 777 1
586 782 1
586 788 1
587 10 1
587 22 1
587 43 1
587 54 1
587 71 1
587 79 1
587 143 1
587 154 1
587 173 1
587 185 1
587 199 1
587 244 1
587 284 1
587 316 1
587 328 1
587 359 1
587 360 1
587 361 1
587 380 1
587 447 1
587 452 1
587 474 1
587 500 1
587 502 1
587 507 1
587 523 1
587 534 1
587 537 1
587 554 1
587 556 1
587 583 1
587 599 1
587 602 1
587 642 1
587 650 1
587 651 1
587 658 1
587 669 1
587 677 1
587 680 1
587 727 1
587 734 1
587 754 1
587 773 1
587 774 1
587 775 1
587 776 1
587 787 1
588 6 1
588 31 1
588 32 1
588 47 1
588 66 1
588 68 1
588 83 1
588 84 1
588 90 1
588 119 1
588 135 1
588 140 1
588 186 1
588 196 1
588 216 1
588 226 1
588 321 1
588 334 1
588 363 1
588 385 1
588 390 1
588 400 1
588 408 1
588 414 1
588 428 1
588 433 1
588 447 1
588 448 1
588 530 1
588 534 1
588 540 1
588 541 1
588 570 1
588 571 1
588 589 1
588 608 1
588 617 1
588 634 1
588 644 1
588 656 1
588 659 1
588 685 1
588 694 1
588 706 1
588 736 1
588 743 1
589 65 1
589 91 1
589 112 1
589 115 1
589 122 1
589 144 1
589 161 1
589 167 1
589 168 1
589 173 1
589 199 1
589 227 1
589 228 1
589 232 1
589 243 1
589 244 1
589 259 1
589 290 1
589 304 1
589 308 1
589 324 1
589 352 1
589 358 1
589 363 1
589 384 1
589 398 1
589 419 1
589 430 1
589 431 1
589 432 1
589 437 1
589 468 1
589 473 1
589 480 1
589 501 1
589 508 1
589 516 1
589 544 1
589 551 1
589 557 1
589 585 1
589 588 1
589 593 1
589 633 1
589 680 1
589 689 1
589 691 1
589 735 1
589 741 1
589 755 1
589 770 1
589 778 1
590 3 1
590 52 1
590 81 1
590 89 1
590 102 1
590 109 1
590 118 1
590 129 1
590 137 1
590 146 1
590 152 1
590 154 1
590 157 1
590 162 1
590 173 1
590 179 1
590 216 1
590 218 1
590 240 1
590 245 1
590 275 1
590 283 1
590 289 1
590 301 1
590 307 1
590 314 1
590 315 1
590 317 1
590 319 1
590 323 1
590 324 1
590 331 1
590 380 1
590 406 1
590 410 1
590 460 1
590 466 1
590 476 1
590 477 1
590 488 1
590 540 1
590 558 1
590 591 1
590 599 1
590 600 1
590 601 1
590 622 1
590 624 1
590 637 1
590 666 1
590 708 1
590 711 1
590 746 1
590 762 1
590 768 1
590 781 1
591 20 1
591 53 1
591 75 1
591 87 1
591 88 1
591 98 1
591 139 1
591 141 1
591 166 1
591 186 1
591 211 1
591 237 1
591 238 1
591 242 1
591 251 1
591 265 1
591 283 1
591 295 1
591 298 1
591 304 1
591 309 1
591 319 1
591 321 1
591 352 1
591 383 1
591 391 1
591 410 1
591 415 1
591 416 1
591 454 1
591 456 1
591 461 1
591 514 1
591 549 1
591 590 1
591 610 1
591 619 1
591 641 1
591 649 1
591 654 1
591 657 1
591 690 1
591 692 1
591 706 1
591 740 1
591 742 1
591 746 1
591 747 1
591 757 1
591 787 1
591 788 1
591 795 1
592 38 1
592 55 1
592 67 1
592 76 1
592 82 1
592 93 1
592 97 1
592 98 1
592 137 1
592 153 1
592 170 1
592 187 1
592 221 1
592 240 1
592 248 1
592 267 1
592 272 1
592 279 1
592 289 1
592 293 1
592 306 1
592 330 1
592 334 1
592 335 1
592 344 1
592 367 1
592 370 1
592 386 1
592 421 1
592 428 1
592 433 1
592 439 1
592 490 1
592 499 1
592 517 1
592 521 1
592 551 1
592 599 1
592 606 1
592 634 1
592 639 1
592 652 1
592 671 1
592 683 1
592 700 1
592 703 1
592 711 1
592 730 1
592 746 1
592 771 1
592 787 1
592 791 1
593 19 1
593 26 1
593 35 1
593 41 1
593 45 1
593 59 1
593 62 1
593 67 1
593 109 1
593 132 1
593 167 1
593 195 1
593 207 1
593 209 1
593 249 1
593 254 1
593 282 1
593 287 1
593 288 1
593 293 1
593 301 1
593 302 1
593 306 1
593 338 1
593 349 1
593 382 1
593 401 1
593 403 1
593 404 1
593 412 1
593 441 1
593 468 1
593 483 1
593 508 1
593 515 1
593 518 1
593 526 1
593 552 1
593 559 1
593 589 1
593 606 1
593 612 1
593 637 1
593 659 1
593 660 1
593 668 1
593 724 1
593 770 1
593 774 1
593 778 1
593 798 1
594 3 1
594 4 1
594 45 1
594 49 1
594 56 1
594 75 1
594 83 1
594 85 1
594 96 1
594 107 1
594 110 1
594 122 1
594 141 1
594 144 1
594 167 1
594 200 1
594 214 1
594 238 1
594 242 1
594 275 1
594 321 1
594 327 1
594 330 1
594 334 1
594 346 1
594 356 1
594 362 1
594 374 1
594 383 1
594 390 1
594 403 1
594 414 1
594 422 1
594 426 1
594 457 1
594 500 1
594 510 1
594 522 1
594 524 1
594 531 1
594 547 1
594 555 1
594 601 1
594 605 1
594 664 1
594 687 1
594 706 1
594 709 1
594 712 1
594 739 1
594 757 1
594 777 1
595 1 1
595 64 1
595 99 1
595 116 1
595 140 1
595 157 1
595 159 1
595 192 1
595 250 1
595 254 1
595 278 1
595 279 1
595 280 1
595 290 1
595 297 1
595 308 1
595 312 1
595 356 1
595 370 1
595 403 1
595 424 1
595 444 1
595 447 1
595 450 1
595 456 1
595 474 1
595 481 1
595 523 1
595 564 1
595 608 1
595 615 1
595 635 1
595 657 1
595 668 1
595 673 1
595 696 1
595 717 1
595 723 1
596 5 1
596 7 1
596 8 1
596 10 1
596 15 1
596 30 1
596 49 1
596 51 1
596 81 1
596 91 1
596 110 1
596 114 1
596 142 1
596 149 1
596 195 1
596 209 1
596 223 1
596 247 1
596 256 1
596 271 1
596 283 1
596 293 1
596 315 1
596 317 1
596 318 1
596 344 1
596 364 1
596 449 1
596 453 1
596 457 1
596 471 1
596 535 1
596 538 1
596 540 1
596 551 1
596 553 1
596 566 1
596 568 1
596 645 1
596 649 1
596 670 1
596 733 1
596 743 1
596 756 1
596 759 1
596 771 1
596 786 1
596 798 1
597 14 1
597 32 1
597 90 1
597 92 1
597 96 1
597 104 1
597 111 1
597 120 1
597 126 1
597 165 1
597 217 1
597 246 1
597 291 1
597 332 1
597 336 1
597 339 1
597 379 1
597 405 1
597 409 1
597 418 1
597 453 1
597 484 1
597 497 1
597 524 1
597 568 1
597 577 1
597 607 1
597 621 1
597 635 1
597 649 1
597 677 1
597 683 1
597 707 1
597 740 1
597 744 1
597 794 1
598 25 1
598 36 1
598 39 1
598 62 1
598 93 1
598 106 1
598 112 1
598 118 1
598 121 1
598 129 1
598 139 1
598 150 1
598 168 1
598 174 1
598 183 1
598 195 1
598 214 1
598 247 1
598 312 1
598 344 1
598 374 1
598 394 1
598 416 1
598 432 1
598 440 1
598 442 1
598 448 1
598 484 1
598 490 1
598 501 1
598 527 1
598 531 1
598 538 1
598 572 1
598 575 1
598 605 1
598 614 1
598 621 1
598 624 1
598 653 1
598 663 1
598 670 1
598 696 1
598 699 1
598 729 1
598 731 1
598 757 1
598 796 1
598 799 1
599 1 1
599 8 1
599 25 1
599 79 1
599 83 1
599 85 1
599 94 1
599 114 1
599 118 1
599 120 1
599 152 1
599 159 1
599 174 1
599 178 1
599 197 1
599 203 1
599 231 1
599 235 1
599 266 1
599 283 1
599 286 1
599 305 1
599 325 1
599 370 1
599 387 1
599 411 1
599 415 1
599 426 1
599 428 1
599 434 1
599 466 1
599 481 1
599 506 1
599 512 1
599 518 1
599 519 1
599 536 1
599 556 1
599 560 1
599 578 1
599 587 1
599 590 1
599 592 1
599 605 1
599 607 1
599 608 1
599 616 1
599 617 1
599 624 1
599 666 1
599 693 1
599 702 1
599 706 1
599 707 1
599 735 1
599 736 1
599 753 1
599 756 1
599 787 1
600 4 1
600 13 1
600 21 1
600 24 1
600 26 1
600 34 1
600 41 1
600 78 1
600 83 1
600 90 1
600 91 1
600 98 1
600 100 1
600 119 1
600 148 1
600 167 1
600 170 1
600 171 1
600 228 1
600 289 1
600 297 1
600 303 1
600 311 1
600 334 1
600 341 1
600 349 1
600 368 1
600 369 1
600 380 1
600 404 1
600 406 1
600 411 1
600 488 1
600 505 1
600 548 1
600 552 1
600 557 1
600 579 1
600 580 1
600 582 1
600 590 1
600 601 1
600 603 1
600 608 1
600 615 1
600 627 1
600 650 1
600 665 1
600 682 1
600 691 1
600 702 1
600 724 1
600 732 1
600 742 1
600 755 1
600 765 1
600 766 1
601 22 1
601 34 1
601 49 1
601 53 1
601 57 1
601 64 1
601 75 1
601 80 1
601 90 1
601 110 1
601 125 1
601 127 1
601 139 1
601 162 1
601 187 1
601 220 1
601 239 1
601 260 1
601 261 1
601 264 1
601 291 1
601 305 1
601 334 1
601 346 1
601 359 1
601 380 1
601 404 1
601 413 1
601 420 1
601 443 1
601 451 1
601 502 1
601 503 1
601 514 1
601 566 1
601 585 1
601 590 1
601 594 1
601 600 1
601 607 1
601 609 1
601 613 1
601 664 1
601 674 1
601 677 1
601 711 1
601 719 1
601 721 1
601 727 1
601 732 1
601 758 1
601 760 1
601 764 1
601 794 1
602 8 1
602 16 1
602 22 1
602 44 1
602 48 1
602 83 1
602 97 1
602 137 1
602 143 1
602 166 1
602 185 1
602 191 1
602 202 1
602 227 1
602 263 1
602 270 1
602 276 1
602 324 1
602 342 1
602 361 1
602 362 1
602 381 1
602 415 1
602 424 1
602 437 1
602 472 1
602 474 1
602 503 1
602 510 1
602 519 1
602 543 1
602 549 1
602 550 1
602 576 1
602 587 1
602 609 1
602 637 1
602 644 1
602 645 1
602 656 1
602 695 1
602 699 1
602 733 1
602 748 1
602 795 1
602 798 1
603 4 1
603 21 1
603 26 1
603 27 1
603 37 1
603 67 1
603 168 1
603 183 1
603 189 1
603 218 1
603 231 1
603 233 1
603 242 1
603 244 1
603 247 1
603 260 1
603 266 1
603 306 1
603 420 1
603 435 1
603 454 1
603 475 1
603 483 1
603 485 1
603 492 1
603 502 1
603 504 1
603 541 1
603 561 1
603 569 1
603 600 1
603 615 1
603 619 1
603 630 1
603 649 1
603 652 1
603 656 1
603 658 1
603 661 1
603 668 1
603 670 1
603 737 1
603 765 1
603 778 1
603 800 1
604 16 1
604 48 1
604 59 1
604 69 1
604 75 1
604 83 1
604 84 1
604 97 1
604 146 1
604 161 1
604 165 1
604 187 1
604 197 1
604 207 1
604 228 1
604 268 1
604 270 1
604 276 1
604 279 1
604 305 1
604 309 1
604 310 1
604 353 1
604 375 1
604 381 1
604 406 1
604 419 1
604 434 1
604 501 1
604 508 1
604 522 1
604 575 1
604 659 1
604 668 1
604 684 1
604 694 1
604 720 1
604 736 1
604 747 1
604 793 1
605 4 1
605 21 1
605 34 1
605 62 1
605 64 1
605 79 1
605 97 1
605 104 1
605 107 1
605 131 1
605 155 1
605 162 1
605 172 1
605 176 1
605 198 1
605 205 1
605 210 1
605 219 1
605 225 1
605 228 1
605 230 1
605 240 1
605 247 1
605 251 1
605 274 1
605 285 1
605 296 1
605 301 1
605 331 1
605 336 1
605 337 1
605 343 1
605 348 1
605 351 1
605 372 1
605 419 1
605 466 1
605 469 1
605 480 1
605 495 1
605 497 1
605 505 1
605 529 1
605 594 1
605 598 1
605 599 1
605 626 1
605 629 1
605 653 1
605 678 1
605 703 1
605 715 1
605 718 1
605 727 1
605 730 1
605 733 1
605 770 1
605 781 1
606 10 1
606 41 1
606 54 1
606 67 1
606 97 1
606 110 1
606 122 1
606 171 1
606 173 1
606 194 1
606 217 1
606 235 1
606 273 1
606 274 1
606 275 1
606 277 1
606 304 1
606 325 1
606 341 1
606 389 1
606 397 1
606 403 1
606 427 1
606 442 1
606 454 1
606 462 1
606 467 1
606 474 1
606 480 1
606 487 1
606 494 1
606 496 1
606 502 1
606 508 1
606 523 1
606 534 1
606 535 1
606 539 1
606 569 1
606 592 1
606 593 1
606 610 1
606 641 1
606 673 1
606 674 1
606 694 1
606 701 1
606 724 1
606 744 1
606 751 1
606 760 1
606 777 1
606 792 1
606 795 1
607 2 1
607 16 1
607 24 1
607 57 1
607 59 1
607 72 1
607 87 1
607 96 1
607 99 1
607 109 1
607 117 1
607 239 1
607 243 1
607 244 1
607 273 1
607 279 1
607 285 1
607 293 1
607 298 1
607 304 1
607 316 1
607 326 1
607 327 1
607 329 1
607 335 1
607 342 1
607 362 1
607 369 1
607 381 1
607 387 1
607 389 1
607 393 1
607 395 1
607 408 1
607 421 1
607 434 1
607 448 1
607 465 1
607 466 1
607 474 1
607 488 1
607 491 1
607 507 1
607 535 1
607 547 1
607 577 1
607 597 1
607 599 1
607 601 1
607 625 1
607 641 1
607 648 1
607 651 1
607 676 1
607 678 1
607 706 1
607 717 1
607 728 1
607 755 1
608 14 1
608 30 1
608 74 1
608 76 1
608 79 1
608 114 1
608 149 1
608 171 1
608 173 1
608 174 1
608 179 1
608 181 1
608 192 1
608 196 1
608 268 1
608 272 1
608 273 1
608 283 1
608 298 1
608 308 1
608 311 1
608 345 1
608 352 1
608 369 1
608 387 1
608 391 1
608 394 1
608 405 1
608 416 1
608 456 1
608 464 1
608 499 1
608 554 1
608 571 1
608 588 1
608 595 1
608 599 1
608 600 1
608 618 1
608 625 1
608 647 1
608 663 1
608 675 1
608 679 1
608 682 1
608 691 1
608 714 1
608 727 1
609 5 1
609 14 1
609 18 1
609 31 1
609 43 1
609 80 1
609 81 1
609 85 1
609 93 1
609 110 1
609 116 1
609 123 1
609 130 1
609 132 1
609 143 1
609 176 1
609 193 1
609 241 1
609 252 1
609 253 1
609 255 1
609 282 1
609 287 1
609 292 1
609 293 1
609 365 1
609 368 1
609 379 1
609 418 1
609 435 1
609 461 1
609 470 1
609 482 1
609 490 1
609 509 1
609 517 1
609 522 1
609 547 1
609 552 1
609 575 1
609 601 1
609 602 1
609 612 1
609 617 1
609 624 1
609 660 1
609 671 1
609 694 1
609 695 1
609 705 1
609 711 1
609 724 1
609 728 1
609 741 1
609 753 1
609 769 1
609 772 1
609 775 1
610 9 1
610 19 1
610 29 1
610 44 1
610 104 1
610 111 1
610 126 1
610 144 1
610 194 1
610 209 1
610 215 1
610 253 1
610 264 1
610 306 1
610 313 1
610 346 1
610 362 1
610 380 1
610 384 1
610 421 1
610 440 1
610 463 1
610 489 1
610 508 1
610 547 1
610 562 1
610 566 1
610 591 1
610 606 1
610 620 1
610 627 1
610 669 1
610 690 1
610 709 1
610 721 1
610 725 1
610 727 1
610 755 1
610 766 1
610 768 1
610 772 1
610 799 1
610 800 1
611 1 1
611 16 1
611 27 1
611 32 1
611 43 1
611 60 1
611 73 1
611 123 1
611 282 1
611 294 1
611 302 1
611 314 1
611 344 1
611 350 1
611 373 1
611 388 1
611 389 1
611 398 1
611 411 1
611 431 1
611 444 1
611 449 1
611 458 1
611 462 1
611 474 1
611 480 1
611 483 1
611 530 1
611 541 1
611 561 1
611 568 1
611 573 1
611 577 1
611 586 1
611 621 1
611 622 1
611 635 1
611 669 1
611 700 1
611 709 1
611 736 1
611 764 1
611 778 1
612 4 1
612 14 1
612 18 1
612 33 1
612 70 1
612 96 1
612 117 1
612 128 1
612 148 1
612 154 1
612 161 1
612 163 1
612 170 1
612 186 1
612 192 1
612 193 1
612 222 1
612 237 1
612 238 1
612 248 1
612 259 1
612 266 1
612 322 1
612 326 1
612 330 1
612 352 1
612 354 1
612 368 1
612 371 1
612 391 1
612 392 1
612 407 1
612 408 1
612 477 1
612 478 1
612 507 1
612 517 1
612 524 1
612 526 1
612 532 1
612 533 1
612 553 1
612 593 1
612 609 1
612 616 1
612 621 1
612 634 1
612 638 1
612 645 1
612 650 1
612 671 1
612 675 1
612 684 1
612 708 1
612 718 1
612 720 1
612 736 1
612 755 1
612 763 1
612 765 1
612 794 1
612 798 1
613 2 1
613 16 1
613 17 1
613 28 1
613 33 1
613 36 1
613 39 1
613 74 1
613 92 1
613 96 1
613 97 1
613 104 1
613 118 1
613 138 1
613 141 1
613 153 1
613 202 1
613 216 1
613 224 1
613 227 1
613 255 1
613 274 1
613 308 1
613 328 1
613 330 1
613 343 1
613 369 1
613 378 1
613 393 1
613 428 1
613 430 1
613 449 1
613 457 1
613 458 1
613 461 1
613 470 1
613 476 1
613 498 1
613 501 1
613 516 1
613 539 1
613 601 1
613 616 1
613 654 1
613 661 1
613 662 1
613 683 1
613 693 1
613 721 1
613 744 1
613 747 1
613 748 1
613 756 1
613 784 1
613 787 1
613 792 1
614 2 1
614 30 1
614 35 1
614 40 1
614 78 1
614 120 1
614 121 1
614 123 1
614 134 1
614 135 1
614 139 1
614 140 1
614 142 1
614 187 1
614 201 1
614 247 1
614 292 1
614 302 1
614 334 1
614 378 1
614 415 1
614 418 1
614 425 1
614 428 1
614 433 1
614 459 1
614 462 1
614 468 1
614 514 1
614 525 1
614 534 1
614 549 1
614 570 1
614 598 1
614 635 1
614 644 1
614 669 1
614 711 1
614 736 1
614 750 1
614 759 1
614 769 1
614 791 1
614 794 1
615 39 1
615 56 1
615 94 1
615 117 1
615 144 1
615 161 1
615 177 1
615 244 1
615 269 1
615 292 1
615 307 1
615 317 1
615 354 1
615 361 1
615 377 1
615 399 1
615 404 1
615 420 1
615 439 1
615 451 1
615 488 1
615 489 1
615 524 1
615 543 1
615 545 1
615 563 1
615 576 1
615 595 1
615 600 1
615 603 1
615 616 1
615 632 1
615 671 1
615 673 1
615 696 1
615 716 1
615 739 1
615 743 1
615 746 1
615 755 1
616 5 1
616 13 1
616 29 1
616 31 1
616 33 1
616 48 1
616 51 1
616 52 1
616 113 1
616 122 1
616 139 1
616 159 1
616 179 1
616 183 1
616 188 1
616 210 1
616 225 1
616 243 1
616 267 1
616 287 1
616 310 1
616 311 1
616 391 1
616 401 1
616 424 1
616 429 1
616 431 1
616 434 1
616 458 1
616 479 1
616 499 1
616 509 1
616 550 1
616 553 1
616 599 1
616 612 1
616 613 1
616 615 1
616 628 1
616 686 1
616 719 1
616 735 1
616 740 1
616 741 1
616 778 1
616 781 1
616 787 1
616 788 1
616 791 1
617 10 1
617 22 1
617 29 1
617 34 1
617 76 1
617 124 1
617 138 1
617 186 1
617 208 1
617 232 1
617 265 1
617 285 1
617 287 1
617 290 1
617 302 1
617 314 1
617 341 1
617 367 1
617 372 1
617 409 1
617 416 1
617 419 1
617 455 1
617 469 1
617 484 1
617 507 1
617 510 1
617 538 1
617 588 1
617 599 1
617 609 1
617 620 1
617 624 1
617 639 1
617 650 1
617 721 1
617 761 1
618 19 1
618 37 1
618 44 1
618 45 1
618 53 1
618 55 1
618 69 1
618 70 1
618 80 1
618 89 1
618 98 1
618 114 1
618 115 1
618 142 1
618 151 1
618 159 1
618 178 1
618 186 1
618 198 1
618 212 1
618 224 1
618 226 1
618 234 1
618 256 1
618 263 1
618 280 1
618 316 1
618 337 1
618 383 1
618 391 1
618 398 1
618 424 1
618 428 1
618 446 1
618 454 1
618 488 1
618 506 1
618 514 1
618 541 1
618 570 1
618 580 1
618 608 1
618 639 1
618 651 1
618 663 1
618 673 1
618 736 1
618 785 1
618 798 1
619 8 1
619 13 1
619 16 1
619 21 1
619 34 1
619 48 1
619 50 1
619 101 1
619 102 1
619 113 1
619 129 1
619 148 1
619 156 1
619 159 1
619 160 1
619 165 1
619 171 1
619 182 1
619 187 1
619 213 1
619 261 1
619 262 1
619 274 1
619 318 1
619 353 1
619 363 1
619 380 1
619 386 1
619 388 1
619 394 1
619 408 1
619 422 1
619 435 1
619 453 1
619 461 1
619 472 1
619 480 1
619 481 1
619 491 1
619 567 1
619 576 1
619 591 1
619 603 1
619 644 1
619 655 1
619 687 1
619 692 1
619 703 1
619 723 1
619 725 1
619 743 1
619 744 1
619 749 1
619 754 1
619 761 1
619 775 1
619 778 1
620 51 1
620 57 1
620 69 1
620 74 1
620 88 1
620 118 1
620 126 1
620 140 1
620 156 1
620 213 1
620 218 1
620 225 1
620 229 1
620 240 1
620 261 1
620 273 1
620 276 1
620 306 1
620 313 1
620 338 1
620 363 1
620 377 1
620 380 1
620 388 1
620 401 1
620 438 1
620 456 1
620 460 1
620 463 1
620 469 1
620 474 1
620 477 1
620 478 1
620 487 1
620 536 1
620 547 1
620 550 1
620 552 1
620 582 1
620 584 1
620 610 1
620 617 1
620 628 1
620 629 1
620 638 1
620 647 1
620 649 1
620 674 1
620 675 1
620 684 1
620 716 1
620 732 1
620 768 1
620 781 1
620 782 1
621 24 1
621 41 1
621 155 1
621 186 1
621 206 1
621 210 1
621 214 1
621 218 1
621 219 1
621 258 1
621 262 1
621 282 1
621 304 1
621 363 1
621 404 1
621 405 1
621 406 1
621 408 1
621 412 1
621 430 1
621 436 1
621 443 1
621 453 1
621 462 1
621 485 1
621 518 1
621 545 1
621 548 1
621 572 1
621 576 1
621 597 1
621 598 1
621 611 1
621 612 1
621 642 1
621 646 1
621 654 1
621 687 1
621 689 1
621 701 1
621 708 1
621 709 1
621 716 1
621 718 1
621 753 1
621 757 1
621 774 1
622 2 1
622 24 1
622 53 1
622 67 1
622 80 1
622 103 1
622 127 1
622 152 1
622 159 1
622 169 1
622 197 1
622 206 1
622 211 1
622 232 1
622 246 1
622 254 1
622 270 1
622 279 1
622 285 1
622 294 1
622 303 1
622 321 1
622 330 1
622 352 1
622 363 1
622 369 1
622 373 1
622 380 1
622 395 1
622 421 1
622 423 1
622 436 1
622 449 1
622 473 1
622 482 1
622 489 1
622 517 1
622 519 1
622 536 1
622 552 1
622 573 1
622 577 1
622 583 1
622 590 1
622 611 1
622 632 1
622 692 1
622 704 1
622 712 1
622 733 1
622 739 1
622 769 1
622 774 1
622 779 1
623 24 1
623 26 1
623 36 1
623 43 1
623 46 1
623 71 1
623 115 1
623 123 1
623 144 1
623 153 1
623 168 1
623 184 1
623 189 1
623 202 1
623 211 1
623 229 1
623 244 1
623 329 1
623 344 1
623 367 1
623 405 1
623 429 1
623 452 1
623 475 1
623 521 1
623 541 1
623 546 1
623 571 1
623 583 1
623 584 1
623 654 1
623 656 1
623 668 1
623 688 1
623 760 1
623 773 1
623 793 1
624 8 1
624 10 1
624 11 1
624 14 1
624 26 1
624 55 1
624 69 1
624 99 1
624 125 1
624 129 1
624 173 1
624 202 1
624 217 1
624 225 1
624 257 1
624 321 1
624 343 1
624 386 1
624 390 1
624 400 1
624 413 1
624 414 1
624 466 1
624 492 1
624 497 1
624 500 1
624 511 1
624 525 1
624 531 1
624 532 1
624 578 1
624 590 1
624 598 1
624 599 1
624 609 1
624 617 1
624 628 1
624 645 1
624 666 1
624 668 1
624 669 1
624 692 1
624 696 1
624 703 1
624 717 1
624 792 1
624 795 1
625 14 1
625 25 1
625 41 1
625 50 1
625 66 1
625 78 1
625 150 1
625 154 1
625 176 1
625 179 1
625 187 1
625 227 1
625 228 1
625 250 1
625 257 1
625 258 1
625 277 1
625 280 1
625 285 1
625 312 1
625 333 1
625 348 1
625 359 1
625 390 1
625 396 1
625 413 1
625 425 1
625 426 1
625 448 1
625 449 1
625 462 1
625 468 1
625 470 1
625 473 1
625 474 1
625 481 1
625 485 1
625 545 1
625 607 1
625 608 1
625 679 1
625 724 1
625 728 1
625 779 1
626 1 1
626 17 1
626 27 1
626 37 1
626 41 1
626 54 1
626 60 1
626 88 1
626 138 1
626 151 1
626 172 1
626 193 1
626 198 1
626 206 1
626 239 1
626 276 1
626 279 1
626 305 1
626 326 1
626 345 1
626 357 1
626 366 1
626 401 1
626 408 1
626 426 1
626 427 1
626 465 1
626 469 1
626 471 1
626 488 1
626 490 1
626 495 1
626 496 1
626 501 1
626 544 1
626 556 1
626 568 1
626 571 1
626 605 1
626 641 1
626 647 1
626 658 1
626 681 1
626 693 1
626 702 1
626 711 1
626 732 1
626 737 1
626 755 1
627 18 1
627 48 1
627 62 1
627 67 1
627 103 1
627 141 1
627 149 1
627 189 1
627 204 1
627 226 1
627 234 1
627 286 1
627 322 1
627 330 1
627 348 1
627 384 1
627 387 1
627 388 1
627 391 1
627 398 1
627 401 1
627 410 1
627 421 1
627 426 1
627 453 1
627 462 1
627 482 1
627 511 1
627 524 1
627 579 1
627 583 1
627 600 1
627 610 1
627 642 1
627 655 1
627 679 1
627 684 1
627 704 1
627 712 1
627 725 1
627 733 1
627 734 1
627 749 1
627 751 1
627 758 1
627 762 1
627 765 1
627 784 1
628 17 1
628 21 1
628 63 1
628 68 1
628 69 1
628 84 1
628 111 1
628 128 1
628 129 1
628 138 1
628 199 1
628 214 1
628 216 1
628 230 1
628 257 1
628 259 1
628 267 1
628 287 1
628 305 1
628 317 1
628 327 1
628 332 1
628 354 1
628 385 1
628 426 1
628 453 1
628 457 1
628 459 1
628 498 1
628 518 1
628 520 1
628 539 1
628 563 1
628 578 1
628 580 1
628 616 1
628 620 1
628 624 1
628 637 1
628 655 1
628 664 1
628 665 1
628 672 1
628 682 1
628 693 1
628 698 1
628 734 1
628 744 1
628 750 1
628 753 1
628 776 1
628 777 1
628 797 1
629 3 1
629 12 1
629 22 1
629 68 1
629 100 1
629 127 1
629 129 1
629 143 1
629 154 1
629 186 1
629 228 1
629 236 1
629 240 1
629 243 1
629 251 1
629 258 1
629 273 1
629 300 1
629 304 1
629 309 1
629 312 1
629 320 1
629 333 1
629 339 1
629 342 1
629 349 1
629 364 1
629 385 1
629 394 1
629 440 1
629 494 1
629 605 1
629 620 1
629 635 1
629 655 1
629 666 1
629 716 1
629 786 1
630 2 1
630 16 1
630 48 1
630 59 1
630 60 1
630 80 1
630 120 1
630 130 1
630 140 1
630 143 1
630 196 1
630 225 1
630 228 1
630 251 1
630 253 1
630 270 1
630 283 1
630 289 1
630 328 1
630 360 1
630 366 1
630 384 1
630 388 1
630 405 1
630 418 1
630 432 1
630 445 1
630 447 1
630 451 1
630 454 1
630 456 1
630 460 1
630 485 1
630 490 1
630 517 1
630 548 1
630 582 1
630 603 1
630 632 1
630 665 1
630 681 1
630 686 1
630 697 1
630 699 1
630 717 1
630 798 1
631 10 1
631 18 1
631 19 1
631 26 1
631 41 1
631 42 1
631 94 1
631 135 1
631 142 1
631 146 1
631 161 1
631 178 1
631 204 1
631 216 1
631 223 1
631 229 1
631 235 1
631 274 1
631 287 1
631 298 1
631 307 1
631 308 1
631 322 1
631 323 1
631 360 1
631 375 1
631 403 1
631 422 1
631 425 1
631 434 1
631 435 1
631 443 1
631 456 1
631 458 1
631 510 1
631 515 1
631 541 1
631 545 1
631 572 1
631 639 1
631 641 1
631 655 1
631 671 1
631 674 1
631 684 1
631 748 1
631 749 1
631 762 1
631 772 1
632 34 1
632 48 1
632 75 1
632 122 1
632 124 1
632 146 1
632 150 1
632 162 1
632 185 1
632 200 1
632 204 1
632 250 1
632 257 1
632 261 1
632 308 1
632 333 1
632 378 1
632 386 1
632 414 1
632 419 1
632 438 1
632 439 1
632 482 1
632 505 1
632 514 1
632 531 1
632 549 1
632 568 1
632 569 1
632 572 1
632 577 1
632 586 1
632 615 1
632 622 1
632 630 1
632 643 1
632 665 1
632 684 1
632 698 1
632 738 1
632 746 1
632 790 1
633 4 1
633 23 1
633 31 1
633 38 1
633 75 1
633 144 1
633 154 1
633 157 1
633 162 1
633 163 1
633 200 1
633 208 1
633 213 1
633 223 1
633 225 1
633 255 1
633 289 1
633 300 1
633 303 1
633 316 1
633 319 1
633 350 1
633 380 1
633 414 1
633 444 1
633 459 1
633 461 1
633 475 1
633 495 1
633 576 1
633 578 1
633 589 1
633 635 1
633 670 1
633 674 1
633 691 1
633 694 1
633 699 1
633 728 1
633 784 1
633 795 1
634 19 1
634 48 1
634 98 1
634 129 1
634 138 1
634 152 1
634 156 1
634 166 1
634 168 1
634 194 1
634 224 1
634 228 1
634 229 1
634 237 1
634 238 1
634 252 1
634 283 1
634 329 1
634 332 1
634 337 1
634 372 1
634 396 1
634 402 1
634 425 1
634 432 1
634 469 1
634 478 1
634 482 1
634 486 1
634 498 1
634 499 1
634 518 1
634 538 1
634 544 1
634 551 1
634 565 1
634 588 1
634 592 1
634 612 1
634 639 1
634 662 1
634 663 1
634 666 1
634 688 1
634 695 1
634 718 1
634 745 1
634 749 1
634 757 1
634 760 1
634 791 1
635 15 1
635 32 1
635 64 1
635 68 1
635 79 1
635 84 1
635 92 1
635 109 1
635 117 1
635 138 1
635 151 1
635 156 1
635 189 1
635 193 1
635 197 1
635 201 1
635 241 1
635 286 1
635 288 1
635 338 1
635 378 1
635 392 1
635 406 1
635 416 1
635 477 1
635 480 1
635 507 1
635 514 1
635 538 1
635 555 1
635 595 1
635 597 1
635 611 1
635 614 1
635 629 1
635 633 1
635 671 1
635 724 1
635 726 1
635 741 1
635 750 1
635 769 1
635 770 1
636 40 1
636 53 1
636 105 1
636 123 1
636 124 1
636 135 1
636 147 1
636 152 1
636 157 1
636 182 1
636 199 1
636 203 1
636 206 1
636 213 1
636 215 1
636 229 1
636 232 1
636 252 1
636 265 1
636 310 1
636 321 1
636 351 1
636 358 1
636 377 1
636 382 1
636 391 1
636 392 1
636 394 1
636 398 1
636 401 1
636 408 1
636 410 1
636 420 1
636 460 1
636 475 1
636 503 1
636 504 1
636 514 1
636 539 1
636 558 1
636 563 1
636 582 1
636 658 1
636 677 1
636 720 1
636 726 1
636 738 1
636 765 1
636 772 1
636 798 1
637 8 1
637 14 1
637 36 1
637 48 1
637 71 1
637 84 1
637 88 1
637 93 1
637 122 1
637 191 1
637 204 1
637 209 1
637 224 1
637 226 1
637 228 1
637 232 1
637 237 1
637 257 1
637 261 1
637 274 1
637 278 1
637 280 1
637 295 1
637 354 1
637 357 1
637 381 1
637 395 1
637 400 1
637 404 1
637 412 1
637 416 1
637 418 1
637 450 1
637 471 1
637 492 1
637 532 1
637 533 1
637 539 1
637 582 1
637 586 1
637 590 1
637 593 1
637 602 1
637 628 1
637 638 1
637 646 1
637 656 1
637 676 1
637 703 1
637 756 1
637 761 1
637 773 1
638 3 1
638 12 1
638 24 1
638 36 1
638 72 1
638 79 1
638 82 1
638 143 1
638 147 1
638 246 1
638 252 1
638 282 1
638 328 1
638 378 1
638 379 1
638 400 1
638 401 1
638 412 1
638 419 1
638 421 1
638 439 1
638 468 1
638 479 1
638 542 1
638 556 1
638 558 1
638 559 1
638 565 1
638 576 1
638 586 1
638 612 1
638 620 1
638 637 1
638 672 1
638 689 1
638 703 1
638 705 1
638 740 1
638 742 1
638 762 1
638 770 1
638 772 1
638 775 1
638 788 1
638 800 1
639 41 1
639 45 1
639 51 1
639 72 1
639 76 1
639 77 1
639 82 1
639 107 1
639 124 1
639 127 1
639 145 1
639 160 1
639 183 1
639 191 1
639 192 1
639 196 1
639 197 1
639 200 1
639 220 1
639 227 1
639 256 1
639 275 1
639 283 1
639 288 1
639 298 1
639 312 1
639 331 1
639 338 1
639 347 1
639 395 1
639 432 1
639 470 1
639 504 1
639 512 1
639 516 1
639 520 1
639 535 1
639 548 1
639 592 1
639 617 1
639 618 1
639 631 1
639 634 1
639 673 1
639 676 1
639 691 1
639 692 1
639 714 1
639 745 1
639 761 1
639 775 1
639 777 1
640 12 1
640 31 1
640 33 1
640 42 1
640 44 1
640 77 1
640 86 1
640 101 1
640 115 1
640 130 1
640 155 1
640 198 1
640 236 1
640 248 1
640 260 1
640 263 1
640 362 1
640 373 1
640 404 1
640 418 1
640 422 1
640 446 1
640 456 1
640 464 1
640 469 1
640 491 1
640 532 1
640 538 1
640 576 1
640 641 1
640 646 1
640 659 1
640 690 1
640 723 1
640 749 1
640 754 1
640 798 1
641 22 1
641 35 1
641 99 1
641 115 1
641 149 1
641 151 1
641 170 1
641 178 1
641 183 1
641 197 1
641 204 1
641 220 1
641 280 1
641 328 1
641 339 1
641 379 1
641 396 1
641 400 1
641 441 1
641 448 1
641 470 1
641 478 1
641 480 1
641 484 1
641 510 1
641 533 1
641 543 1
641 582 1
641 586 1
641 591 1
641 606 1
641 607 1
641 626 1
641 631 1
641 640 1
641 667 1
641 669 1
641 670 1
641 683 1
641 686 1
641 714 1
641 726 1
641 729 1
641 749 1
641 757 1
642 37 1
642 51 1
642 66 1
642 75 1
642 88 1
642 107 1
642 126 1
642 148 1
642 199 1
642 252 1
642 253 1
642 280 1
642 315 1
642 323 1
642 326 1
642 438 1
642 449 1
642 456 1
642 461 1
642 470 1
642 504 1
642 516 1
642 526 1
642 536 1
642 552 1
642 563 1
642 587 1
642 621 1
642 627 1
642 680 1
642 695 1
642 735 1
642 787 1
642 796 1
642 797 1
643 13 1
643 18 1
643 60 1
643 64 1
643 76 1
643 93 1
643 110 1
643 118 1
643 123 1
643 130 1
643 139 1
643 140 1
643 200 1
643 217 1
643 240 1
643 274 1
643 281 1
643 284 1
643 291 1
643 309 1
643 314 1
643 319 1
643 347 1
643 365 1
643 370 1
643 387 1
643 427 1
643 437 1
643 442 1
643 455 1
643 456 1
643 468 1
643 483 1
643 506 1
643 522 1
643 535 1
643 540 1
643 544 1
643 548 1
643 551 1
643 561 1
643 632 1
643 684 1
643 700 1
643 707 1
643 715 1
643 730 1
643 752 1
643 766 1
643 781 1
643 785 1
643 798 1
644 34 1
644 36 1
644 70 1
644 80 1
644 106 1
644 144 1
644 157 1
644 166 1
644 187 1
644 199 1
644 235 1
644 285 1
644 293 1
644 297 1
644 321 1
644 344 1
644 345 1
644 413 1
644 440 1
644 459 1
644 471 1
644 481 1
644 504 1
644 515 1
644 526 1
644 542 1
644 546 1
644 573 1
644 575 1
644 588 1
644 602 1
644 614 1
644 619 1
644 650 1
644 654 1
644 659 1
644 660 1
644 674 1
644 675 1
644 731 1
644 737 1
644 738 1
644 739 1
644 752 1
644 756 1
644 795 1
645 12 1
645 16 1
645 22 1
645 51 1
645 85 1
645 118 1
645 128 1
645 201 1
645 204 1
645 231 1
645 246 1
645 269 1
645 273 1
645 297 1
645 301 1
645 310 1
645 311 1
645 328 1
645 330 1
645 339 1
645 342 1
645 343 1
645 378 1
645 389 1
645 398 1
645 407 1
645 437 1
645 453 1
645 469 1
645 478 1
645 501 1
645 511 1
645 541 1
645 545 1
645 596 1
645 602 1
645 612 1
645 624 1
645 653 1
645 666 1
645 714 1
645 727 1
645 736 1
645 741 1
645 779 1
645 792 1
645 794 1
645 797 1
646 1 1
646 5 1
646 21 1
646 29 1
646 56 1
646 57 1
646 64 1
646 102 1
646 107 1
646 125 1
646 139 1
646 150 1
646 156 1
646 159 1
646 165 1
646 179 1
646 181 1
646 212 1
646 249 1
646 255 1
646 257 1
646 276 1
646 278 1
646 316 1
646 370 1
646 377 1
646 378 1
646 427 1
646 441 1
646 444 1
646 451 1
646 466 1
646 469 1
646 473 1
646 495 1
646 503 1
646 560 1
646 572 1
646 621 1
646 637 1
646 640 1
646 703 1
646 706 1
646 713 1
646 727 1
646 735 1
646 737 1
646 741 1
646 747 1
646 775 1
646 783 1
646 797 1
647 30 1
647 35 1
647 37 1
647 67 1
647 123 1
647 128 1
647 146 1
647 159 1
647 166 1
647 173 1
647 177 1
647 182 1
647 213 1
647 223 1
647 224 1
647 258 1
647 292 1
647 340 1
647 355 1
647 377 1
647 422 1
647 468 1
647 495 1
647 508 1
647 530 1
647 553 1
647 608 1
647 620 1
647 626 1
647 719 1
647 729 1
647 763 1
647 781 1
647 786 1
647 790 1
648 5 1
648 20 1
648 22 1
648 29 1
648 46 1
648 48 1
648 67 1
648 71 1
648 78 1
648 91 1
648 131 1
648 152 1
648 174 1
648 183 1
648 268 1
648 295 1
648 298 1
648 302 1
648 304 1
648 326 1
648 350 1
648 366 1
648 371 1
648 400 1
648 405 1
648 424 1
648 426 1
648 434 1
648 454 1
648 541 1
648 553 1
648 607 1
648 680 1
648 689 1
648 697 1
648 698 1
648 742 1
648 743 1
648 745 1
648 754 1
648 756 1
648 779 1
649 36 1
649 38 1
649 61 1
649 63 1
649 65 1
649 66 1
649 86 1
649 101 1
649 163 1
649 172 1
649 178 1
649 248 1
649 275 1
649 278 1
649 284 1
649 287 1
649 305 1
649 336 1
649 342 1
649 389 1
649 400 1
649 420 1
649 433 1
649 446 1
649 459 1
649 484 1
649 487 1
649 496 1
649 501 1
649 510 1
649 543 1
649 546 1
649 567 1
649 584 1
649 591 1
649 596 1
649 597 1
649 603 1
649 620 1
649 669 1
649 670 1
649 726 1
649 752 1
649 763 1
649 766 1
649 787 1
650 2 1
650 44 1
650 87 1
650 118 1
650 129 1
650 164 1
650 171 1
650 185 1
650 216 1
650 218 1
650 238 1
650 240 1
650 264 1
650 287 1
650 366 1
650 405 1
650 427 1
650 435 1
650 445 1
650 447 1
650 452 1
650 454 1
650 480 1
650 507 1
650 523 1
650 539 1
650 547 1
650 571 1
650 582 1
650 587 1
650 600 1
650 612 1
650 617 1
650 644 1
650 652 1
650 654 1
650 674 1
650 678 1
650 731 1
650 746 1
650 787 1
650 789 1
651 8 1
651 19 1
651 31 1
651 39 1
651 45 1
651 51 1
651 55 1
651 68 1
651 72 1
651 73 1
651 88 1
651 93 1
651 94 1
651 127 1
651 162 1
651 166 1
651 188 1
651 189 1
651 200 1
651 208 1
651 214 1
651 249 1
651 267 1
651 268 1
651 269 1
651 289 1
651 290 1
651 306 1
651 308 1
651 309 1
651 316 1
651 326 1
651 332 1
651 334 1
651 361 1
651 379 1
651 386 1
651 387 1
651 393 1
651 398 1
651 435 1
651 449 1
651 468 1
651 523 1
651 532 1
651 561 1
651 576 1
651 587 1
651 607 1
651 618 1
651 662 1
651 687 1
651 690 1
651 695 1
651 716 1
651 721 1
651 727 1
651 735 1
651 751 1
651 772 1
651 779 1
651 798 1
652 23 1
652 29 1
652 31 1
652 61 1
652 66 1
652 69 1
652 87 1
652 136 1
652 143 1
652 174 1
652 185 1
652 188 1
652 189 1
652 235 1
652 238 1
652 247 1
652 252 1
652 272 1
652 290 1
652 297 1
652 298 1
652 310 1
652 347 1
652 355 1
652 358 1
652 363 1
652 389 1
652 390 1
652 416 1
652 417 1
652 454 1
652 466 1
652 504 1
652 567 1
652 573 1
652 592 1
652 603 1
652 650 1
652 671 1
652 682 1
652 766 1
653 14 1
653 39 1
653 40 1
653 47 1
653 50 1
653 52 1
653 70 1
653 75 1
653 95 1
653 114 1
653 152 1
653 166 1
653 167 1
653 214 1
653 253 1
653 255 1
653 257 1
653 273 1
653 277 1
653 287 1
653 293 1
653 302 1
653 303 1
653 304 1
653 307 1
653 344 1
653 354 1
653 361 1
653 386 1
653 388 1
653 396 1
653 399 1
653 409 1
653 417 1
653 448 1
653 470 1
653 483 1
653 487 1
653 500 1
653 508 1
653 552 1
653 559 1
653 562 1
653 563 1
653 565 1
653 579 1
653 598 1
653 605 1
653 645 1
653 712 1
653 722 1
653 733 1
653 735 1
653 743 1
653 753 1
653 778 1
654 9 1
654 34 1
654 35 1
654 45 1
654 52 1
654 68 1
654 72 1
654 109 1
654 119 1
654 152 1
654 176 1
654 218 1
654 230 1
654 234 1
654 239 1
654 257 1
654 297 1
654 300 1
654 307 1
654 320 1
654 322 1
654 335 1
654 357 1
654 364 1
654 400 1
654 416 1
654 435 1
654 463 1
654 483 1
654 496 1
654 531 1
654 544 1
654 551 1
654 578 1
654 591 1
654 613 1
654 621 1
654 623 1
654 644 1
654 650 1
654 688 1
654 702 1
654 720 1
654 764 1
654 776 1
654 794 1
655 71 1
655 77 1
655 83 1
655 91 1
655 133 1
655 134 1
655 152 1
655 159 1
655 167 1
655 189 1
655 198 1
655 201 1
655 202 1
655 205 1
655 208 1
655 237 1
655 263 1
655 264 1
655 265 1
655 320 1
655 341 1
655 378 1
655 380 1
655 412 1
655 431 1
655 435 1
655 444 1
655 445 1
655 449 1
655 501 1
655 505 1
655 513 1
655 527 1
655 534 1
655 537 1
655 538 1
655 619 1
655 627 1
655 628 1
655 629 1
655 631 1
655 706 1
655 730 1
655 773 1
655 778 1
655 782 1
656 43 1
656 63 1
656 86 1
656 91 1
656 102 1
656 120 1
656 125 1
656 131 1
656 142 1
656 143 1
656 152 1
656 165 1
656 167 1
656 169 1
656 171 1
656 179 1
656 189 1
656 191 1
656 193 1
656 203 1
656 215 1
656 218 1
656 223 1
656 260 1
656 280 1
656 283 1
656 314 1
656 342 1
656 353 1
656 360 1
656 388 1
656 395 1
656 399 1
656 447 1
656 461 1
656 472 1
656 527 1
656 548 1
656 578 1
656 582 1
656 588 1
656 602 1
656 603 1
656 623 1
656 637 1
656 658 1
656 661 1
656 672 1
656 681 1
656 719 1
656 729 1
656 735 1
656 741 1
656 753 1
656 760 1
657 72 1
657 79 1
657 102 1
657 127 1
657 135 1
657 137 1
657 141 1
657 151 1
657 152 1
657 175 1
657 201 1
657 214 1
657 219 1
657 226 1
657 230 1
657 236 1
657 239 1
657 249 1
657 259 1
657 325 1
657 329 1
657 332 1
657 341 1
657 345 1
657 372 1
657 380 1
657 397 1
657 409 1
657 415 1
657 425 1
657 426 1
657 430 1
657 443 1
657 446 1
657 451 1
657 464 1
657 530 1
657 574 1
657 591 1
657 595 1
657 669 1
657 765 1
657 768 1
657 788 1
657 794 1
658 3 1
658 13 1
658 56 1
658 72 1
658 90 1
658 111 1
658 116 1
658 117 1
658 157 1
658 159 1
658 168 1
658 182 1
658 187 1
658 212 1
658 232 1
658 281 1
658 301 1
658 329 1
658 360 1
658 403 1
658 416 1
658 446 1
658 468 1
658 489 1
658 505 1
658 539 1
658 540 1
658 544 1
658 587 1
658 603 1
658 626 1
658 636 1
658 656 1
658 659 1
658 665 1
658 698 1
658 710 1
658 716 1
658 741 1
658 747 1
658 766 1
658 797 1
659 3 1
659 29 1
659 59 1
659 86 1
659 98 1
659 110 1
659 113 1
659 129 1
659 142 1
659 179 1
659 194 1
659 195 1
659 207 1
659 235 1
659 237 1
659 256 1
659 272 1
659 285 1
659 290 1
659 313 1
659 314 1
659 337 1
659 341 1
659 406 1
659 417 1
659 432 1
659 441 1
659 460 1
659 467 1
659 468 1
659 499 1
659 528 1
659 546 1
659 547 1
659 551 1
659 556 1
659 572 1
659 580 1
659 588 1
659 593 1
659 604 1
659 640 1
659 644 1
659 658 1
659 674 1
659 703 1
659 707 1
659 709 1
659 710 1
659 725 1
659 727 1
659 745 1
659 778 1
659 781 1
659 792 1
660 55 1
660 76 1
660 96 1
660 118 1
660 132 1
660 137 1
660 141 1
660 152 1
660 160 1
660 182 1
660 216 1
660 217 1
660 224 1
660 233 1
660 279 1
660 300 1
660 333 1
660 354 1
660 376 1
660 385 1
660 419 1
660 449 1
660 473 1
660 499 1
660 504 1
660 527 1
660 547 1
660 548 1
660 553 1
660 593 1
660 609 1
660 644 1
660 682 1
660 684 1
660 690 1
660 697 1
660 743 1
660 752 1
660 758 1
661 1 1
661 9 1
661 12 1
661 19 1
661 25 1
661 42 1
661 84 1
661 96 1
661 112 1
661 122 1
661 130 1
661 134 1
661 140 1
661 158 1
661 193 1
661 194 1
661 208 1
661 215 1
661 231 1
661 239 1
661 252 1
661 285 1
661 318 1
661 324 1
661 326 1
661 335 1
661 352 1
661 374 1
661 387 1
661 392 1
661 398 1
661 401 1
661 416 1
661 464 1
661 473 1
661 476 1
661 477 1
661 504 1
661 509 1
661 512 1
661 524 1
661 528 1
661 531 1
661 545 1
661 553 1
661 564 1
661 575 1
661 603 1
661 613 1
661 656 1
661 689 1
661 692 1
661 705 1
661 711 1
661 728 1
661 745 1
661 764 1
661 783 1
661 789 1
662 8 1
662 19 1
662 25 1
662 46 1
662 56 1
662 73 1
662 108 1
662 122 1
662 128 1
662 134 1
662 136 1
662 155 1
662 162 1
662 190 1
662 199 1
662 220 1
662 228 1
662 230 1
662 238 1
662 253 1
662 281 1
662 293 1
662 306 1
662 339 1
662 344 1
662 364 1
662 381 1
662 436 1
662 437 1
662 442 1
662 467 1
662 484 1
662 487 1
662 489 1
662 503 1
662 512 1
662 517 1
662 528 1
662 543 1
662 556 1
662 578 1
662 613 1
662 634 1
662 651 1
662 685 1
662 690 1
662 696 1
662 708 1
662 726 1
662 741 1
662 754 1
662 772 1
662 776 1
662 789 1
663 14 1
663 25 1
663 27 1
663 43 1
663 65 1
663 70 1
663 77 1
663 87 1
663 91 1
663 107 1
663 125 1
663 131 1
663 133 1
663 134 1
663 149 1
663 180 1
663 191 1
663 212 1
663 219 1
663 256 1
663 261 1
663 276 1
663 279 1
663 282 1
663 287 1
663 310 1
663 319 1
663 343 1
663 347 1
663 357 1
663 363 1
663 376 1
663 389 1
663 406 1
663 410 1
663 411 1
663 435 1
663 482 1
663 512 1
663 528 1
663 538 1
663 544 1
663 550 1
663 571 1
663 574 1
663 598 1
663 608 1
663 618 1
663 634 1
663 665 1
663 722 1
663 749 1
663 758 1
663 760 1
663 765 1
663 769 1
663 770 1
663 793 1
663 795 1
663 800 1
664 10 1
664 16 1
664 33 1
664 87 1
664 93 1
664 98 1
664 102 1
664 120 1
664 123 1
664 141 1
664 167 1
664 169 1
664 170 1
664 228 1
664 238 1
664 316 1
664 329 1
664 345 1
664 348 1
664 365 1
664 366 1
664 377 1
664 412 1
664 418 1
664 419 1
664 486 1
664 505 1
664 547 1
664 575 1
664 594 1
664 601 1
664 628 1
664 665 1
664 667 1
664 675 1
664 683 1
664 686 1
664 688 1
664 701 1
664 718 1
664 741 1
665 2 1
665 3 1
665 5 1
665 8 1
665 91 1
665 125 1
665 143 1
665 157 1
665 164 1
665 177 1
665 181 1
665 190 1
665 282 1
665 286 1
665 290 1
665 319 1
665 332 1
665 353 1
665 362 1
665 410 1
665 422 1
665 448 1
665 460 1
665 463 1
665 468 1
665 499 1
665 561 1
665 564 1
665 576 1
665 600 1
665 628 1
665 630 1
665 632 1
665 658 1
665 663 1
665 664 1
665 690 1
665 710 1
665 712 1
665 715 1
665 745 1
665 755 1
665 767 1
665 772 1
665 798 1
666 16 1
666 36 1
666 39 1
666 53 1
666 55 1
666 73 1
666 88 1
666 90 1
666 91 1
666 118 1
666 174 1
666 194 1
666 199 1
666 216 1
666 218 1
666 249 1
666 255 1
666 288 1
666 292 1
666 331 1
666 338 1
666 340 1
666 347 1
666 351 1
666 392 1
666 445 1
666 461 1
666 485 1
666 505 1
666 533 1
666 573 1
666 584 1
666 586 1
666 590 1
666 599 1
666 624 1
666 629 1
666 634 1
666 645 1
666 701 1
666 703 1
666 719 1
666 727 1
666 758 1
666 775 1
666 781 1
667 25 1
667 45 1
667 59 1
667 65 1
667 73 1
667 81 1
667 108 1
667 111 1
667 159 1
667 187 1
667 207 1
667 217 1
667 221 1
667 240 1
667 257 1
667 270 1
667 283 1
667 287 1
667 291 1
667 300 1
667 313 1
667 319 1
667 320 1
667 350 1
667 366 1
667 379 1
667 397 1
667 408 1
667 429 1
667 432 1
667 442 1
667 466 1
667 471 1
667 472 1
667 485 1
667 503 1
667 551 1
667 573 1
667 641 1
667 664 1
667 674 1
667 708 1
667 737 1
667 753 1
667 757 1
667 761 1
667 767 1
667 782 1
667 792 1
667 795 1
668 8 1
668 21 1
668 30 1
668 35 1
668 39 1
668 40 1
668 63 1
668 65 1
668 106 1
668 110 1
668 130 1
668 159 1
668 173 1
668 191 1
668 195 1
668 202 1
668 206 1
668 266 1
668 284 1
668 328 1
668 424 1
668 430 1
668 482 1
668 487 1
668 498 1
668 505 1
668 523 1
668 529 1
668 542 1
668 543 1
668 563 1
668 564 1
668 582 1
668 593 1
668 595 1
668 603 1
668 604 1
668 623 1
668 624 1
668 672 1
668 725 1
668 726 1
668 727 1
668 789 1
669 23 1
669 28 1
669 89 1
669 97 1
669 133 1
669 141 1
669 145 1
669 187 1
669 188 1
669 190 1
669 223 1
669 237 1
669 240 1
669 244 1
669 246 1
669 265 1
669 290 1
669 298 1
669 299 1
669 323 1
669 357 1
669 392 1
669 402 1
669 427 1
669 457 1
669 463 1
669 492 1
669 506 1
669 528 1
669 549 1
669 551 1
669 587 1
669 610 1
669 611 1
669 614 1
669 624 1
669 641 1
669 649 1
669 657 1
669 673 1
669 712 1
669 719 1
669 734 1
669 754 1
669 759 1
669 766 1
669 788 1
669 798 1
670 12 1
670 31 1
670 46 1
670 47 1
670 59 1
670 96 1
670 105 1
670 125 1
670 131 1
670 144 1
670 150 1
670 197 1
670 229 1
670 245 1
670 251 1
670 262 1
670 266 1
670 270 1
670 283 1
670 285 1
670 300 1
670 316 1
670 322 1
670 325 1
670 340 1
670 361 1
670 377 1
670 396 1
670 404 1
670 414 1
670 426 1
670 430 1
670 445 1
670 448 1
670 450 1
670 460 1
670 461 1
670 504 1
670 522 1
670 531 1
670 544 1
670 567 1
670 596 1
670 598 1
670 603 1
670 633 1
670 641 1
670 649 1
670 673 1
670 685 1
670 710 1
670 729 1
670 748 1
670 769 1
670 786 1
670 789 1
670 790 1
670 792 1
671 21 1
671 36 1
671 37 1
671 40 1
671 41 1
671 53 1
671 93 1
671 96 1
671 103 1
671 107 1
671 127 1
671 128 1
671 131 1
671 135 1
671 167 1
671 173 1
671 188 1
671 226 1
671 230 1
671 240 1
671 269 1
671 282 1
671 292 1
671 297 1
671 302 1
671 308 1
671 322 1
671 359 1
671 382 1
671 393 1
671 413 1
671 442 1
671 447 1
671 451 1
671 478 1
671 481 1
671 492 1
671 497 1
671 546 1
671 569 1
671 592 1
671 609 1
671 612 1
671 615 1
671 631 1
671 635 1
671 652 1
671 704 1
671 718 1
671 775 1
671 780 1
671 792 1
672 25 1
672 38 1
672 39 1
672 56 1
672 96 1
672 99 1
672 107 1
672 111 1
672 120 1
672 124 1
672 130 1
672 134 1
672 142 1
672 160 1
672 168 1
672 187 1
672 197 1
672 212 1
672 215 1
672 222 1
672 257 1
672 258 1
672 287 1
672 317 1
672 321 1
672 329 1
672 357 1
672 398 1
672 456 1
672 493 1
672 512 1
672 548 1
672 572 1
672 573 1
672 574 1
672 579 1
672 628 1
672 638 1
672 656 1
672 668 1
672 688 1
672 707 1
672 717 1
672 728 1
672 732 1
672 765 1
672 773 1
672 790 1
673 16 1
673 31 1
673 44 1
673 49 1
673 56 1
673 61 1
673 79 1
673 95 1
673 105 1
673 106 1
673 109 1
673 114 1
673 119 1
673 135 1
673 142 1
673 146 1
673 205 1
673 234 1
673 236 1
673 246 1
673 259 1
673 267 1
673 279 1
673 289 1
673 328 1
673 334 1
673 354 1
673 357 1
673 387 1
673 421 1
673 446 1
673 460 1
673 467 1
673 536 1
673 538 1
673 540 1
673 548 1
673 578 1
673 595 1
673 606 1
673 615 1
673 618 1
673 639 1
673 669 1
673 670 1
673 674 1
673 702 1
673 705 1
673 730 1
673 733 1
673 762 1
674 26 1
674 42 1
674 55 1
674 56 1
674 66 1
674 75 1
674 78 1
674 91 1
674 92 1
674 130 1
674 155 1
674 160 1
674 205 1
674 245 1
674 265 1
674 285 1
674 292 1
674 300 1
674 301 1
674 304 1
674 306 1
674 308 1
674 318 1
674 323 1
674 328 1
674 333 1
674 375 1
674 408 1
674 433 1
674 446 1
674 494 1
674 495 1
674 498 1
674 499 1
674 524 1
674 546 1
674 549 1
674 601 1
674 606 1
674 620 1
674 631 1
674 633 1
674 644 1
674 650 1
674 659 1
674 667 1
674 673 1
674 676 1
674 685 1
674 688 1
674 689 1
674 718 1
674 741 1
674 742 1
674 762 1
674 764 1
674 774 1
675 21 1
675 46 1
675 48 1
675 65 1
675 79 1
675 88 1
675 97 1
675 119 1
675 126 1
675 130 1
675 132 1
675 147 1
675 213 1
675 219 1
675 223 1
675 247 1
675 248 1
675 251 1
675 257 1
675 278 1
675 281 1
675 282 1
675 296 1
675 321 1
675 333 1
675 418 1
675 444 1
675 459 1
675 474 1
675 479 1
675 481 1
675 502 1
675 568 1
675 608 1
675 612 1
675 620 1
675 644 1
675 664 1
675 676 1
675 734 1
675 750 1
675 779 1
676 21 1
676 42 1
676 57 1
676 101 1
676 103 1
676 126 1
676 140 1
676 156 1
676 173 1
676 188 1
676 189 1
676 228 1
676 246 1
676 251 1
676 259 1
676 267 1
676 288 1
676 290 1
676 308 1
676 315 1
676 352 1
676 353 1
676 357 1
676 380 1
676 386 1
676 393 1
676 404 1
676 454 1
676 483 1
676 484 1
676 487 1
676 537 1
676 570 1
676 607 1
676 637 1
676 639 1
676 674 1
676 675 1
676 679 1
676 700 1
676 701 1
676 723 1
676 755 1
676 785 1
677 2 1
677 15 1
677 17 1
677 22 1
677 34 1
677 97 1
677 98 1
677 112 1
677 121 1
677 156 1
677 212 1
677 245 1
677 246 1
677 251 1
677 266 1
677 291 1
677 295 1
677 302 1
677 317 1
677 320 1
677 323 1
677 330 1
677 341 1
677 362 1
677 403 1
677 415 1
677 448 1
677 455 1
677 468 1
677 487 1
677 499 1
677 512 1
677 531 1
677 538 1
677 543 1
677 583 1
677 587 1
677 597 1
677 601 1
677 636 1
677 685 1
677 690 1
677 695 1
677 697 1
677 734 1
677 772 1
677 773 1
677 778 1
677 785 1
677 787 1
677 789 1
678 31 1
678 34 1
678 79 1
678 101 1
678 108 1
678 110 1
678 125 1
678 126 1
678 132 1
678 158 1
678 170 1
678 174 1
678 177 1
678 201 1
678 231 1
678 241 1
678 242 1
678 245 1
678 265 1
678 287 1
678 295 1
678 302 1
678 304 1
678 324 1
678 341 1
678 343 1
678 357 1
678 364 1
678 369 1
678 380 1
678 387 1
678 408 1
678 413 1
678 425 1
678 426 1
678 448 1
678 455 1
678 459 1
678 480 1
678 509 1
678 513 1
678 605 1
678 607 1
678 650 1
678 720 1
678 724 1
678 774 1
678 775 1
679 7 1
679 30 1
679 51 1
679 58 1
679 66 1
679 83 1
679 102 1
679 114 1
679 141 1
679 146 1
679 167 1
679 215 1
679 223 1
679 230 1
679 300 1
679 341 1
679 364 1
679 370 1
679 374 1
679 395 1
679 425 1
679 434 1
679 442 1
679 452 1
679 464 1
679 478 1
679 552 1
679 561 1
679 562 1
679 570 1
679 608 1
679 625 1
679 627 1
679 676 1
679 717 1
679 721 1
679 736 1
679 754 1
679 772 1
679 776 1
680 33 1
680 39 1
680 93 1
680 107 1
680 134 1
680 173 1
680 186 1
680 189 1
680 199 1
680 241 1
680 252 1
680 260 1
680 271 1
680 276 1
680 308 1
680 317 1
680 324 1
680 346 1
680 353 1
680 398 1
680 428 1
680 440 1
680 444 1
680 453 1
680 456 1
680 487 1
680 492 1
680 503 1
680 507 1
680 553 1
680 587 1
680 589 1
680 642 1
680 648 1
680 697 1
680 699 1
680 710 1
680 719 1
680 729 1
680 731 1
680 737 1
680 738 1
680 744 1
680 755 1
680 757 1
680 767 1
680 777 1
680 783 1
680 785 1
681 4 1
681 6 1
681 7 1
681 11 1
681 17 1
681 22 1
681 36 1
681 46 1
681 52 1
681 95 1
681 119 1
681 135 1
681 163 1
681 174 1
681 181 1
681 204 1
681 211 1
681 271 1
681 280 1
681 285 1
681 311 1
681 344 1
681 347 1
681 350 1
681 388 1
681 390 1
681 397 1
681 441 1
681 448 1
681 451 1
681 453 1
681 465 1
681 474 1
681 475 1
681 490 1
681 500 1
681 516 1
681 523 1
681 526 1
681 530 1
681 534 1
681 535 1
681 626 1
681 630 1
681 656 1
681 688 1
681 692 1
681 709 1
681 744 1
681 778 1
681 790 1
681 793 1
682 45 1
682 48 1
682 57 1
682 61 1
682 67 1
682 83 1
682 122 1
682 130 1
682 167 1
682 173 1
682 190 1
682 212 1
682 234 1
682 237 1
682 247 1
682 253 1
682 268 1
682 270 1
682 271 1
682 274 1
682 332 1
682 336 1
682 355 1
682 369 1
682 420 1
682 423 1
682 467 1
682 475 1
682 517 1
682 518 1
682 529 1
682 532 1
682 569 1
682 600 1
682 608 1
682 628 1
682 652 1
682 660 1
682 741 1
682 755 1
682 759 1
682 775 1
682 780 1
682 793 1
682 797 1
682 798 1
683 20 1
683 35 1
683 38 1
683 42 1
683 57 1
683 61 1
683 66 1
683 78 1
683 83 1
683 145 1
683 165 1
683 189 1
683 200 1
683 221 1
683 309 1
683 314 1
683 360 1
683 364 1
683 365 1
683 392 1
683 440 1
683 446 1
683 462 1
683 481 1
683 514 1
683 530 1
683 551 1
683 557 1
683 592 1
683 597 1
683 613 1
683 641 1
683 664 1
683 701 1
683 704 1
683 708 1
683 718 1
683 729 1
683 734 1
683 756 1
683 776 1
683 780 1
684 27 1
684 39 1
684 52 1
684 72 1
684 110 1
684 141 1
684 161 1
684 218 1
684 223 1
684 245 1
684 246 1
684 266 1
684 267 1
684 277 1
684 310 1
684 311 1
684 334 1
684 350 1
684 351 1
684 359 1
684 395 1
684 402 1
684 406 1
684 431 1
684 448 1
684 454 1
684 497 1
684 514 1
684 518 1
684 524 1
684 569 1
684 604 1
684 612 1
684 620 1
684 627 1
684 631 1
684 632 1
684 643 1
684 660 1
684 687 1
684 736 1
684 740 1
684 746 1
684 771 1
684 785 1
684 799 1
685 4 1
685 27 1
685 32 1
685 66 1
685 75 1
685 100 1
685 114 1
685 123 1
685 135 1
685 165 1
685 188 1
685 193 1
685 211 1
685 230 1
685 251 1
685 276 1
685 303 1
685 322 1
685 340 1
685 344 1
685 349 1
685 375 1
685 383 1
685 415 1
685 429 1
685 437 1
685 467 1
685 496 1
685 497 1
685 503 1
685 517 1
685 583 1
685 584 1
685 588 1
685 662 1
685 670 1
685 674 1
685 677 1
685 689 1
685 698 1
685 723 1
685 724 1
685 727 1
685 730 1
685 736 1
685 737 1
685 759 1
685 765 1
685 779 1
685 782 1
685 791 1
685 796 1
686 4 1
686 32 1
686 104 1
686 149 1
686 151 1
686 158 1
686 161 1
686 172 1
686 196 1
686 199 1
686 230 1
686 243 1
686 263 1
686 272 1
686 277 1
686 319 1
686 347 1
686 362 1
686 374 1
686 396 1
686 403 1
686 407 1
686 426 1
686 427 1
686 428 1
686 440 1
686 456 1
686 459 1
686 464 1
686 465 1
686 475 1
686 487 1
686 491 1
686 495 1
686 497 1
686 515 1
686 556 1
686 561 1
686 570 1
686 577 1
686 581 1
686 616 1
686 630 1
686 641 1
686 664 1
686 704 1
686 713 1
686 715 1
686 720 1
686 729 1
686 735 1
686 747 1
686 760 1
686 768 1
686 775 1
687 51 1
687 58 1
687 61 1
687 62 1
687 68 1
687 82 1
687 84 1
687 85 1
687 96 1
687 106 1
687 124 1
687 159 1
687 173 1
687 183 1
687 189 1
687 199 1
687 225 1
687 251 1
687 270 1
687 274 1
687 278 1
687 280 1
687 286 1
687 293 1
687 297 1
687 303 1
687 305 1
687 312 1
687 314 1
687 333 1
687 342 1
687 364 1
687 383 1
687 395 1
687 416 1
687 433 1
687 437 1
687 438 1
687 477 1
687 482 1
687 500 1
687 506 1
687 517 1
687 541 1
687 560 1
687 594 1
687 619 1
687 621 1
687 651 1
687 684 1
687 689 1
687 692 1
687 697 1
687 707 1
687 734 1
688 6 1
688 11 1
688 22 1
688 49 1
688 64 1
688 69 1
688 73 1
688 75 1
688 87 1
688 114 1
688 169 1
688 177 1
688 196 1
688 202 1
688 222 1
688 256 1
688 283 1
688 285 1
688 311 1
688 313 1
688 333 1
688 352 1
688 375 1
688 404 1
688 416 1
688 464 1
688 483 1
688 489 1
688 517 1
688 527 1
688 570 1
688 623 1
688 634 1
688 654 1
688 664 1
688 672 1
688 674 1
688 681 1
688 704 1
688 720 1
688 725 1
688 737 1
688 755 1
689 7 1
689 25 1
689 65 1
689 84 1
689 134 1
689 141 1
689 142 1
689 150 1
689 151 1
689 169 1
689 181 1
689 186 1
689 188 1
689 196 1
689 275 1
689 287 1
689 309 1
689 310 1
689 364 1
689 365 1
689 373 1
689 379 1
689 391 1
689 399 1
689 477 1
689 478 1
689 487 1
689 566 1
689 571 1
689 575 1
689 589 1
689 621 1
689 638 1
689 648 1
689 661 1
689 674 1
689 685 1
689 687 1
689 707 1
689 716 1
689 722 1
689 738 1
689 744 1
689 785 1
690 1 1
690 25 1
690 60 1
690 84 1
690 101 1
690 102 1
690 116 1
690 171 1
690 225 1
690 226 1
690 239 1
690 251 1
690 253 1
690 257 1
690 314 1
690 323 1
690 369 1
690 372 1
690 375 1
690 384 1
690 418 1
690 421 1
690 423 1
690 432 1
690 468 1
690 473 1
690 489 1
690 500 1
690 566 1
690 585 1
690 591 1
690 610 1
690 640 1
690 651 1
690 660 1
690 662 1
690 665 1
690 677 1
690 693 1
690 718 1
690 733 1
690 736 1
691 11 1
691 12 1
691 30 1
691 53 1
691 61 1
691 93 1
691 119 1
691 123 1
691 139 1
691 186 1
691 189 1
691 191 1
691 202 1
691 206 1
691 214 1
691 253 1
691 265 1
691 350 1
691 358 1
691 369 1
691 372 1
691 378 1
691 382 1
691 415 1
691 444 1
691 479 1
691 519 1
691 527 1
691 589 1
691 600 1
691 608 1
691 633 1
691 639 1
691 697 1
691 741 1
691 759 1
691 763 1
691 774 1
691 784 1
691 799 1
692 14 1
692 24 1
692 69 1
692 81 1
692 84 1
692 86 1
692 89 1
692 132 1
692 133 1
692 177 1
692 193 1
692 194 1
692 203 1
692 225 1
692 234 1
692 243 1
692 269 1
692 296 1
692 300 1
692 302 1
692 315 1
692 318 1
692 333 1
692 338 1
692 348 1
692 358 1
692 364 1
692 394 1
692 402 1
692 413 1
692 437 1
692 439 1
692 464 1
692 525 1
692 578 1
692 591 1
692 619 1
692 622 1
692 624 1
692 639 1
692 661 1
692 681 1
692 687 1
692 786 1
693 34 1
693 48 1
693 59 1
693 72 1
693 84 1
693 192 1
693 204 1
693 211 1
693 219 1
693 221 1
693 227 1
693 229 1
693 243 1
693 299 1
693 302 1
693 333 1
693 334 1
693 337 1
693 347 1
693 361 1
693 365 1
693 404 1
693 418 1
693 434 1
693 438 1
693 448 1
693 464 1
693 470 1
693 506 1
693 529 1
693 532 1
693 559 1
693 570 1
693 599 1
693 613 1
693 626 1
693 628 1
693 690 1
693 720 1
693 766 1
693 772 1
693 793 1
694 11 1
694 17 1
694 21 1
694 29 1
694 30 1
694 47 1
694 53 1
694 63 1
694 80 1
694 88 1
694 89 1
694 98 1
694 121 1
694 162 1
694 185 1
694 210 1
694 224 1
694 230 1
694 248 1
694 254 1
694 302 1
694 347 1
694 349 1
694 367 1
694 370 1
694 388 1
694 393 1
694 408 1
694 417 1
694 435 1
694 454 1
694 461 1
694 497 1
694 499 1
694 503 1
694 512 1
694 532 1
694 559 1
694 569 1
694 583 1
694 586 1
694 588 1
694 604 1
694 606 1
694 609 1
694 633 1
694 706 1
694 722 1
694 745 1
694 746 1
694 748 1
694 775 1
694 784 1
694 788 1
694 794 1
694 798 1
695 4 1
695 15 1
695 42 1
695 48 1
695 52 1
695 113 1
695 118 1
695 128 1
695 146 1
695 163 1
695 165 1
695 187 1
695 192 1
695 200 1
695 201 1
695 209 1
695 211 1
695 235 1
695 248 1
695 251 1
695 273 1
695 285 1
695 295 1
695 297 1
695 312 1
695 342 1
695 352 1
695 365 1
695 368 1
695 372 1
695 377 1
695 382 1
695 406 1
695 421 1
695 438 1
695 480 1
695 502 1
695 510 1
695 517 1
695 521 1
695 525 1
695 535 1
695 536 1
695 565 1
695 577 1
695 602 1
695 609 1
695 634 1
695 642 1
695 651 1
695 677 1
695 699 1
695 717 1
695 729 1
695 771 1
695 776 1
695 777 1
695 784 1
695 796 1
696 10 1
696 12 1
696 66 1
696 97 1
696 103 1
696 105 1
696 128 1
696 130 1
696 142 1
696 146 1
696 163 1
696 207 1
696 217 1
696 227 1
696 265 1
696 293 1
696 300 1
696 322 1
696 367 1
696 375 1
696 387 1
696 388 1
696 398 1
696 405 1
696 432 1
696 483 1
696 516 1
696 531 1
696 539 1
696 569 1
696 595 1
696 598 1
696 615 1
696 624 1
696 662 1
696 701 1
696 707 1
696 723 1
696 735 1
696 748 1
696 768 1
696 782 1
697 15 1
697 30 1
697 37 1
697 41 1
697 49 1
697 52 1
697 56 1
697 80 1
697 93 1
697 134 1
697 139 1
697 157 1
697 178 1
697 209 1
697 220 1
697 222 1
697 226 1
697 234 1
697 261 1
697 269 1
697 327 1
697 330 1
697 338 1
697 348 1
697 357 1
697 405 1
697 413 1
697 418 1
697 423 1
697 425 1
697 430 1
697 436 1
697 443 1
697 450 1
697 452 1
697 465 1
697 467 1
697 496 1
697 498 1
697 501 1
697 517 1
697 526 1
697 564 1
697 566 1
697 579 1
697 584 1
697 630 1
697 648 1
697 660 1
697 677 1
697 680 1
697 687 1
697 691 1
697 726 1
697 736 1
697 756 1
697 778 1
698 8 1
698 10 1
698 22 1
698 66 1
698 80 1
698 86 1
698 87 1
698 97 1
698 98 1
698 106 1
698 116 1
698 137 1
698 147 1
698 157 1
698 174 1
698 194 1
698 203 1
698 218 1
698 222 1
698 263 1
698 294 1
698 305 1
698 315 1
698 321 1
698 333 1
698 343 1
698 344 1
698 352 1
698 355 1
698 380 1
698 396 1
698 406 1
698 407 1
698 418 1
698 439 1
698 444 1
698 459 1
698 469 1
698 481 1
698 509 1
698 579 1
698 628 1
698 632 1
698 648 1
698 658 1
698 685 1
698 724 1
698 768 1
698 779 1
698 787 1
699 11 1
699 30 1
699 50 1
699 54 1
699 57 1
699 76 1
699 131 1
699 165 1
699 169 1
699 176 1
699 186 1
699 190 1
699 203 1
699 205 1
699 207 1
699 242 1
699 245 1
699 318 1
699 332 1
699 357 1
699 381 1
699 395 1
699 396 1
699 400 1
699 403 1
699 429 1
699 456 1
699 467 1
699 472 1
699 477 1
699 501 1
699 521 1
699 522 1
699 526 1
699 565 1
699 567 1
699 585 1
699 598 1
699 602 1
699 630 1
699 633 1
699 680 1
699 695 1
699 710 1
699 716 1
699 750 1
699 769 1
699 771 1
699 789 1
699 796 1
700 9 1
700 25 1
700 28 1
700 30 1
700 38 1
700 43 1
700 45 1
700 57 1
700 67 1
700 68 1
700 109 1
700 122 1
700 146 1
700 152 1
700 153 1
700 155 1
700 171 1
700 184 1
700 188 1
700 191 1
700 236 1
700 261 1
700 262 1
700 263 1
700 317 1
700 347 1
700 360 1
700 362 1
700 384 1
700 408 1
700 411 1
700 417 1
700 426 1
700 434 1
700 441 1
700 450 1
700 457 1
700 467 1
700 475 1
700 481 1
700 487 1
700 491 1
700 508 1
700 514 1
700 558 1
700 568 1
700 592 1
700 611 1
700 643 1
700 676 1
700 703 1
700 733 1
700 760 1
700 771 1
701 23 1
701 57 1
701 60 1
701 116 1
701 123 1
701 167 1
701 171 1
701 205 1
701 226 1
701 247 1
701 259 1
701 262 1
701 275 1
701 296 1
701 318 1
701 319 1
701 322 1
701 328 1
701 338 1
701 353 1
701 367 1
701 376 1
701 378 1
701 392 1
701 394 1
701 396 1
701 409 1
701 419 1
701 493 1
701 524 1
701 527 1
701 534 1
701 537 1
701 565 1
701 566 1
701 584 1
701 606 1
701 621 1
701 664 1
701 666 1
701 676 1
701 683 1
701 696 1
701 723 1
701 732 1
701 771 1
701 777 1
701 788 1
701 796 1
702 2 1
702 4 1
702 6 1
702 66 1
702 82 1
702 125 1
702 127 1
702 175 1
702 192 1
702 235 1
702 285 1
702 291 1
702 312 1
702 332 1
702 335 1
702 337 1
702 344 1
702 347 1
702 349 1
702 377 1
702 390 1
702 435 1
702 456 1
702 460 1
702 479 1
702 495 1
702 520 1
702 538 1
702 585 1
702 599 1
702 600 1
702 626 1
702 654 1
702 673 1
702 725 1
702 730 1
702 778 1
702 790 1
703 19 1
703 20 1
703 26 1
703 32 1
703 36 1
703 38 1
703 43 1
703 83 1
703 130 1
703 197 1
703 241 1
703 242 1
703 254 1
703 256 1
703 267 1
703 300 1
703 303 1
703 320 1
703 327 1
703 338 1
703 347 1
703 388 1
703 422 1
703 423 1
703 427 1
703 442 1
703 459 1
703 466 1
703 470 1
703 507 1
703 522 1
703 569 1
703 582 1
703 592 1
703 605 1
703 619 1
703 624 1
703 637 1
703 638 1
703 646 1
703 659 1
703 666 1
703 700 1
703 706 1
703 724 1
703 732 1
703 734 1
703 736 1
703 744 1
703 746 1
703 747 1
703 757 1
703 772 1
704 2 1
704 22 1
704 39 1
704 53 1
704 57 1
704 63 1
704 64 1
704 126 1
704 130 1
704 142 1
704 150 1
704 194 1
704 200 1
704 239 1
704 280 1
704 311 1
704 343 1
704 347 1
704 365 1
704 375 1
704 383 1
704 401 1
704 419 1
704 425 1
704 435 1
704 467 1
704 514 1
704 518 1
704 521 1
704 528 1
704 539 1
704 546 1
704 566 1
704 575 1
704 622 1
704 627 1
704 671 1
704 683 1
704 686 1
704 688 1
704 710 1
704 719 1
704 732 1
704 750 1
704 782 1
704 783 1
704 797 1
705 9 1
705 19 1
705 23 1
705 67 1
705 108 1
705 115 1
705 148 1
705 153 1
705 171 1
705 211 1
705 213 1
705 230 1
705 234 1
705 246 1
705 247 1
705 252 1
705 256 1
705 275 1
705 281 1
705 283 1
705 299 1
705 301 1
705 313 1
705 339 1
705 432 1
705 457 1
705 463 1
705 464 1
705 503 1
705 511 1
705 529 1
705 532 1
705 572 1
705 609 1
705 638 1
705 661 1
705 673 1
705 738 1
705 770 1
705 780 1
706 14 1
706 26 1
706 95 1
706 110 1
706 113 1
706 115 1
706 123 1
706 126 1
706 128 1
706 141 1
706 186 1
706 193 1
706 207 1
706 329 1
706 373 1
706 393 1
706 408 1
706 413 1
706 430 1
706 436 1
706 437 1
706 442 1
706 447 1
706 449 1
706 463 1
706 474 1
706 478 1
706 494 1
706 526 1
706 532 1
706 581 1
706 588 1
706 591 1
706 594 1
706 599 1
706 607 1
706 646 1
706 655 1
706 694 1
706 703 1
706 727 1
707 28 1
707 45 1
707 53 1
707 119 1
707 129 1
707 134 1
707 144 1
707 145 1
707 147 1
707 158 1
707 178 1
707 183 1
707 192 1
707 197 1
707 237 1
707 240 1
707 247 1
707 262 1
707 278 1
707 321 1
707 344 1
707 382 1
707 405 1
707 444 1
707 462 1
707 503 1
707 504 1
707 512 1
707 515 1
707 539 1
707 541 1
707 597 1
707 599 1
707 643 1
707 659 1
707 672 1
707 687 1
707 689 1
707 696 1
707 718 1
707 720 1
707 726 1
707 728 1
707 786 1
707 788 1
708 14 1
708 16 1
708 29 1
708 33 1
708 107 1
708 109 1
708 119 1
708 140 1
708 165 1
708 168 1
708 190 1
708 206 1
708 247 1
708 250 1
708 254 1
708 302 1
708 320 1
708 323 1
708 345 1
708 362 1
708 413 1
708 417 1
708 422 1
708 443 1
708 450 1
708 460 1
708 476 1
708 477 1
708 486 1
708 488 1
708 502 1
708 512 1
708 528 1
708 535 1
708 570 1
708 577 1
708 581 1
708 584 1
708 590 1
708 612 1
708 621 1
708 662 1
708 667 1
708 683 1
708 723 1
708 739 1
708 747 1
708 764 1
708 779 1
708 782 1
708 785 1
709 4 1
709 15 1
709 17 1
709 48 1
709 73 1
709 100 1
709 102 1
709 108 1
709 211 1
709 214 1
709 253 1
709 260 1
709 273 1
709 284 1
709 302 1
709 319 1
709 322 1
709 333 1
709 338 1
709 354 1
709 368 1
709 369 1
709 401 1
709 409 1
709 410 1
709 419 1
709 433 1
709 452 1
709 454 1
709 470 1
709 479 1
709 480 1
709 493 1
709 494 1
709 568 1
709 594 1
709 610 1
709 611 1
709 621 1
709 659 1
709 681 1
709 735 1
709 755 1
709 768 1
709 769 1
709 770 1
709 780 1
709 787 1
709 789 1
709 796 1
709 798 1
710 33 1
710 35 1
710 36 1
710 42 1
710 64 1
710 96 1
710 98 1
710 120 1
710 129 1
710 130 1
710 157 1
710 171 1
710 175 1
710 230 1
710 234 1
710 241 1
710 244 1
710 245 1
710 250 1
710 306 1
710 324 1
710 375 1
710 377 1
710 378 1
710 391 1
710 393 1
710 402 1
710 419 1
710 421 1
710 424 1
710 425 1
710 433 1
710 474 1
710 490 1
710 498 1
710 543 1
710 562 1
710 582 1
710 658 1
710 659 1
710 665 1
710 670 1
710 680 1
710 699 1
710 704 1
710 745 1
710 757 1
711 57 1
711 71 1
711 77 1
711 87 1
711 101 1
711 122 1
711 145 1
711 178 1
711 198 1
711 223 1
711 279 1
711 292 1
711 300 1
711 324 1
711 333 1
711 335 1
711 343 1
711 360 1
711 375 1
711 406 1
711 488 1
711 495 1
711 515 1
711 517 1
711 522 1
711 524 1
711 551 1
711 555 1
711 559 1
711 590 1
711 592 1
711 601 1
711 609 1
711 614 1
711 626 1
711 661 1
711 743 1
711 749 1
711 765 1
711 784 1
711 787 1
711 799 1
712 5 1
712 63 1
712 78 1
712 80 1
712 92 1
712 102 1
712 120 1
712 124 1
712 136 1
712 143 1
712 158 1
712 178 1
712 189 1
712 210 1
712 301 1
712 357 1
712 368 1
712 375 1
712 395 1
712 421 1
712 440 1
712 451 1
712 504 1
712 519 1
712 560 1
712 570 1
712 594 1
712 622 1
712 627 1
712 653 1
712 665 1
712 669 1
712 735 1
712 756 1
712 759 1
713 30 1
713 32 1
713 39 1
713 57 1
713 103 1
713 137 1
713 138 1
713 178 1
713 199 1
713 214 1
713 223 1
713 224 1
713 227 1
713 237 1
713 244 1
713 255 1
713 262 1
713 282 1
713 288 1
713 320 1
713 357 1
713 388 1
713 392 1
713 399 1
713 423 1
713 428 1
713 433 1
713 448 1
713 469 1
713 471 1
713 475 1
713 526 1
713 550 1
713 585 1
713 646 1
713 686 1
713 731 1
713 761 1
713 783 1
713 796 1
713 797 1
714 11 1
714 19 1
714 34 1
714 46 1
714 48 1
714 57 1
714 92 1
714 108 1
714 112 1
714 130 1
714 195 1
714 208 1
714 227 1
714 230 1
714 239 1
714 240 1
714 256 1
714 265 1
714 309 1
714 316 1
714 334 1
714 369 1
714 377 1
714 378 1
714 389 1
714 400 1
714 425 1
714 436 1
714 471 1
714 472 1
714 493 1
714 514 1
714 525 1
714 545 1
714 547 1
714 556 1
714 608 1
714 639 1
714 641 1
714 645 1
714 786 1
714 793 1
714 794 1
715 14 1
715 22 1
715 31 1
715 60 1
715 72 1
715 92 1
715 108 1
715 109 1
715 129 1
715 147 1
715 159 1
715 187 1
715 210 1
715 226 1
715 263 1
715 279 1
715 280 1
715 306 1
715 315 1
715 325 1
715 386 1
715 387 1
715 423 1
715 436 1
715 445 1
715 501 1
715 506 1
715 517 1
715 537 1
715 562 1
715 584 1
715 605 1
715 643 1
715 665 1
715 686 1
715 739 1
715 745 1
715 751 1
715 752 1
715 764 1
715 767 1
715 779 1
715 782 1
716 2 1
716 32 1
716 47 1
716 70 1
716 78 1
716 90 1
716 97 1
716 140 1
716 159 1
716 170 1
716 178 1
716 212 1
716 216 1
716 274 1
716 276 1
716 321 1
716 337 1
716 344 1
716 362 1
716 385 1
716 422 1
716 459 1
716 467 1
716 469 1
716 484 1
716 496 1
716 564 1
716 566 1
716 615 1
716 620 1
716 621 1
716 629 1
716 651 1
716 658 1
716 689 1
716 699 1
716 747 1
716 748 1
717 8 1
717 49 1
717 52 1
717 54 1
717 71 1
717 88 1
717 91 1
717 105 1
717 109 1
717 128 1
717 142 1
717 152 1
717 178 1
717 209 1
717 226 1
717 229 1
717 239 1
717 272 1
717 292 1
717 308 1
717 317 1
717 342 1
717 382 1
717 411 1
717 416 1
717 459 1
717 518 1
717 538 1
717 540 1
717 545 1
717 548 1
717 551 1
717 562 1
717 567 1
717 595 1
717 607 1
717 624 1
717 630 1
717 672 1
717 679 1
717 695 1
717 762 1
717 785 1
717 798 1
717 800 1
718 61 1
718 63 1
718 96 1
718 133 1
718 222 1
718 226 1
718 232 1
718 243 1
718 250 1
718 259 1
718 273 1
718 288 1
718 293 1
718 318 1
718 371 1
718 372 1
718 427 1
718 526 1
718 563 1
718 605 1
718 612 1
718 621 1
718 634 1
718 664 1
718 671 1
718 674 1
718 683 1
718 690 1
718 707 1
718 726 1
718 747 1
718 769 1
718 777 1
718 785 1
718 786 1
718 800 1
719 8 1
719 17 1
719 40 1
719 42 1
719 49 1
719 50 1
719 53 1
719 115 1
719 123 1
719 135 1
719 136 1
719 140 1
719 148 1
719 161 1
719 172 1
719 200 1
719 231 1
719 242 1
719 255 1
719 263 1
719 268 1
719 286 1
719 288 1
719 296 1
719 305 1
719 324 1
719 328 1
719 337 1
719 351 1
719 363 1
719 370 1
719 439 1
719 452 1
719 455 1
719 463 1
719 470 1
719 471 1
719 478 1
719 497 1
719 516 1
719 541 1
719 578 1
719 601 1
719 616 1
719 647 1
719 656 1
719 666 1
719 669 1
719 680 1
719 704 1
719 757 1
719 758 1
719 762 1
719 791 1
720 4 1
720 5 1
720 21 1
720 45 1
720 73 1
720 88 1
720 105 1
720 108 1
720 118 1
720 120 1
720 126 1
720 130 1
720 140 1
720 144 1
720 145 1
720 162 1
720 195 1
720 202 1
720 219 1
720 234 1
720 240 1
720 261 1
720 324 1
720 342 1
720 352 1
720 355 1
720 366 1
720 369 1
720 388 1
720 393 1
720 395 1
720 397 1
720 441 1
720 459 1
720 471 1
720 479 1
720 480 1
720 485 1
720 495 1
720 523 1
720 547 1
720 551 1
720 581 1
720 604 1
720 612 1
720 636 1
720 654 1
720 678 1
720 686 1
720 688 1
720 693 1
720 707 1
720 753 1
721 10 1
721 29 1
721 32 1
721 44 1
721 55 1
721 123 1
721 135 1
721 142 1
721 182 1
721 256 1
721 262 1
721 269 1
721 286 1
721 290 1
721 296 1
721 306 1
721 326 1
721 328 1
721 338 1
721 341 1
721 346 1
721 375 1
721 390 1
721 420 1
721 424 1
721 453 1
721 487 1
721 498 1
721 527 1
721 545 1
721 601 1
721 610 1
721 613 1
721 617 1
721 651 1
721 679 1
721 730 1
721 733 1
721 765 1
722 34 1
722 41 1
722 63 1
722 64 1
722 84 1
722 99 1
722 101 1
722 114 1
722 136 1
722 145 1
722 223 1
722 230 1
722 248 1
722 252 1
722 264 1
722 270 1
722 282 1
722 289 1
722 302 1
722 382 1
722 409 1
722 418 1
722 431 1
722 433 1
722 444 1
722 445 1
722 482 1
722 508 1
722 522 1
722 653 1
722 663 1
722 689 1
722 694 1
722 741 1
722 743 1
722 744 1
722 753 1
722 773 1
722 800 1
723 34 1
723 79 1
723 82 1
723 86 1
723 99 1
723 103 1
723 110 1
723 128 1
723 142 1
723 151 1
723 152 1
723 155 1
723 161 1
723 174 1
723 178 1
723 186 1
723 205 1
723 210 1
723 229 1
723 236 1
723 239 1
723 243 1
723 276 1
723 300 1
723 356 1
723 374 1
723 384 1
723 399 1
723 426 1
723 443 1
723 453 1
723 463 1
723 473 1
723 474 1
723 514 1
723 531 1
723 537 1
723 553 1
723 557 1
723 566 1
723 573 1
723 595 1
723 619 1
723 640 1
723 676 1
723 685 1
723 696 1
723 701 1
723 708 1
723 730 1
723 735 1
723 743 1
723 748 1
723 758 1
723 759 1
723 775 1
723 788 1
723 795 1
723 798 1
724 2 1
724 17 1
724 19 1
724 29 1
724 114 1
724 140 1
724 168 1
724 173 1
724 217 1
724 238 1
724 260 1
724 261 1
724 291 1
724 326 1
724 339 1
724 347 1
724 348 1
724 371 1
724 374 1
724 393 1
724 412 1
724 424 1
724 447 1
724 448 1
724 494 1
724 496 1
724 503 1
724 522 1
724 542 1
724 548 1
724 552 1
724 562 1
724 568 1
724 573 1
724 593 1
724 600 1
724 606 1
724 609 1
724 625 1
724 635 1
724 678 1
724 685 1
724 698 1
724 703 1
724 735 1
724 740 1
724 749 1
724 764 1
724 772 1
724 794 1
724 797 1
725 4 1
725 24 1
725 49 1
725 55 1
725 67 1
725 77 1
725 107 1
725 118 1
725 162 1
725 177 1
725 211 1
725 230 1
725 246 1
725 253 1
725 257 1
725 264 1
725 278 1
725 284 1
725 297 1
725 307 1
725 335 1
725 359 1
725 366 1
725 376 1
725 447 1
725 466 1
725 490 1
725 503 1
725 518 1
725 520 1
725 535 1
725 550 1
725 552 1
725 578 1
725 581 1
725 610 1
725 619 1
725 627 1
725 659 1
725 668 1
725 688 1
725 702 1
725 732 1
725 750 1
725 758 1
725 771 1
725 774 1
725 789 1
726 23 1
726 39 1
726 48 1
726 63 1
726 72 1
726 74 1
726 157 1
726 180 1
726 184 1
726 186 1
726 275 1
726 352 1
726 360 1
726 366 1
726 392 1
726 396 1
726 403 1
726 410 1
726 417 1
726 419 1
726 430 1
726 433 1
726 450 1
726 457 1
726 470 1
726 479 1
726 481 1
726 483 1
726 516 1
726 520 1
726 523 1
726 571 1
726 576 1
726 580 1
726 635 1
726 636 1
726 641 1
726 649 1
726 662 1
726 668 1
726 697 1
726 707 1
726 718 1
726 748 1
726 783 1
726 795 1
726 797 1
727 6 1
727 10 1
727 13 1
727 18 1
727 45 1
727 58 1
727 97 1
727 109 1
727 112 1
727 149 1
727 166 1
727 167 1
727 178 1
727 181 1
727 220 1
727 236 1
727 261 1
727 272 1
727 331 1
727 346 1
727 364 1
727 369 1
727 378 1
727 390 1
727 402 1
727 456 1
727 472 1
727 487 1
727 498 1
727 521 1
727 536 1
727 546 1
727 549 1
727 560 1
727 563 1
727 564 1
727 587 1
727 601 1
727 605 1
727 608 1
727 610 1
727 645 1
727 646 1
727 651 1
727 659 1
727 666 1
727 668 1
727 685 1
727 706 1
728 36 1
728 41 1
728 42 1
728 48 1
728 50 1
728 98 1
728 154 1
728 158 1
728 173 1
728 190 1
728 195 1
728 200 1
728 218 1
728 219 1
728 275 1
728 294 1
728 295 1
728 311 1
728 380 1
728 381 1
728 434 1
728 457 1
728 471 1
728 474 1
728 478 1
728 496 1
728 502 1
728 525 1
728 562 1
728 577 1
728 607 1
728 609 1
728 625 1
728 633 1
728 661 1
728 672 1
728 707 1
728 737 1
728 743 1
728 759 1
728 763 1
728 771 1
728 776 1
728 785 1
729 49 1
729 52 1
729 94 1
729 97 1
729 112 1
729 142 1
729 161 1
729 164 1
729 191 1
729 201 1
729 204 1
729 243 1
729 248 1
729 250 1
729 259 1
729 294 1
729 298 1
729 352 1
729 354 1
729 356 1
729 370 1
729 380 1
729 416 1
729 472 1
729 474 1
729 509 1
729 513 1
729 536 1
729 539 1
729 574 1
729 583 1
729 598 1
729 641 1
729 647 1
729 656 1
729 670 1
729 680 1
729 683 1
729 686 1
729 695 1
729 741 1
729 761 1
729 762 1
729 766 1
729 768 1
729 792 1
729 794 1
730 19 1
730 34 1
730 45 1
730 46 1
730 47 1
730 62 1
730 77 1
730 79 1
730 81 1
730 99 1
730 106 1
730 108 1
730 113 1
730 141 1
730 142 1
730 151 1
730 214 1
730 222 1
730 244 1
730 299 1
730 304 1
730 314 1
730 327 1
730 331 1
730 337 1
730 342 1
730 367 1
730 371 1
730 378 1
730 405 1
730 415 1
730 431 1
730 442 1
730 456 1
730 477 1
730 490 1
730 511 1
730 536 1
730 538 1
730 576 1
730 580 1
730 583 1
730 592 1
730 605 1
730 643 1
730 655 1
730 673 1
730 685 1
730 702 1
730 721 1
730 723 1
730 742 1
730 757 1
730 764 1
730 772 1
730 795 1
731 3 1
731 13 1
731 44 1
731 110 1
731 142 1
731 163 1
731 179 1
731 202 1
731 243 1
731 250 1
731 262 1
731 295 1
731 310 1
731 311 1
731 312 1
731 315 1
731 354 1
731 402 1
731 412 1
731 465 1
731 525 1
731 558 1
731 559 1
731 569 1
731 570 1
731 573 1
731 598 1
731 644 1
731 650 1
731 680 1
731 713 1
731 746 1
731 748 1
731 760 1
731 783 1
731 788 1
731 797 1
731 799 1
732 18 1
732 19 1
732 28 1
732 67 1
732 113 1
732 141 1
732 145 1
732 155 1
732 165 1
732 219 1
732 226 1
732 228 1
732 231 1
732 235 1
732 238 1
732 246 1
732 268 1
732 270 1
732 290 1
732 324 1
732 352 1
732 364 1
732 381 1
732 400 1
732 408 1
732 411 1
732 418 1
732 433 1
732 434 1
732 455 1
732 458 1
732 537 1
732 548 1
732 554 1
732 556 1
732 600 1
732 601 1
732 620 1
732 626 1
732 672 1
732 701 1
732 703 1
732 704 1
732 725 1
732 744 1
732 779 1
732 780 1
733 43 1
733 58 1
733 73 1
733 80 1
733 99 1
733 101 1
733 105 1
733 106 1
733 111 1
733 112 1
733 119 1
733 125 1
733 129 1
733 130 1
733 144 1
733 148 1
733 153 1
733 170 1
733 190 1
733 214 1
733 219 1
733 220 1
733 253 1
733 264 1
733 271 1
733 313 1
733 332 1
733 342 1
733 344 1
733 371 1
733 418 1
733 419 1
733 428 1
733 436 1
733 437 1
733 463 1
733 474 1
733 497 1
733 498 1
733 508 1
733 515 1
733 518 1
733 524 1
733 539 1
733 577 1
733 578 1
733 579 1
733 596 1
733 602 1
733 605 1
733 622 1
733 627 1
733 653 1
733 673 1
733 690 1
733 700 1
733 721 1
733 774 1
733 781 1
733 782 1
733 791 1
734 17 1
734 18 1
734 25 1
734 45 1
734 49 1
734 64 1
734 66 1
734 83 1
734 107 1
734 108 1
734 112 1
734 121 1
734 122 1
734 174 1
734 177 1
734 178 1
734 183 1
734 192 1
734 199 1
734 207 1
734 219 1
734 279 1
734 285 1
734 321 1
734 327 1
734 338 1
734 355 1
734 384 1
734 418 1
734 425 1
734 432 1
734 439 1
734 449 1
734 454 1
734 461 1
734 481 1
734 515 1
734 587 1
734 627 1
734 628 1
734 669 1
734 675 1
734 677 1
734 683 1
734 687 1
734 703 1
734 735 1
734 739 1
735 12 1
735 33 1
735 48 1
735 85 1
735 98 1
735 118 1
735 123 1
735 245 1
735 247 1
735 261 1
735 263 1
735 301 1
735 347 1
735 349 1
735 359 1
735 398 1
735 425 1
735 426 1
735 427 1
735 464 1
735 471 1
735 473 1
735 475 1
735 483 1
735 512 1
735 521 1
735 572 1
735 580 1
735 583 1
735 589 1
735 599 1
735 616 1
735 642 1
735 646 1
735 651 1
735 653 1
735 656 1
735 686 1
735 696 1
735 709 1
735 712 1
735 723 1
735 724 1
735 734 1
735 762 1
735 768 1
735 786 1
735 790 1
735 795 1
736 26 1
736 34 1
736 42 1
736 76 1
736 137 1
736 151 1
736 155 1
736 163 1
736 167 1
736 170 1
736 218 1
736 222 1
736 257 1
736 260 1
736 275 1
736 283 1
736 292 1
736 309 1
736 330 1
736 337 1
736 339 1
736 349 1
736 374 1
736 411 1
736 501 1
736 516 1
736 533 1
736 572 1
736 575 1
736 588 1
736 599 1
736 604 1
736 611 1
736 612 1
736 614 1
736 618 1
736 645 1
736 679 1
736 684 1
736 685 1
736 690 1
736 697 1
736 703 1
736 750 1
737 4 1
737 7 1
737 11 1
737 16 1
737 50 1
737 61 1
737 66 1
737 80 1
737 99 1
737 116 1
737 139 1
737 151 1
737 154 1
737 196 1
737 204 1
737 217 1
737 225 1
737 244 1
737 266 1
737 281 1
737 293 1
737 312 1
737 326 1
737 327 1
737 331 1
737 352 1
737 379 1
737 398 1
737 427 1
737 429 1
737 440 1
737 444 1
737 445 1
737 470 1
737 481 1
737 487 1
737 497 1
737 500 1
737 514 1
737 525 1
737 530 1
737 558 1
737 561 1
737 566 1
737 570 1
737 586 1
737 603 1
737 626 1
737 644 1
737 646 1
737 667 1
737 680 1
737 685 1
737 688 1
737 728 1
737 738 1
737 766 1
737 768 1
737 773 1
738 1 1
738 7 1
738 76 1
738 89 1
738 112 1
738 150 1
738 193 1
738 197 1
738 199 1
738 241 1
738 252 1
738 278 1
738 289 1
738 302 1
738 313 1
738 330 1
738 358 1
738 377 1
738 380 1
738 386 1
738 387 1
738 394 1
738 421 1
738 424 1
738 449 1
738 458 1
738 468 1
738 489 1
738 493 1
738 516 1
738 632 1
738 636 1
738 644 1
738 680 1
738 689 1
738 705 1
738 737 1
738 746 1
738 759 1
738 760 1
738 761 1
738 788 1
738 799 1
739 29 1
739 49 1
739 64 1
739 76 1
739 173 1
739 188 1
739 196 1
739 255 1
739 259 1
739 260 1
739 279 1
739 301 1
739 316 1
739 341 1
739 356 1
739 358 1
739 376 1
739 399 1
739 433 1
739 462 1
739 494 1
739 499 1
739 510 1
739 513 1
739 529 1
739 536 1
739 538 1
739 574 1
739 594 1
739 615 1
739 622 1
739 644 1
739 708 1
739 715 1
739 734 1
739 767 1
739 778 1
739 782 1
739 794 1
740 1 1
740 5 1
740 6 1
740 30 1
740 39 1
740 44 1
740 57 1
740 98 1
740 136 1
740 151 1
740 155 1
740 172 1
740 174 1
740 224 1
740 239 1
740 241 1
740 251 1
740 309 1
740 353 1
740 361 1
740 364 1
740 368 1
740 376 1
740 407 1
740 457 1
740 471 1
740 478 1
740 492 1
740 512 1
740 517 1
740 519 1
740 549 1
740 557 1
740 562 1
740 591 1
740 597 1
740 616 1
740 638 1
740 684 1
740 724 1
740 770 1
741 8 1
741 17 1
741 22 1
741 24 1
741 39 1
741 54 1
741 59 1
741 78 1
741 87 1
741 107 1
741 112 1
741 122 1
741 123 1
741 126 1
741 156 1
741 190 1
741 205 1
741 230 1
741 239 1
741 243 1
741 244 1
741 254 1
741 268 1
741 303 1
741 322 1
741 344 1
741 352 1
741 366 1
741 394 1
741 425 1
741 431 1
741 468 1
741 473 1
741 525 1
741 557 1
741 563 1
741 565 1
741 578 1
741 584 1
741 589 1
741 609 1
741 616 1
741 635 1
741 645 1
741 646 1
741 656 1
741 658 1
741 662 1
741 664 1
741 674 1
741 682 1
741 691 1
741 722 1
741 729 1
741 743 1
741 757 1
741 781 1
742 16 1
742 30 1
742 114 1
742 125 1
742 134 1
742 166 1
742 169 1
742 175 1
742 182 1
742 186 1
742 188 1
742 208 1
742 214 1
742 240 1
742 247 1
742 254 1
742 282 1
742 286 1
742 287 1
742 313 1
742 332 1
742 338 1
742 346 1
742 350 1
742 365 1
742 390 1
742 410 1
742 419 1
742 432 1
742 438 1
742 470 1
742 490 1
742 510 1
742 525 1
742 542 1
742 543 1
742 553 1
742 579 1
742 591 1
742 600 1
742 638 1
742 648 1
742 674 1
742 730 1
742 748 1
742 751 1
742 757 1
742 776 1
742 780 1
742 785 1
742 789 1
742 790 1
743 11 1
743 24 1
743 82 1
743 93 1
743 99 1
743 102 1
743 105 1
743 126 1
743 161 1
743 162 1
743 181 1
743 182 1
743 214 1
743 233 1
743 245 1
743 267 1
743 271 1
743 274 1
743 297 1
743 298 1
743 311 1
743 317 1
743 361 1
743 363 1
743 376 1
743 417 1
743 435 1
743 447 1
743 491 1
743 500 1
743 511 1
743 513 1
743 544 1
743 588 1
743 596 1
743 615 1
743 619 1
743 648 1
743 653 1
743 660 1
743 711 1
743 722 1
743 723 1
743 728 1
743 741 1
743 750 1
743 792 1
744 34 1
744 39 1
744 43 1
744 75 1
744 110 1
744 137 1
744 164 1
744 167 1
744 173 1
744 211 1
744 212 1
744 263 1
744 272 1
744 280 1
744 290 1
744 294 1
744 320 1
744 340 1
744 351 1
744 364 1
744 391 1
744 395 1
744 407 1
744 451 1
744 487 1
744 493 1
744 519 1
744 522 1
744 552 1
744 565 1
744 597 1
744 606 1
744 613 1
744 619 1
744 628 1
744 680 1
744 681 1
744 689 1
744 703 1
744 722 1
744 732 1
744 749 1
744 759 1
745 15 1
745 57 1
745 71 1
745 119 1
745 125 1
745 127 1
745 143 1
745 172 1
745 197 1
745 211 1
745 213 1
745 260 1
745 275 1
745 296 1
745 302 1
745 320 1
745 329 1
745 343 1
745 370 1
745 380 1
745 383 1
745 394 1
745 398 1
745 423 1
745 456 1
745 482 1
745 493 1
745 497 1
745 507 1
745 534 1
745 535 1
745 540 1
745 541 1
745 546 1
745 567 1
745 570 1
745 585 1
745 634 1
745 639 1
745 648 1
745 659 1
745 661 1
745 665 1
745 694 1
745 710 1
745 715 1
745 778 1
745 779 1
745 796 1
746 17 1
746 19 1
746 113 1
746 135 1
746 148 1
746 152 1
746 222 1
746 228 1
746 232 1
746 234 1
746 241 1
746 249 1
746 261 1
746 272 1
746 279 1
746 297 1
746 324 1
746 362 1
746 415 1
746 428 1
746 508 1
746 509 1
746 590 1
746 591 1
746 592 1
746 615 1
746 632 1
746 650 1
746 684 1
746 694 1
746 703 1
746 731 1
746 738 1
746 758 1
746 759 1
746 777 1
746 793 1
746 798 1
747 33 1
747 36 1
747 50 1
747 56 1
747 69 1
747 96 1
747 98 1
747 104 1
747 147 1
747 180 1
747 193 1
747 219 1
747 232 1
747 235 1
747 242 1
747 335 1
747 338 1
747 353 1
747 369 1
747 372 1
747 412 1
747 421 1
747 424 1
747 426 1
747 443 1
747 452 1
747 465 1
747 478 1
747 480 1
747 489 1
747 508 1
747 516 1
747 517 1
747 519 1
747 554 1
747 591 1
747 604 1
747 613 1
747 646 1
747 658 1
747 686 1
747 703 1
747 708 1
747 716 1
747 718 1
747 750 1
747 765 1
747 784 1
748 13 1
748 18 1
748 20 1
748 50 1
748 66 1
748 74 1
748 90 1
748 112 1
748 162 1
748 177 1
748 181 1
748 192 1
748 195 1
748 204 1
748 211 1
748 233 1
748 235 1
748 247 1
748 257 1
748 297 1
748 319 1
748 329 1
748 350 1
748 366 1
748 378 1
748 413 1
748 453 1
748 477 1
748 484 1
748 495 1
748 499 1
748 522 1
748 528 1
748 531 1
748 534 1
748 571 1
748 602 1
748 613 1
748 631 1
748 670 1
748 694 1
748 696 1
748 716 1
748 723 1
748 726 1
748 731 1
748 742 1
748 753 1
749 30 1
749 39 1
749 59 1
749 97 1
749 127 1
749 150 1
749 179 1
749 183 1
749 210 1
749 242 1
749 273 1
749 287 1
749 292 1
749 337 1
749 344 1
749 350 1
749 361 1
749 364 1
749 372 1
749 384 1
749 391 1
749 393 1
749 397 1
749 420 1
749 430 1
749 433 1
749 444 1
749 483 1
749 514 1
749 533 1
749 537 1
749 563 1
749 583 1
749 619 1
749 627 1
749 631 1
749 634 1
749 640 1
749 641 1
749 663 1
749 711 1
749 724 1
749 744 1
749 771 1
749 791 1
750 18 1
750 21 1
750 35 1
750 45 1
750 56 1
750 82 1
750 86 1
750 96 1
750 102 1
750 105 1
750 150 1
750 190 1
750 211 1
750 234 1
750 244 1
750 258 1
750 282 1
750 290 1
750 340 1
750 359 1
750 366 1
750 385 1
750 388 1
750 399 1
750 405 1
750 427 1
750 451 1
750 452 1
750 457 1
750 464 1
750 465 1
750 468 1
750 474 1
750 480 1
750 536 1
750 560 1
750 614 1
750 628 1
750 635 1
750 675 1
750 699 1
750 704 1
750 725 1
750 736 1
750 743 1
750 747 1
750 758 1
750 773 1
750 784 1
750 791 1
750 798 1
751 39 1
751 86 1
751 111 1
751 114 1
751 132 1
751 164 1
751 165 1
751 171 1
751 184 1
751 205 1
751 219 1
751 263 1
751 282 1
751 293 1
751 300 1
751 333 1
751 352 1
751 389 1
751 394 1
751 403 1
751 454 1
751 487 1
751 490 1
751 516 1
751 524 1
751 536 1
751 541 1
751 551 1
751 557 1
751 561 1
751 570 1
751 572 1
751 606 1
751 627 1
751 651 1
751 715 1
751 742 1
751 753 1
751 761 1
751 762 1
751 763 1
751 785 1
751 797 1
752 9 1
752 11 1
752 74 1
752 81 1
752 89 1
752 146 1
752 161 1
752 168 1
752 171 1
752 192 1
752 205 1
752 235 1
752 249 1
752 273 1
752 277 1
752 282 1
752 288 1
752 291 1
752 298 1
752 307 1
752 354 1
752 381 1
752 392 1
752 400 1
752 422 1
752 486 1
752 496 1
752 502 1
752 536 1
752 540 1
752 547 1
752 579 1
752 586 1
752 643 1
752 644 1
752 649 1
752 660 1
752 715 1
752 756 1
752 758 1
752 766 1
752 778 1
752 780 1
752 794 1
752 796 1
753 12 1
753 16 1
753 59 1
753 63 1
753 135 1
753 139 1
753 152 1
753 153 1
753 162 1
753 167 1
753 179 1
753 186 1
753 190 1
753 201 1
753 234 1
753 256 1
753 269 1
753 272 1
753 284 1
753 352 1
753 370 1
753 374 1
753 386 1
753 388 1
753 389 1
753 397 1
753 412 1
753 413 1
753 431 1
753 450 1
753 456 1
753 457 1
753 478 1
753 487 1
753 502 1
753 525 1
753 537 1
753 558 1
753 562 1
753 568 1
753 575 1
753 599 1
753 609 1
753 621 1
753 628 1
753 653 1
753 656 1
753 667 1
753 720 1
753 722 1
753 748 1
753 751 1
753 754 1
753 770 1
753 794 1
754 39 1
754 58 1
754 60 1
754 69 1
754 108 1
754 114 1
754 126 1
754 135 1
754 136 1
754 180 1
754 182 1
754 184 1
754 198 1
754 229 1
754 254 1
754 261 1
754 262 1
754 290 1
754 292 1
754 296 1
754 315 1
754 317 1
754 333 1
754 369 1
754 384 1
754 394 1
754 396 1
754 398 1
754 399 1
754 413 1
754 426 1
754 484 1
754 500 1
754 534 1
754 537 1
754 544 1
754 580 1
754 587 1
754 619 1
754 640 1
754 648 1
754 662 1
754 669 1
754 679 1
754 753 1
754 763 1
754 783 1
754 785 1
754 796 1
754 798 1
755 9 1
755 19 1
755 31 1
755 36 1
755 43 1
755 63 1
755 65 1
755 77 1
755 88 1
755 109 1
755 134 1
755 156 1
755 183 1
755 186 1
755 229 1
755 268 1
755 281 1
755 298 1
755 299 1
755 323 1
755 349 1
755 356 1
755 357 1
755 358 1
755 384 1
755 415 1
755 419 1
755 426 1
755 431 1
755 467 1
755 506 1
755 508 1
755 513 1
755 529 1
755 546 1
755 554 1
755 571 1
755 572 1
755 585 1
755 589 1
755 600 1
755 607 1
755 610 1
755 612 1
755 615 1
755 626 1
755 665 1
755 676 1
755 680 1
755 682 1
755 688 1
755 709 1
755 761 1
755 774 1
756 1 1
756 24 1
756 71 1
756 75 1
756 89 1
756 107 1
756 123 1
756 131 1
756 159 1
756 187 1
756 202 1
756 221 1
756 230 1
756 245 1
756 252 1
756 264 1
756 268 1
756 269 1
756 312 1
756 324 1
756 335 1
756 339 1
756 377 1
756 380 1
756 401 1
756 432 1
756 493 1
756 546 1
756 550 1
756 565 1
756 596 1
756 599 1
756 613 1
756 637 1
756 644 1
756 648 1
756 683 1
756 697 1
756 712 1
756 752 1
756 787 1
756 791 1
757 13 1
757 21 1
757 67 1
757 81 1
757 119 1
757 130 1
757 140 1
757 149 1
757 165 1
757 169 1
757 191 1
757 198 1
757 206 1
757 240 1
757 280 1
757 285 1
757 316 1
757 322 1
757 332 1
757 339 1
757 358 1
757 360 1
757 361 1
757 368 1
757 399 1
757 407 1
757 408 1
757 445 1
757 446 1
757 465 1
757 469 1
757 474 1
757 478 1
757 480 1
757 483 1
757 521 1
757 545 1
757 558 1
757 591 1
757 594 1
757 598 1
757 621 1
757 634 1
757 641 1
757 667 1
757 680 1
757 703 1
757 710 1
757 719 1
757 730 1
757 741 1
757 742 1
758 3 1
758 7 1
758 55 1
758 56 1
758 85 1
758 100 1
758 147 1
758 158 1
758 174 1
758 191 1
758 209 1
758 217 1
758 229 1
758 277 1
758 283 1
758 293 1
758 311 1
758 327 1
758 329 1
758 332 1
758 340 1
758 342 1
758 356 1
758 361 1
758 374 1
758 384 1
758 394 1
758 405 1
758 415 1
758 422 1
758 460 1
758 495 1
758 546 1
758 577 1
758 580 1
758 601 1
758 627 1
758 660 1
758 663 1
758 666 1
758 719 1
758 723 1
758 725 1
758 746 1
758 750 1
758 752 1
758 763 1
758 766 1
758 771 1
759 6 1
759 42 1
759 83 1
759 102 1
759 112 1
759 122 1
759 126 1
759 138 1
759 150 1
759 160 1
759 201 1
759 206 1
759 218 1
759 232 1
759 253 1
759 293 1
759 313 1
759 368 1
759 369 1
759 371 1
759 421 1
759 425 1
759 442 1
759 451 1
759 471 1
759 478 1
759 482 1
759 492 1
759 493 1
759 535 1
759 548 1
759 585 1
759 596 1
759 614 1
759 669 1
759 682 1
759 685 1
759 691 1
759 712 1
759 723 1
759 728 1
759 738 1
759 744 1
759 746 1
759 761 1
759 768 1
760 85 1
760 130 1
760 158 1
760 172 1
760 194 1
760 239 1
760 254 1
760 286 1
760 287 1
760 343 1
760 348 1
760 359 1
760 363 1
760 384 1
760 397 1
760 424 1
760 438 1
760 446 1
760 472 1
760 480 1
760 493 1
760 528 1
760 545 1
760 560 1
760 568 1
760 601 1
760 606 1
760 623 1
760 634 1
760 656 1
760 663 1
760 686 1
760 700 1
760 731 1
760 738 1
760 771 1
760 773 1
760 779 1
760 794 1
761 16 1
761 35 1
761 45 1
761 79 1
761 84 1
761 89 1
761 103 1
761 147 1
761 155 1
761 161 1
761 170 1
761 173 1
761 176 1
761 217 1
761 236 1
761 239 1
761 248 1
761 257 1
761 285 1
761 305 1
761 307 1
761 311 1
761 353 1
761 370 1
761 395 1
761 404 1
761 427 1
761 435 1
761 442 1
761 445 1
761 464 1
761 468 1
761 473 1
761 496 1
761 505 1
761 508 1
761 537 1
761 540 1
761 541 1
761 546 1
761 556 1
761 617 1
761 619 1
761 637 1
761 639 1
761 667 1
761 713 1
761 729 1
761 738 1
761 751 1
761 755 1
761 759 1
761 762 1
761 763 1
761 765 1
761 779 1
761 791 1
762 6 1
762 21 1
762 27 1
762 36 1
762 37 1
762 42 1
762 62 1
762 66 1
762 72 1
762 87 1
762 130 1
762 138 1
762 143 1
762 145 1
762 162 1
762 187 1
762 189 1
762 196 1
762 197 1
762 216 1
762 244 1
762 266 1
762 277 1
762 322 1
762 330 1
762 332 1
762 346 1
762 388 1
762 404 1
762 410 1
762 427 1
762 431 1
762 447 1
762 467 1
762 468 1
762 497 1
762 503 1
762 519 1
762 533 1
762 534 1
762 555 1
762 576 1
762 590 1
762 627 1
762 631 1
762 638 1
762 673 1
762 674 1
762 717 1
762 719 1
762 729 1
762 735 1
762 751 1
762 761 1
762 777 1
763 22 1
763 26 1
763 55 1
763 71 1
763 90 1
763 97 1
763 107 1
763 120 1
763 126 1
763 128 1
763 131 1
763 136 1
763 159 1
763 162 1
763 172 1
763 176 1
763 216 1
763 252 1
763 325 1
763 335 1
763 370 1
763 375 1
763 413 1
763 442 1
763 462 1
763 488 1
763 501 1
763 526 1
763 572 1
763 576 1
763 612 1
763 647 1
763 649 1
763 691 1
763 728 1
763 751 1
763 754 1
763 758 1
763 761 1
763 783 1
764 108 1
764 138 1
764 148 1
764 166 1
764 180 1
764 186 1
764 192 1
764 198 1
764 203 1
764 217 1
764 225 1
764 241 1
764 244 1
764 247 1
764 249 1
764 260 1
764 275 1
764 286 1
764 323 1
764 352 1
764 356 1
764 385 1
764 387 1
764 389 1
764 390 1
764 391 1
764 407 1
764 428 1
764 475 1
764 484 1
764 503 1
764 506 1
764 514 1
764 515 1
764 536 1
764 544 1
764 555 1
764 570 1
764 571 1
764 601 1
764 611 1
764 654 1
764 661 1
764 674 1
764 708 1
764 715 1
764 724 1
764 730 1
764 789 1
765 4 1
765 13 1
765 31 1
765 41 1
765 45 1
765 56 1
765 74 1
765 79 1
765 107 1
765 119 1
765 122 1
765 131 1
765 155 1
765 168 1
765 181 1
765 197 1
765 198 1
765 221 1
765 241 1
765 252 1
765 286 1
765 297 1
765 339 1
765 381 1
765 383 1
765 392 1
765 394 1
765 426 1
765 431 1
765 433 1
765 455 1
765 463 1
765 487 1
765 509 1
765 514 1
765 524 1
765 536 1
765 551 1
765 558 1
765 562 1
765 600 1
765 603 1
765 612 1
765 627 1
765 636 1
765 657 1
765 663 1
765 672 1
765 685 1
765 711 1
765 721 1
765 747 1
765 761 1
765 775 1
765 778 1
765 783 1
765 798 1
765 799 1
766 38 1
766 58 1
766 82 1
766 86 1
766 105 1
766 126 1
766 127 1
766 133 1
766 134 1
766 136 1
766 143 1
766 149 1
766 173 1
766 210 1
766 257 1
766 260 1
766 269 1
766 283 1
766 292 1
766 322 1
766 326 1
766 342 1
766 353 1
766 362 1
766 386 1
766 454 1
766 457 1
766 465 1
766 492 1
766 501 1
766 512 1
766 521 1
766 523 1
766 533 1
766 543 1
766 547 1
766 566 1
766 583 1
766 600 1
766 610 1
766 643 1
766 649 1
766 652 1
766 658 1
766 669 1
766 693 1
766 729 1
766 737 1
766 752 1
766 758 1
766 773 1
766 786 1
767 14 1
767 48 1
767 65 1
767 84 1
767 92 1
767 94 1
767 100 1
767 115 1
767 133 1
767 134 1
767 158 1
767 161 1
767 171 1
767 175 1
767 178 1
767 202 1
767 218 1
767 226 1
767 245 1
767 272 1
767 273 1
767 291 1
767 329 1
767 349 1
767 359 1
767 373 1
767 379 1
767 388 1
767 393 1
767 398 1
767 426 1
767 435 1
767 451 1
767 481 1
767 483 1
767 494 1
767 496 1
767 501 1
767 506 1
767 533 1
767 538 1
767 572 1
767 665 1
767 667 1
767 680 1
767 715 1
767 739 1
767 775 1
767 782 1
767 787 1
767 799 1
768 4 1
768 5 1
768 7 1
768 37 1
768 44 1
768 79 1
768 95 1
768 101 1
768 166 1
768 194 1
768 198 1
768 201 1
768 211 1
768 223 1
768 236 1
768 288 1
768 293 1
768 300 1
768 302 1
768 320 1
768 328 1
768 357 1
768 391 1
768 410 1
768 411 1
768 455 1
768 484 1
768 529 1
768 561 1
768 563 1
768 566 1
768 590 1
768 610 1
768 620 1
768 657 1
768 686 1
768 696 1
768 698 1
768 709 1
768 729 1
768 735 1
768 737 1
768 759 1
768 775 1
769 2 1
769 3 1
769 25 1
769 33 1
769 44 1
769 60 1
769 75 1
769 82 1
769 91 1
769 111 1
769 115 1
769 116 1
769 136 1
769 140 1
769 144 1
769 160 1
769 182 1
769 198 1
769 236 1
769 266 1
769 318 1
769 332 1
769 339 1
769 350 1
769 356 1
769 365 1
769 372 1
769 377 1
769 388 1
769 421 1
769 431 1
769 474 1
769 502 1
769 508 1
769 510 1
769 609 1
769 614 1
769 622 1
769 635 1
769 663 1
769 670 1
769 699 1
769 709 1
769 718 1
769 777 1
769 783 1
769 790 1
769 800 1
770 9 1
770 21 1
770 49 1
770 51 1
770 72 1
770 87 1
770 141 1
770 196 1
770 208 1
770 209 1
770 212 1
770 220 1
770 273 1
770 276 1
770 294 1
770 309 1
770 362 1
770 363 1
770 405 1
770 408 1
770 423 1
770 434 1
770 460 1
770 475 1
770 512 1
770 589 1
770 593 1
770 605 1
770 635 1
770 638 1
770 663 1
770 705 1
770 709 1
770 740 1
770 753 1
770 793 1
770 794 1
770 799 1
771 2 1
771 33 1
771 42 1
771 63 1
771 66 1
771 76 1
771 109 1
771 121 1
771 145 1
771 157 1
771 163 1
771 169 1
771 198 1
771 214 1
771 217 1
771 228 1
771 239 1
771 245 1
771 252 1
771 254 1
771 271 1
771 278 1
771 293 1
771 314 1
771 315 1
771 320 1
771 334 1
771 347 1
771 349 1
771 350 1
771 366 1
771 367 1
771 409 1
771 414 1
771 459 1
771 461 1
771 473 1
771 477 1
771 486 1
771 508 1
771 512 1
771 528 1
771 532 1
771 536 1
771 539 1
771 552 1
771 592 1
771 596 1
771 684 1
771 695 1
771 699 1
771 700 1
771 701 1
771 725 1
771 728 1
771 749 1
771 758 1
771 760 1
771 773 1
771 782 1
771 784 1
771 793 1
772 2 1
772 20 1
772 33 1
772 43 1
772 64 1
772 69 1
772 83 1
772 109 1
772 119 1
772 222 1
772 231 1
772 256 1
772 259 1
772 267 1
772 316 1
772 320 1
772 325 1
772 327 1
772 343 1
772 383 1
772 406 1
772 421 1
772 467 1
772 499 1
772 507 1
772 532 1
772 609 1
772 610 1
772 631 1
772 636 1
772 638 1
772 651 1
772 662 1
772 665 1
772 677 1
772 679 1
772 693 1
772 703 1
772 724 1
772 730 1
772 786 1
772 796 1
772 800 1
773 12 1
773 33 1
773 38 1
773 69 1
773 82 1
773 142 1
773 159 1
773 163 1
773 200 1
773 224 1
773 226 1
773 230 1
773 247 1
773 258 1
773 266 1
773 307 1
773 323 1
773 355 1
773 361 1
773 366 1
773 387 1
773 408 1
773 416 1
773 419 1
773 422 1
773 443 1
773 445 1
773 451 1
773 457 1
773 460 1
773 475 1
773 490 1
773 496 1
773 497 1
773 512 1
773 514 1
773 523 1
773 554 1
773 587 1
773 623 1
773 637 1
773 655 1
773 672 1
773 677 1
773 722 1
773 737 1
773 750 1
773 760 1
773 766 1
773 771 1
773 780 1
774 48 1
774 49 1
774 57 1
774 96 1
774 106 1
774 129 1
774 143 1
774 147 1
774 156 1
774 207 1
774 226 1
774 260 1
774 272 1
774 287 1
774 296 1
774 355 1
774 379 1
774 400 1
774 404 1
774 431 1
774 441 1
774 448 1
774 496 1
774 515 1
774 524 1
774 525 1
774 529 1
774 532 1
774 548 1
774 585 1
774 587 1
774 593 1
774 621 1
774 622 1
774 674 1
774 678 1
774 691 1
774 725 1
774 733 1
774 755 1
775 50 1
775 56 1
775 61 1
775 64 1
775 71 1
775 73 1
775 87 1
775 89 1
775 92 1
775 94 1
775 112 1
775 114 1
775 131 1
775 136 1
775 154 1
775 167 1
775 177 1
775 186 1
775 240 1
775 241 1
775 255 1
775 320 1
775 359 1
775 370 1
775 400 1
775 407 1
775 411 1
775 447 1
775 460 1
775 471 1
775 485 1
775 587 1
775 609 1
775 619 1
775 638 1
775 639 1
775 646 1
775 666 1
775 671 1
775 678 1
775 682 1
775 686 1
775 694 1
775 723 1
775 765 1
775 767 1
775 768 1
776 51 1
776 62 1
776 74 1
776 77 1
776 80 1
776 90 1
776 142 1
776 148 1
776 155 1
776 172 1
776 186 1
776 215 1
776 223 1
776 252 1
776 265 1
776 268 1
776 271 1
776 272 1
776 274 1
776 303 1
776 344 1
776 413 1
776 432 1
776 448 1
776 481 1
776 516 1
776 517 1
776 526 1
776 559 1
776 562 1
776 587 1
776 628 1
776 654 1
776 662 1
776 679 1
776 683 1
776 695 1
776 728 1
776 742 1
776 791 1
777 29 1
777 56 1
777 72 1
777 73 1
777 88 1
777 125 1
777 168 1
777 171 1
777 173 1
777 181 1
777 189 1
777 199 1
777 241 1
777 242 1
777 245 1
777 265 1
777 282 1
777 285 1
777 305 1
777 333 1
777 386 1
777 392 1
777 407 1
777 408 1
777 463 1
777 476 1
777 481 1
777 483 1
777 493 1
777 551 1
777 554 1
777 566 1
777 572 1
777 586 1
777 594 1
777 606 1
777 628 1
777 639 1
777 680 1
777 695 1
777 701 1
777 718 1
777 746 1
777 762 1
777 769 1
777 796 1
778 7 1
778 20 1
778 21 1
778 32 1
778 44 1
778 68 1
778 84 1
778 127 1
778 134 1
778 154 1
778 202 1
778 216 1
778 221 1
778 265 1
778 269 1
778 291 1
778 292 1
778 303 1
778 337 1
778 353 1
778 368 1
778 373 1
778 384 1
778 390 1
778 416 1
778 478 1
778 487 1
778 489 1
778 493 1
778 499 1
778 533 1
778 552 1
778 553 1
778 582 1
778 589 1
778 593 1
778 603 1
778 611 1
778 616 1
778 619 1
778 653 1
778 655 1
778 659 1
778 677 1
778 681 1
778 697 1
778 702 1
778 739 1
778 745 1
778 752 1
778 765 1
779 3 1
779 27 1
779 36 1
779 52 1
779 54 1
779 111 1
779 116 1
779 118 1
779 119 1
779 122 1
779 147 1
779 166 1
779 181 1
779 217 1
779 227 1
779 237 1
779 254 1
779 260 1
779 278 1
779 288 1
779 312 1
779 361 1
779 370 1
779 371 1
779 380 1
779 389 1
779 408 1
779 410 1
779 430 1
779 459 1
779 479 1
779 494 1
779 524 1
779 526 1
779 563 1
779 566 1
779 570 1
779 622 1
779 625 1
779 645 1
779 648 1
779 651 1
779 675 1
779 685 1
779 698 1
779 708 1
779 715 1
779 732 1
779 745 1
779 760 1
779 761 1
779 797 1
780 45 1
780 75 1
780 88 1
780 96 1
780 146 1
780 149 1
780 204 1
780 226 1
780 239 1
780 240 1
780 247 1
780 259 1
780 264 1
780 274 1
780 286 1
780 324 1
780 457 1
780 466 1
780 479 1
780 488 1
780 493 1
780 496 1
780 497 1
780 499 1
780 504 1
780 510 1
780 515 1
780 558 1
780 671 1
780 682 1
780 683 1
780 705 1
780 709 1
780 732 1
780 742 1
780 752 1
780 773 1
780 784 1
780 791 1
780 795 1
780 796 1
781 69 1
781 85 1
781 108 1
781 114 1
781 149 1
781 162 1
781 177 1
781 200 1
781 208 1
781 214 1
781 257 1
781 264 1
781 272 1
781 325 1
781 343 1
781 363 1
781 450 1
781 470 1
781 491 1
781 497 1
781 510 1
781 515 1
781 530 1
781 533 1
781 547 1
781 590 1
781 605 1
781 616 1
781 620 1
781 643 1
781 647 1
781 659 1
781 666 1
781 733 1
781 741 1
781 782 1
781 791 1
782 13 1
782 28 1
782 58 1
782 61 1
782 103 1
782 106 1
782 120 1
782 122 1
782 151 1
782 165 1
782 180 1
782 194 1
782 230 1
782 238 1
782 258 1
782 278 1
782 284 1
782 285 1
782 341 1
782 388 1
782 430 1
782 458 1
782 500 1
782 569 1
782 580 1
782 586 1
782 620 1
782 655 1
782 667 1
782 685 1
782 696 1
782 704 1
782 708 1
782 715 1
782 733 1
782 739 1
782 767 1
782 771 1
782 781 1
783 21 1
783 48 1
783 51 1
783 87 1
783 89 1
783 99 1
783 124 1
783 157 1
783 170 1
783 178 1
783 187 1
783 193 1
783 218 1
783 247 1
783 248 1
783 269 1
783 307 1
783 364 1
783 365 1
783 373 1
783 409 1
783 411 1
783 421 1
783 465 1
783 475 1
783 492 1
783 521 1
783 534 1
783 537 1
783 552 1
783 569 1
783 580 1
783 646 1
783 661 1
783 680 1
783 704 1
783 713 1
783 726 1
783 731 1
783 754 1
783 763 1
783 765 1
783 769 1
784 44 1
784 45 1
784 51 1
784 103 1
784 110 1
784 142 1
784 180 1
784 181 1
784 186 1
784 222 1
784 235 1
784 243 1
784 258 1
784 261 1
784 267 1
784 270 1
784 301 1
784 302 1
784 380 1
784 385 1
784 395 1
784 494 1
784 496 1
784 505 1
784 517 1
784 579 1
784 613 1
784 627 1
784 633 1
784 691 1
784 694 1
784 695 1
784 711 1
784 747 1
784 750 1
784 771 1
784 780 1
784 790 1
784 792 1
784 793 1
785 34 1
785 62 1
785 94 1
785 111 1
785 139 1
785 140 1
785 142 1
785 148 1
785 155 1
785 157 1
785 164 1
785 188 1
785 227 1
785 234 1
785 238 1
785 244 1
785 253 1
785 271 1
785 315 1
785 326 1
785 341 1
785 349 1
785 392 1
785 420 1
785 426 1
785 435 1
785 444 1
785 447 1
785 470 1
785 518 1
785 527 1
785 618 1
785 643 1
785 676 1
785 677 1
785 680 1
785 684 1
785 689 1
785 708 1
785 717 1
785 718 1
785 728 1
785 742 1
785 751 1
785 754 1
785 791 1
786 14 1
786 32 1
786 129 1
786 131 1
786 155 1
786 187 1
786 229 1
786 255 1
786 287 1
786 288 1
786 348 1
786 369 1
786 374 1
786 414 1
786 415 1
786 428 1
786 455 1
786 457 1
786 462 1
786 483 1
786 513 1
786 514 1
786 564 1
786 581 1
786 596 1
786 629 1
786 647 1
786 670 1
786 692 1
786 707 1
786 714 1
786 718 1
786 735 1
786 766 1
786 772 1
787 36 1
787 49 1
787 78 1
787 99 1
787 100 1
787 113 1
787 127 1
787 137 1
787 147 1
787 149 1
787 151 1
787 195 1
787 197 1
787 233 1
787 303 1
787 326 1
787 336 1
787 345 1
787 349 1
787 352 1
787 360 1
787 400 1
787 415 1
787 417 1
787 419 1
787 422 1
787 423 1
787 424 1
787 426 1
787 427 1
787 455 1
787 466 1
787 514 1
787 524 1
787 538 1
787 551 1
787 577 1
787 587 1
787 591 1
787 592 1
787 599 1
787 613 1
787 616 1
787 642 1
787 649 1
787 650 1
787 677 1
787 698 1
787 709 1
787 711 1
787 756 1
787 767 1
787 788 1
788 31 1
788 55 1
788 59 1
788 67 1
788 106 1
788 147 1
788 165 1
788 191 1
788 205 1
788 209 1
788 228 1
788 255 1
788 262 1
788 306 1
788 315 1
788 319 1
788 320 1
788 345 1
788 350 1
788 352 1
788 366 1
788 380 1
788 398 1
788 423 1
788 425 1
788 480 1
788 481 1
788 485 1
788 488 1
788 493 1
788 494 1
788 500 1
788 529 1
788 534 1
788 563 1
788 568 1
788 586 1
788 591 1
788 616 1
788 638 1
788 657 1
788 669 1
788 694 1
788 701 1
788 707 1
788 723 1
788 731 1
788 738 1
788 787 1
788 791 1
788 792 1
789 23 1
789 40 1
789 51 1
789 80 1
789 93 1
789 115 1
789 122 1
789 163 1
789 170 1
789 183 1
789 185 1
789 198 1
789 201 1
789 219 1
789 223 1
789 240 1
789 274 1
789 320 1
789 328 1
789 350 1
789 384 1
789 385 1
789 401 1
789 412 1
789 421 1
789 424 1
789 455 1
789 477 1
789 494 1
789 507 1
789 524 1
789 535 1
789 537 1
789 567 1
789 650 1
789 661 1
789 662 1
789 668 1
789 670 1
789 677 1
789 699 1
789 709 1
789 725 1
789 742 1
789 764 1
789 793 1
790 6 1
790 15 1
790 20 1
790 26 1
790 39 1
790 40 1
790 74 1
790 119 1
790 121 1
790 126 1
790 128 1
790 131 1
790 165 1
790 179 1
790 202 1
790 254 1
790 268 1
790 305 1
790 317 1
790 326 1
790 337 1
790 382 1
790 404 1
790 408 1
790 425 1
790 435 1
790 442 1
790 463 1
790 478 1
790 481 1
790 485 1
790 486 1
790 489 1
790 513 1
790 568 1
790 632 1
790 647 1
790 670 1
790 672 1
790 681 1
790 702 1
790 735 1
790 742 1
790 769 1
790 784 1
791 7 1
791 12 1
791 58 1
791 72 1
791 73 1
791 113 1
791 121 1
791 122 1
791 141 1
791 185 1
791 192 1
791 203 1
791 224 1
791 240 1
791 246 1
791 281 1
791 311 1
791 341 1
791 372 1
791 394 1
791 445 1
791 465 1
791 471 1
791 485 1
791 490 1
791 516 1
791 517 1
791 522 1
791 530 1
791 531 1
791 542 1
791 543 1
791 592 1
791 614 1
791 616 1
791 634 1
791 685 1
791 719 1
791 733 1
791 749 1
791 750 1
791 756 1
791 761 1
791 776 1
791 780 1
791 781 1
791 785 1
791 788 1
791 798 1
792 17 1
792 24 1
792 40 1
792 62 1
792 64 1
792 127 1
792 135 1
792 157 1
792 174 1
792 180 1
792 196 1
792 200 1
792 229 1
792 241 1
792 262 1
792 332 1
792 354 1
792 369 1
792 383 1
792 387 1
792 403 1
792 419 1
792 437 1
792 478 1
792 537 1
792 575 1
792 606 1
792 613 1
792 624 1
792 645 1
792 659 1
792 667 1
792 670 1
792 671 1
792 729 1
792 743 1
792 784 1
792 788 1
792 796 1
793 40 1
793 46 1
793 70 1
793 74 1
793 76 1
793 81 1
793 84 1
793 94 1
793 128 1
793 138 1
793 139 1
793 143 1
793 159 1
793 181 1
793 183 1
793 192 1
793 213 1
793 219 1
793 220 1
793 225 1
793 239 1
793 246 1
793 260 1
793 292 1
793 298 1
793 315 1
793 346 1
793 365 1
793 373 1
793 385 1
793 405 1
793 409 1
793 431 1
793 439 1
793 459 1
793 461 1
793 510 1
793 514 1
793 557 1
793 579 1
793 604 1
793 623 1
793 663 1
793 681 1
793 682 1
793 693 1
793 714 1
793 746 1
793 770 1
793 771 1
793 784 1
793 789 1
794 4 1
794 5 1
794 22 1
794 39 1
794 47 1
794 99 1
794 108 1
794 120 1
794 131 1
794 133 1
794 157 1
794 161 1
794 177 1
794 205 1
794 236 1
794 246 1
794 250 1
794 255 1
794 265 1
794 312 1
794 333 1
794 347 1
794 358 1
794 364 1
794 384 1
794 385 1
794 414 1
794 425 1
794 436 1
794 446 1
794 501 1
794 507 1
794 548 1
794 560 1
794 565 1
794 566 1
794 568 1
794 597 1
794 601 1
794 612 1
794 614 1
794 645 1
794 654 1
794 657 1
794 694 1
794 714 1
794 724 1
794 729 1
794 739 1
794 752 1
794 753 1
794 760 1
794 770 1
795 74 1
795 104 1
795 129 1
795 132 1
795 144 1
795 145 1
795 146 1
795 154 1
795 214 1
795 234 1
795 265 1
795 296 1
795 314 1
795 315 1
795 328 1
795 336 1
795 339 1
795 349 1
795 398 1
795 432 1
795 471 1
795 472 1
795 509 1
795 548 1
795 561 1
795 566 1
795 571 1
795 585 1
795 591 1
795 602 1
795 606 1
795 624 1
795 633 1
795 644 1
795 663 1
795 667 1
795 723 1
795 726 1
795 730 1
795 735 1
795 780 1
795 798 1
796 12 1
796 41 1
796 45 1
796 62 1
796 66 1
796 67 1
796 85 1
796 107 1
796 130 1
796 150 1
796 151 1
796 156 1
796 160 1
796 172 1
796 198 1
796 216 1
796 227 1
796 296 1
796 299 1
796 309 1
796 313 1
796 314 1
796 321 1
796 328 1
796 411 1
796 419 1
796 433 1
796 434 1
796 442 1
796 455 1
796 460 1
796 517 1
796 523 1
796 567 1
796 569 1
796 572 1
796 598 1
796 642 1
796 685 1
796 695 1
796 699 1
796 701 1
796 709 1
796 713 1
796 745 1
796 752 1
796 754 1
796 772 1
796 777 1
796 780 1
796 792 1
797 12 1
797 29 1
797 32 1
797 44 1
797 55 1
797 60 1
797 70 1
797 77 1
797 80 1
797 131 1
797 134 1
797 179 1
797 195 1
797 196 1
797 201 1
797 271 1
797 272 1
797 274 1
797 294 1
797 297 1
797 312 1
797 340 1
797 361 1
797 378 1
797 391 1
797 403 1
797 409 1
797 420 1
797 423 1
797 441 1
797 462 1
797 479 1
797 482 1
797 485 1
797 496 1
797 534 1
797 549 1
797 558 1
797 566 1
797 580 1
797 582 1
797 628 1
797 642 1
797 645 1
797 646 1
797 658 1
797 682 1
797 704 1
797 713 1
797 724 1
797 726 1
797 731 1
797 751 1
797 779 1
798 9 1
798 11 1
798 14 1
798 31 1
798 39 1
798 43 1
798 63 1
798 75 1
798 78 1
798 97 1
798 110 1
798 116 1
798 132 1
798 147 1
798 148 1
798 157 1
798 168 1
798 173 1
798 182 1
798 183 1
798 191 1
798 207 1
798 229 1
798 240 1
798 248 1
798 271 1
798 276 1
798 289 1
798 309 1
798 313 1
798 329 1
798 349 1
798 350 1
798 359 1
798 363 1
798 385 1
798 387 1
798 390 1
798 411 1
798 423 1
798 429 1
798 432 1
798 437 1
798 456 1
798 486 1
798 507 1
798 542 1
798 546 1
798 549 1
798 550 1
798 562 1
798 585 1
798 593 1
798 596 1
798 602 1
798 612 1
798 618 1
798 630 1
798 636 1
798 640 1
798 643 1
798 651 1
798 665 1
798 669 1
798 682 1
798 694 1
798 709 1
798 717 1
798 723 1
798 746 1
798 750 1
798 754 1
798 765 1
798 791 1
798 795 1
799 3 1
799 32 1
799 33 1
799 56 1
799 68 1
799 82 1
799 101 1
799 115 1
799 121 1
799 135 1
799 141 1
799 151 1
799 168 1
799 182 1
799 195 1
799 196 1
799 201 1
799 204 1
799 232 1
799 239 1
799 242 1
799 261 1
799 269 1
799 291 1
799 292 1
799 308 1
799 313 1
799 384 1
799 385 1
799 405 1
799 459 1
799 460 1
799 490 1
799 503 1
799 516 1
799 551 1
799 574 1
799 584 1
799 598 1
799 610 1
799 684 1
799 691 1
799 711 1
799 731 1
799 738 1
799 765 1
799 767 1
799 770 1
800 39 1
800 44 1
800 59 1
800 83 1
800 119 1
800 124 1
800 130 1
800 140 1
800 150 1
800 175 1
800 178 1
800 195 1
800 216 1
800 217 1
800 223 1
800 278 1
800 290 1
800 352 1
800 373 1
800 393 1
800 424 1
800 435 1
800 436 1
800 438 1
800 446 1
800 454 1
800 457 1
800 504 1
800 506 1
800 516 1
800 526 1
800 535 1
800 546 1
800 551 1
800 560 1
800 566 1
800 570 1
800 582 1
800 603 1
800 610 1
800 638 1
800 663 1
800 717 1
800 718 1
800 722 1
800 769 1
800 772 1
