%%MatrixMarket matrix coordinate real general
%
1000 1000 19980
1 175 1
1 179 1
1 190 1
1 226 1
1 254 1
1 283 1
1 295 1
1 366 1
1 371 1
1 677 1
1 685 1
1 694 1
1 780 1
1 803 1
1 983 1
2 21 1
2 47 1
2 173 1
2 227 1
2 298 1
2 334 1
2 365 1
2 505 1
2 547 1
2 616 1
2 724 1
2 726 1
2 847 1
2 897 1
2 958 1
2 988 1
3 135 1
3 171 1
3 228 1
3 255 1
3 268 1
3 275 1
3 286 1
3 301 1
3 308 1
3 374 1
3 414 1
3 426 1
3 517 1
3 603 1
3 661 1
3 666 1
3 675 1
3 726 1
3 754 1
3 779 1
3 787 1
3 873 1
4 10 1
4 25 1
4 91 1
4 243 1
4 249 1
4 265 1
4 378 1
4 478 1
4 489 1
4 495 1
4 504 1
4 575 1
4 600 1
4 618 1
4 760 1
4 771 1
4 778 1
4 869 1
4 897 1
4 995 1
5 63 1
5 72 1
5 75 1
5 77 1
5 90 1
5 101 1
5 193 1
5 225 1
5 310 1
5 330 1
5 365 1
5 386 1
5 426 1
5 427 1
5 505 1
5 506 1
5 541 1
5 563 1
5 591 1
5 686 1
5 689 1
5 732 1
5 742 1
5 743 1
5 762 1
5 775 1
5 805 1
5 859 1
5 904 1
5 912 1
5 963 1
5 994 1
6 59 1
6 86 1
6 114 1
6 122 1
6 151 1
6 154 1
6 179 1
6 235 1
6 334 1
6 373 1
6 405 1
6 410 1
6 452 1
6 471 1
6 489 1
6 568 1
6 640 1
6 664 1
6 718 1
6 745 1
6 761 1
6 779 1
6 802 1
6 804 1
6 867 1
6 983 1
7 28 1
7 29 1
7 67 1
7 127 1
7 216 1
7 251 1
7 448 1
7 502 1
7 586 1
7 638 1
7 733 1
7 734 1
7 742 1
7 921 1
7 934 1
8 19 1
8 81 1
8 241 1
8 242 1
8 254 1
8 266 1
8 409 1
8 458 1
8 575 1
8 644 1
8 719 1
8 755 1
8 800 1
8 826 1
8 916 1
8 997 1
9 27 1
9 49 1
9 65 1
9 117 1
9 194 1
9 195 1
9 242 1
9 260 1
9 261 1
9 328 1
9 359 1
9 370 1
9 379 1
9 382 1
9 394 1
9 472 1
9 542 1
9 560 1
9 639 1
9 664 1
9 688 1
9 709 1
9 721 1
9 844 1
9 855 1
9 856 1
9 946 1
10 4 1
10 52 1
10 85 1
10 95 1
10 186 1
10 189 1
10 371 1
10 432 1
10 558 1
10 596 1
10 621 1
10 626 1
10 642 1
10 667 1
11 84 1
11 226 1
11 480 1
11 491 1
11 538 1
11 545 1
11 580 1
11 639 1
11 729 1
11 925 1
11 929 1
12 25 1
12 60 1
12 77 1
12 87 1
12 129 1
12 144 1
12 246 1
12 337 1
12 371 1
12 400 1
12 408 1
12 420 1
12 535 1
12 540 1
12 572 1
12 638 1
12 689 1
12 703 1
12 823 1
12 834 1
12 850 1
12 928 1
12 934 1
12 957 1
12 966 1
13 148 1
13 174 1
13 201 1
13 204 1
13 234 1
13 255 1
13 256 1
13 267 1
13 284 1
13 505 1
13 598 1
13 609 1
13 680 1
13 720 1
13 729 1
13 756 1
13 796 1
13 809 1
13 839 1
13 941 1
14 89 1
14 137 1
14 188 1
14 214 1
14 308 1
14 312 1
14 343 1
14 414 1
14 516 1
14 554 1
14 562 1
14 597 1
14 650 1
14 660 1
14 661 1
14 683 1
14 685 1
14 755 1
14 780 1
14 825 1
14 963 1
14 998 1
15 65 1
15 112 1
15 209 1
15 220 1
15 272 1
15 303 1
15 371 1
15 407 1
15 523 1
15 565 1
15 653 1
15 656 1
15 695 1
15 708 1
15 775 1
15 844 1
15 846 1
15 905 1
15 956 1
16 37 1
16 47 1
16 119 1
16 220 1
16 254 1
16 282 1
16 310 1
16 353 1
16 484 1
16 487 1
16 496 1
16 691 1
16 705 1
16 733 1
16 793 1
16 817 1
16 850 1
16 949 1
16 962 1
17 35 1
17 47 1
17 58 1
17 67 1
17 87 1
17 128 1
17 225 1
17 251 1
17 321 1
17 347 1
17 408 1
17 439 1
17 740 1
17 776 1
17 857 1
17 874 1
17 929 1
17 950 1
17 979 1
18 189 1
18 232 1
18 306 1
18 316 1
18 513 1
18 514 1
18 555 1
18 589 1
18 609 1
18 644 1
18 651 1
18 668 1
18 753 1
18 826 1
19 8 1
19 84 1
19 93 1
19 174 1
19 207 1
19 246 1
19 419 1
19 443 1
19 511 1
19 570 1
19 599 1
19 650 1
19 664 1
19 708 1
19 716 1
19 717 1
19 719 1
19 757 1
19 781 1
19 793 1
19 803 1
19 846 1
19 858 1
19 859 1
19 878 1
19 892 1
20 85 1
20 223 1
20 234 1
20 323 1
20 347 1
20 416 1
20 428 1
20 579 1
20 585 1
20 622 1
20 698 1
20 714 1
20 715 1
20 735 1
20 825 1
20 828 1
20 911 1
20 943 1
21 2 1
21 114 1
21 131 1
21 138 1
21 360 1
21 361 1
21 382 1
21 416 1
21 456 1
21 480 1
21 486 1
21 492 1
21 507 1
21 524 1
21 582 1
21 596 1
21 629 1
21 660 1
21 793 1
21 961 1
22 41 1
22 51 1
22 76 1
22 86 1
22 172 1
22 310 1
22 370 1
22 501 1
22 556 1
22 564 1
22 603 1
22 604 1
22 647 1
22 702 1
22 744 1
22 834 1
22 843 1
22 854 1
22 940 1
22 965 1
22 1000 1
23 72 1
23 135 1
23 136 1
23 146 1
23 171 1
23 228 1
23 249 1
23 272 1
23 432 1
23 466 1
23 480 1
23 568 1
23 603 1
23 617 1
23 698 1
23 752 1
23 755 1
23 814 1
23 842 1
23 856 1
23 887 1
23 905 1
24 29 1
24 128 1
24 223 1
24 229 1
24 255 1
24 311 1
24 361 1
24 413 1
24 506 1
24 516 1
24 558 1
24 572 1
24 593 1
24 814 1
24 831 1
24 839 1
25 4 1
25 12 1
25 93 1
25 149 1
25 191 1
25 213 1
25 244 1
25 420 1
25 421 1
25 427 1
25 466 1
25 522 1
25 557 1
25 759 1
26 80 1
26 111 1
26 173 1
26 200 1
26 282 1
26 298 1
26 354 1
26 358 1
26 380 1
26 470 1
26 516 1
26 567 1
26 571 1
26 600 1
26 644 1
26 656 1
26 671 1
26 717 1
26 725 1
26 745 1
26 837 1
26 849 1
26 907 1
26 948 1
27 9 1
27 33 1
27 108 1
27 125 1
27 222 1
27 296 1
27 323 1
27 331 1
27 359 1
27 422 1
27 470 1
27 569 1
27 625 1
27 676 1
27 701 1
27 733 1
27 778 1
27 895 1
27 933 1
27 945 1
27 957 1
27 968 1
27 973 1
28 7 1
28 54 1
28 190 1
28 296 1
28 333 1
28 397 1
28 436 1
28 500 1
28 532 1
28 588 1
28 592 1
28 616 1
28 739 1
28 790 1
28 879 1
28 882 1
28 896 1
28 931 1
28 963 1
28 964 1
29 7 1
29 24 1
29 33 1
29 139 1
29 193 1
29 262 1
29 322 1
29 333 1
29 443 1
29 448 1
29 481 1
29 525 1
29 727 1
29 802 1
29 826 1
29 872 1
29 900 1
30 57 1
30 84 1
30 105 1
30 139 1
30 169 1
30 191 1
30 206 1
30 213 1
30 218 1
30 323 1
30 347 1
30 373 1
30 379 1
30 418 1
30 468 1
30 537 1
30 611 1
30 650 1
30 908 1
30 943 1
30 984 1
30 1000 1
31 189 1
31 197 1
31 231 1
31 248 1
31 282 1
31 336 1
31 362 1
31 376 1
31 402 1
31 448 1
31 650 1
31 658 1
31 818 1
31 880 1
31 971 1
32 58 1
32 98 1
32 179 1
32 192 1
32 234 1
32 281 1
32 329 1
32 335 1
32 372 1
32 381 1
32 400 1
32 480 1
32 485 1
32 519 1
32 530 1
32 537 1
32 545 1
32 586 1
32 606 1
32 821 1
32 851 1
32 898 1
32 997 1
33 27 1
33 29 1
33 251 1
33 286 1
33 288 1
33 296 1
33 474 1
33 480 1
33 555 1
33 562 1
33 566 1
33 605 1
33 730 1
33 810 1
33 894 1
33 914 1
33 930 1
33 945 1
33 957 1
34 40 1
34 279 1
34 331 1
34 338 1
34 364 1
34 385 1
34 405 1
34 449 1
34 550 1
34 648 1
34 715 1
34 859 1
34 915 1
34 920 1
34 924 1
34 998 1
35 17 1
35 100 1
35 106 1
35 137 1
35 165 1
35 281 1
35 304 1
35 308 1
35 320 1
35 336 1
35 343 1
35 437 1
35 476 1
35 513 1
35 517 1
35 567 1
35 638 1
35 654 1
35 689 1
35 708 1
35 867 1
35 881 1
35 930 1
35 950 1
35 982 1
36 55 1
36 154 1
36 194 1
36 202 1
36 210 1
36 237 1
36 286 1
36 370 1
36 404 1
36 415 1
36 427 1
36 457 1
36 540 1
36 557 1
36 561 1
36 658 1
36 683 1
36 702 1
36 741 1
36 745 1
36 750 1
36 775 1
36 850 1
36 903 1
36 919 1
36 963 1
36 970 1
37 16 1
37 48 1
37 147 1
37 157 1
37 220 1
37 388 1
37 505 1
37 533 1
37 546 1
37 559 1
37 586 1
37 610 1
37 787 1
37 788 1
37 874 1
37 898 1
37 929 1
37 932 1
38 361 1
38 369 1
38 417 1
38 431 1
38 436 1
38 509 1
38 534 1
38 585 1
38 624 1
38 633 1
38 634 1
38 689 1
38 735 1
38 743 1
38 754 1
38 806 1
38 904 1
39 121 1
39 137 1
39 182 1
39 271 1
39 312 1
39 315 1
39 399 1
39 571 1
39 603 1
39 628 1
39 746 1
39 789 1
39 849 1
39 877 1
39 935 1
39 965 1
39 992 1
40 34 1
40 50 1
40 113 1
40 123 1
40 197 1
40 355 1
40 359 1
40 456 1
40 501 1
40 580 1
40 669 1
40 688 1
40 805 1
40 808 1
40 825 1
40 997 1
41 22 1
41 61 1
41 108 1
41 119 1
41 174 1
41 192 1
41 253 1
41 261 1
41 475 1
41 539 1
41 575 1
41 622 1
41 629 1
41 780 1
41 887 1
42 80 1
42 166 1
42 230 1
42 301 1
42 317 1
42 368 1
42 402 1
42 414 1
42 493 1
42 519 1
42 520 1
42 544 1
42 625 1
42 631 1
42 663 1
42 697 1
42 771 1
42 786 1
42 912 1
42 966 1
42 983 1
43 142 1
43 157 1
43 158 1
43 223 1
43 245 1
43 343 1
43 346 1
43 475 1
43 592 1
43 688 1
43 732 1
43 843 1
43 935 1
43 961 1
44 64 1
44 66 1
44 208 1
44 304 1
44 481 1
44 484 1
44 588 1
44 614 1
44 720 1
44 777 1
44 801 1
44 819 1
44 849 1
44 865 1
44 936 1
44 997 1
45 112 1
45 283 1
45 376 1
45 393 1
45 419 1
45 424 1
45 457 1
45 523 1
45 578 1
45 595 1
45 649 1
45 688 1
45 790 1
45 822 1
45 827 1
45 858 1
45 889 1
45 893 1
45 971 1
45 988 1
45 998 1
46 149 1
46 163 1
46 178 1
46 301 1
46 349 1
46 367 1
46 475 1
46 478 1
46 542 1
46 601 1
46 659 1
46 809 1
46 826 1
46 857 1
46 883 1
46 887 1
46 980 1
47 2 1
47 16 1
47 17 1
47 212 1
47 336 1
47 418 1
47 424 1
47 435 1
47 505 1
47 536 1
47 658 1
47 680 1
47 704 1
47 713 1
47 732 1
47 763 1
47 870 1
47 912 1
47 942 1
47 950 1
47 995 1
48 37 1
48 126 1
48 225 1
48 226 1
48 250 1
48 465 1
48 502 1
48 518 1
48 540 1
48 578 1
48 661 1
48 683 1
48 725 1
48 954 1
48 982 1
49 9 1
49 71 1
49 80 1
49 85 1
49 133 1
49 173 1
49 255 1
49 268 1
49 277 1
49 619 1
49 695 1
49 711 1
49 754 1
49 814 1
49 817 1
49 887 1
49 901 1
49 970 1
49 999 1
50 40 1
50 72 1
50 75 1
50 117 1
50 181 1
50 211 1
50 309 1
50 349 1
50 366 1
50 498 1
50 516 1
50 529 1
50 639 1
50 697 1
50 703 1
50 931 1
50 933 1
51 22 1
51 204 1
51 278 1
51 318 1
51 330 1
51 372 1
51 431 1
51 504 1
51 509 1
51 536 1
51 555 1
51 714 1
51 807 1
51 829 1
51 835 1
51 838 1
51 901 1
51 906 1
51 917 1
51 933 1
51 935 1
51 970 1
52 10 1
52 58 1
52 77 1
52 115 1
52 150 1
52 172 1
52 174 1
52 316 1
52 400 1
52 402 1
52 468 1
52 597 1
52 636 1
52 686 1
52 752 1
52 770 1
52 797 1
52 806 1
52 833 1
53 226 1
53 293 1
53 328 1
53 358 1
53 400 1
53 413 1
53 422 1
53 480 1
53 482 1
53 494 1
53 548 1
53 592 1
53 611 1
53 622 1
53 630 1
53 775 1
53 782 1
53 823 1
53 955 1
53 956 1
53 999 1
54 28 1
54 70 1
54 72 1
54 95 1
54 217 1
54 248 1
54 373 1
54 401 1
54 534 1
54 549 1
54 561 1
54 569 1
54 606 1
54 642 1
54 680 1
54 779 1
54 798 1
54 825 1
54 868 1
54 890 1
54 916 1
54 924 1
54 968 1
55 36 1
55 62 1
55 63 1
55 98 1
55 110 1
55 137 1
55 159 1
55 173 1
55 189 1
55 272 1
55 335 1
55 398 1
55 432 1
55 500 1
55 530 1
55 582 1
55 642 1
55 665 1
55 716 1
55 815 1
55 838 1
55 847 1
55 867 1
55 891 1
56 384 1
56 462 1
56 541 1
56 605 1
56 621 1
56 681 1
56 727 1
56 735 1
56 752 1
56 756 1
56 761 1
56 788 1
56 870 1
56 876 1
56 995 1
57 30 1
57 72 1
57 79 1
57 111 1
57 169 1
57 174 1
57 196 1
57 211 1
57 229 1
57 291 1
57 341 1
57 358 1
57 481 1
57 550 1
57 579 1
57 621 1
57 642 1
57 694 1
57 713 1
57 718 1
57 738 1
57 815 1
57 827 1
57 904 1
57 951 1
58 17 1
58 32 1
58 52 1
58 150 1
58 169 1
58 211 1
58 307 1
58 490 1
58 512 1
58 513 1
58 623 1
58 656 1
58 742 1
58 849 1
58 876 1
58 971 1
58 993 1
59 6 1
59 116 1
59 180 1
59 207 1
59 208 1
59 213 1
59 271 1
59 280 1
59 291 1
59 323 1
59 415 1
59 442 1
59 516 1
59 534 1
59 649 1
59 650 1
59 679 1
59 706 1
59 733 1
59 734 1
59 757 1
59 830 1
59 920 1
59 927 1
59 959 1
59 983 1
60 12 1
60 106 1
60 201 1
60 260 1
60 340 1
60 361 1
60 586 1
60 623 1
60 726 1
60 833 1
60 877 1
60 922 1
60 938 1
60 983 1
61 41 1
61 74 1
61 261 1
61 282 1
61 294 1
61 323 1
61 519 1
61 591 1
61 597 1
61 696 1
61 730 1
61 887 1
61 889 1
61 949 1
61 957 1
61 961 1
61 964 1
61 965 1
61 979 1
61 999 1
62 55 1
62 105 1
62 207 1
62 229 1
62 266 1
62 311 1
62 352 1
62 397 1
62 433 1
62 453 1
62 492 1
62 515 1
62 656 1
62 661 1
62 668 1
62 689 1
62 804 1
62 890 1
63 5 1
63 55 1
63 134 1
63 183 1
63 213 1
63 258 1
63 263 1
63 315 1
63 362 1
63 423 1
63 447 1
63 471 1
63 568 1
63 598 1
63 616 1
63 688 1
63 807 1
63 917 1
63 930 1
64 44 1
64 136 1
64 206 1
64 239 1
64 240 1
64 341 1
64 395 1
64 418 1
64 424 1
64 479 1
64 480 1
64 547 1
64 580 1
64 663 1
64 676 1
64 687 1
64 737 1
64 776 1
64 816 1
64 842 1
64 880 1
64 902 1
64 967 1
64 973 1
64 998 1
65 9 1
65 15 1
65 70 1
65 159 1
65 176 1
65 184 1
65 238 1
65 335 1
65 351 1
65 362 1
65 368 1
65 499 1
65 554 1
65 569 1
65 602 1
65 610 1
65 645 1
65 667 1
65 731 1
65 855 1
65 966 1
65 970 1
65 974 1
66 44 1
66 83 1
66 226 1
66 227 1
66 228 1
66 269 1
66 339 1
66 358 1
66 415 1
66 429 1
66 442 1
66 482 1
66 516 1
66 536 1
66 540 1
66 586 1
66 608 1
66 663 1
66 699 1
66 729 1
66 742 1
66 756 1
66 821 1
66 852 1
66 873 1
66 968 1
67 7 1
67 17 1
67 72 1
67 87 1
67 92 1
67 104 1
67 213 1
67 217 1
67 244 1
67 257 1
67 340 1
67 385 1
67 444 1
67 466 1
67 479 1
67 487 1
67 527 1
67 532 1
67 559 1
67 672 1
67 818 1
67 861 1
68 92 1
68 148 1
68 169 1
68 199 1
68 216 1
68 240 1
68 293 1
68 316 1
68 411 1
68 626 1
68 637 1
68 659 1
68 704 1
68 730 1
68 814 1
68 907 1
68 968 1
69 119 1
69 149 1
69 158 1
69 159 1
69 162 1
69 174 1
69 265 1
69 280 1
69 316 1
69 352 1
69 430 1
69 451 1
69 475 1
69 494 1
69 572 1
69 605 1
69 616 1
69 699 1
69 724 1
69 770 1
69 803 1
69 834 1
69 862 1
69 868 1
69 915 1
69 925 1
69 926 1
69 995 1
69 1000 1
70 54 1
70 65 1
70 113 1
70 115 1
70 134 1
70 208 1
70 240 1
70 256 1
70 331 1
70 498 1
70 507 1
70 522 1
70 583 1
70 625 1
70 695 1
70 713 1
70 792 1
70 800 1
70 814 1
70 858 1
70 931 1
70 953 1
70 970 1
70 974 1
71 49 1
71 80 1
71 111 1
71 122 1
71 126 1
71 139 1
71 152 1
71 160 1
71 186 1
71 217 1
71 271 1
71 276 1
71 367 1
71 375 1
71 383 1
71 387 1
71 392 1
71 492 1
71 519 1
71 636 1
71 703 1
71 718 1
71 731 1
71 746 1
72 5 1
72 23 1
72 50 1
72 54 1
72 57 1
72 67 1
72 130 1
72 189 1
72 219 1
72 267 1
72 320 1
72 328 1
72 348 1
72 422 1
72 511 1
72 591 1
72 636 1
72 648 1
72 822 1
72 896 1
72 912 1
73 110 1
73 272 1
73 308 1
73 367 1
73 439 1
73 483 1
73 502 1
73 703 1
73 754 1
73 761 1
73 771 1
73 866 1
73 907 1
73 939 1
73 951 1
73 958 1
73 967 1
73 985 1
74 61 1
74 133 1
74 181 1
74 265 1
74 268 1
74 393 1
74 401 1
74 499 1
74 585 1
74 608 1
74 618 1
74 702 1
74 764 1
74 786 1
74 807 1
74 889 1
74 917 1
74 921 1
74 945 1
75 5 1
75 50 1
75 146 1
75 261 1
75 301 1
75 304 1
75 359 1
75 391 1
75 487 1
75 496 1
75 615 1
75 710 1
75 730 1
75 805 1
75 831 1
75 924 1
75 955 1
75 960 1
75 969 1
75 984 1
75 989 1
76 22 1
76 102 1
76 112 1
76 153 1
76 170 1
76 274 1
76 309 1
76 415 1
76 439 1
76 452 1
76 512 1
76 556 1
76 562 1
76 601 1
76 607 1
76 611 1
76 618 1
76 629 1
76 642 1
76 763 1
76 773 1
76 895 1
76 941 1
76 954 1
76 983 1
77 5 1
77 12 1
77 52 1
77 264 1
77 275 1
77 287 1
77 315 1
77 334 1
77 373 1
77 420 1
77 466 1
77 512 1
77 526 1
77 610 1
77 665 1
77 717 1
77 757 1
77 800 1
77 814 1
77 927 1
77 943 1
78 81 1
78 82 1
78 108 1
78 209 1
78 283 1
78 292 1
78 296 1
78 337 1
78 397 1
78 408 1
78 409 1
78 510 1
78 564 1
78 645 1
78 743 1
78 822 1
78 849 1
78 851 1
78 925 1
78 954 1
78 971 1
79 57 1
79 85 1
79 86 1
79 174 1
79 263 1
79 271 1
79 295 1
79 340 1
79 393 1
79 484 1
79 497 1
79 540 1
79 542 1
79 574 1
79 678 1
79 688 1
79 705 1
79 782 1
79 784 1
79 800 1
79 804 1
79 842 1
79 866 1
79 909 1
80 26 1
80 42 1
80 49 1
80 71 1
80 107 1
80 203 1
80 208 1
80 216 1
80 273 1
80 378 1
80 465 1
80 549 1
80 579 1
80 634 1
80 638 1
80 655 1
80 747 1
80 826 1
80 896 1
80 903 1
80 928 1
80 961 1
81 8 1
81 78 1
81 101 1
81 132 1
81 151 1
81 248 1
81 314 1
81 365 1
81 426 1
81 432 1
81 486 1
81 539 1
81 612 1
81 680 1
81 684 1
81 703 1
81 749 1
81 784 1
81 805 1
81 840 1
81 899 1
81 983 1
81 987 1
82 78 1
82 160 1
82 176 1
82 254 1
82 269 1
82 289 1
82 344 1
82 363 1
82 424 1
82 431 1
82 553 1
82 563 1
82 571 1
82 594 1
82 616 1
82 771 1
82 835 1
82 856 1
82 883 1
82 912 1
83 66 1
83 144 1
83 176 1
83 186 1
83 268 1
83 283 1
83 292 1
83 344 1
83 408 1
83 492 1
83 665 1
83 693 1
83 808 1
83 812 1
83 832 1
83 867 1
83 871 1
83 879 1
83 926 1
84 11 1
84 19 1
84 30 1
84 87 1
84 89 1
84 155 1
84 169 1
84 222 1
84 328 1
84 366 1
84 466 1
84 473 1
84 509 1
84 533 1
84 570 1
84 669 1
84 731 1
84 779 1
84 939 1
84 953 1
84 975 1
85 10 1
85 20 1
85 49 1
85 79 1
85 139 1
85 148 1
85 251 1
85 314 1
85 327 1
85 501 1
85 515 1
85 559 1
85 570 1
85 574 1
85 651 1
85 727 1
85 761 1
85 849 1
85 890 1
85 988 1
86 6 1
86 22 1
86 79 1
86 95 1
86 103 1
86 214 1
86 369 1
86 378 1
86 379 1
86 388 1
86 413 1
86 419 1
86 627 1
86 675 1
86 708 1
86 918 1
86 949 1
86 987 1
87 12 1
87 17 1
87 67 1
87 84 1
87 382 1
87 400 1
87 469 1
87 569 1
87 570 1
87 611 1
87 820 1
87 954 1
88 119 1
88 147 1
88 151 1
88 239 1
88 245 1
88 334 1
88 351 1
88 364 1
88 589 1
88 640 1
88 736 1
88 811 1
88 971 1
89 14 1
89 84 1
89 96 1
89 103 1
89 106 1
89 126 1
89 203 1
89 205 1
89 353 1
89 383 1
89 477 1
89 534 1
89 589 1
89 598 1
89 613 1
89 630 1
89 726 1
89 791 1
89 887 1
89 894 1
89 904 1
89 905 1
89 998 1
90 5 1
90 260 1
90 262 1
90 373 1
90 447 1
90 602 1
90 628 1
90 724 1
90 823 1
90 824 1
90 851 1
90 959 1
90 997 1
90 1000 1
91 4 1
91 101 1
91 236 1
91 265 1
91 267 1
91 280 1
91 446 1
91 513 1
91 568 1
91 606 1
91 727 1
91 745 1
91 760 1
91 792 1
91 796 1
91 831 1
91 855 1
92 67 1
92 68 1
92 188 1
92 299 1
92 379 1
92 408 1
92 454 1
92 459 1
92 520 1
92 529 1
92 536 1
92 548 1
92 639 1
92 644 1
92 673 1
92 692 1
92 693 1
92 724 1
92 742 1
92 768 1
92 830 1
92 860 1
92 885 1
92 976 1
93 19 1
93 25 1
93 198 1
93 224 1
93 353 1
93 491 1
93 544 1
93 584 1
93 662 1
93 773 1
93 819 1
93 830 1
93 843 1
93 895 1
93 899 1
93 940 1
93 981 1
94 119 1
94 183 1
94 247 1
94 265 1
94 284 1
94 304 1
94 374 1
94 399 1
94 474 1
94 574 1
94 603 1
94 647 1
94 653 1
94 717 1
94 826 1
94 867 1
94 891 1
94 899 1
94 901 1
94 914 1
94 999 1
95 10 1
95 54 1
95 86 1
95 128 1
95 147 1
95 167 1
95 181 1
95 237 1
95 275 1
95 277 1
95 294 1
95 308 1
95 349 1
95 396 1
95 486 1
95 508 1
95 515 1
95 549 1
95 632 1
95 638 1
95 647 1
95 657 1
95 673 1
95 676 1
95 678 1
95 711 1
95 776 1
95 792 1
95 822 1
95 859 1
95 882 1
95 889 1
95 919 1
95 953 1
95 982 1
95 991 1
96 89 1
96 97 1
96 124 1
96 198 1
96 359 1
96 361 1
96 502 1
96 534 1
96 542 1
96 774 1
96 775 1
96 792 1
96 825 1
97 96 1
97 176 1
97 186 1
97 231 1
97 280 1
97 314 1
97 352 1
97 503 1
97 520 1
97 535 1
97 546 1
97 584 1
97 596 1
97 612 1
97 658 1
97 695 1
97 708 1
97 797 1
97 865 1
97 887 1
97 972 1
98 32 1
98 55 1
98 153 1
98 227 1
98 252 1
98 264 1
98 326 1
98 336 1
98 378 1
98 410 1
98 463 1
98 547 1
98 559 1
98 563 1
98 663 1
98 667 1
98 712 1
98 719 1
98 722 1
98 855 1
98 864 1
98 909 1
98 910 1
98 998 1
99 112 1
99 114 1
99 127 1
99 169 1
99 302 1
99 387 1
99 455 1
99 502 1
99 604 1
99 657 1
99 732 1
99 737 1
99 787 1
99 870 1
99 880 1
99 907 1
99 916 1
99 989 1
99 993 1
100 35 1
100 162 1
100 174 1
100 202 1
100 257 1
100 352 1
100 363 1
100 439 1
100 458 1
100 600 1
100 643 1
100 677 1
100 696 1
100 718 1
100 778 1
100 788 1
100 824 1
100 893 1
100 912 1
100 957 1
100 958 1
101 5 1
101 81 1
101 91 1
101 150 1
101 209 1
101 264 1
101 282 1
101 393 1
101 420 1
101 432 1
101 512 1
101 673 1
101 727 1
101 730 1
101 736 1
101 813 1
101 843 1
101 896 1
101 920 1
102 76 1
102 160 1
102 176 1
102 252 1
102 307 1
102 374 1
102 407 1
102 499 1
102 504 1
102 573 1
102 592 1
102 627 1
102 630 1
102 655 1
102 668 1
102 719 1
102 749 1
102 760 1
102 781 1
102 956 1
103 86 1
103 89 1
103 153 1
103 160 1
103 267 1
103 271 1
103 413 1
103 495 1
103 501 1
103 544 1
103 725 1
103 812 1
103 859 1
103 920 1
103 964 1
103 968 1
103 969 1
103 978 1
103 986 1
104 67 1
104 205 1
104 221 1
104 243 1
104 252 1
104 262 1
104 324 1
104 325 1
104 438 1
104 470 1
104 490 1
104 521 1
104 646 1
104 742 1
104 758 1
104 907 1
104 935 1
104 979 1
105 30 1
105 62 1
105 177 1
105 227 1
105 232 1
105 260 1
105 286 1
105 298 1
105 343 1
105 376 1
105 436 1
105 482 1
105 604 1
105 689 1
105 704 1
105 770 1
105 906 1
105 915 1
105 940 1
106 35 1
106 60 1
106 89 1
106 246 1
106 249 1
106 257 1
106 278 1
106 306 1
106 312 1
106 363 1
106 747 1
106 805 1
106 824 1
106 935 1
107 80 1
107 149 1
107 267 1
107 311 1
107 340 1
107 372 1
107 378 1
107 488 1
107 559 1
107 760 1
107 938 1
107 992 1
108 27 1
108 41 1
108 78 1
108 228 1
108 230 1
108 232 1
108 350 1
108 368 1
108 556 1
108 605 1
108 623 1
108 722 1
108 760 1
108 768 1
108 908 1
108 958 1
108 961 1
109 117 1
109 128 1
109 154 1
109 212 1
109 253 1
109 291 1
109 302 1
109 368 1
109 402 1
109 480 1
109 501 1
109 509 1
109 618 1
109 637 1
109 757 1
109 902 1
110 55 1
110 73 1
110 149 1
110 342 1
110 418 1
110 566 1
110 569 1
110 577 1
110 620 1
110 628 1
110 654 1
110 665 1
110 681 1
110 685 1
110 781 1
110 815 1
110 944 1
110 956 1
111 26 1
111 57 1
111 71 1
111 130 1
111 140 1
111 163 1
111 178 1
111 279 1
111 324 1
111 356 1
111 362 1
111 426 1
111 447 1
111 453 1
111 613 1
111 637 1
111 648 1
111 668 1
111 691 1
111 734 1
111 748 1
111 830 1
111 854 1
111 886 1
111 892 1
111 934 1
111 984 1
112 15 1
112 45 1
112 76 1
112 99 1
112 126 1
112 212 1
112 338 1
112 355 1
112 409 1
112 462 1
112 542 1
112 603 1
112 613 1
112 618 1
112 660 1
112 761 1
112 762 1
112 785 1
112 951 1
112 967 1
112 997 1
113 40 1
113 70 1
113 212 1
113 283 1
113 290 1
113 349 1
113 417 1
113 430 1
113 431 1
113 536 1
113 736 1
113 753 1
113 826 1
113 867 1
113 874 1
113 905 1
113 987 1
114 6 1
114 21 1
114 99 1
114 136 1
114 171 1
114 228 1
114 289 1
114 296 1
114 302 1
114 344 1
114 457 1
114 458 1
114 649 1
114 684 1
114 694 1
114 699 1
114 832 1
114 926 1
114 940 1
115 52 1
115 70 1
115 126 1
115 186 1
115 256 1
115 261 1
115 302 1
115 322 1
115 353 1
115 394 1
115 404 1
115 697 1
115 719 1
115 734 1
115 826 1
115 956 1
115 973 1
116 59 1
116 123 1
116 178 1
116 292 1
116 306 1
116 312 1
116 636 1
116 671 1
116 777 1
116 799 1
116 893 1
116 902 1
117 9 1
117 50 1
117 109 1
117 253 1
117 261 1
117 286 1
117 504 1
117 535 1
117 581 1
117 597 1
117 601 1
117 643 1
117 777 1
117 872 1
118 154 1
118 183 1
118 219 1
118 228 1
118 271 1
118 281 1
118 324 1
118 357 1
118 519 1
118 576 1
118 600 1
118 635 1
118 662 1
118 685 1
118 825 1
118 852 1
118 876 1
118 964 1
119 16 1
119 41 1
119 69 1
119 88 1
119 94 1
119 208 1
119 264 1
119 298 1
119 345 1
119 351 1
119 364 1
119 407 1
119 426 1
119 456 1
119 467 1
119 478 1
119 495 1
119 497 1
119 610 1
119 691 1
119 720 1
119 727 1
119 914 1
119 943 1
120 146 1
120 162 1
120 199 1
120 296 1
120 323 1
120 361 1
120 425 1
120 442 1
120 464 1
120 465 1
120 507 1
120 529 1
120 532 1
120 694 1
120 781 1
120 798 1
120 833 1
120 882 1
121 39 1
121 178 1
121 210 1
121 375 1
121 378 1
121 418 1
121 429 1
121 572 1
121 599 1
121 682 1
121 757 1
121 806 1
121 868 1
121 981 1
122 6 1
122 71 1
122 230 1
122 335 1
122 363 1
122 422 1
122 438 1
122 574 1
122 590 1
122 703 1
122 718 1
122 749 1
122 758 1
122 764 1
122 766 1
122 846 1
122 854 1
122 878 1
122 913 1
122 955 1
122 963 1
122 978 1
122 982 1
123 40 1
123 116 1
123 138 1
123 208 1
123 224 1
123 274 1
123 276 1
123 282 1
123 299 1
123 355 1
123 368 1
123 369 1
123 404 1
123 407 1
123 420 1
123 479 1
123 535 1
123 539 1
123 623 1
123 640 1
123 709 1
123 737 1
123 833 1
123 869 1
123 913 1
123 989 1
124 96 1
124 309 1
124 350 1
124 403 1
124 465 1
124 472 1
124 506 1
124 559 1
124 580 1
124 595 1
124 634 1
124 684 1
124 711 1
124 712 1
124 854 1
124 937 1
124 954 1
125 27 1
125 151 1
125 224 1
125 326 1
125 343 1
125 512 1
125 583 1
125 656 1
125 755 1
125 771 1
125 857 1
126 48 1
126 71 1
126 89 1
126 112 1
126 115 1
126 137 1
126 153 1
126 180 1
126 182 1
126 245 1
126 368 1
126 481 1
126 485 1
126 535 1
126 620 1
126 708 1
126 794 1
126 831 1
126 919 1
126 956 1
127 7 1
127 99 1
127 213 1
127 366 1
127 387 1
127 389 1
127 407 1
127 421 1
127 517 1
127 557 1
127 787 1
127 790 1
127 879 1
127 883 1
127 993 1
127 1000 1
128 17 1
128 24 1
128 95 1
128 109 1
128 181 1
128 305 1
128 329 1
128 416 1
128 424 1
128 443 1
128 451 1
128 522 1
128 541 1
128 629 1
128 630 1
128 794 1
128 869 1
128 914 1
128 964 1
129 12 1
129 240 1
129 256 1
129 284 1
129 308 1
129 343 1
129 364 1
129 423 1
129 488 1
129 495 1
129 515 1
129 579 1
129 790 1
129 809 1
129 944 1
130 72 1
130 111 1
130 204 1
130 224 1
130 252 1
130 315 1
130 387 1
130 434 1
130 561 1
130 580 1
130 625 1
130 628 1
130 678 1
130 689 1
130 725 1
130 744 1
130 774 1
130 775 1
130 784 1
130 852 1
131 21 1
131 161 1
131 308 1
131 309 1
131 357 1
131 358 1
131 414 1
131 431 1
131 514 1
131 528 1
131 560 1
131 610 1
131 654 1
131 660 1
131 689 1
131 722 1
131 757 1
131 808 1
131 828 1
131 946 1
131 993 1
132 81 1
132 165 1
132 173 1
132 178 1
132 279 1
132 311 1
132 316 1
132 391 1
132 420 1
132 469 1
132 620 1
132 636 1
132 660 1
132 775 1
132 779 1
132 862 1
132 865 1
132 866 1
132 885 1
132 892 1
132 922 1
132 958 1
132 967 1
132 992 1
133 49 1
133 74 1
133 268 1
133 299 1
133 394 1
133 424 1
133 446 1
133 474 1
133 480 1
133 489 1
133 579 1
133 663 1
133 688 1
133 702 1
133 762 1
133 765 1
133 802 1
133 930 1
134 63 1
134 70 1
134 142 1
134 154 1
134 219 1
134 223 1
134 291 1
134 357 1
134 360 1
134 374 1
134 464 1
134 539 1
134 672 1
134 750 1
134 757 1
134 773 1
134 821 1
134 822 1
134 841 1
134 909 1
134 984 1
135 3 1
135 23 1
135 170 1
135 186 1
135 194 1
135 217 1
135 233 1
135 264 1
135 318 1
135 342 1
135 361 1
135 387 1
135 459 1
135 527 1
135 538 1
135 627 1
135 886 1
135 966 1
136 23 1
136 64 1
136 114 1
136 152 1
136 178 1
136 190 1
136 261 1
136 476 1
136 499 1
136 620 1
136 660 1
136 667 1
136 668 1
136 677 1
136 738 1
136 822 1
136 856 1
137 14 1
137 35 1
137 39 1
137 55 1
137 126 1
137 193 1
137 205 1
137 231 1
137 290 1
137 310 1
137 359 1
137 425 1
137 491 1
137 524 1
137 541 1
137 580 1
137 682 1
137 746 1
137 787 1
137 829 1
137 870 1
137 879 1
137 909 1
137 932 1
138 21 1
138 123 1
138 179 1
138 230 1
138 261 1
138 271 1
138 435 1
138 478 1
138 484 1
138 526 1
138 625 1
138 626 1
138 636 1
138 646 1
138 735 1
138 786 1
138 804 1
138 859 1
138 860 1
138 876 1
138 927 1
138 951 1
139 29 1
139 30 1
139 71 1
139 85 1
139 141 1
139 156 1
139 211 1
139 240 1
139 274 1
139 287 1
139 290 1
139 291 1
139 415 1
139 451 1
139 583 1
139 677 1
139 682 1
139 730 1
139 741 1
139 748 1
139 806 1
139 962 1
139 981 1
140 111 1
140 398 1
140 404 1
140 432 1
140 446 1
140 550 1
140 588 1
140 604 1
140 605 1
140 609 1
140 714 1
140 844 1
140 957 1
141 139 1
141 151 1
141 179 1
141 181 1
141 200 1
141 220 1
141 255 1
141 339 1
141 376 1
141 443 1
141 472 1
141 474 1
141 510 1
141 633 1
141 634 1
141 645 1
141 707 1
141 869 1
141 892 1
141 896 1
141 979 1
141 996 1
142 43 1
142 134 1
142 174 1
142 207 1
142 235 1
142 236 1
142 247 1
142 291 1
142 293 1
142 302 1
142 363 1
142 366 1
142 401 1
142 520 1
142 561 1
142 571 1
142 594 1
142 618 1
142 636 1
142 856 1
142 861 1
142 871 1
142 886 1
142 919 1
143 227 1
143 276 1
143 344 1
143 435 1
143 520 1
143 618 1
143 641 1
143 710 1
143 771 1
143 974 1
143 984 1
144 12 1
144 83 1
144 145 1
144 194 1
144 253 1
144 317 1
144 405 1
144 518 1
144 542 1
144 599 1
144 636 1
144 670 1
144 718 1
144 720 1
144 762 1
144 812 1
144 920 1
144 946 1
145 144 1
145 185 1
145 237 1
145 318 1
145 352 1
145 385 1
145 433 1
145 503 1
145 627 1
145 675 1
145 728 1
145 915 1
145 924 1
145 930 1
145 931 1
145 940 1
145 951 1
145 965 1
145 988 1
146 23 1
146 75 1
146 120 1
146 174 1
146 239 1
146 281 1
146 287 1
146 310 1
146 322 1
146 347 1
146 385 1
146 414 1
146 421 1
146 457 1
146 536 1
146 568 1
146 607 1
146 616 1
146 747 1
146 754 1
146 760 1
146 823 1
146 844 1
146 958 1
146 970 1
147 37 1
147 88 1
147 95 1
147 149 1
147 163 1
147 403 1
147 426 1
147 473 1
147 477 1
147 591 1
147 633 1
147 833 1
147 879 1
147 963 1
148 13 1
148 68 1
148 85 1
148 157 1
148 174 1
148 187 1
148 245 1
148 303 1
148 355 1
148 411 1
148 424 1
148 439 1
148 442 1
148 590 1
148 602 1
148 663 1
148 681 1
148 687 1
148 854 1
148 887 1
148 909 1
148 915 1
148 991 1
149 25 1
149 46 1
149 69 1
149 107 1
149 110 1
149 147 1
149 166 1
149 191 1
149 196 1
149 263 1
149 316 1
149 399 1
149 420 1
149 444 1
149 469 1
149 543 1
149 602 1
149 613 1
149 675 1
149 695 1
149 752 1
149 843 1
149 852 1
149 925 1
149 976 1
150 52 1
150 58 1
150 101 1
150 191 1
150 206 1
150 228 1
150 242 1
150 281 1
150 334 1
150 356 1
150 412 1
150 432 1
150 517 1
150 575 1
150 590 1
150 665 1
150 797 1
150 882 1
151 6 1
151 81 1
151 88 1
151 125 1
151 141 1
151 247 1
151 259 1
151 298 1
151 358 1
151 374 1
151 381 1
151 395 1
151 413 1
151 512 1
151 520 1
151 522 1
151 555 1
151 578 1
151 604 1
151 634 1
151 686 1
151 834 1
151 880 1
151 887 1
151 894 1
151 974 1
151 980 1
152 71 1
152 136 1
152 165 1
152 232 1
152 316 1
152 344 1
152 349 1
152 468 1
152 480 1
152 489 1
152 500 1
152 610 1
152 613 1
152 702 1
152 710 1
152 956 1
152 964 1
152 992 1
153 76 1
153 98 1
153 103 1
153 126 1
153 190 1
153 191 1
153 238 1
153 286 1
153 298 1
153 354 1
153 574 1
153 585 1
153 618 1
153 647 1
153 728 1
153 733 1
153 873 1
154 6 1
154 36 1
154 109 1
154 118 1
154 134 1
154 160 1
154 161 1
154 184 1
154 211 1
154 212 1
154 261 1
154 341 1
154 412 1
154 434 1
154 581 1
154 819 1
154 826 1
154 865 1
154 892 1
155 84 1
155 162 1
155 216 1
155 298 1
155 303 1
155 348 1
155 371 1
155 416 1
155 564 1
155 586 1
155 653 1
155 772 1
155 783 1
155 791 1
155 819 1
155 824 1
155 960 1
155 1000 1
156 139 1
156 157 1
156 265 1
156 284 1
156 307 1
156 312 1
156 341 1
156 389 1
156 433 1
156 475 1
156 482 1
156 486 1
156 559 1
156 625 1
156 661 1
156 731 1
156 764 1
156 912 1
156 917 1
156 933 1
157 37 1
157 43 1
157 148 1
157 156 1
157 247 1
157 354 1
157 378 1
157 426 1
157 429 1
157 444 1
157 466 1
157 505 1
157 509 1
157 668 1
157 690 1
157 692 1
157 736 1
157 821 1
157 846 1
157 887 1
158 43 1
158 69 1
158 207 1
158 211 1
158 219 1
158 268 1
158 270 1
158 306 1
158 379 1
158 448 1
158 497 1
158 601 1
158 626 1
158 726 1
158 728 1
158 805 1
158 855 1
158 948 1
158 988 1
159 55 1
159 65 1
159 69 1
159 202 1
159 243 1
159 247 1
159 345 1
159 453 1
159 490 1
159 498 1
159 543 1
159 638 1
159 655 1
159 807 1
159 840 1
159 856 1
159 859 1
159 873 1
159 893 1
159 897 1
159 908 1
159 913 1
159 958 1
159 972 1
159 973 1
160 71 1
160 82 1
160 102 1
160 103 1
160 154 1
160 205 1
160 236 1
160 282 1
160 519 1
160 558 1
160 560 1
160 584 1
160 665 1
160 704 1
160 742 1
160 768 1
160 842 1
160 908 1
160 938 1
160 982 1
161 131 1
161 154 1
161 268 1
161 303 1
161 417 1
161 513 1
161 532 1
161 564 1
161 628 1
161 670 1
161 691 1
161 751 1
161 772 1
161 864 1
161 875 1
161 877 1
161 907 1
161 910 1
161 933 1
161 946 1
162 69 1
162 100 1
162 120 1
162 155 1
162 187 1
162 207 1
162 253 1
162 264 1
162 325 1
162 327 1
162 412 1
162 476 1
162 505 1
162 607 1
162 620 1
162 657 1
162 794 1
162 855 1
162 869 1
162 923 1
162 929 1
162 949 1
163 46 1
163 111 1
163 147 1
163 218 1
163 251 1
163 256 1
163 274 1
163 285 1
163 308 1
163 390 1
163 400 1
163 432 1
163 433 1
163 522 1
163 585 1
163 627 1
163 706 1
163 763 1
163 939 1
163 971 1
164 172 1
164 216 1
164 272 1
164 339 1
164 407 1
164 468 1
164 503 1
164 710 1
164 724 1
164 775 1
164 808 1
165 35 1
165 132 1
165 152 1
165 208 1
165 283 1
165 386 1
165 615 1
165 663 1
165 701 1
165 711 1
165 723 1
165 787 1
165 828 1
166 42 1
166 149 1
166 173 1
166 249 1
166 254 1
166 282 1
166 351 1
166 399 1
166 421 1
166 440 1
166 444 1
166 449 1
166 495 1
166 536 1
166 663 1
166 718 1
166 837 1
166 865 1
167 95 1
167 169 1
167 171 1
167 222 1
167 235 1
167 350 1
167 426 1
167 452 1
167 462 1
167 470 1
167 517 1
167 726 1
167 767 1
167 769 1
167 794 1
167 836 1
167 861 1
167 884 1
167 896 1
167 923 1
167 953 1
168 181 1
168 214 1
168 321 1
168 326 1
168 375 1
168 410 1
168 508 1
168 660 1
168 835 1
168 845 1
168 858 1
169 30 1
169 57 1
169 58 1
169 68 1
169 84 1
169 99 1
169 167 1
169 194 1
169 337 1
169 377 1
169 412 1
169 434 1
169 542 1
169 575 1
169 593 1
169 653 1
169 672 1
169 779 1
169 794 1
169 798 1
169 870 1
169 888 1
169 903 1
169 907 1
170 76 1
170 135 1
170 193 1
170 247 1
170 282 1
170 315 1
170 343 1
170 459 1
170 506 1
170 592 1
170 600 1
170 648 1
170 682 1
170 748 1
170 768 1
170 799 1
170 843 1
170 865 1
170 957 1
170 997 1
171 3 1
171 23 1
171 114 1
171 167 1
171 324 1
171 330 1
171 369 1
171 445 1
171 451 1
171 459 1
171 515 1
171 598 1
171 612 1
171 622 1
171 674 1
171 696 1
171 745 1
171 757 1
171 771 1
171 773 1
171 831 1
171 868 1
171 878 1
171 982 1
172 22 1
172 52 1
172 164 1
172 182 1
172 222 1
172 260 1
172 264 1
172 270 1
172 414 1
172 432 1
172 450 1
172 698 1
172 721 1
172 738 1
172 748 1
172 839 1
172 848 1
172 896 1
172 912 1
172 984 1
173 2 1
173 26 1
173 49 1
173 55 1
173 132 1
173 166 1
173 176 1
173 219 1
173 235 1
173 249 1
173 349 1
173 374 1
173 475 1
173 505 1
173 508 1
173 634 1
173 668 1
173 672 1
173 694 1
173 709 1
173 720 1
173 746 1
173 753 1
173 930 1
174 13 1
174 19 1
174 41 1
174 52 1
174 57 1
174 69 1
174 79 1
174 100 1
174 142 1
174 146 1
174 148 1
174 257 1
174 261 1
174 282 1
174 335 1
174 395 1
174 411 1
174 418 1
174 422 1
174 485 1
174 561 1
174 602 1
174 655 1
174 671 1
174 681 1
174 866 1
174 885 1
174 917 1
174 927 1
174 951 1
174 989 1
174 995 1
175 1 1
175 213 1
175 258 1
175 262 1
175 365 1
175 401 1
175 419 1
175 426 1
175 574 1
175 588 1
175 605 1
175 631 1
175 671 1
175 852 1
175 856 1
175 948 1
176 65 1
176 82 1
176 83 1
176 97 1
176 102 1
176 173 1
176 283 1
176 288 1
176 318 1
176 343 1
176 477 1
176 544 1
176 628 1
176 638 1
176 695 1
176 706 1
176 716 1
176 747 1
176 757 1
176 794 1
176 830 1
176 944 1
177 105 1
177 188 1
177 264 1
177 300 1
177 346 1
177 355 1
177 405 1
177 407 1
177 416 1
177 420 1
177 450 1
177 460 1
177 484 1
177 546 1
177 565 1
177 577 1
177 689 1
177 751 1
177 783 1
177 797 1
177 815 1
177 857 1
177 893 1
177 935 1
177 957 1
178 46 1
178 111 1
178 116 1
178 121 1
178 132 1
178 136 1
178 214 1
178 698 1
178 758 1
178 767 1
178 790 1
178 794 1
178 797 1
178 802 1
178 864 1
178 922 1
178 950 1
179 1 1
179 6 1
179 32 1
179 138 1
179 141 1
179 287 1
179 358 1
179 365 1
179 455 1
179 476 1
179 534 1
179 617 1
179 690 1
179 770 1
179 772 1
179 820 1
179 876 1
179 928 1
179 964 1
180 59 1
180 126 1
180 246 1
180 256 1
180 312 1
180 316 1
180 476 1
180 526 1
180 536 1
180 540 1
180 580 1
180 622 1
180 707 1
180 785 1
180 947 1
181 50 1
181 74 1
181 95 1
181 128 1
181 141 1
181 168 1
181 327 1
181 510 1
181 543 1
181 557 1
181 668 1
181 709 1
181 720 1
181 778 1
181 803 1
181 821 1
181 862 1
182 39 1
182 126 1
182 172 1
182 184 1
182 185 1
182 194 1
182 267 1
182 268 1
182 436 1
182 446 1
182 494 1
182 497 1
182 510 1
182 515 1
182 573 1
182 592 1
182 631 1
182 639 1
182 707 1
182 729 1
182 762 1
182 949 1
182 956 1
182 973 1
182 1000 1
183 63 1
183 94 1
183 118 1
183 200 1
183 223 1
183 308 1
183 339 1
183 362 1
183 363 1
183 401 1
183 470 1
183 527 1
183 538 1
183 623 1
183 647 1
183 653 1
183 709 1
183 726 1
183 743 1
183 754 1
183 850 1
183 938 1
183 958 1
184 65 1
184 154 1
184 182 1
184 226 1
184 306 1
184 334 1
184 355 1
184 399 1
184 459 1
184 464 1
184 481 1
184 495 1
184 536 1
184 586 1
184 649 1
184 662 1
184 817 1
184 839 1
184 878 1
184 969 1
185 145 1
185 182 1
185 192 1
185 202 1
185 258 1
185 274 1
185 316 1
185 335 1
185 549 1
185 668 1
185 739 1
185 812 1
185 824 1
185 835 1
185 861 1
185 904 1
185 915 1
185 966 1
186 10 1
186 71 1
186 83 1
186 97 1
186 115 1
186 135 1
186 246 1
186 261 1
186 304 1
186 409 1
186 441 1
186 510 1
186 512 1
186 533 1
186 558 1
186 596 1
186 622 1
186 643 1
186 688 1
186 689 1
186 729 1
186 777 1
186 840 1
186 860 1
187 148 1
187 162 1
187 260 1
187 261 1
187 291 1
187 380 1
187 395 1
187 407 1
187 428 1
187 476 1
187 481 1
187 542 1
187 619 1
187 698 1
187 710 1
187 737 1
187 838 1
187 839 1
187 901 1
187 928 1
187 946 1
187 971 1
188 14 1
188 92 1
188 177 1
188 213 1
188 224 1
188 256 1
188 458 1
188 537 1
188 548 1
188 597 1
188 603 1
188 686 1
188 749 1
188 897 1
188 906 1
188 920 1
188 940 1
189 10 1
189 18 1
189 31 1
189 55 1
189 72 1
189 217 1
189 235 1
189 239 1
189 243 1
189 247 1
189 281 1
189 314 1
189 320 1
189 387 1
189 525 1
189 542 1
189 546 1
189 563 1
189 627 1
189 698 1
189 776 1
189 878 1
189 890 1
189 967 1
189 986 1
190 1 1
190 28 1
190 136 1
190 153 1
190 220 1
190 413 1
190 531 1
190 621 1
190 687 1
190 763 1
190 895 1
190 911 1
190 927 1
191 25 1
191 30 1
191 149 1
191 150 1
191 153 1
191 246 1
191 266 1
191 350 1
191 408 1
191 422 1
191 440 1
191 445 1
191 479 1
191 510 1
191 567 1
191 574 1
191 591 1
191 668 1
191 693 1
191 708 1
191 782 1
191 893 1
191 928 1
192 32 1
192 41 1
192 185 1
192 213 1
192 227 1
192 234 1
192 345 1
192 455 1
192 475 1
192 504 1
192 531 1
192 603 1
192 680 1
192 682 1
192 815 1
192 952 1
193 5 1
193 29 1
193 137 1
193 170 1
193 197 1
193 209 1
193 335 1
193 402 1
193 458 1
193 528 1
193 556 1
193 570 1
193 626 1
193 648 1
193 666 1
193 689 1
193 771 1
193 809 1
194 9 1
194 36 1
194 135 1
194 144 1
194 169 1
194 182 1
194 202 1
194 218 1
194 263 1
194 334 1
194 466 1
194 488 1
194 502 1
194 593 1
194 634 1
194 662 1
194 739 1
194 789 1
194 892 1
195 9 1
195 201 1
195 230 1
195 250 1
195 375 1
195 386 1
195 417 1
195 435 1
195 498 1
195 521 1
195 584 1
195 670 1
195 805 1
195 875 1
195 925 1
196 57 1
196 149 1
196 233 1
196 338 1
196 417 1
196 457 1
196 461 1
196 524 1
196 580 1
196 581 1
196 608 1
196 652 1
196 706 1
196 715 1
196 742 1
196 791 1
196 812 1
196 831 1
196 907 1
196 909 1
196 958 1
196 964 1
196 993 1
197 31 1
197 40 1
197 193 1
197 208 1
197 256 1
197 269 1
197 306 1
197 313 1
197 316 1
197 414 1
197 537 1
197 582 1
197 640 1
197 674 1
197 752 1
197 793 1
197 863 1
197 904 1
197 908 1
197 909 1
198 93 1
198 96 1
198 208 1
198 268 1
198 333 1
198 369 1
198 584 1
198 589 1
198 675 1
198 684 1
198 692 1
198 725 1
198 772 1
198 799 1
198 906 1
198 916 1
198 931 1
198 965 1
198 981 1
198 984 1
199 68 1
199 120 1
199 259 1
199 294 1
199 403 1
199 448 1
199 701 1
199 811 1
199 830 1
199 890 1
199 900 1
199 924 1
199 964 1
200 26 1
200 141 1
200 183 1
200 219 1
200 230 1
200 247 1
200 293 1
200 332 1
200 371 1
200 386 1
200 404 1
200 520 1
200 623 1
200 700 1
200 783 1
200 850 1
200 905 1
200 909 1
200 911 1
200 963 1
201 13 1
201 60 1
201 195 1
201 215 1
201 292 1
201 300 1
201 307 1
201 346 1
201 362 1
201 450 1
201 451 1
201 538 1
201 569 1
201 654 1
201 665 1
201 723 1
201 729 1
201 754 1
201 765 1
201 787 1
201 884 1
201 935 1
201 938 1
201 956 1
201 1000 1
202 36 1
202 100 1
202 159 1
202 185 1
202 194 1
202 205 1
202 278 1
202 311 1
202 414 1
202 483 1
202 508 1
202 525 1
202 579 1
202 590 1
202 631 1
202 657 1
202 718 1
202 723 1
202 744 1
202 756 1
202 809 1
202 832 1
202 848 1
202 934 1
202 953 1
203 80 1
203 89 1
203 233 1
203 259 1
203 314 1
203 330 1
203 363 1
203 481 1
203 600 1
203 601 1
203 632 1
203 639 1
203 679 1
203 811 1
203 815 1
203 821 1
203 833 1
203 895 1
203 898 1
204 13 1
204 51 1
204 130 1
204 223 1
204 237 1
204 300 1
204 344 1
204 420 1
204 458 1
204 487 1
204 502 1
204 510 1
204 700 1
204 836 1
204 858 1
204 866 1
204 870 1
204 908 1
204 930 1
204 932 1
204 986 1
205 89 1
205 104 1
205 137 1
205 160 1
205 202 1
205 275 1
205 365 1
205 378 1
205 431 1
205 477 1
205 505 1
205 530 1
205 726 1
205 756 1
205 827 1
205 883 1
205 890 1
205 995 1
206 30 1
206 64 1
206 150 1
206 234 1
206 547 1
206 551 1
206 598 1
206 611 1
206 666 1
206 674 1
206 682 1
206 759 1
206 778 1
206 787 1
206 810 1
206 813 1
206 827 1
206 856 1
206 861 1
206 881 1
206 886 1
206 908 1
206 918 1
206 959 1
206 977 1
207 19 1
207 59 1
207 62 1
207 142 1
207 158 1
207 162 1
207 247 1
207 384 1
207 430 1
207 444 1
207 465 1
207 467 1
207 545 1
207 557 1
207 591 1
207 674 1
208 44 1
208 59 1
208 70 1
208 80 1
208 119 1
208 123 1
208 165 1
208 197 1
208 198 1
208 276 1
208 322 1
208 332 1
208 543 1
208 567 1
208 608 1
208 617 1
208 713 1
208 741 1
208 745 1
208 747 1
208 798 1
208 836 1
208 908 1
208 963 1
209 15 1
209 78 1
209 101 1
209 193 1
209 218 1
209 233 1
209 263 1
209 346 1
209 352 1
209 393 1
209 470 1
209 485 1
209 530 1
209 569 1
209 605 1
209 686 1
209 695 1
209 701 1
209 773 1
209 853 1
209 937 1
209 945 1
209 951 1
210 36 1
210 121 1
210 252 1
210 259 1
210 335 1
210 382 1
210 394 1
210 525 1
210 542 1
210 736 1
210 761 1
210 806 1
210 820 1
210 861 1
210 871 1
210 937 1
210 990 1
211 50 1
211 57 1
211 58 1
211 139 1
211 154 1
211 158 1
211 213 1
211 218 1
211 285 1
211 379 1
211 390 1
211 405 1
211 463 1
211 556 1
211 583 1
211 597 1
211 633 1
211 650 1
211 670 1
211 823 1
211 909 1
211 956 1
211 988 1
212 47 1
212 109 1
212 112 1
212 113 1
212 154 1
212 280 1
212 285 1
212 351 1
212 413 1
212 438 1
212 571 1
212 649 1
212 652 1
212 685 1
212 690 1
212 708 1
212 797 1
212 807 1
212 869 1
212 891 1
212 905 1
212 953 1
213 25 1
213 30 1
213 59 1
213 63 1
213 67 1
213 127 1
213 175 1
213 188 1
213 192 1
213 211 1
213 238 1
213 301 1
213 312 1
213 460 1
213 482 1
213 519 1
213 552 1
213 556 1
213 598 1
213 646 1
213 698 1
213 729 1
213 731 1
213 769 1
213 808 1
213 914 1
213 928 1
213 973 1
213 984 1
213 985 1
214 14 1
214 86 1
214 168 1
214 178 1
214 223 1
214 229 1
214 250 1
214 277 1
214 327 1
214 392 1
214 441 1
214 468 1
214 474 1
214 562 1
214 577 1
214 683 1
214 776 1
214 806 1
214 965 1
214 975 1
214 976 1
215 201 1
215 301 1
215 486 1
215 489 1
215 596 1
215 637 1
215 674 1
215 703 1
215 744 1
215 768 1
215 794 1
216 7 1
216 68 1
216 80 1
216 155 1
216 164 1
216 250 1
216 337 1
216 355 1
216 396 1
216 459 1
216 582 1
216 619 1
216 673 1
216 683 1
216 716 1
216 819 1
216 887 1
216 933 1
217 54 1
217 67 1
217 71 1
217 135 1
217 189 1
217 238 1
217 289 1
217 435 1
217 460 1
217 490 1
217 511 1
217 579 1
217 583 1
217 762 1
217 797 1
217 799 1
217 839 1
217 927 1
217 934 1
217 939 1
217 954 1
217 964 1
217 1000 1
218 30 1
218 163 1
218 194 1
218 209 1
218 211 1
218 436 1
218 593 1
218 602 1
218 646 1
218 661 1
218 665 1
218 749 1
218 779 1
218 780 1
218 873 1
218 979 1
219 72 1
219 118 1
219 134 1
219 158 1
219 173 1
219 200 1
219 221 1
219 284 1
219 294 1
219 392 1
219 432 1
219 509 1
219 536 1
219 669 1
219 710 1
219 731 1
219 767 1
219 790 1
219 794 1
219 810 1
219 832 1
219 855 1
219 856 1
219 891 1
219 949 1
219 950 1
220 15 1
220 16 1
220 37 1
220 141 1
220 190 1
220 250 1
220 262 1
220 332 1
220 431 1
220 474 1
220 489 1
220 583 1
220 613 1
220 668 1
220 770 1
220 779 1
220 787 1
220 834 1
220 856 1
220 903 1
220 926 1
220 934 1
220 940 1
220 967 1
221 104 1
221 219 1
221 242 1
221 294 1
221 306 1
221 340 1
221 395 1
221 507 1
221 531 1
221 568 1
221 686 1
221 704 1
221 744 1
221 903 1
221 981 1
222 27 1
222 84 1
222 167 1
222 172 1
222 256 1
222 317 1
222 326 1
222 436 1
222 498 1
222 519 1
222 525 1
222 566 1
222 581 1
222 616 1
222 623 1
222 632 1
222 638 1
222 661 1
222 673 1
222 688 1
222 747 1
222 801 1
222 854 1
222 858 1
222 865 1
222 905 1
222 906 1
222 972 1
222 987 1
223 20 1
223 24 1
223 43 1
223 134 1
223 183 1
223 204 1
223 214 1
223 262 1
223 284 1
223 473 1
223 497 1
223 538 1
223 550 1
223 581 1
223 669 1
223 690 1
223 701 1
223 797 1
223 818 1
223 853 1
223 855 1
223 919 1
224 93 1
224 123 1
224 125 1
224 130 1
224 188 1
224 226 1
224 259 1
224 368 1
224 435 1
224 439 1
224 488 1
224 551 1
224 592 1
224 638 1
224 667 1
224 706 1
224 774 1
224 810 1
224 844 1
224 872 1
224 904 1
224 919 1
224 951 1
224 959 1
225 5 1
225 17 1
225 48 1
225 235 1
225 236 1
225 352 1
225 355 1
225 404 1
225 519 1
225 574 1
225 578 1
225 605 1
225 691 1
225 777 1
225 785 1
225 801 1
225 804 1
225 852 1
225 907 1
225 918 1
225 926 1
225 940 1
225 956 1
226 1 1
226 11 1
226 48 1
226 53 1
226 66 1
226 184 1
226 224 1
226 294 1
226 334 1
226 358 1
226 412 1
226 452 1
226 474 1
226 548 1
226 556 1
226 619 1
226 814 1
226 886 1
226 912 1
226 981 1
227 2 1
227 66 1
227 98 1
227 105 1
227 143 1
227 192 1
227 229 1
227 261 1
227 281 1
227 381 1
227 427 1
227 579 1
227 703 1
227 775 1
227 777 1
227 799 1
227 965 1
227 973 1
227 981 1
228 3 1
228 23 1
228 66 1
228 108 1
228 114 1
228 118 1
228 150 1
228 249 1
228 257 1
228 260 1
228 376 1
228 406 1
228 417 1
228 448 1
228 560 1
228 648 1
228 684 1
228 768 1
229 24 1
229 57 1
229 62 1
229 214 1
229 227 1
229 508 1
229 534 1
229 645 1
229 653 1
229 703 1
229 717 1
229 772 1
229 779 1
229 806 1
229 986 1
230 42 1
230 108 1
230 122 1
230 138 1
230 195 1
230 200 1
230 275 1
230 321 1
230 322 1
230 405 1
230 450 1
230 526 1
230 696 1
230 753 1
230 769 1
230 807 1
230 892 1
230 958 1
230 969 1
231 31 1
231 97 1
231 137 1
231 254 1
231 320 1
231 379 1
231 391 1
231 404 1
231 517 1
231 569 1
231 572 1
231 681 1
231 698 1
231 757 1
231 768 1
231 820 1
231 830 1
232 18 1
232 105 1
232 108 1
232 152 1
232 249 1
232 410 1
232 467 1
232 527 1
232 534 1
232 568 1
232 579 1
232 597 1
232 710 1
232 730 1
232 753 1
232 766 1
232 867 1
232 882 1
232 889 1
232 897 1
232 957 1
232 968 1
232 972 1
233 135 1
233 196 1
233 203 1
233 209 1
233 267 1
233 434 1
233 483 1
233 562 1
233 606 1
233 716 1
233 719 1
233 729 1
233 762 1
233 772 1
233 781 1
233 822 1
233 839 1
233 841 1
233 918 1
233 929 1
233 938 1
233 955 1
233 980 1
234 13 1
234 20 1
234 32 1
234 192 1
234 206 1
234 279 1
234 281 1
234 372 1
234 380 1
234 450 1
234 519 1
234 525 1
234 543 1
234 602 1
234 611 1
234 613 1
234 633 1
234 650 1
234 685 1
234 692 1
234 693 1
234 878 1
235 6 1
235 142 1
235 167 1
235 173 1
235 189 1
235 225 1
235 247 1
235 262 1
235 271 1
235 320 1
235 377 1
235 399 1
235 461 1
235 567 1
235 751 1
235 759 1
235 821 1
235 822 1
235 939 1
235 972 1
236 91 1
236 142 1
236 160 1
236 225 1
236 243 1
236 248 1
236 267 1
236 282 1
236 388 1
236 418 1
236 540 1
236 579 1
236 591 1
236 608 1
236 610 1
236 764 1
236 830 1
236 848 1
236 896 1
236 924 1
236 925 1
236 936 1
236 944 1
236 968 1
237 36 1
237 95 1
237 145 1
237 204 1
237 296 1
237 343 1
237 403 1
237 452 1
237 518 1
237 524 1
237 586 1
237 594 1
237 723 1
237 747 1
237 759 1
237 787 1
237 818 1
237 881 1
237 936 1
237 941 1
237 990 1
238 65 1
238 153 1
238 213 1
238 217 1
238 280 1
238 385 1
238 391 1
238 399 1
238 450 1
238 452 1
238 508 1
238 597 1
238 649 1
238 712 1
238 718 1
238 723 1
238 759 1
238 764 1
238 794 1
238 820 1
238 832 1
238 866 1
239 64 1
239 88 1
239 146 1
239 189 1
239 255 1
239 271 1
239 317 1
239 337 1
239 344 1
239 510 1
239 520 1
239 711 1
239 832 1
239 879 1
240 64 1
240 68 1
240 70 1
240 129 1
240 139 1
240 266 1
240 277 1
240 400 1
240 401 1
240 477 1
240 503 1
240 516 1
240 550 1
240 554 1
240 564 1
240 585 1
240 752 1
240 753 1
240 788 1
240 794 1
240 859 1
240 861 1
240 910 1
240 912 1
240 938 1
241 8 1
241 261 1
241 295 1
241 453 1
241 470 1
241 473 1
241 482 1
241 484 1
241 495 1
241 501 1
241 518 1
241 589 1
241 622 1
241 643 1
241 742 1
241 967 1
242 8 1
242 9 1
242 150 1
242 221 1
242 269 1
242 282 1
242 340 1
242 400 1
242 410 1
242 677 1
242 733 1
242 759 1
242 763 1
242 845 1
242 846 1
242 857 1
242 895 1
242 934 1
242 983 1
243 4 1
243 104 1
243 159 1
243 189 1
243 236 1
243 283 1
243 348 1
243 399 1
243 481 1
243 734 1
243 768 1
243 838 1
243 917 1
244 25 1
244 67 1
244 306 1
244 318 1
244 327 1
244 336 1
244 446 1
244 550 1
244 558 1
244 616 1
244 654 1
244 753 1
244 761 1
244 765 1
244 860 1
244 874 1
245 43 1
245 88 1
245 126 1
245 148 1
245 251 1
245 263 1
245 265 1
245 393 1
245 417 1
245 506 1
245 697 1
245 699 1
245 724 1
245 735 1
245 799 1
245 856 1
245 861 1
245 879 1
245 977 1
246 12 1
246 19 1
246 106 1
246 180 1
246 186 1
246 191 1
246 278 1
246 279 1
246 283 1
246 285 1
246 338 1
246 376 1
246 380 1
246 399 1
246 495 1
246 534 1
246 595 1
246 604 1
246 847 1
246 903 1
246 911 1
246 927 1
246 928 1
246 942 1
247 94 1
247 142 1
247 151 1
247 157 1
247 159 1
247 170 1
247 189 1
247 200 1
247 207 1
247 235 1
247 256 1
247 259 1
247 273 1
247 308 1
247 323 1
247 383 1
247 415 1
247 637 1
247 650 1
247 809 1
247 820 1
247 822 1
247 843 1
247 858 1
247 878 1
247 923 1
247 985 1
248 31 1
248 54 1
248 81 1
248 236 1
248 262 1
248 468 1
248 513 1
248 536 1
248 704 1
248 758 1
248 787 1
248 873 1
248 879 1
248 919 1
248 920 1
249 4 1
249 23 1
249 106 1
249 166 1
249 173 1
249 228 1
249 232 1
249 261 1
249 290 1
249 328 1
249 513 1
249 554 1
249 717 1
249 860 1
249 902 1
250 48 1
250 195 1
250 214 1
250 216 1
250 220 1
250 332 1
250 356 1
250 411 1
250 543 1
250 577 1
250 609 1
250 644 1
250 660 1
250 705 1
250 714 1
250 773 1
250 793 1
250 801 1
250 839 1
250 893 1
251 7 1
251 17 1
251 33 1
251 85 1
251 163 1
251 245 1
251 324 1
251 327 1
251 353 1
251 679 1
251 701 1
251 815 1
251 822 1
251 833 1
252 98 1
252 102 1
252 104 1
252 130 1
252 210 1
252 401 1
252 517 1
252 610 1
252 734 1
252 798 1
252 806 1
252 822 1
252 857 1
252 922 1
253 41 1
253 109 1
253 117 1
253 144 1
253 162 1
253 263 1
253 350 1
253 360 1
253 452 1
253 486 1
253 548 1
253 560 1
253 594 1
253 635 1
253 711 1
253 729 1
253 752 1
253 764 1
253 862 1
253 887 1
253 985 1
254 1 1
254 8 1
254 16 1
254 82 1
254 166 1
254 231 1
254 269 1
254 353 1
254 427 1
254 475 1
254 506 1
254 586 1
254 632 1
255 3 1
255 13 1
255 24 1
255 49 1
255 141 1
255 239 1
255 351 1
255 355 1
255 364 1
255 393 1
255 411 1
255 435 1
255 470 1
255 480 1
255 505 1
255 568 1
255 584 1
255 609 1
255 616 1
255 628 1
255 662 1
255 781 1
255 822 1
255 845 1
255 918 1
255 923 1
255 987 1
256 13 1
256 70 1
256 115 1
256 129 1
256 163 1
256 180 1
256 188 1
256 197 1
256 222 1
256 247 1
256 293 1
256 327 1
256 364 1
256 403 1
256 426 1
256 469 1
256 487 1
256 601 1
256 640 1
256 691 1
256 702 1
256 705 1
256 753 1
256 779 1
256 781 1
256 785 1
256 792 1
256 873 1
256 914 1
256 921 1
256 937 1
256 971 1
257 67 1
257 100 1
257 106 1
257 174 1
257 228 1
257 287 1
257 344 1
257 383 1
257 408 1
257 435 1
257 622 1
257 644 1
257 740 1
257 820 1
257 837 1
257 958 1
258 63 1
258 175 1
258 185 1
258 306 1
258 370 1
258 459 1
258 507 1
258 766 1
258 835 1
258 862 1
258 865 1
258 902 1
258 944 1
259 151 1
259 199 1
259 203 1
259 210 1
259 224 1
259 247 1
259 318 1
259 333 1
259 338 1
259 355 1
259 364 1
259 368 1
259 396 1
259 438 1
259 498 1
259 499 1
259 515 1
259 617 1
259 641 1
259 760 1
259 832 1
259 839 1
259 857 1
259 891 1
259 892 1
259 918 1
259 927 1
259 955 1
259 998 1
260 9 1
260 60 1
260 90 1
260 105 1
260 172 1
260 187 1
260 228 1
260 295 1
260 336 1
260 454 1
260 468 1
260 519 1
260 555 1
260 572 1
260 658 1
260 664 1
260 691 1
260 706 1
260 709 1
260 898 1
260 915 1
260 953 1
260 985 1
261 9 1
261 41 1
261 61 1
261 75 1
261 115 1
261 117 1
261 136 1
261 138 1
261 154 1
261 174 1
261 186 1
261 187 1
261 227 1
261 241 1
261 249 1
261 448 1
261 482 1
261 503 1
261 513 1
261 593 1
261 645 1
261 702 1
261 717 1
261 775 1
261 826 1
261 883 1
261 989 1
262 29 1
262 90 1
262 104 1
262 175 1
262 220 1
262 223 1
262 235 1
262 248 1
262 263 1
262 540 1
262 572 1
262 582 1
262 681 1
262 737 1
262 756 1
262 848 1
262 887 1
262 916 1
262 984 1
262 992 1
263 63 1
263 79 1
263 149 1
263 194 1
263 209 1
263 245 1
263 253 1
263 262 1
263 273 1
263 277 1
263 298 1
263 375 1
263 393 1
263 605 1
263 615 1
263 632 1
263 645 1
263 754 1
263 761 1
263 933 1
263 970 1
263 981 1
264 77 1
264 98 1
264 101 1
264 119 1
264 135 1
264 162 1
264 172 1
264 177 1
264 311 1
264 360 1
264 413 1
264 434 1
264 461 1
264 495 1
264 581 1
264 605 1
264 609 1
264 773 1
264 781 1
264 820 1
264 839 1
264 860 1
264 936 1
264 946 1
264 977 1
264 982 1
265 4 1
265 69 1
265 74 1
265 91 1
265 94 1
265 156 1
265 245 1
265 323 1
265 332 1
265 391 1
265 394 1
265 410 1
265 413 1
265 425 1
265 449 1
265 515 1
265 596 1
265 640 1
265 652 1
265 657 1
265 757 1
265 774 1
265 785 1
265 803 1
265 830 1
265 834 1
265 853 1
265 989 1
266 8 1
266 62 1
266 191 1
266 240 1
266 333 1
266 441 1
266 492 1
266 502 1
266 508 1
266 513 1
266 614 1
266 620 1
266 679 1
266 684 1
266 817 1
266 992 1
267 13 1
267 72 1
267 91 1
267 103 1
267 107 1
267 182 1
267 233 1
267 236 1
267 323 1
267 388 1
267 588 1
267 602 1
267 959 1
267 986 1
268 3 1
268 49 1
268 74 1
268 83 1
268 133 1
268 158 1
268 161 1
268 182 1
268 198 1
268 287 1
268 349 1
268 367 1
268 375 1
268 393 1
268 397 1
268 427 1
268 431 1
268 545 1
268 602 1
268 613 1
268 727 1
268 732 1
268 736 1
268 748 1
268 760 1
268 806 1
268 839 1
268 859 1
268 946 1
268 990 1
269 66 1
269 82 1
269 197 1
269 242 1
269 254 1
269 399 1
269 453 1
269 482 1
269 525 1
269 545 1
269 589 1
269 610 1
269 830 1
269 861 1
269 918 1
269 932 1
269 957 1
270 158 1
270 172 1
270 292 1
270 309 1
270 349 1
270 359 1
270 471 1
270 493 1
270 531 1
270 536 1
270 553 1
270 658 1
270 815 1
270 859 1
270 934 1
271 39 1
271 59 1
271 71 1
271 79 1
271 103 1
271 118 1
271 138 1
271 235 1
271 239 1
271 347 1
271 372 1
271 375 1
271 395 1
271 401 1
271 413 1
271 592 1
271 606 1
271 659 1
271 663 1
271 734 1
271 742 1
271 841 1
271 862 1
271 866 1
272 15 1
272 23 1
272 55 1
272 73 1
272 164 1
272 656 1
272 701 1
272 748 1
272 771 1
272 846 1
272 888 1
272 913 1
273 80 1
273 247 1
273 263 1
273 289 1
273 323 1
273 459 1
273 466 1
273 493 1
273 528 1
273 571 1
273 649 1
273 659 1
273 682 1
273 702 1
273 738 1
273 751 1
273 757 1
273 760 1
273 803 1
273 812 1
273 863 1
273 887 1
273 911 1
273 914 1
273 989 1
274 76 1
274 123 1
274 139 1
274 163 1
274 185 1
274 278 1
274 280 1
274 380 1
274 451 1
274 555 1
274 642 1
274 647 1
274 792 1
274 817 1
274 825 1
274 844 1
274 856 1
274 899 1
274 902 1
274 921 1
274 943 1
275 3 1
275 77 1
275 95 1
275 205 1
275 230 1
275 332 1
275 354 1
275 419 1
275 528 1
275 569 1
275 580 1
275 650 1
275 673 1
275 677 1
275 689 1
275 713 1
275 811 1
275 830 1
275 844 1
275 861 1
275 888 1
275 910 1
275 931 1
275 953 1
275 959 1
275 961 1
276 71 1
276 123 1
276 143 1
276 208 1
276 298 1
276 440 1
276 464 1
276 476 1
276 519 1
276 608 1
276 609 1
276 658 1
276 727 1
276 747 1
276 761 1
276 795 1
276 808 1
276 879 1
276 893 1
276 943 1
277 49 1
277 95 1
277 214 1
277 240 1
277 263 1
277 351 1
277 369 1
277 431 1
277 434 1
277 436 1
277 485 1
277 501 1
277 510 1
277 516 1
277 673 1
277 727 1
277 731 1
277 763 1
277 792 1
277 888 1
277 925 1
277 941 1
277 986 1
278 51 1
278 106 1
278 202 1
278 246 1
278 274 1
278 303 1
278 363 1
278 386 1
278 464 1
278 473 1
278 588 1
278 661 1
278 677 1
278 835 1
278 852 1
278 853 1
278 866 1
278 888 1
278 894 1
278 904 1
279 34 1
279 111 1
279 132 1
279 234 1
279 246 1
279 281 1
279 289 1
279 290 1
279 312 1
279 460 1
279 467 1
279 475 1
279 531 1
279 541 1
279 583 1
279 625 1
279 629 1
279 686 1
279 698 1
279 751 1
279 794 1
279 815 1
279 833 1
279 836 1
279 853 1
279 886 1
280 59 1
280 69 1
280 91 1
280 97 1
280 212 1
280 238 1
280 274 1
280 285 1
280 331 1
280 364 1
280 371 1
280 439 1
280 446 1
280 451 1
280 478 1
280 488 1
280 525 1
280 559 1
280 565 1
280 602 1
280 632 1
280 666 1
280 722 1
280 757 1
280 760 1
280 762 1
280 850 1
280 918 1
280 998 1
281 32 1
281 35 1
281 118 1
281 146 1
281 150 1
281 189 1
281 227 1
281 234 1
281 279 1
281 342 1
281 373 1
281 400 1
281 438 1
281 446 1
281 469 1
281 500 1
281 563 1
281 602 1
281 654 1
281 657 1
281 665 1
281 705 1
281 844 1
281 924 1
282 16 1
282 26 1
282 31 1
282 61 1
282 101 1
282 123 1
282 160 1
282 166 1
282 170 1
282 174 1
282 236 1
282 242 1
282 344 1
282 364 1
282 464 1
282 512 1
282 559 1
282 562 1
282 626 1
282 656 1
282 670 1
282 714 1
282 723 1
282 724 1
282 769 1
282 847 1
282 858 1
282 865 1
283 1 1
283 45 1
283 78 1
283 83 1
283 113 1
283 165 1
283 176 1
283 243 1
283 246 1
283 285 1
283 359 1
283 458 1
283 466 1
283 494 1
283 621 1
283 717 1
283 738 1
283 809 1
283 862 1
284 13 1
284 94 1
284 129 1
284 156 1
284 219 1
284 223 1
284 294 1
284 309 1
284 325 1
284 403 1
284 418 1
284 423 1
284 525 1
284 560 1
284 613 1
284 643 1
284 728 1
284 777 1
284 791 1
284 875 1
285 163 1
285 211 1
285 212 1
285 246 1
285 280 1
285 283 1
285 374 1
285 474 1
285 582 1
285 590 1
285 595 1
285 650 1
285 691 1
285 711 1
285 796 1
285 861 1
285 864 1
285 870 1
285 902 1
286 3 1
286 33 1
286 36 1
286 105 1
286 117 1
286 153 1
286 395 1
286 396 1
286 490 1
286 504 1
286 568 1
286 616 1
286 698 1
286 721 1
286 741 1
286 751 1
286 754 1
286 780 1
286 869 1
286 956 1
286 963 1
286 997 1
287 77 1
287 139 1
287 146 1
287 179 1
287 257 1
287 268 1
287 509 1
287 618 1
287 624 1
287 651 1
287 692 1
287 731 1
287 745 1
287 751 1
287 763 1
287 786 1
287 789 1
287 843 1
287 904 1
288 33 1
288 176 1
288 356 1
288 382 1
288 412 1
288 469 1
288 507 1
288 560 1
288 609 1
288 769 1
288 782 1
288 836 1
288 958 1
289 82 1
289 114 1
289 217 1
289 273 1
289 279 1
289 309 1
289 326 1
289 328 1
289 407 1
289 437 1
289 494 1
289 518 1
289 663 1
289 694 1
289 736 1
289 745 1
289 796 1
289 803 1
290 113 1
290 137 1
290 139 1
290 249 1
290 279 1
290 306 1
290 340 1
290 392 1
290 449 1
290 467 1
290 518 1
290 555 1
290 572 1
290 677 1
290 680 1
290 686 1
290 704 1
290 728 1
290 738 1
290 742 1
290 795 1
290 799 1
290 843 1
291 57 1
291 59 1
291 109 1
291 134 1
291 139 1
291 142 1
291 187 1
291 513 1
291 514 1
291 557 1
291 679 1
291 682 1
291 712 1
291 758 1
291 822 1
291 827 1
291 833 1
291 904 1
292 78 1
292 83 1
292 116 1
292 201 1
292 270 1
292 307 1
292 337 1
292 425 1
292 433 1
292 548 1
292 675 1
292 679 1
292 707 1
292 785 1
292 796 1
292 845 1
292 881 1
292 884 1
293 53 1
293 68 1
293 142 1
293 200 1
293 256 1
293 316 1
293 385 1
293 461 1
293 596 1
293 709 1
293 710 1
293 742 1
293 745 1
293 749 1
293 784 1
293 796 1
293 798 1
293 825 1
293 874 1
293 910 1
293 932 1
293 938 1
293 941 1
293 986 1
293 990 1
294 61 1
294 95 1
294 199 1
294 219 1
294 221 1
294 226 1
294 284 1
294 299 1
294 490 1
294 775 1
294 787 1
294 789 1
294 883 1
295 1 1
295 79 1
295 241 1
295 260 1
295 308 1
295 322 1
295 451 1
295 652 1
295 715 1
295 951 1
295 979 1
296 27 1
296 28 1
296 33 1
296 78 1
296 114 1
296 120 1
296 237 1
296 345 1
296 373 1
296 472 1
296 519 1
296 579 1
296 586 1
296 656 1
296 698 1
296 700 1
296 739 1
296 822 1
296 882 1
296 898 1
296 905 1
296 981 1
296 997 1
297 348 1
297 406 1
297 452 1
297 604 1
297 678 1
297 723 1
297 750 1
297 772 1
297 796 1
297 830 1
297 850 1
297 882 1
297 885 1
297 932 1
297 991 1
298 2 1
298 26 1
298 105 1
298 119 1
298 151 1
298 153 1
298 155 1
298 263 1
298 276 1
298 303 1
298 368 1
298 388 1
298 401 1
298 502 1
298 522 1
298 545 1
298 590 1
298 619 1
298 629 1
298 835 1
298 873 1
298 934 1
298 968 1
298 970 1
299 92 1
299 123 1
299 133 1
299 294 1
299 367 1
299 387 1
299 447 1
299 477 1
299 487 1
299 647 1
299 702 1
299 766 1
299 830 1
299 904 1
299 925 1
299 926 1
299 973 1
300 177 1
300 201 1
300 204 1
300 379 1
300 383 1
300 415 1
300 618 1
300 632 1
300 634 1
300 644 1
300 650 1
300 724 1
300 793 1
300 869 1
300 970 1
301 3 1
301 42 1
301 46 1
301 75 1
301 213 1
301 215 1
301 346 1
301 550 1
301 597 1
301 623 1
301 656 1
301 717 1
301 727 1
301 752 1
301 920 1
301 933 1
301 975 1
301 987 1
301 994 1
302 99 1
302 109 1
302 114 1
302 115 1
302 142 1
302 323 1
302 383 1
302 453 1
302 455 1
302 458 1
302 532 1
302 871 1
302 873 1
302 892 1
302 941 1
302 991 1
302 992 1
303 15 1
303 148 1
303 155 1
303 161 1
303 278 1
303 298 1
303 336 1
303 370 1
303 391 1
303 449 1
303 463 1
303 469 1
303 555 1
303 601 1
303 708 1
303 801 1
303 804 1
303 838 1
303 863 1
303 875 1
303 940 1
303 965 1
303 982 1
303 988 1
304 35 1
304 44 1
304 75 1
304 94 1
304 186 1
304 487 1
304 505 1
304 534 1
304 612 1
304 625 1
304 627 1
304 637 1
304 642 1
304 670 1
304 676 1
304 698 1
304 826 1
304 891 1
304 961 1
305 128 1
305 420 1
305 546 1
305 586 1
305 598 1
305 638 1
305 640 1
305 673 1
305 705 1
305 785 1
305 834 1
305 842 1
306 18 1
306 106 1
306 116 1
306 158 1
306 184 1
306 197 1
306 221 1
306 244 1
306 258 1
306 290 1
306 307 1
306 335 1
306 373 1
306 386 1
306 415 1
306 477 1
306 485 1
306 576 1
306 586 1
306 672 1
306 728 1
306 787 1
306 900 1
306 903 1
306 908 1
306 974 1
306 987 1
306 995 1
307 58 1
307 102 1
307 156 1
307 201 1
307 292 1
307 306 1
307 329 1
307 390 1
307 436 1
307 442 1
307 484 1
307 578 1
307 581 1
307 650 1
307 768 1
307 772 1
307 786 1
307 876 1
307 886 1
307 896 1
308 3 1
308 14 1
308 35 1
308 73 1
308 95 1
308 129 1
308 131 1
308 163 1
308 183 1
308 247 1
308 295 1
308 323 1
308 341 1
308 372 1
308 394 1
308 438 1
308 442 1
308 449 1
308 453 1
308 481 1
308 531 1
308 648 1
308 727 1
308 739 1
308 778 1
308 782 1
308 852 1
308 856 1
308 858 1
308 880 1
308 924 1
309 50 1
309 76 1
309 124 1
309 131 1
309 270 1
309 284 1
309 289 1
309 371 1
309 413 1
309 419 1
309 446 1
309 486 1
309 521 1
309 571 1
309 659 1
309 673 1
309 739 1
309 831 1
309 873 1
309 941 1
310 5 1
310 16 1
310 22 1
310 137 1
310 146 1
310 316 1
310 321 1
310 353 1
310 383 1
310 423 1
310 427 1
310 434 1
310 462 1
310 539 1
310 554 1
310 566 1
310 736 1
310 749 1
310 817 1
310 818 1
310 908 1
310 909 1
310 924 1
311 24 1
311 62 1
311 107 1
311 132 1
311 202 1
311 264 1
311 329 1
311 456 1
311 499 1
311 610 1
311 638 1
311 685 1
311 784 1
311 815 1
311 920 1
311 967 1
311 992 1
312 14 1
312 39 1
312 106 1
312 116 1
312 156 1
312 180 1
312 213 1
312 279 1
312 326 1
312 346 1
312 388 1
312 547 1
312 569 1
312 613 1
312 616 1
312 677 1
312 912 1
312 919 1
313 197 1
313 365 1
313 367 1
313 418 1
313 556 1
313 579 1
313 630 1
313 742 1
313 774 1
313 823 1
313 835 1
313 844 1
313 860 1
313 906 1
313 930 1
313 980 1
314 81 1
314 85 1
314 97 1
314 189 1
314 203 1
314 479 1
314 510 1
314 541 1
314 589 1
314 617 1
314 640 1
314 703 1
314 751 1
314 802 1
314 862 1
314 946 1
314 951 1
314 953 1
314 996 1
315 39 1
315 63 1
315 77 1
315 130 1
315 170 1
315 351 1
315 422 1
315 521 1
315 530 1
315 551 1
315 552 1
315 602 1
315 611 1
315 616 1
315 784 1
315 788 1
315 808 1
315 870 1
315 917 1
315 953 1
316 18 1
316 52 1
316 68 1
316 69 1
316 132 1
316 149 1
316 152 1
316 180 1
316 185 1
316 197 1
316 293 1
316 310 1
316 339 1
316 386 1
316 429 1
316 449 1
316 505 1
316 553 1
316 716 1
316 786 1
316 790 1
316 946 1
316 989 1
316 990 1
317 42 1
317 144 1
317 222 1
317 239 1
317 329 1
317 356 1
317 370 1
317 378 1
317 431 1
317 446 1
317 510 1
317 628 1
317 716 1
317 737 1
317 769 1
317 804 1
317 829 1
317 886 1
317 889 1
317 978 1
318 51 1
318 135 1
318 145 1
318 176 1
318 244 1
318 259 1
318 324 1
318 347 1
318 372 1
318 407 1
318 481 1
318 486 1
318 520 1
318 825 1
318 835 1
318 846 1
318 864 1
318 906 1
318 911 1
318 933 1
318 972 1
318 995 1
319 545 1
319 584 1
319 741 1
319 872 1
319 900 1
319 945 1
319 948 1
320 35 1
320 72 1
320 189 1
320 231 1
320 235 1
320 393 1
320 409 1
320 545 1
320 700 1
320 708 1
320 743 1
320 840 1
320 916 1
320 952 1
320 967 1
320 983 1
321 17 1
321 168 1
321 230 1
321 310 1
321 325 1
321 464 1
321 560 1
321 596 1
321 612 1
321 628 1
321 818 1
321 925 1
321 984 1
322 29 1
322 115 1
322 146 1
322 208 1
322 230 1
322 295 1
322 332 1
322 339 1
322 340 1
322 350 1
322 370 1
322 508 1
322 561 1
322 562 1
322 660 1
322 738 1
322 773 1
322 775 1
322 818 1
322 823 1
323 20 1
323 27 1
323 30 1
323 59 1
323 61 1
323 120 1
323 247 1
323 265 1
323 267 1
323 273 1
323 302 1
323 308 1
323 428 1
323 462 1
323 491 1
323 535 1
323 563 1
323 566 1
323 623 1
323 679 1
323 704 1
323 722 1
323 730 1
323 772 1
323 855 1
323 885 1
324 104 1
324 111 1
324 118 1
324 171 1
324 251 1
324 318 1
324 328 1
324 397 1
324 460 1
324 498 1
324 504 1
324 507 1
324 525 1
324 530 1
324 605 1
324 810 1
324 869 1
324 906 1
324 910 1
325 104 1
325 162 1
325 284 1
325 321 1
325 375 1
325 480 1
325 497 1
325 541 1
325 686 1
325 773 1
325 814 1
325 841 1
325 873 1
325 882 1
325 891 1
325 918 1
325 941 1
326 98 1
326 125 1
326 168 1
326 222 1
326 289 1
326 312 1
326 332 1
326 431 1
326 435 1
326 457 1
326 547 1
326 624 1
326 809 1
326 858 1
326 881 1
326 996 1
327 85 1
327 162 1
327 181 1
327 214 1
327 244 1
327 251 1
327 256 1
327 340 1
327 356 1
327 432 1
327 439 1
327 451 1
327 491 1
327 493 1
327 496 1
327 534 1
327 627 1
327 682 1
327 691 1
327 891 1
327 916 1
328 9 1
328 53 1
328 72 1
328 84 1
328 249 1
328 289 1
328 324 1
328 371 1
328 438 1
328 448 1
328 462 1
328 530 1
328 541 1
328 547 1
328 568 1
328 569 1
328 599 1
328 738 1
328 889 1
328 945 1
329 32 1
329 128 1
329 307 1
329 311 1
329 317 1
329 344 1
329 356 1
329 485 1
329 497 1
329 557 1
329 628 1
329 656 1
329 686 1
329 741 1
329 775 1
329 837 1
329 940 1
329 974 1
330 5 1
330 51 1
330 171 1
330 203 1
330 467 1
330 544 1
330 570 1
330 691 1
330 820 1
330 903 1
330 918 1
331 27 1
331 34 1
331 70 1
331 280 1
331 503 1
331 595 1
331 604 1
331 606 1
331 674 1
331 703 1
331 730 1
331 782 1
331 824 1
331 827 1
331 853 1
332 200 1
332 208 1
332 220 1
332 250 1
332 265 1
332 275 1
332 322 1
332 326 1
332 370 1
332 378 1
332 450 1
332 479 1
332 523 1
332 616 1
332 748 1
332 776 1
332 824 1
332 902 1
332 954 1
332 976 1
333 28 1
333 29 1
333 198 1
333 259 1
333 266 1
333 354 1
333 376 1
333 443 1
333 485 1
333 620 1
333 633 1
333 723 1
333 733 1
333 816 1
333 874 1
333 879 1
333 904 1
333 977 1
334 2 1
334 6 1
334 77 1
334 88 1
334 150 1
334 184 1
334 194 1
334 226 1
334 349 1
334 363 1
334 391 1
334 504 1
334 564 1
334 594 1
334 601 1
334 615 1
334 648 1
334 666 1
334 673 1
334 715 1
334 764 1
334 771 1
334 794 1
334 865 1
334 971 1
335 32 1
335 55 1
335 65 1
335 122 1
335 174 1
335 185 1
335 193 1
335 210 1
335 306 1
335 396 1
335 587 1
335 632 1
335 649 1
335 666 1
335 727 1
335 767 1
335 847 1
335 869 1
335 895 1
335 931 1
335 992 1
336 31 1
336 35 1
336 47 1
336 98 1
336 244 1
336 260 1
336 303 1
336 378 1
336 419 1
336 472 1
336 588 1
336 609 1
336 771 1
336 797 1
336 900 1
336 978 1
336 982 1
336 995 1
336 996 1
336 998 1
337 12 1
337 78 1
337 169 1
337 216 1
337 239 1
337 292 1
337 388 1
337 419 1
337 448 1
337 565 1
337 608 1
337 622 1
337 647 1
337 687 1
337 743 1
337 773 1
337 850 1
337 884 1
337 910 1
337 935 1
337 943 1
337 959 1
337 965 1
338 34 1
338 112 1
338 196 1
338 246 1
338 259 1
338 339 1
338 355 1
338 381 1
338 393 1
338 432 1
338 471 1
338 491 1
338 572 1
338 616 1
338 714 1
338 796 1
338 866 1
339 66 1
339 141 1
339 164 1
339 183 1
339 316 1
339 322 1
339 338 1
339 341 1
339 367 1
339 389 1
339 413 1
339 416 1
339 438 1
339 464 1
339 466 1
339 497 1
339 527 1
339 559 1
339 575 1
339 705 1
339 734 1
339 799 1
339 890 1
339 939 1
339 950 1
339 964 1
340 60 1
340 67 1
340 79 1
340 107 1
340 221 1
340 242 1
340 290 1
340 322 1
340 327 1
340 589 1
340 673 1
340 698 1
340 729 1
340 780 1
340 867 1
340 879 1
341 57 1
341 64 1
341 154 1
341 156 1
341 308 1
341 339 1
341 724 1
341 728 1
341 909 1
341 921 1
341 959 1
342 110 1
342 135 1
342 281 1
342 406 1
342 418 1
342 460 1
342 461 1
342 543 1
342 571 1
342 587 1
342 735 1
342 761 1
342 801 1
342 833 1
342 834 1
342 914 1
342 915 1
342 978 1
343 14 1
343 35 1
343 43 1
343 105 1
343 125 1
343 129 1
343 170 1
343 176 1
343 237 1
343 379 1
343 390 1
343 410 1
343 549 1
343 608 1
343 619 1
343 635 1
343 648 1
343 704 1
343 726 1
343 750 1
343 759 1
343 761 1
343 829 1
343 941 1
344 82 1
344 83 1
344 114 1
344 143 1
344 152 1
344 204 1
344 239 1
344 257 1
344 282 1
344 329 1
344 397 1
344 517 1
344 554 1
344 575 1
344 612 1
344 674 1
344 676 1
344 714 1
344 722 1
344 813 1
344 818 1
344 837 1
344 847 1
344 914 1
345 119 1
345 159 1
345 192 1
345 296 1
345 395 1
345 450 1
345 484 1
345 499 1
345 540 1
345 579 1
345 668 1
345 720 1
345 753 1
345 775 1
345 869 1
345 920 1
345 956 1
345 959 1
346 43 1
346 177 1
346 201 1
346 209 1
346 301 1
346 312 1
346 373 1
346 494 1
346 497 1
346 634 1
346 660 1
346 663 1
346 741 1
346 772 1
346 783 1
346 801 1
346 845 1
346 867 1
346 939 1
346 953 1
346 983 1
346 997 1
347 17 1
347 20 1
347 30 1
347 146 1
347 271 1
347 318 1
347 381 1
347 490 1
347 503 1
347 566 1
347 604 1
347 623 1
347 744 1
347 787 1
347 825 1
347 907 1
347 949 1
347 989 1
347 996 1
348 72 1
348 155 1
348 243 1
348 297 1
348 383 1
348 526 1
348 539 1
348 584 1
348 607 1
348 676 1
348 715 1
348 730 1
348 815 1
348 877 1
348 941 1
348 974 1
349 46 1
349 50 1
349 95 1
349 113 1
349 152 1
349 173 1
349 268 1
349 270 1
349 334 1
349 357 1
349 410 1
349 411 1
349 418 1
349 425 1
349 436 1
349 499 1
349 563 1
349 570 1
349 573 1
349 584 1
349 619 1
349 670 1
349 677 1
349 728 1
349 748 1
349 774 1
349 847 1
349 900 1
350 108 1
350 124 1
350 167 1
350 191 1
350 253 1
350 322 1
350 405 1
350 507 1
350 686 1
350 687 1
350 714 1
350 733 1
350 764 1
350 829 1
350 863 1
350 906 1
351 65 1
351 88 1
351 119 1
351 166 1
351 212 1
351 255 1
351 277 1
351 315 1
351 365 1
351 458 1
351 552 1
351 560 1
351 575 1
351 577 1
351 673 1
351 816 1
351 885 1
351 905 1
351 906 1
351 935 1
351 979 1
352 62 1
352 69 1
352 97 1
352 100 1
352 145 1
352 209 1
352 225 1
352 356 1
352 499 1
352 594 1
352 663 1
352 664 1
352 683 1
352 748 1
352 844 1
352 928 1
352 941 1
352 966 1
353 16 1
353 89 1
353 93 1
353 115 1
353 251 1
353 254 1
353 310 1
353 407 1
353 480 1
353 520 1
353 566 1
353 700 1
353 770 1
353 844 1
353 853 1
353 860 1
353 870 1
353 946 1
353 955 1
353 975 1
354 26 1
354 153 1
354 157 1
354 275 1
354 333 1
354 383 1
354 448 1
354 515 1
354 538 1
354 661 1
354 755 1
354 917 1
354 922 1
354 955 1
354 957 1
354 993 1
355 40 1
355 112 1
355 123 1
355 148 1
355 177 1
355 184 1
355 216 1
355 225 1
355 255 1
355 259 1
355 338 1
355 390 1
355 420 1
355 452 1
355 563 1
355 575 1
355 745 1
355 904 1
355 911 1
355 925 1
355 949 1
355 968 1
355 979 1
356 111 1
356 150 1
356 250 1
356 288 1
356 317 1
356 327 1
356 329 1
356 352 1
356 369 1
356 381 1
356 390 1
356 414 1
356 474 1
356 475 1
356 626 1
356 635 1
356 680 1
356 686 1
356 689 1
356 695 1
356 700 1
356 709 1
356 739 1
356 793 1
356 804 1
356 919 1
357 118 1
357 131 1
357 134 1
357 349 1
357 362 1
357 403 1
357 412 1
357 476 1
357 513 1
357 520 1
357 528 1
357 724 1
357 826 1
357 853 1
357 857 1
357 885 1
357 887 1
357 928 1
357 978 1
358 26 1
358 53 1
358 57 1
358 66 1
358 131 1
358 151 1
358 179 1
358 226 1
358 397 1
358 574 1
358 607 1
358 656 1
358 709 1
358 742 1
358 754 1
358 801 1
358 904 1
358 948 1
358 972 1
359 9 1
359 27 1
359 40 1
359 75 1
359 96 1
359 137 1
359 270 1
359 283 1
359 420 1
359 441 1
359 447 1
359 512 1
359 580 1
359 583 1
359 591 1
359 718 1
359 742 1
359 815 1
359 828 1
359 868 1
359 898 1
359 985 1
360 21 1
360 134 1
360 253 1
360 264 1
360 434 1
360 464 1
360 681 1
360 870 1
360 951 1
361 21 1
361 24 1
361 38 1
361 60 1
361 96 1
361 120 1
361 135 1
361 481 1
361 575 1
361 647 1
361 728 1
361 750 1
361 761 1
361 782 1
361 793 1
361 836 1
361 965 1
362 31 1
362 63 1
362 65 1
362 111 1
362 183 1
362 201 1
362 357 1
362 375 1
362 423 1
362 459 1
362 521 1
362 578 1
362 635 1
362 667 1
362 748 1
362 808 1
362 813 1
362 829 1
362 969 1
362 973 1
363 82 1
363 100 1
363 106 1
363 122 1
363 142 1
363 183 1
363 203 1
363 278 1
363 334 1
363 367 1
363 488 1
363 542 1
363 648 1
363 675 1
363 706 1
363 786 1
363 887 1
363 982 1
364 34 1
364 88 1
364 119 1
364 129 1
364 255 1
364 256 1
364 259 1
364 280 1
364 282 1
364 408 1
364 424 1
364 439 1
364 472 1
364 604 1
364 965 1
364 989 1
364 993 1
365 2 1
365 5 1
365 81 1
365 175 1
365 179 1
365 205 1
365 313 1
365 351 1
365 502 1
365 579 1
365 595 1
365 669 1
365 723 1
365 799 1
365 812 1
366 1 1
366 50 1
366 84 1
366 127 1
366 142 1
366 447 1
366 545 1
366 593 1
366 628 1
366 630 1
366 689 1
366 743 1
366 861 1
366 978 1
367 46 1
367 71 1
367 73 1
367 268 1
367 299 1
367 313 1
367 339 1
367 363 1
367 510 1
367 562 1
367 624 1
367 662 1
367 764 1
367 827 1
367 916 1
367 954 1
368 42 1
368 65 1
368 108 1
368 109 1
368 123 1
368 126 1
368 224 1
368 259 1
368 298 1
368 404 1
368 438 1
368 656 1
368 657 1
368 686 1
368 689 1
368 885 1
368 908 1
368 913 1
368 975 1
368 999 1
368 1000 1
369 38 1
369 86 1
369 123 1
369 171 1
369 198 1
369 277 1
369 356 1
369 616 1
369 711 1
369 712 1
369 833 1
369 869 1
369 947 1
370 9 1
370 22 1
370 36 1
370 258 1
370 303 1
370 317 1
370 322 1
370 332 1
370 407 1
370 439 1
370 446 1
370 499 1
370 501 1
370 582 1
370 595 1
370 610 1
370 657 1
370 676 1
370 724 1
370 739 1
370 791 1
370 812 1
370 824 1
370 879 1
370 896 1
370 911 1
370 921 1
371 1 1
371 10 1
371 12 1
371 15 1
371 155 1
371 200 1
371 280 1
371 309 1
371 328 1
371 492 1
371 524 1
371 568 1
371 667 1
371 680 1
371 718 1
371 750 1
371 756 1
371 766 1
371 833 1
371 849 1
371 948 1
372 32 1
372 51 1
372 107 1
372 234 1
372 271 1
372 308 1
372 318 1
372 397 1
372 452 1
372 473 1
372 615 1
372 714 1
372 726 1
372 765 1
372 812 1
372 884 1
372 894 1
372 943 1
372 987 1
373 6 1
373 30 1
373 54 1
373 77 1
373 90 1
373 281 1
373 296 1
373 306 1
373 346 1
373 515 1
373 580 1
373 583 1
373 661 1
373 665 1
373 713 1
373 796 1
373 832 1
373 973 1
374 3 1
374 94 1
374 102 1
374 134 1
374 151 1
374 173 1
374 285 1
374 380 1
374 383 1
374 410 1
374 439 1
374 488 1
374 496 1
374 518 1
374 522 1
374 571 1
374 588 1
374 593 1
374 707 1
374 756 1
374 784 1
374 793 1
374 834 1
374 943 1
374 963 1
374 990 1
375 71 1
375 121 1
375 168 1
375 195 1
375 263 1
375 268 1
375 271 1
375 325 1
375 362 1
375 463 1
375 543 1
375 560 1
375 627 1
375 673 1
375 723 1
375 745 1
375 778 1
375 856 1
375 967 1
376 31 1
376 45 1
376 105 1
376 141 1
376 228 1
376 246 1
376 333 1
376 391 1
376 406 1
376 520 1
376 653 1
376 697 1
376 830 1
376 867 1
377 169 1
377 235 1
377 416 1
377 444 1
377 446 1
377 458 1
377 480 1
377 487 1
377 505 1
377 557 1
377 608 1
377 777 1
377 806 1
377 877 1
378 4 1
378 80 1
378 86 1
378 98 1
378 107 1
378 121 1
378 157 1
378 205 1
378 317 1
378 332 1
378 336 1
378 517 1
378 520 1
378 533 1
378 597 1
378 620 1
378 639 1
378 780 1
378 798 1
378 852 1
378 872 1
378 996 1
379 9 1
379 30 1
379 86 1
379 92 1
379 158 1
379 211 1
379 231 1
379 300 1
379 343 1
379 380 1
379 407 1
379 414 1
379 440 1
379 516 1
379 583 1
379 757 1
379 781 1
379 903 1
379 927 1
379 930 1
380 26 1
380 187 1
380 234 1
380 246 1
380 274 1
380 374 1
380 379 1
380 389 1
380 465 1
380 512 1
380 600 1
380 655 1
380 709 1
380 712 1
380 734 1
380 756 1
380 758 1
380 800 1
380 837 1
380 858 1
381 32 1
381 151 1
381 227 1
381 338 1
381 347 1
381 356 1
381 418 1
381 489 1
381 756 1
381 904 1
382 9 1
382 21 1
382 87 1
382 210 1
382 288 1
382 389 1
382 508 1
382 557 1
382 634 1
382 721 1
382 774 1
382 854 1
382 905 1
382 906 1
382 931 1
382 963 1
383 71 1
383 89 1
383 247 1
383 257 1
383 300 1
383 302 1
383 310 1
383 348 1
383 354 1
383 374 1
383 446 1
383 454 1
383 490 1
383 498 1
383 535 1
383 541 1
383 595 1
383 614 1
383 641 1
383 733 1
383 753 1
383 754 1
383 904 1
383 906 1
383 935 1
383 945 1
383 992 1
384 56 1
384 207 1
384 421 1
384 466 1
384 487 1
384 541 1
384 594 1
384 628 1
384 693 1
384 695 1
384 714 1
384 775 1
384 791 1
384 818 1
384 846 1
384 904 1
384 912 1
384 970 1
384 988 1
385 34 1
385 67 1
385 145 1
385 146 1
385 238 1
385 293 1
385 416 1
385 430 1
385 518 1
385 579 1
385 588 1
385 678 1
385 681 1
385 727 1
385 795 1
385 869 1
385 885 1
385 946 1
386 5 1
386 165 1
386 195 1
386 200 1
386 278 1
386 306 1
386 316 1
386 397 1
386 416 1
386 457 1
386 563 1
386 734 1
386 780 1
386 788 1
386 846 1
386 860 1
386 968 1
386 981 1
387 71 1
387 99 1
387 127 1
387 130 1
387 135 1
387 189 1
387 299 1
387 390 1
387 561 1
387 569 1
387 589 1
387 605 1
387 610 1
387 786 1
387 819 1
387 840 1
387 846 1
387 871 1
387 928 1
387 957 1
388 37 1
388 86 1
388 236 1
388 267 1
388 298 1
388 312 1
388 337 1
388 390 1
388 395 1
388 429 1
388 523 1
388 572 1
388 611 1
388 655 1
388 674 1
388 783 1
388 794 1
388 797 1
388 806 1
388 822 1
388 831 1
388 834 1
388 906 1
388 990 1
389 127 1
389 156 1
389 339 1
389 380 1
389 382 1
389 503 1
389 627 1
389 747 1
389 751 1
389 810 1
389 817 1
389 842 1
389 845 1
389 865 1
389 948 1
390 163 1
390 211 1
390 307 1
390 343 1
390 355 1
390 356 1
390 387 1
390 388 1
390 402 1
390 449 1
390 484 1
390 567 1
390 576 1
390 604 1
390 881 1
390 907 1
390 928 1
390 988 1
391 75 1
391 132 1
391 231 1
391 238 1
391 265 1
391 303 1
391 334 1
391 376 1
391 422 1
391 428 1
391 444 1
391 544 1
391 612 1
391 707 1
391 844 1
391 943 1
391 954 1
391 958 1
392 71 1
392 214 1
392 219 1
392 290 1
392 479 1
392 527 1
392 624 1
392 666 1
392 839 1
392 849 1
392 922 1
393 45 1
393 74 1
393 79 1
393 101 1
393 209 1
393 245 1
393 255 1
393 263 1
393 268 1
393 320 1
393 338 1
393 495 1
393 656 1
393 720 1
393 740 1
393 781 1
393 803 1
393 812 1
393 819 1
393 828 1
393 841 1
393 922 1
393 995 1
394 9 1
394 115 1
394 133 1
394 210 1
394 265 1
394 308 1
394 443 1
394 583 1
394 615 1
394 621 1
394 735 1
394 760 1
394 765 1
394 847 1
394 879 1
394 880 1
394 928 1
394 932 1
395 64 1
395 151 1
395 174 1
395 187 1
395 221 1
395 271 1
395 286 1
395 345 1
395 388 1
395 430 1
395 431 1
395 460 1
395 478 1
395 561 1
395 741 1
395 758 1
395 785 1
395 828 1
395 923 1
395 925 1
395 937 1
395 969 1
396 95 1
396 216 1
396 259 1
396 286 1
396 335 1
396 410 1
396 452 1
396 465 1
396 509 1
396 513 1
396 576 1
396 607 1
396 705 1
396 751 1
396 756 1
396 794 1
396 866 1
396 902 1
396 942 1
396 999 1
397 28 1
397 62 1
397 78 1
397 268 1
397 324 1
397 344 1
397 358 1
397 372 1
397 386 1
397 445 1
397 613 1
397 632 1
397 643 1
397 674 1
397 712 1
397 766 1
397 814 1
397 831 1
397 847 1
397 868 1
397 910 1
397 949 1
398 55 1
398 140 1
398 473 1
398 527 1
398 586 1
398 615 1
398 726 1
398 743 1
398 751 1
398 814 1
398 819 1
398 862 1
399 39 1
399 94 1
399 149 1
399 166 1
399 184 1
399 235 1
399 238 1
399 243 1
399 246 1
399 269 1
399 547 1
399 549 1
399 596 1
399 693 1
399 710 1
399 751 1
399 785 1
399 899 1
399 937 1
399 962 1
400 12 1
400 32 1
400 52 1
400 53 1
400 87 1
400 163 1
400 240 1
400 242 1
400 281 1
400 414 1
400 442 1
400 491 1
400 697 1
400 719 1
400 729 1
400 750 1
400 756 1
400 791 1
400 799 1
400 815 1
400 830 1
400 856 1
400 927 1
400 945 1
400 951 1
400 968 1
401 54 1
401 74 1
401 142 1
401 175 1
401 183 1
401 240 1
401 252 1
401 271 1
401 298 1
401 448 1
401 467 1
401 486 1
401 512 1
401 573 1
401 723 1
401 774 1
401 825 1
401 896 1
401 996 1
402 31 1
402 42 1
402 52 1
402 109 1
402 193 1
402 390 1
402 468 1
402 486 1
402 508 1
402 513 1
402 538 1
402 570 1
402 593 1
402 619 1
402 659 1
402 668 1
402 730 1
402 885 1
402 925 1
402 992 1
403 124 1
403 147 1
403 199 1
403 237 1
403 256 1
403 284 1
403 357 1
403 496 1
403 575 1
403 601 1
403 696 1
403 771 1
403 818 1
403 966 1
404 36 1
404 115 1
404 123 1
404 140 1
404 200 1
404 225 1
404 231 1
404 368 1
404 471 1
404 534 1
404 536 1
404 699 1
404 702 1
404 959 1
405 6 1
405 34 1
405 144 1
405 177 1
405 211 1
405 230 1
405 350 1
405 432 1
405 476 1
405 478 1
405 524 1
405 613 1
405 712 1
405 747 1
405 761 1
405 959 1
405 966 1
406 228 1
406 297 1
406 342 1
406 376 1
406 409 1
406 421 1
406 433 1
406 448 1
406 505 1
406 680 1
406 703 1
406 738 1
406 765 1
406 812 1
406 850 1
406 858 1
406 927 1
406 930 1
406 934 1
406 951 1
407 15 1
407 102 1
407 119 1
407 123 1
407 127 1
407 164 1
407 177 1
407 187 1
407 289 1
407 318 1
407 353 1
407 370 1
407 379 1
407 434 1
407 476 1
407 483 1
407 521 1
407 595 1
407 799 1
407 815 1
407 832 1
407 835 1
407 932 1
407 945 1
408 12 1
408 17 1
408 78 1
408 83 1
408 92 1
408 191 1
408 257 1
408 364 1
408 425 1
408 447 1
408 463 1
408 543 1
408 562 1
408 568 1
408 623 1
408 631 1
408 792 1
408 927 1
408 994 1
409 8 1
409 78 1
409 112 1
409 186 1
409 320 1
409 406 1
409 439 1
409 481 1
409 507 1
409 542 1
409 582 1
409 615 1
409 625 1
409 629 1
409 637 1
409 879 1
409 932 1
410 6 1
410 98 1
410 168 1
410 232 1
410 242 1
410 265 1
410 343 1
410 349 1
410 374 1
410 396 1
410 631 1
410 645 1
410 646 1
410 647 1
410 663 1
410 682 1
410 711 1
410 726 1
410 791 1
410 880 1
410 891 1
411 68 1
411 148 1
411 174 1
411 250 1
411 255 1
411 349 1
411 463 1
411 564 1
411 666 1
411 750 1
411 794 1
411 922 1
411 953 1
412 150 1
412 154 1
412 162 1
412 169 1
412 226 1
412 288 1
412 357 1
412 449 1
412 525 1
412 581 1
412 645 1
412 703 1
412 748 1
412 749 1
412 760 1
412 808 1
412 870 1
412 995 1
413 24 1
413 53 1
413 86 1
413 103 1
413 151 1
413 190 1
413 212 1
413 264 1
413 265 1
413 271 1
413 309 1
413 339 1
413 438 1
413 450 1
413 494 1
413 544 1
413 623 1
413 678 1
413 715 1
413 776 1
413 841 1
413 857 1
413 860 1
413 862 1
413 902 1
413 910 1
413 917 1
414 3 1
414 14 1
414 42 1
414 131 1
414 146 1
414 172 1
414 197 1
414 202 1
414 356 1
414 379 1
414 400 1
414 454 1
414 496 1
414 523 1
414 600 1
414 654 1
414 677 1
414 727 1
414 767 1
414 778 1
414 791 1
414 807 1
414 822 1
414 871 1
414 889 1
414 897 1
414 936 1
414 953 1
415 36 1
415 59 1
415 66 1
415 76 1
415 139 1
415 247 1
415 300 1
415 306 1
415 431 1
415 502 1
415 507 1
415 532 1
415 800 1
415 827 1
415 838 1
415 858 1
415 906 1
415 921 1
415 986 1
416 20 1
416 21 1
416 128 1
416 155 1
416 177 1
416 339 1
416 377 1
416 385 1
416 386 1
416 460 1
416 617 1
416 720 1
416 740 1
416 794 1
416 826 1
416 921 1
417 38 1
417 113 1
417 161 1
417 195 1
417 196 1
417 228 1
417 245 1
417 488 1
417 544 1
417 633 1
417 740 1
417 774 1
417 834 1
417 896 1
418 30 1
418 47 1
418 64 1
418 110 1
418 121 1
418 174 1
418 236 1
418 284 1
418 313 1
418 342 1
418 349 1
418 381 1
418 433 1
418 561 1
418 576 1
418 715 1
418 839 1
418 849 1
418 898 1
418 900 1
418 924 1
418 992 1
418 998 1
419 19 1
419 45 1
419 86 1
419 175 1
419 275 1
419 309 1
419 336 1
419 337 1
419 464 1
419 521 1
419 535 1
419 863 1
419 998 1
419 1000 1
420 12 1
420 25 1
420 77 1
420 101 1
420 123 1
420 132 1
420 149 1
420 177 1
420 204 1
420 305 1
420 355 1
420 359 1
420 464 1
420 483 1
420 515 1
420 572 1
420 602 1
420 655 1
420 659 1
420 685 1
420 698 1
420 705 1
420 745 1
420 749 1
420 916 1
420 945 1
421 25 1
421 127 1
421 146 1
421 166 1
421 384 1
421 406 1
421 427 1
421 440 1
421 464 1
421 469 1
421 491 1
421 563 1
421 599 1
421 654 1
421 676 1
421 818 1
421 843 1
421 886 1
421 899 1
421 967 1
421 981 1
422 27 1
422 53 1
422 72 1
422 122 1
422 174 1
422 191 1
422 315 1
422 391 1
422 442 1
422 446 1
422 463 1
422 465 1
422 500 1
422 581 1
422 699 1
422 874 1
422 897 1
423 63 1
423 129 1
423 284 1
423 310 1
423 362 1
423 442 1
423 448 1
423 455 1
423 458 1
423 582 1
423 614 1
423 660 1
423 694 1
423 768 1
423 828 1
423 835 1
423 861 1
423 957 1
424 45 1
424 47 1
424 64 1
424 82 1
424 128 1
424 133 1
424 148 1
424 364 1
424 482 1
424 488 1
424 538 1
424 777 1
424 778 1
424 992 1
425 120 1
425 137 1
425 265 1
425 292 1
425 349 1
425 408 1
425 471 1
425 593 1
425 601 1
425 635 1
425 960 1
426 3 1
426 5 1
426 81 1
426 111 1
426 119 1
426 147 1
426 157 1
426 167 1
426 175 1
426 256 1
426 431 1
426 494 1
426 652 1
426 736 1
426 781 1
426 946 1
426 955 1
426 977 1
427 5 1
427 25 1
427 36 1
427 227 1
427 254 1
427 268 1
427 310 1
427 421 1
427 574 1
427 643 1
427 664 1
427 731 1
427 833 1
427 847 1
427 959 1
427 963 1
427 973 1
428 20 1
428 187 1
428 323 1
428 391 1
428 449 1
428 595 1
428 619 1
428 644 1
428 692 1
428 751 1
428 776 1
428 798 1
428 842 1
428 879 1
428 897 1
428 908 1
428 943 1
429 66 1
429 121 1
429 157 1
429 316 1
429 388 1
429 440 1
429 503 1
429 615 1
429 697 1
429 731 1
429 793 1
429 953 1
429 954 1
429 993 1
430 69 1
430 113 1
430 207 1
430 385 1
430 395 1
430 443 1
430 460 1
430 568 1
430 706 1
430 718 1
430 749 1
430 759 1
430 767 1
430 823 1
430 827 1
431 38 1
431 51 1
431 82 1
431 113 1
431 131 1
431 205 1
431 220 1
431 268 1
431 277 1
431 317 1
431 326 1
431 395 1
431 415 1
431 426 1
431 551 1
431 671 1
431 676 1
431 686 1
431 859 1
431 865 1
431 889 1
432 10 1
432 23 1
432 55 1
432 81 1
432 101 1
432 140 1
432 150 1
432 163 1
432 172 1
432 219 1
432 327 1
432 338 1
432 405 1
432 473 1
432 607 1
432 618 1
432 640 1
432 709 1
432 764 1
432 810 1
432 828 1
432 841 1
432 883 1
432 889 1
432 891 1
432 892 1
432 985 1
432 992 1
433 62 1
433 145 1
433 156 1
433 163 1
433 292 1
433 406 1
433 418 1
433 531 1
433 582 1
433 703 1
433 708 1
433 718 1
433 795 1
433 857 1
433 909 1
433 943 1
433 958 1
434 130 1
434 154 1
434 169 1
434 233 1
434 264 1
434 277 1
434 310 1
434 360 1
434 407 1
434 441 1
434 465 1
434 732 1
434 743 1
434 780 1
434 827 1
435 47 1
435 138 1
435 143 1
435 195 1
435 217 1
435 224 1
435 255 1
435 257 1
435 326 1
435 439 1
435 540 1
435 554 1
435 560 1
435 615 1
435 622 1
435 626 1
435 682 1
435 687 1
435 722 1
435 726 1
435 873 1
435 975 1
435 976 1
436 28 1
436 38 1
436 105 1
436 182 1
436 218 1
436 222 1
436 277 1
436 307 1
436 349 1
436 571 1
436 604 1
436 626 1
436 659 1
436 681 1
436 732 1
436 738 1
436 795 1
436 836 1
436 887 1
436 978 1
436 979 1
437 35 1
437 289 1
437 505 1
437 546 1
437 608 1
437 625 1
437 750 1
437 821 1
437 861 1
437 863 1
437 894 1
437 916 1
438 104 1
438 122 1
438 212 1
438 259 1
438 281 1
438 308 1
438 328 1
438 339 1
438 368 1
438 413 1
438 468 1
438 561 1
438 571 1
438 603 1
438 640 1
438 659 1
438 808 1
438 824 1
438 838 1
438 900 1
438 906 1
438 930 1
438 935 1
438 939 1
439 17 1
439 73 1
439 76 1
439 100 1
439 148 1
439 224 1
439 280 1
439 327 1
439 364 1
439 370 1
439 374 1
439 409 1
439 435 1
439 448 1
439 527 1
439 530 1
439 574 1
439 599 1
439 694 1
439 861 1
439 900 1
439 992 1
440 166 1
440 191 1
440 276 1
440 379 1
440 421 1
440 429 1
440 471 1
440 491 1
440 563 1
440 599 1
440 621 1
440 705 1
440 778 1
440 782 1
440 784 1
440 790 1
440 824 1
440 853 1
440 875 1
440 892 1
440 897 1
440 913 1
441 186 1
441 214 1
441 266 1
441 359 1
441 434 1
441 571 1
441 656 1
441 662 1
441 819 1
441 850 1
441 875 1
441 950 1
441 952 1
442 59 1
442 66 1
442 120 1
442 148 1
442 307 1
442 308 1
442 400 1
442 422 1
442 423 1
442 444 1
442 481 1
442 514 1
442 525 1
442 603 1
442 650 1
442 752 1
442 753 1
442 854 1
443 19 1
443 29 1
443 128 1
443 141 1
443 333 1
443 394 1
443 430 1
443 468 1
443 512 1
443 732 1
443 736 1
443 828 1
444 67 1
444 149 1
444 157 1
444 166 1
444 207 1
444 377 1
444 391 1
444 442 1
444 454 1
444 541 1
444 547 1
444 550 1
444 582 1
444 797 1
444 813 1
444 851 1
444 881 1
444 890 1
444 911 1
445 171 1
445 191 1
445 397 1
445 449 1
445 453 1
445 480 1
445 510 1
445 599 1
445 601 1
445 660 1
445 687 1
445 725 1
445 745 1
445 751 1
445 753 1
445 779 1
445 820 1
445 826 1
445 868 1
445 923 1
445 930 1
445 947 1
445 980 1
446 91 1
446 133 1
446 140 1
446 182 1
446 244 1
446 280 1
446 281 1
446 309 1
446 317 1
446 370 1
446 377 1
446 383 1
446 422 1
446 513 1
446 554 1
446 683 1
446 806 1
446 835 1
446 856 1
446 859 1
446 884 1
446 943 1
446 979 1
446 986 1
447 63 1
447 90 1
447 111 1
447 299 1
447 359 1
447 366 1
447 408 1
447 515 1
447 564 1
447 608 1
447 656 1
447 719 1
447 862 1
447 884 1
447 936 1
448 7 1
448 29 1
448 31 1
448 158 1
448 199 1
448 228 1
448 261 1
448 328 1
448 337 1
448 354 1
448 401 1
448 406 1
448 423 1
448 439 1
448 467 1
448 492 1
448 536 1
448 625 1
448 649 1
448 758 1
448 767 1
448 780 1
448 792 1
448 804 1
448 851 1
448 903 1
448 938 1
448 966 1
448 979 1
448 983 1
449 34 1
449 166 1
449 265 1
449 290 1
449 303 1
449 308 1
449 316 1
449 390 1
449 412 1
449 428 1
449 445 1
449 583 1
449 680 1
449 711 1
449 742 1
449 843 1
449 918 1
449 957 1
449 995 1
450 172 1
450 177 1
450 201 1
450 230 1
450 234 1
450 238 1
450 332 1
450 345 1
450 413 1
450 493 1
450 499 1
450 663 1
450 695 1
450 713 1
450 718 1
450 728 1
450 760 1
450 762 1
450 833 1
450 849 1
450 913 1
450 987 1
451 69 1
451 128 1
451 139 1
451 171 1
451 201 1
451 274 1
451 280 1
451 295 1
451 327 1
451 532 1
451 621 1
451 626 1
451 684 1
451 811 1
451 898 1
451 980 1
451 995 1
452 6 1
452 76 1
452 167 1
452 226 1
452 237 1
452 238 1
452 253 1
452 297 1
452 355 1
452 372 1
452 396 1
452 505 1
452 559 1
452 658 1
452 670 1
452 737 1
452 743 1
452 749 1
452 889 1
452 924 1
453 62 1
453 111 1
453 159 1
453 241 1
453 269 1
453 302 1
453 308 1
453 445 1
453 462 1
453 464 1
453 476 1
453 484 1
453 568 1
453 571 1
453 615 1
453 640 1
453 683 1
453 715 1
453 780 1
453 892 1
453 917 1
453 946 1
453 984 1
454 92 1
454 260 1
454 383 1
454 414 1
454 444 1
454 460 1
454 507 1
454 555 1
454 622 1
454 639 1
454 666 1
454 729 1
454 756 1
454 764 1
454 775 1
454 781 1
454 848 1
454 867 1
454 873 1
454 898 1
454 944 1
455 99 1
455 179 1
455 192 1
455 302 1
455 423 1
455 479 1
455 483 1
455 589 1
455 620 1
455 699 1
455 752 1
455 937 1
455 960 1
455 998 1
455 1000 1
456 21 1
456 40 1
456 119 1
456 311 1
456 475 1
456 677 1
456 678 1
456 710 1
457 36 1
457 45 1
457 114 1
457 146 1
457 196 1
457 326 1
457 386 1
457 475 1
457 484 1
457 528 1
457 600 1
457 606 1
457 624 1
457 677 1
457 702 1
457 754 1
457 807 1
457 844 1
457 926 1
457 939 1
457 980 1
458 8 1
458 100 1
458 114 1
458 188 1
458 193 1
458 204 1
458 283 1
458 302 1
458 351 1
458 377 1
458 423 1
458 579 1
458 659 1
458 720 1
458 725 1
458 733 1
458 790 1
458 802 1
458 804 1
458 813 1
458 814 1
458 879 1
458 904 1
458 913 1
458 928 1
458 929 1
458 935 1
459 92 1
459 135 1
459 170 1
459 171 1
459 184 1
459 216 1
459 258 1
459 273 1
459 362 1
459 470 1
459 572 1
459 583 1
459 596 1
459 726 1
459 756 1
459 804 1
459 846 1
459 963 1
459 982 1
460 177 1
460 213 1
460 217 1
460 279 1
460 324 1
460 342 1
460 395 1
460 416 1
460 430 1
460 454 1
460 509 1
460 522 1
460 540 1
460 566 1
460 581 1
460 606 1
460 624 1
460 632 1
460 682 1
460 688 1
460 696 1
460 767 1
460 791 1
460 799 1
460 890 1
460 937 1
460 955 1
460 981 1
461 196 1
461 235 1
461 264 1
461 293 1
461 342 1
461 532 1
461 550 1
461 630 1
461 726 1
461 736 1
461 862 1
461 865 1
461 960 1
462 56 1
462 112 1
462 167 1
462 310 1
462 323 1
462 328 1
462 453 1
462 503 1
462 504 1
462 546 1
462 583 1
462 638 1
462 660 1
462 721 1
462 819 1
462 829 1
462 906 1
462 934 1
462 982 1
463 98 1
463 211 1
463 303 1
463 375 1
463 408 1
463 411 1
463 422 1
463 473 1
463 489 1
463 538 1
463 604 1
463 616 1
463 707 1
463 735 1
463 738 1
463 763 1
463 765 1
463 774 1
463 869 1
463 919 1
463 931 1
463 979 1
464 120 1
464 134 1
464 184 1
464 276 1
464 278 1
464 282 1
464 321 1
464 339 1
464 360 1
464 419 1
464 420 1
464 421 1
464 453 1
464 473 1
464 486 1
464 563 1
464 606 1
464 642 1
464 679 1
464 726 1
464 729 1
464 746 1
464 772 1
464 773 1
464 792 1
464 845 1
464 858 1
464 900 1
464 909 1
464 951 1
464 956 1
464 988 1
464 994 1
465 48 1
465 80 1
465 120 1
465 124 1
465 207 1
465 380 1
465 396 1
465 422 1
465 434 1
465 523 1
465 581 1
465 617 1
465 625 1
465 714 1
465 795 1
465 811 1
465 818 1
465 867 1
465 875 1
465 911 1
466 23 1
466 25 1
466 67 1
466 77 1
466 84 1
466 157 1
466 194 1
466 273 1
466 283 1
466 339 1
466 384 1
466 508 1
466 519 1
466 540 1
466 557 1
466 648 1
466 682 1
466 691 1
466 732 1
466 742 1
466 798 1
466 826 1
466 900 1
466 911 1
466 960 1
467 119 1
467 207 1
467 232 1
467 279 1
467 290 1
467 330 1
467 401 1
467 448 1
467 687 1
467 694 1
467 730 1
467 745 1
467 756 1
467 803 1
467 804 1
467 811 1
467 865 1
467 980 1
467 986 1
467 999 1
468 30 1
468 52 1
468 152 1
468 164 1
468 214 1
468 248 1
468 260 1
468 402 1
468 438 1
468 443 1
468 568 1
468 589 1
468 591 1
468 693 1
468 717 1
468 740 1
468 770 1
468 797 1
468 867 1
468 871 1
469 87 1
469 132 1
469 149 1
469 256 1
469 281 1
469 288 1
469 303 1
469 421 1
469 491 1
469 542 1
469 687 1
469 730 1
469 776 1
469 801 1
469 833 1
469 865 1
469 899 1
469 947 1
469 973 1
470 26 1
470 27 1
470 104 1
470 167 1
470 183 1
470 209 1
470 241 1
470 255 1
470 459 1
470 508 1
470 639 1
470 651 1
470 657 1
470 675 1
470 737 1
470 825 1
470 859 1
470 879 1
470 895 1
470 913 1
470 924 1
470 972 1
471 6 1
471 63 1
471 270 1
471 338 1
471 404 1
471 425 1
471 440 1
471 517 1
471 535 1
471 563 1
471 619 1
471 653 1
471 665 1
471 672 1
471 722 1
471 772 1
471 794 1
471 805 1
471 835 1
471 869 1
472 9 1
472 124 1
472 141 1
472 296 1
472 336 1
472 364 1
472 473 1
472 498 1
472 819 1
472 880 1
472 983 1
473 84 1
473 147 1
473 223 1
473 241 1
473 278 1
473 372 1
473 398 1
473 432 1
473 463 1
473 464 1
473 472 1
473 491 1
473 527 1
473 597 1
473 664 1
473 706 1
473 850 1
473 878 1
473 884 1
473 965 1
474 33 1
474 94 1
474 133 1
474 141 1
474 214 1
474 220 1
474 226 1
474 285 1
474 356 1
474 513 1
474 554 1
474 612 1
474 643 1
474 705 1
474 755 1
474 781 1
474 800 1
474 967 1
474 981 1
475 41 1
475 43 1
475 46 1
475 69 1
475 156 1
475 173 1
475 192 1
475 254 1
475 279 1
475 356 1
475 456 1
475 457 1
475 512 1
475 514 1
475 627 1
475 647 1
475 725 1
475 750 1
475 756 1
475 769 1
475 787 1
475 812 1
475 854 1
475 957 1
475 960 1
475 966 1
475 986 1
476 35 1
476 136 1
476 162 1
476 179 1
476 180 1
476 187 1
476 276 1
476 357 1
476 405 1
476 407 1
476 453 1
476 497 1
476 504 1
476 553 1
476 573 1
476 683 1
476 713 1
476 746 1
476 781 1
476 868 1
476 910 1
476 966 1
476 970 1
476 984 1
477 89 1
477 147 1
477 176 1
477 205 1
477 240 1
477 299 1
477 306 1
477 519 1
477 571 1
477 805 1
477 819 1
477 876 1
477 890 1
478 4 1
478 46 1
478 119 1
478 138 1
478 280 1
478 395 1
478 405 1
478 534 1
478 569 1
478 628 1
478 630 1
478 688 1
478 692 1
478 733 1
478 822 1
478 829 1
478 842 1
478 860 1
478 884 1
478 934 1
478 980 1
478 1000 1
479 64 1
479 67 1
479 123 1
479 191 1
479 314 1
479 332 1
479 392 1
479 455 1
479 483 1
479 552 1
479 571 1
479 580 1
479 696 1
479 752 1
479 826 1
479 850 1
479 989 1
480 11 1
480 21 1
480 23 1
480 32 1
480 33 1
480 53 1
480 64 1
480 109 1
480 133 1
480 152 1
480 255 1
480 325 1
480 353 1
480 377 1
480 445 1
480 500 1
480 508 1
480 588 1
480 643 1
480 721 1
480 838 1
480 876 1
480 997 1
481 29 1
481 44 1
481 57 1
481 126 1
481 184 1
481 187 1
481 203 1
481 243 1
481 308 1
481 318 1
481 361 1
481 409 1
481 442 1
481 548 1
481 596 1
481 610 1
481 687 1
481 870 1
481 919 1
481 935 1
481 973 1
482 53 1
482 66 1
482 105 1
482 156 1
482 213 1
482 241 1
482 261 1
482 269 1
482 424 1
482 564 1
482 641 1
482 651 1
482 671 1
482 695 1
482 696 1
482 719 1
482 735 1
482 824 1
482 853 1
482 855 1
482 907 1
482 914 1
482 952 1
483 73 1
483 202 1
483 233 1
483 407 1
483 420 1
483 455 1
483 479 1
483 488 1
483 532 1
483 541 1
483 566 1
483 591 1
483 728 1
483 759 1
483 781 1
483 838 1
483 854 1
483 871 1
483 876 1
483 888 1
483 951 1
483 961 1
483 968 1
484 16 1
484 44 1
484 79 1
484 138 1
484 177 1
484 241 1
484 307 1
484 345 1
484 390 1
484 453 1
484 457 1
484 553 1
484 565 1
484 627 1
484 768 1
484 934 1
484 937 1
484 994 1
485 32 1
485 126 1
485 174 1
485 209 1
485 277 1
485 306 1
485 329 1
485 333 1
485 551 1
485 621 1
485 638 1
485 682 1
485 688 1
485 726 1
485 772 1
485 785 1
485 923 1
485 925 1
485 934 1
486 21 1
486 81 1
486 95 1
486 156 1
486 215 1
486 253 1
486 309 1
486 318 1
486 401 1
486 402 1
486 464 1
486 543 1
486 544 1
486 595 1
486 602 1
486 605 1
486 748 1
486 789 1
486 895 1
486 901 1
487 16 1
487 67 1
487 75 1
487 204 1
487 256 1
487 299 1
487 304 1
487 377 1
487 384 1
487 569 1
487 690 1
487 706 1
487 709 1
487 735 1
488 107 1
488 129 1
488 194 1
488 224 1
488 280 1
488 363 1
488 374 1
488 417 1
488 424 1
488 483 1
488 523 1
488 604 1
488 687 1
488 712 1
488 774 1
488 775 1
488 860 1
488 981 1
488 983 1
489 4 1
489 6 1
489 133 1
489 152 1
489 215 1
489 220 1
489 381 1
489 463 1
489 554 1
489 559 1
489 597 1
489 667 1
489 672 1
489 690 1
489 695 1
489 734 1
490 58 1
490 104 1
490 159 1
490 217 1
490 286 1
490 294 1
490 347 1
490 383 1
490 576 1
490 707 1
490 711 1
490 775 1
490 791 1
490 803 1
490 814 1
490 816 1
490 848 1
491 11 1
491 93 1
491 137 1
491 323 1
491 327 1
491 338 1
491 400 1
491 421 1
491 440 1
491 469 1
491 473 1
491 568 1
491 585 1
491 713 1
491 733 1
491 807 1
491 858 1
491 869 1
491 888 1
491 904 1
491 969 1
492 21 1
492 62 1
492 71 1
492 83 1
492 266 1
492 371 1
492 448 1
492 501 1
492 661 1
492 690 1
492 716 1
492 745 1
492 765 1
492 806 1
492 878 1
492 983 1
493 42 1
493 270 1
493 273 1
493 327 1
493 450 1
493 597 1
493 653 1
493 666 1
493 682 1
493 690 1
493 691 1
493 693 1
493 708 1
493 712 1
493 714 1
493 718 1
493 731 1
493 749 1
493 760 1
493 777 1
493 779 1
493 810 1
493 820 1
493 934 1
493 939 1
494 53 1
494 69 1
494 182 1
494 283 1
494 289 1
494 346 1
494 413 1
494 426 1
494 504 1
494 505 1
494 533 1
494 584 1
494 619 1
494 621 1
494 672 1
494 691 1
494 723 1
494 858 1
494 879 1
494 903 1
494 910 1
494 934 1
494 944 1
495 4 1
495 103 1
495 119 1
495 129 1
495 166 1
495 184 1
495 241 1
495 246 1
495 264 1
495 393 1
495 676 1
495 809 1
495 855 1
495 961 1
496 16 1
496 75 1
496 327 1
496 374 1
496 403 1
496 414 1
496 617 1
496 621 1
496 651 1
496 681 1
496 688 1
496 782 1
496 804 1
496 817 1
496 848 1
496 863 1
496 868 1
497 79 1
497 119 1
497 158 1
497 182 1
497 223 1
497 325 1
497 329 1
497 339 1
497 346 1
497 476 1
497 551 1
497 573 1
497 582 1
497 689 1
497 690 1
497 789 1
497 842 1
497 894 1
497 956 1
497 991 1
498 50 1
498 70 1
498 159 1
498 195 1
498 222 1
498 259 1
498 324 1
498 383 1
498 472 1
498 535 1
498 548 1
498 574 1
498 615 1
498 642 1
498 756 1
498 973 1
498 997 1
498 1000 1
499 65 1
499 74 1
499 102 1
499 136 1
499 259 1
499 311 1
499 345 1
499 349 1
499 352 1
499 370 1
499 450 1
499 633 1
499 661 1
499 803 1
499 812 1
499 874 1
499 913 1
499 918 1
499 934 1
499 935 1
499 966 1
499 977 1
500 28 1
500 55 1
500 152 1
500 281 1
500 422 1
500 480 1
500 541 1
500 643 1
500 669 1
500 785 1
500 855 1
500 861 1
500 921 1
500 935 1
500 956 1
500 982 1
501 22 1
501 40 1
501 85 1
501 103 1
501 109 1
501 241 1
501 277 1
501 370 1
501 492 1
501 585 1
501 595 1
501 677 1
501 698 1
501 772 1
501 867 1
501 938 1
502 7 1
502 48 1
502 73 1
502 96 1
502 99 1
502 194 1
502 204 1
502 266 1
502 298 1
502 365 1
502 415 1
502 528 1
502 543 1
502 561 1
502 587 1
502 615 1
502 691 1
502 729 1
502 741 1
502 766 1
502 843 1
502 844 1
502 959 1
502 981 1
502 986 1
503 97 1
503 145 1
503 164 1
503 240 1
503 261 1
503 331 1
503 347 1
503 389 1
503 429 1
503 462 1
503 598 1
503 605 1
503 778 1
503 813 1
503 882 1
503 915 1
503 921 1
503 985 1
504 4 1
504 51 1
504 102 1
504 117 1
504 192 1
504 286 1
504 324 1
504 334 1
504 462 1
504 476 1
504 494 1
504 571 1
504 615 1
504 632 1
504 638 1
504 654 1
504 746 1
504 809 1
504 844 1
504 892 1
504 990 1
505 2 1
505 5 1
505 13 1
505 37 1
505 47 1
505 157 1
505 162 1
505 173 1
505 205 1
505 255 1
505 304 1
505 316 1
505 377 1
505 406 1
505 437 1
505 452 1
505 494 1
505 576 1
505 593 1
505 687 1
505 693 1
505 781 1
505 828 1
505 850 1
505 870 1
505 950 1
505 962 1
506 5 1
506 24 1
506 124 1
506 170 1
506 245 1
506 254 1
506 518 1
506 522 1
506 726 1
506 755 1
506 772 1
506 792 1
506 806 1
506 814 1
506 829 1
506 884 1
506 889 1
506 912 1
507 21 1
507 70 1
507 120 1
507 221 1
507 258 1
507 288 1
507 324 1
507 350 1
507 409 1
507 415 1
507 454 1
507 546 1
507 598 1
507 627 1
507 660 1
507 666 1
507 672 1
507 717 1
507 825 1
507 834 1
507 887 1
507 892 1
507 907 1
507 970 1
508 95 1
508 168 1
508 173 1
508 202 1
508 229 1
508 238 1
508 266 1
508 322 1
508 382 1
508 402 1
508 466 1
508 470 1
508 480 1
508 531 1
508 588 1
508 604 1
508 619 1
508 623 1
508 767 1
508 868 1
508 876 1
508 936 1
508 959 1
509 38 1
509 51 1
509 84 1
509 109 1
509 157 1
509 219 1
509 287 1
509 396 1
509 460 1
509 598 1
509 625 1
509 653 1
509 702 1
509 720 1
509 790 1
509 793 1
509 832 1
509 843 1
509 889 1
509 901 1
509 914 1
510 78 1
510 141 1
510 181 1
510 182 1
510 186 1
510 191 1
510 204 1
510 239 1
510 277 1
510 314 1
510 317 1
510 367 1
510 445 1
510 554 1
510 558 1
510 564 1
510 640 1
510 649 1
510 676 1
510 687 1
510 842 1
510 910 1
510 916 1
511 19 1
511 72 1
511 217 1
511 667 1
511 697 1
511 698 1
511 757 1
511 760 1
511 763 1
511 834 1
511 895 1
511 905 1
511 957 1
511 976 1
511 980 1
511 997 1
512 58 1
512 76 1
512 77 1
512 101 1
512 125 1
512 151 1
512 186 1
512 282 1
512 359 1
512 380 1
512 401 1
512 443 1
512 475 1
512 513 1
512 573 1
512 689 1
512 783 1
512 941 1
513 18 1
513 35 1
513 58 1
513 91 1
513 161 1
513 248 1
513 249 1
513 261 1
513 266 1
513 291 1
513 357 1
513 396 1
513 402 1
513 446 1
513 474 1
513 512 1
513 580 1
513 589 1
513 662 1
513 733 1
513 747 1
513 937 1
513 981 1
514 18 1
514 131 1
514 291 1
514 442 1
514 475 1
514 535 1
514 666 1
514 759 1
514 768 1
514 887 1
514 933 1
515 62 1
515 85 1
515 95 1
515 129 1
515 171 1
515 182 1
515 259 1
515 265 1
515 354 1
515 373 1
515 420 1
515 447 1
515 539 1
515 559 1
515 573 1
515 614 1
515 624 1
515 634 1
515 668 1
515 671 1
515 744 1
515 758 1
515 828 1
516 14 1
516 24 1
516 26 1
516 50 1
516 59 1
516 66 1
516 240 1
516 277 1
516 379 1
516 543 1
516 570 1
516 576 1
516 594 1
516 677 1
516 796 1
516 833 1
516 854 1
516 859 1
516 935 1
516 936 1
516 942 1
516 977 1
517 3 1
517 35 1
517 127 1
517 150 1
517 167 1
517 231 1
517 252 1
517 344 1
517 378 1
517 471 1
517 529 1
517 570 1
517 644 1
517 689 1
517 720 1
517 752 1
517 872 1
517 915 1
518 48 1
518 144 1
518 237 1
518 241 1
518 289 1
518 290 1
518 374 1
518 385 1
518 506 1
518 612 1
518 639 1
518 726 1
518 791 1
518 845 1
518 846 1
518 884 1
518 999 1
519 32 1
519 42 1
519 61 1
519 71 1
519 118 1
519 160 1
519 213 1
519 222 1
519 225 1
519 234 1
519 260 1
519 276 1
519 296 1
519 466 1
519 477 1
519 589 1
519 627 1
519 639 1
519 645 1
519 940 1
519 980 1
520 42 1
520 92 1
520 97 1
520 142 1
520 143 1
520 151 1
520 200 1
520 239 1
520 318 1
520 353 1
520 357 1
520 376 1
520 378 1
520 591 1
520 598 1
520 779 1
520 852 1
520 872 1
520 940 1
521 104 1
521 195 1
521 309 1
521 315 1
521 362 1
521 407 1
521 419 1
521 548 1
521 622 1
521 635 1
521 660 1
521 665 1
521 676 1
521 689 1
521 916 1
521 987 1
522 25 1
522 70 1
522 128 1
522 151 1
522 163 1
522 298 1
522 374 1
522 460 1
522 506 1
522 524 1
522 616 1
522 678 1
522 785 1
522 806 1
522 810 1
522 830 1
522 876 1
522 947 1
522 986 1
522 998 1
523 15 1
523 45 1
523 332 1
523 388 1
523 414 1
523 465 1
523 488 1
523 584 1
523 630 1
523 637 1
523 664 1
523 677 1
523 696 1
523 745 1
523 791 1
523 846 1
523 852 1
523 873 1
523 941 1
523 963 1
523 979 1
524 21 1
524 137 1
524 196 1
524 237 1
524 371 1
524 405 1
524 522 1
524 526 1
524 533 1
524 567 1
524 570 1
524 591 1
524 667 1
524 704 1
524 711 1
524 807 1
524 854 1
524 997 1
524 1000 1
525 29 1
525 189 1
525 202 1
525 210 1
525 222 1
525 234 1
525 269 1
525 280 1
525 284 1
525 324 1
525 412 1
525 442 1
525 530 1
525 561 1
525 569 1
525 660 1
525 696 1
525 765 1
525 807 1
525 838 1
525 848 1
525 945 1
525 958 1
526 77 1
526 138 1
526 180 1
526 230 1
526 348 1
526 524 1
526 584 1
526 586 1
526 616 1
526 667 1
526 671 1
526 731 1
526 737 1
526 759 1
526 791 1
526 873 1
526 889 1
526 931 1
526 993 1
526 999 1
527 67 1
527 135 1
527 183 1
527 232 1
527 339 1
527 392 1
527 398 1
527 439 1
527 473 1
527 617 1
527 651 1
527 693 1
527 695 1
527 707 1
527 819 1
527 949 1
527 959 1
527 966 1
527 998 1
528 131 1
528 193 1
528 273 1
528 275 1
528 357 1
528 457 1
528 502 1
528 565 1
528 583 1
528 609 1
528 690 1
528 706 1
528 738 1
528 797 1
528 843 1
529 50 1
529 92 1
529 120 1
529 517 1
529 552 1
529 556 1
529 668 1
529 739 1
529 761 1
529 878 1
529 963 1
529 968 1
529 990 1
530 32 1
530 55 1
530 205 1
530 209 1
530 315 1
530 324 1
530 328 1
530 439 1
530 525 1
530 546 1
530 674 1
530 690 1
530 730 1
530 752 1
530 767 1
530 774 1
530 788 1
530 834 1
530 894 1
530 903 1
530 955 1
530 958 1
531 190 1
531 192 1
531 221 1
531 270 1
531 279 1
531 308 1
531 433 1
531 508 1
531 556 1
531 651 1
531 756 1
531 845 1
531 853 1
531 905 1
532 28 1
532 67 1
532 120 1
532 161 1
532 302 1
532 415 1
532 451 1
532 461 1
532 483 1
532 534 1
532 545 1
532 628 1
532 708 1
532 744 1
532 831 1
532 922 1
532 946 1
533 37 1
533 84 1
533 186 1
533 378 1
533 494 1
533 524 1
533 572 1
533 612 1
533 653 1
533 664 1
533 695 1
533 814 1
533 862 1
533 881 1
534 38 1
534 54 1
534 59 1
534 89 1
534 96 1
534 179 1
534 229 1
534 232 1
534 246 1
534 304 1
534 327 1
534 404 1
534 478 1
534 532 1
534 582 1
534 686 1
534 855 1
534 873 1
534 887 1
534 893 1
535 12 1
535 97 1
535 117 1
535 123 1
535 126 1
535 323 1
535 383 1
535 419 1
535 471 1
535 498 1
535 514 1
535 540 1
535 601 1
535 614 1
535 650 1
535 651 1
535 653 1
535 682 1
535 712 1
535 816 1
535 880 1
535 905 1
535 945 1
535 958 1
536 47 1
536 51 1
536 66 1
536 92 1
536 113 1
536 146 1
536 166 1
536 180 1
536 184 1
536 219 1
536 248 1
536 270 1
536 404 1
536 448 1
536 593 1
536 812 1
536 845 1
536 871 1
536 953 1
536 957 1
536 972 1
537 30 1
537 32 1
537 188 1
537 197 1
537 623 1
537 665 1
537 670 1
537 728 1
537 795 1
537 900 1
537 916 1
537 941 1
537 948 1
538 11 1
538 135 1
538 183 1
538 201 1
538 223 1
538 354 1
538 402 1
538 424 1
538 463 1
538 596 1
538 600 1
538 657 1
538 802 1
538 817 1
538 880 1
538 949 1
538 970 1
538 987 1
539 41 1
539 81 1
539 123 1
539 134 1
539 310 1
539 348 1
539 515 1
539 604 1
539 635 1
539 647 1
539 779 1
539 792 1
539 963 1
539 974 1
540 12 1
540 36 1
540 48 1
540 66 1
540 79 1
540 180 1
540 236 1
540 262 1
540 345 1
540 435 1
540 460 1
540 466 1
540 535 1
540 599 1
540 660 1
540 749 1
540 784 1
540 835 1
540 950 1
540 992 1
541 5 1
541 56 1
541 128 1
541 137 1
541 279 1
541 314 1
541 325 1
541 328 1
541 383 1
541 384 1
541 444 1
541 483 1
541 500 1
541 571 1
541 596 1
541 624 1
541 652 1
541 697 1
541 821 1
541 836 1
541 880 1
541 916 1
541 929 1
541 982 1
541 993 1
542 9 1
542 46 1
542 79 1
542 96 1
542 112 1
542 144 1
542 169 1
542 187 1
542 189 1
542 210 1
542 363 1
542 409 1
542 469 1
542 561 1
542 604 1
542 639 1
542 724 1
542 797 1
542 907 1
542 925 1
542 943 1
543 149 1
543 159 1
543 181 1
543 208 1
543 234 1
543 250 1
543 342 1
543 375 1
543 408 1
543 486 1
543 502 1
543 516 1
543 600 1
543 937 1
543 939 1
544 42 1
544 93 1
544 103 1
544 176 1
544 330 1
544 391 1
544 413 1
544 417 1
544 486 1
544 595 1
544 633 1
544 642 1
544 707 1
544 730 1
544 758 1
544 898 1
545 11 1
545 32 1
545 207 1
545 268 1
545 269 1
545 298 1
545 319 1
545 320 1
545 366 1
545 532 1
545 561 1
545 590 1
545 660 1
545 794 1
545 945 1
545 959 1
545 995 1
545 997 1
546 37 1
546 97 1
546 177 1
546 189 1
546 305 1
546 437 1
546 462 1
546 507 1
546 530 1
546 645 1
546 772 1
546 809 1
546 867 1
546 899 1
546 914 1
546 961 1
547 2 1
547 64 1
547 98 1
547 206 1
547 312 1
547 326 1
547 328 1
547 399 1
547 444 1
547 574 1
547 591 1
547 633 1
547 780 1
547 782 1
547 791 1
547 898 1
547 940 1
547 978 1
548 53 1
548 92 1
548 188 1
548 226 1
548 253 1
548 292 1
548 481 1
548 498 1
548 521 1
548 631 1
548 736 1
548 805 1
548 859 1
548 876 1
548 896 1
548 921 1
548 936 1
549 54 1
549 80 1
549 95 1
549 185 1
549 343 1
549 399 1
549 580 1
549 693 1
549 798 1
549 807 1
549 822 1
549 871 1
549 941 1
550 34 1
550 57 1
550 140 1
550 223 1
550 240 1
550 244 1
550 301 1
550 444 1
550 461 1
550 578 1
550 770 1
550 833 1
550 997 1
551 206 1
551 224 1
551 315 1
551 431 1
551 485 1
551 497 1
551 577 1
551 643 1
551 666 1
551 734 1
551 800 1
551 821 1
551 823 1
551 866 1
551 926 1
551 934 1
551 957 1
551 969 1
552 213 1
552 315 1
552 351 1
552 479 1
552 529 1
552 594 1
552 598 1
552 622 1
552 654 1
552 683 1
552 697 1
552 698 1
552 756 1
552 762 1
552 805 1
552 806 1
552 817 1
552 905 1
552 997 1
553 82 1
553 270 1
553 316 1
553 476 1
553 484 1
553 602 1
553 657 1
553 704 1
553 750 1
553 755 1
553 789 1
553 839 1
553 873 1
553 880 1
553 984 1
554 14 1
554 65 1
554 240 1
554 249 1
554 310 1
554 344 1
554 435 1
554 446 1
554 474 1
554 489 1
554 510 1
554 616 1
554 797 1
554 830 1
554 862 1
554 898 1
554 930 1
554 950 1
554 964 1
554 979 1
554 989 1
555 18 1
555 33 1
555 51 1
555 151 1
555 260 1
555 274 1
555 290 1
555 303 1
555 454 1
555 646 1
555 715 1
555 747 1
555 768 1
555 815 1
555 875 1
555 930 1
555 933 1
555 969 1
556 22 1
556 76 1
556 108 1
556 193 1
556 211 1
556 213 1
556 226 1
556 313 1
556 529 1
556 531 1
556 665 1
556 732 1
556 748 1
556 853 1
556 860 1
556 873 1
557 25 1
557 36 1
557 127 1
557 181 1
557 207 1
557 291 1
557 329 1
557 377 1
557 382 1
557 466 1
557 641 1
557 648 1
557 659 1
557 683 1
557 686 1
557 710 1
557 967 1
557 987 1
558 10 1
558 24 1
558 160 1
558 186 1
558 244 1
558 510 1
558 559 1
558 602 1
558 613 1
558 736 1
558 754 1
558 776 1
558 797 1
558 850 1
558 945 1
558 950 1
558 973 1
558 997 1
559 37 1
559 67 1
559 85 1
559 98 1
559 107 1
559 124 1
559 156 1
559 280 1
559 282 1
559 339 1
559 452 1
559 489 1
559 515 1
559 558 1
559 596 1
559 675 1
559 746 1
559 751 1
559 759 1
559 776 1
559 811 1
559 933 1
559 950 1
560 9 1
560 131 1
560 160 1
560 228 1
560 253 1
560 284 1
560 288 1
560 321 1
560 351 1
560 375 1
560 435 1
560 562 1
560 615 1
560 632 1
560 634 1
560 639 1
560 748 1
560 758 1
560 759 1
560 799 1
560 826 1
560 959 1
560 963 1
561 36 1
561 54 1
561 130 1
561 142 1
561 174 1
561 322 1
561 387 1
561 395 1
561 418 1
561 438 1
561 502 1
561 525 1
561 542 1
561 545 1
561 602 1
561 604 1
561 617 1
561 622 1
561 709 1
561 847 1
561 874 1
561 895 1
561 945 1
562 14 1
562 33 1
562 76 1
562 214 1
562 233 1
562 282 1
562 322 1
562 367 1
562 408 1
562 560 1
562 599 1
562 663 1
562 677 1
562 766 1
562 809 1
562 879 1
562 894 1
562 931 1
562 939 1
562 999 1
563 5 1
563 82 1
563 98 1
563 189 1
563 281 1
563 323 1
563 349 1
563 355 1
563 386 1
563 421 1
563 440 1
563 464 1
563 471 1
563 642 1
563 645 1
563 650 1
563 665 1
563 670 1
563 693 1
563 723 1
563 759 1
563 791 1
563 833 1
563 899 1
563 956 1
563 963 1
563 971 1
564 22 1
564 78 1
564 155 1
564 161 1
564 240 1
564 334 1
564 411 1
564 447 1
564 482 1
564 510 1
564 672 1
564 845 1
564 909 1
564 970 1
565 15 1
565 177 1
565 280 1
565 337 1
565 484 1
565 528 1
565 583 1
565 613 1
565 674 1
565 675 1
565 821 1
565 882 1
565 889 1
566 33 1
566 110 1
566 222 1
566 310 1
566 323 1
566 347 1
566 353 1
566 460 1
566 483 1
566 599 1
566 607 1
566 678 1
566 722 1
566 751 1
566 758 1
566 760 1
566 883 1
567 26 1
567 35 1
567 191 1
567 208 1
567 235 1
567 390 1
567 524 1
567 712 1
567 751 1
567 757 1
567 841 1
567 972 1
567 986 1
568 6 1
568 23 1
568 63 1
568 91 1
568 146 1
568 221 1
568 232 1
568 255 1
568 286 1
568 328 1
568 371 1
568 408 1
568 430 1
568 453 1
568 468 1
568 491 1
568 706 1
568 723 1
568 729 1
568 772 1
568 843 1
568 864 1
568 992 1
569 27 1
569 54 1
569 65 1
569 87 1
569 110 1
569 201 1
569 209 1
569 231 1
569 275 1
569 312 1
569 328 1
569 387 1
569 478 1
569 487 1
569 525 1
569 594 1
569 639 1
569 718 1
569 759 1
570 19 1
570 84 1
570 85 1
570 87 1
570 193 1
570 330 1
570 349 1
570 402 1
570 516 1
570 517 1
570 524 1
570 609 1
570 624 1
570 644 1
570 681 1
570 786 1
570 823 1
570 839 1
570 860 1
570 909 1
570 932 1
570 962 1
571 26 1
571 39 1
571 82 1
571 142 1
571 212 1
571 273 1
571 309 1
571 342 1
571 374 1
571 436 1
571 438 1
571 441 1
571 453 1
571 477 1
571 479 1
571 504 1
571 541 1
571 637 1
571 639 1
571 646 1
571 733 1
571 775 1
571 828 1
571 908 1
571 980 1
572 12 1
572 24 1
572 69 1
572 121 1
572 231 1
572 260 1
572 262 1
572 290 1
572 338 1
572 388 1
572 420 1
572 459 1
572 533 1
572 735 1
572 804 1
572 827 1
572 856 1
572 925 1
573 102 1
573 182 1
573 349 1
573 401 1
573 476 1
573 497 1
573 512 1
573 515 1
573 580 1
573 585 1
573 736 1
573 746 1
573 755 1
573 806 1
573 851 1
573 913 1
573 922 1
573 983 1
573 987 1
574 79 1
574 85 1
574 94 1
574 122 1
574 153 1
574 175 1
574 191 1
574 225 1
574 358 1
574 427 1
574 439 1
574 498 1
574 547 1
574 596 1
574 658 1
574 705 1
574 772 1
574 814 1
574 911 1
574 915 1
574 949 1
574 974 1
575 4 1
575 8 1
575 41 1
575 150 1
575 169 1
575 339 1
575 344 1
575 351 1
575 355 1
575 361 1
575 403 1
575 597 1
575 968 1
576 118 1
576 306 1
576 390 1
576 396 1
576 418 1
576 490 1
576 505 1
576 516 1
576 636 1
576 654 1
576 665 1
576 701 1
576 732 1
576 925 1
576 931 1
576 932 1
577 110 1
577 177 1
577 214 1
577 250 1
577 351 1
577 551 1
577 583 1
577 587 1
577 601 1
577 614 1
577 637 1
577 723 1
577 755 1
577 797 1
577 845 1
577 856 1
577 901 1
577 950 1
578 45 1
578 48 1
578 151 1
578 225 1
578 307 1
578 362 1
578 550 1
578 712 1
578 745 1
578 790 1
578 800 1
578 804 1
578 813 1
578 884 1
578 948 1
578 975 1
578 983 1
579 20 1
579 57 1
579 80 1
579 129 1
579 133 1
579 202 1
579 217 1
579 227 1
579 232 1
579 236 1
579 296 1
579 313 1
579 345 1
579 365 1
579 385 1
579 458 1
579 611 1
579 686 1
579 687 1
579 785 1
579 791 1
579 813 1
579 879 1
579 889 1
579 923 1
579 937 1
580 11 1
580 40 1
580 64 1
580 124 1
580 130 1
580 137 1
580 180 1
580 196 1
580 275 1
580 359 1
580 373 1
580 479 1
580 513 1
580 549 1
580 573 1
580 581 1
580 594 1
580 650 1
580 782 1
580 799 1
580 827 1
580 935 1
580 960 1
580 961 1
580 962 1
580 979 1
580 982 1
580 991 1
581 117 1
581 154 1
581 196 1
581 222 1
581 223 1
581 264 1
581 307 1
581 412 1
581 422 1
581 460 1
581 465 1
581 580 1
581 583 1
581 656 1
581 659 1
581 734 1
581 778 1
581 898 1
581 946 1
581 960 1
581 993 1
582 21 1
582 55 1
582 197 1
582 216 1
582 262 1
582 285 1
582 370 1
582 409 1
582 423 1
582 433 1
582 444 1
582 497 1
582 534 1
582 668 1
582 669 1
582 688 1
582 710 1
582 718 1
582 746 1
582 783 1
582 831 1
582 890 1
582 894 1
582 964 1
583 70 1
583 125 1
583 139 1
583 211 1
583 217 1
583 220 1
583 279 1
583 359 1
583 373 1
583 379 1
583 394 1
583 449 1
583 459 1
583 462 1
583 528 1
583 565 1
583 577 1
583 581 1
583 585 1
583 597 1
583 616 1
583 650 1
583 703 1
583 718 1
583 734 1
583 839 1
583 875 1
583 894 1
583 917 1
583 927 1
583 952 1
583 991 1
584 93 1
584 97 1
584 160 1
584 195 1
584 198 1
584 255 1
584 319 1
584 348 1
584 349 1
584 494 1
584 523 1
584 526 1
584 803 1
584 830 1
584 890 1
584 948 1
584 982 1
585 20 1
585 38 1
585 74 1
585 153 1
585 163 1
585 240 1
585 491 1
585 501 1
585 573 1
585 583 1
585 635 1
585 654 1
585 739 1
585 789 1
585 885 1
585 909 1
585 916 1
585 958 1
585 962 1
585 996 1
586 7 1
586 32 1
586 37 1
586 60 1
586 66 1
586 155 1
586 184 1
586 237 1
586 254 1
586 296 1
586 305 1
586 306 1
586 398 1
586 526 1
586 600 1
586 623 1
586 672 1
586 696 1
586 722 1
586 738 1
586 782 1
586 819 1
586 887 1
586 921 1
586 946 1
586 996 1
587 335 1
587 342 1
587 502 1
587 577 1
587 653 1
587 698 1
587 897 1
587 920 1
587 970 1
587 973 1
587 984 1
587 992 1
588 28 1
588 44 1
588 140 1
588 175 1
588 267 1
588 278 1
588 336 1
588 374 1
588 385 1
588 480 1
588 508 1
588 629 1
588 630 1
588 642 1
588 657 1
588 883 1
588 953 1
588 963 1
588 967 1
589 18 1
589 88 1
589 89 1
589 198 1
589 241 1
589 269 1
589 314 1
589 340 1
589 387 1
589 455 1
589 468 1
589 513 1
589 519 1
589 623 1
589 626 1
589 674 1
589 712 1
589 810 1
589 887 1
589 893 1
589 914 1
589 923 1
589 933 1
590 122 1
590 148 1
590 150 1
590 202 1
590 285 1
590 298 1
590 545 1
590 621 1
590 634 1
590 679 1
590 784 1
590 791 1
590 921 1
590 965 1
590 977 1
591 5 1
591 61 1
591 72 1
591 147 1
591 191 1
591 207 1
591 236 1
591 359 1
591 468 1
591 483 1
591 520 1
591 524 1
591 547 1
591 619 1
591 660 1
591 728 1
591 754 1
591 770 1
591 822 1
591 831 1
591 838 1
591 845 1
591 846 1
591 894 1
591 906 1
591 942 1
592 28 1
592 43 1
592 53 1
592 102 1
592 170 1
592 182 1
592 224 1
592 271 1
592 653 1
592 671 1
592 755 1
592 842 1
592 849 1
592 853 1
592 966 1
593 24 1
593 169 1
593 194 1
593 218 1
593 261 1
593 366 1
593 374 1
593 402 1
593 425 1
593 505 1
593 536 1
593 596 1
593 613 1
593 617 1
593 619 1
593 683 1
593 704 1
593 824 1
593 879 1
593 951 1
593 984 1
593 986 1
594 82 1
594 142 1
594 237 1
594 253 1
594 334 1
594 352 1
594 384 1
594 516 1
594 552 1
594 569 1
594 580 1
594 738 1
594 799 1
594 845 1
595 45 1
595 124 1
595 246 1
595 285 1
595 331 1
595 365 1
595 370 1
595 383 1
595 407 1
595 428 1
595 486 1
595 501 1
595 544 1
595 632 1
595 727 1
595 740 1
595 751 1
595 761 1
595 775 1
595 809 1
595 821 1
595 919 1
595 954 1
596 10 1
596 21 1
596 97 1
596 186 1
596 215 1
596 265 1
596 293 1
596 321 1
596 399 1
596 459 1
596 481 1
596 538 1
596 541 1
596 559 1
596 574 1
596 593 1
596 648 1
596 652 1
596 685 1
596 694 1
596 723 1
596 751 1
596 766 1
596 815 1
596 831 1
596 869 1
596 884 1
596 898 1
596 961 1
596 976 1
596 979 1
596 982 1
596 992 1
597 14 1
597 52 1
597 61 1
597 117 1
597 188 1
597 211 1
597 232 1
597 238 1
597 301 1
597 378 1
597 473 1
597 489 1
597 493 1
597 575 1
597 583 1
597 642 1
597 715 1
597 734 1
597 739 1
597 847 1
597 885 1
597 907 1
597 917 1
597 945 1
598 13 1
598 63 1
598 89 1
598 171 1
598 206 1
598 213 1
598 305 1
598 503 1
598 507 1
598 509 1
598 520 1
598 552 1
598 700 1
598 738 1
598 760 1
598 867 1
598 886 1
598 939 1
598 969 1
598 997 1
599 19 1
599 121 1
599 144 1
599 328 1
599 421 1
599 439 1
599 440 1
599 445 1
599 540 1
599 562 1
599 566 1
599 605 1
599 631 1
599 642 1
599 677 1
599 717 1
599 784 1
599 820 1
599 837 1
599 962 1
599 984 1
600 4 1
600 26 1
600 100 1
600 118 1
600 170 1
600 203 1
600 380 1
600 414 1
600 457 1
600 538 1
600 543 1
600 586 1
600 640 1
600 667 1
600 676 1
600 788 1
600 813 1
600 819 1
600 896 1
601 46 1
601 76 1
601 117 1
601 158 1
601 203 1
601 256 1
601 303 1
601 334 1
601 403 1
601 425 1
601 445 1
601 535 1
601 577 1
601 605 1
601 634 1
601 637 1
601 689 1
601 743 1
601 755 1
601 837 1
601 898 1
601 916 1
601 981 1
601 987 1
602 65 1
602 90 1
602 148 1
602 149 1
602 174 1
602 218 1
602 234 1
602 267 1
602 268 1
602 280 1
602 281 1
602 315 1
602 420 1
602 486 1
602 553 1
602 558 1
602 561 1
602 626 1
602 658 1
602 668 1
602 716 1
602 733 1
602 784 1
602 797 1
602 867 1
602 892 1
602 910 1
603 3 1
603 22 1
603 23 1
603 39 1
603 94 1
603 112 1
603 188 1
603 192 1
603 438 1
603 442 1
603 631 1
603 773 1
603 978 1
604 22 1
604 99 1
604 105 1
604 140 1
604 151 1
604 246 1
604 297 1
604 331 1
604 347 1
604 364 1
604 390 1
604 436 1
604 463 1
604 488 1
604 508 1
604 539 1
604 542 1
604 561 1
604 632 1
604 659 1
604 664 1
604 712 1
604 761 1
604 809 1
604 880 1
604 913 1
604 976 1
604 979 1
604 993 1
605 33 1
605 56 1
605 69 1
605 108 1
605 140 1
605 175 1
605 209 1
605 225 1
605 263 1
605 264 1
605 324 1
605 387 1
605 486 1
605 503 1
605 599 1
605 601 1
605 660 1
605 737 1
605 748 1
605 771 1
605 802 1
605 945 1
605 968 1
605 972 1
605 998 1
606 32 1
606 54 1
606 91 1
606 233 1
606 271 1
606 331 1
606 457 1
606 460 1
606 464 1
606 617 1
606 637 1
606 679 1
606 754 1
606 993 1
606 995 1
607 76 1
607 146 1
607 162 1
607 348 1
607 358 1
607 396 1
607 432 1
607 566 1
607 615 1
607 695 1
607 752 1
607 762 1
607 763 1
607 805 1
607 908 1
607 981 1
608 66 1
608 74 1
608 196 1
608 208 1
608 236 1
608 276 1
608 337 1
608 343 1
608 377 1
608 437 1
608 447 1
608 641 1
608 702 1
608 763 1
608 796 1
608 799 1
608 946 1
608 988 1
609 13 1
609 18 1
609 140 1
609 250 1
609 255 1
609 264 1
609 276 1
609 288 1
609 336 1
609 528 1
609 570 1
609 624 1
609 632 1
609 703 1
609 712 1
609 788 1
609 849 1
609 862 1
609 883 1
609 955 1
609 993 1
610 37 1
610 65 1
610 77 1
610 119 1
610 131 1
610 152 1
610 236 1
610 252 1
610 269 1
610 311 1
610 370 1
610 387 1
610 481 1
610 627 1
610 636 1
610 637 1
610 654 1
610 665 1
610 667 1
610 674 1
610 724 1
610 821 1
610 898 1
610 913 1
610 929 1
610 993 1
611 30 1
611 53 1
611 76 1
611 87 1
611 206 1
611 234 1
611 315 1
611 388 1
611 579 1
611 631 1
611 647 1
611 686 1
611 765 1
611 821 1
611 832 1
611 834 1
611 871 1
612 81 1
612 97 1
612 171 1
612 304 1
612 321 1
612 344 1
612 391 1
612 474 1
612 518 1
612 533 1
612 767 1
612 896 1
612 901 1
612 973 1
613 89 1
613 111 1
613 112 1
613 149 1
613 152 1
613 220 1
613 234 1
613 268 1
613 284 1
613 312 1
613 397 1
613 405 1
613 558 1
613 565 1
613 593 1
613 665 1
613 773 1
613 775 1
613 876 1
613 900 1
613 901 1
613 910 1
613 980 1
613 987 1
614 44 1
614 266 1
614 383 1
614 423 1
614 515 1
614 535 1
614 577 1
614 646 1
614 708 1
614 755 1
614 764 1
614 875 1
614 882 1
614 903 1
614 928 1
614 995 1
615 75 1
615 165 1
615 263 1
615 334 1
615 372 1
615 394 1
615 398 1
615 409 1
615 429 1
615 435 1
615 453 1
615 498 1
615 502 1
615 504 1
615 560 1
615 607 1
615 640 1
615 686 1
615 755 1
615 868 1
615 885 1
615 919 1
615 967 1
616 2 1
616 28 1
616 63 1
616 69 1
616 82 1
616 146 1
616 222 1
616 244 1
616 255 1
616 286 1
616 312 1
616 315 1
616 332 1
616 338 1
616 369 1
616 463 1
616 522 1
616 526 1
616 554 1
616 583 1
616 646 1
616 749 1
616 753 1
616 754 1
616 761 1
616 770 1
616 782 1
616 823 1
616 902 1
616 940 1
616 968 1
617 23 1
617 179 1
617 208 1
617 259 1
617 314 1
617 416 1
617 465 1
617 496 1
617 527 1
617 561 1
617 593 1
617 606 1
617 622 1
617 640 1
617 668 1
617 736 1
617 794 1
617 839 1
617 855 1
617 866 1
617 908 1
617 952 1
618 4 1
618 74 1
618 76 1
618 109 1
618 112 1
618 142 1
618 143 1
618 153 1
618 287 1
618 300 1
618 432 1
618 717 1
618 780 1
618 801 1
618 865 1
619 49 1
619 187 1
619 216 1
619 226 1
619 298 1
619 343 1
619 349 1
619 402 1
619 428 1
619 471 1
619 494 1
619 508 1
619 591 1
619 593 1
619 646 1
619 741 1
619 829 1
619 855 1
619 899 1
619 990 1
619 995 1
620 110 1
620 126 1
620 132 1
620 136 1
620 162 1
620 266 1
620 333 1
620 378 1
620 455 1
620 647 1
620 677 1
620 682 1
620 732 1
620 750 1
620 905 1
621 10 1
621 56 1
621 57 1
621 190 1
621 283 1
621 394 1
621 440 1
621 451 1
621 485 1
621 494 1
621 496 1
621 590 1
621 667 1
621 743 1
621 903 1
621 907 1
621 964 1
622 20 1
622 41 1
622 53 1
622 171 1
622 180 1
622 186 1
622 241 1
622 257 1
622 337 1
622 435 1
622 454 1
622 521 1
622 552 1
622 561 1
622 617 1
622 713 1
622 744 1
622 776 1
622 802 1
622 834 1
622 885 1
622 896 1
622 916 1
623 58 1
623 60 1
623 108 1
623 123 1
623 183 1
623 200 1
623 222 1
623 301 1
623 323 1
623 347 1
623 408 1
623 413 1
623 508 1
623 537 1
623 586 1
623 589 1
623 658 1
623 661 1
623 722 1
623 728 1
623 789 1
623 942 1
623 956 1
623 974 1
624 38 1
624 287 1
624 326 1
624 367 1
624 392 1
624 457 1
624 460 1
624 515 1
624 541 1
624 570 1
624 609 1
624 649 1
624 691 1
624 710 1
624 766 1
624 768 1
624 769 1
624 834 1
624 896 1
624 912 1
624 919 1
624 939 1
624 946 1
624 969 1
624 981 1
625 27 1
625 42 1
625 70 1
625 130 1
625 138 1
625 156 1
625 279 1
625 304 1
625 409 1
625 437 1
625 448 1
625 465 1
625 509 1
625 656 1
625 673 1
625 690 1
625 693 1
625 694 1
625 715 1
625 724 1
625 750 1
625 826 1
625 865 1
625 955 1
626 10 1
626 68 1
626 138 1
626 158 1
626 193 1
626 282 1
626 356 1
626 435 1
626 436 1
626 451 1
626 589 1
626 602 1
626 724 1
626 860 1
626 912 1
626 963 1
626 993 1
626 994 1
627 86 1
627 102 1
627 135 1
627 145 1
627 163 1
627 189 1
627 304 1
627 327 1
627 375 1
627 389 1
627 475 1
627 484 1
627 507 1
627 519 1
627 610 1
627 666 1
627 888 1
627 970 1
627 974 1
628 39 1
628 90 1
628 110 1
628 130 1
628 161 1
628 176 1
628 255 1
628 317 1
628 321 1
628 329 1
628 366 1
628 384 1
628 478 1
628 532 1
628 696 1
628 697 1
628 875 1
628 945 1
629 21 1
629 41 1
629 76 1
629 128 1
629 279 1
629 298 1
629 409 1
629 588 1
629 683 1
629 716 1
629 881 1
629 884 1
629 918 1
630 53 1
630 89 1
630 102 1
630 128 1
630 313 1
630 366 1
630 461 1
630 478 1
630 523 1
630 588 1
630 674 1
630 675 1
630 727 1
630 780 1
630 812 1
630 829 1
630 851 1
630 889 1
630 911 1
630 956 1
630 957 1
631 42 1
631 175 1
631 182 1
631 202 1
631 408 1
631 410 1
631 548 1
631 599 1
631 603 1
631 611 1
631 729 1
631 838 1
631 873 1
631 909 1
631 912 1
631 936 1
631 972 1
631 976 1
631 991 1
632 95 1
632 203 1
632 222 1
632 254 1
632 263 1
632 280 1
632 300 1
632 335 1
632 397 1
632 460 1
632 504 1
632 560 1
632 595 1
632 604 1
632 609 1
632 643 1
632 664 1
632 667 1
632 791 1
632 853 1
632 877 1
632 923 1
633 38 1
633 141 1
633 147 1
633 211 1
633 234 1
633 333 1
633 417 1
633 499 1
633 544 1
633 547 1
633 659 1
633 695 1
633 724 1
633 773 1
633 816 1
633 862 1
633 923 1
634 38 1
634 80 1
634 124 1
634 141 1
634 151 1
634 173 1
634 194 1
634 300 1
634 346 1
634 382 1
634 515 1
634 560 1
634 590 1
634 601 1
634 797 1
634 845 1
634 847 1
634 878 1
634 941 1
634 983 1
634 991 1
635 118 1
635 253 1
635 343 1
635 356 1
635 362 1
635 425 1
635 521 1
635 539 1
635 585 1
635 644 1
635 679 1
635 693 1
635 816 1
635 868 1
635 870 1
635 871 1
636 52 1
636 71 1
636 72 1
636 116 1
636 132 1
636 138 1
636 142 1
636 144 1
636 576 1
636 610 1
636 902 1
636 941 1
637 68 1
637 109 1
637 111 1
637 215 1
637 247 1
637 304 1
637 409 1
637 523 1
637 571 1
637 577 1
637 601 1
637 606 1
637 610 1
637 707 1
637 757 1
637 785 1
637 805 1
637 880 1
637 933 1
637 985 1
638 7 1
638 12 1
638 35 1
638 80 1
638 95 1
638 159 1
638 176 1
638 222 1
638 224 1
638 305 1
638 311 1
638 462 1
638 485 1
638 504 1
638 657 1
638 768 1
638 786 1
638 836 1
638 865 1
638 866 1
638 872 1
638 914 1
639 9 1
639 11 1
639 50 1
639 92 1
639 182 1
639 203 1
639 378 1
639 454 1
639 470 1
639 518 1
639 519 1
639 542 1
639 560 1
639 569 1
639 571 1
639 678 1
639 716 1
639 766 1
639 809 1
639 820 1
639 829 1
639 838 1
639 871 1
639 894 1
639 906 1
639 927 1
639 992 1
640 6 1
640 88 1
640 123 1
640 197 1
640 256 1
640 265 1
640 305 1
640 314 1
640 432 1
640 438 1
640 453 1
640 510 1
640 600 1
640 615 1
640 617 1
640 644 1
640 677 1
640 793 1
640 799 1
640 924 1
640 949 1
641 143 1
641 259 1
641 383 1
641 482 1
641 557 1
641 608 1
641 659 1
641 684 1
641 764 1
641 774 1
641 778 1
641 812 1
641 821 1
641 882 1
641 907 1
642 10 1
642 54 1
642 55 1
642 57 1
642 76 1
642 274 1
642 304 1
642 464 1
642 498 1
642 544 1
642 563 1
642 588 1
642 597 1
642 599 1
642 656 1
642 707 1
642 731 1
642 782 1
642 820 1
642 896 1
642 979 1
643 100 1
643 117 1
643 186 1
643 241 1
643 284 1
643 397 1
643 427 1
643 474 1
643 480 1
643 500 1
643 551 1
643 632 1
643 662 1
643 749 1
643 772 1
643 826 1
643 909 1
643 912 1
643 934 1
643 939 1
643 986 1
644 8 1
644 18 1
644 26 1
644 92 1
644 250 1
644 257 1
644 300 1
644 428 1
644 517 1
644 570 1
644 635 1
644 640 1
644 712 1
644 739 1
644 801 1
644 892 1
645 65 1
645 78 1
645 141 1
645 229 1
645 261 1
645 263 1
645 410 1
645 412 1
645 519 1
645 546 1
645 563 1
645 699 1
645 725 1
645 733 1
645 742 1
645 744 1
645 762 1
645 828 1
645 923 1
645 981 1
645 987 1
645 993 1
645 994 1
646 104 1
646 138 1
646 213 1
646 218 1
646 410 1
646 555 1
646 571 1
646 614 1
646 616 1
646 619 1
646 681 1
646 683 1
646 795 1
646 891 1
646 943 1
646 947 1
646 953 1
646 967 1
647 22 1
647 94 1
647 95 1
647 153 1
647 183 1
647 274 1
647 299 1
647 337 1
647 361 1
647 410 1
647 475 1
647 539 1
647 611 1
647 620 1
647 788 1
647 886 1
647 909 1
647 935 1
648 34 1
648 72 1
648 111 1
648 170 1
648 193 1
648 228 1
648 308 1
648 334 1
648 343 1
648 363 1
648 466 1
648 557 1
648 596 1
648 671 1
648 787 1
648 791 1
648 833 1
648 871 1
648 906 1
649 45 1
649 59 1
649 114 1
649 184 1
649 212 1
649 238 1
649 273 1
649 335 1
649 448 1
649 510 1
649 624 1
649 688 1
649 692 1
649 702 1
649 726 1
649 766 1
649 807 1
649 818 1
649 867 1
649 899 1
649 944 1
649 972 1
649 996 1
650 14 1
650 19 1
650 30 1
650 31 1
650 59 1
650 211 1
650 234 1
650 247 1
650 275 1
650 285 1
650 300 1
650 307 1
650 442 1
650 535 1
650 563 1
650 580 1
650 583 1
650 673 1
650 729 1
650 763 1
650 769 1
650 782 1
650 810 1
650 905 1
650 944 1
651 18 1
651 85 1
651 287 1
651 470 1
651 482 1
651 496 1
651 527 1
651 531 1
651 535 1
651 696 1
651 705 1
651 788 1
651 926 1
652 196 1
652 212 1
652 265 1
652 295 1
652 426 1
652 541 1
652 596 1
652 704 1
652 902 1
653 15 1
653 94 1
653 155 1
653 169 1
653 183 1
653 229 1
653 376 1
653 471 1
653 493 1
653 509 1
653 533 1
653 535 1
653 587 1
653 592 1
653 723 1
653 745 1
653 748 1
653 764 1
653 773 1
653 804 1
653 808 1
653 891 1
653 907 1
653 931 1
653 983 1
654 35 1
654 110 1
654 131 1
654 201 1
654 244 1
654 281 1
654 414 1
654 421 1
654 504 1
654 552 1
654 576 1
654 585 1
654 610 1
654 781 1
654 783 1
654 950 1
655 80 1
655 102 1
655 159 1
655 174 1
655 380 1
655 388 1
655 420 1
655 662 1
655 859 1
655 877 1
655 962 1
655 970 1
656 15 1
656 26 1
656 58 1
656 62 1
656 125 1
656 272 1
656 282 1
656 296 1
656 301 1
656 329 1
656 358 1
656 368 1
656 393 1
656 441 1
656 447 1
656 581 1
656 625 1
656 642 1
656 657 1
656 682 1
656 741 1
656 822 1
656 833 1
656 874 1
656 884 1
656 888 1
656 953 1
656 993 1
657 95 1
657 99 1
657 162 1
657 202 1
657 265 1
657 281 1
657 368 1
657 370 1
657 470 1
657 538 1
657 553 1
657 588 1
657 638 1
657 656 1
657 700 1
657 709 1
657 739 1
657 811 1
657 849 1
657 893 1
657 911 1
657 925 1
657 945 1
658 31 1
658 36 1
658 47 1
658 97 1
658 260 1
658 270 1
658 276 1
658 452 1
658 574 1
658 602 1
658 623 1
658 705 1
658 714 1
658 718 1
658 767 1
658 845 1
658 928 1
659 46 1
659 68 1
659 271 1
659 273 1
659 309 1
659 402 1
659 420 1
659 436 1
659 438 1
659 458 1
659 557 1
659 581 1
659 604 1
659 633 1
659 641 1
659 660 1
659 813 1
659 946 1
660 14 1
660 21 1
660 112 1
660 131 1
660 132 1
660 136 1
660 168 1
660 250 1
660 322 1
660 346 1
660 423 1
660 445 1
660 462 1
660 507 1
660 521 1
660 525 1
660 540 1
660 545 1
660 591 1
660 605 1
660 659 1
660 787 1
660 852 1
660 906 1
660 929 1
661 3 1
661 14 1
661 48 1
661 62 1
661 156 1
661 218 1
661 222 1
661 278 1
661 354 1
661 373 1
661 492 1
661 499 1
661 623 1
661 727 1
661 782 1
661 808 1
661 913 1
661 920 1
661 978 1
662 93 1
662 118 1
662 184 1
662 194 1
662 255 1
662 367 1
662 441 1
662 513 1
662 643 1
662 655 1
662 676 1
662 677 1
662 744 1
662 779 1
662 795 1
662 857 1
662 915 1
662 926 1
662 939 1
662 994 1
663 42 1
663 64 1
663 66 1
663 98 1
663 133 1
663 148 1
663 165 1
663 166 1
663 271 1
663 289 1
663 346 1
663 352 1
663 410 1
663 450 1
663 562 1
663 667 1
663 719 1
663 762 1
663 777 1
663 819 1
663 886 1
663 903 1
663 907 1
663 909 1
663 921 1
663 955 1
663 996 1
664 6 1
664 9 1
664 19 1
664 260 1
664 352 1
664 427 1
664 473 1
664 523 1
664 533 1
664 604 1
664 632 1
664 695 1
664 711 1
664 726 1
664 752 1
664 802 1
664 894 1
664 927 1
664 967 1
664 997 1
665 55 1
665 77 1
665 83 1
665 110 1
665 150 1
665 160 1
665 201 1
665 218 1
665 281 1
665 373 1
665 471 1
665 521 1
665 537 1
665 556 1
665 563 1
665 576 1
665 610 1
665 613 1
665 717 1
665 722 1
665 780 1
665 801 1
665 900 1
665 938 1
665 941 1
665 955 1
665 964 1
666 3 1
666 193 1
666 206 1
666 280 1
666 334 1
666 335 1
666 392 1
666 411 1
666 454 1
666 493 1
666 507 1
666 514 1
666 551 1
666 627 1
666 667 1
666 732 1
666 790 1
666 814 1
666 842 1
666 912 1
666 971 1
667 10 1
667 65 1
667 98 1
667 136 1
667 224 1
667 362 1
667 371 1
667 489 1
667 511 1
667 524 1
667 526 1
667 600 1
667 610 1
667 621 1
667 632 1
667 663 1
667 666 1
667 759 1
667 766 1
667 789 1
667 804 1
667 880 1
667 939 1
667 950 1
667 999 1
668 18 1
668 62 1
668 102 1
668 111 1
668 136 1
668 157 1
668 173 1
668 181 1
668 185 1
668 191 1
668 220 1
668 345 1
668 402 1
668 515 1
668 529 1
668 582 1
668 602 1
668 617 1
668 734 1
668 821 1
668 827 1
668 891 1
669 40 1
669 84 1
669 219 1
669 223 1
669 365 1
669 500 1
669 582 1
669 707 1
669 747 1
669 784 1
669 917 1
669 925 1
670 144 1
670 161 1
670 195 1
670 211 1
670 282 1
670 304 1
670 349 1
670 452 1
670 537 1
670 563 1
670 705 1
670 720 1
670 767 1
670 787 1
670 806 1
670 947 1
670 957 1
671 26 1
671 116 1
671 174 1
671 175 1
671 431 1
671 482 1
671 515 1
671 526 1
671 592 1
671 648 1
671 676 1
671 689 1
671 764 1
671 779 1
671 793 1
671 794 1
671 833 1
671 856 1
671 913 1
672 67 1
672 134 1
672 169 1
672 173 1
672 306 1
672 471 1
672 489 1
672 494 1
672 507 1
672 564 1
672 586 1
672 912 1
672 921 1
673 92 1
673 95 1
673 101 1
673 216 1
673 222 1
673 275 1
673 277 1
673 305 1
673 309 1
673 334 1
673 340 1
673 351 1
673 375 1
673 625 1
673 650 1
673 716 1
673 781 1
673 877 1
673 878 1
673 892 1
673 927 1
673 972 1
674 171 1
674 197 1
674 206 1
674 207 1
674 215 1
674 331 1
674 344 1
674 388 1
674 397 1
674 530 1
674 565 1
674 589 1
674 610 1
674 630 1
674 709 1
674 745 1
674 746 1
674 837 1
674 842 1
674 888 1
674 964 1
674 966 1
675 3 1
675 86 1
675 145 1
675 149 1
675 198 1
675 292 1
675 363 1
675 470 1
675 559 1
675 565 1
675 630 1
675 701 1
675 714 1
675 716 1
675 721 1
675 829 1
675 842 1
675 881 1
675 892 1
675 911 1
675 914 1
675 936 1
675 954 1
676 27 1
676 64 1
676 95 1
676 304 1
676 344 1
676 348 1
676 370 1
676 421 1
676 431 1
676 495 1
676 510 1
676 521 1
676 600 1
676 662 1
676 671 1
676 677 1
676 683 1
676 735 1
676 750 1
676 763 1
676 786 1
676 788 1
676 836 1
676 938 1
676 968 1
676 987 1
677 1 1
677 100 1
677 136 1
677 139 1
677 242 1
677 275 1
677 278 1
677 290 1
677 312 1
677 349 1
677 414 1
677 456 1
677 457 1
677 501 1
677 516 1
677 523 1
677 562 1
677 599 1
677 620 1
677 640 1
677 662 1
677 676 1
677 701 1
677 714 1
677 932 1
678 79 1
678 95 1
678 130 1
678 297 1
678 385 1
678 413 1
678 456 1
678 522 1
678 566 1
678 639 1
678 679 1
678 741 1
678 817 1
678 853 1
678 918 1
678 998 1
679 59 1
679 203 1
679 251 1
679 266 1
679 291 1
679 292 1
679 323 1
679 464 1
679 590 1
679 606 1
679 635 1
679 678 1
679 724 1
679 740 1
679 851 1
679 903 1
679 933 1
679 966 1
680 13 1
680 47 1
680 54 1
680 81 1
680 192 1
680 290 1
680 356 1
680 371 1
680 406 1
680 449 1
680 791 1
680 897 1
680 903 1
680 975 1
681 56 1
681 110 1
681 148 1
681 174 1
681 231 1
681 262 1
681 360 1
681 385 1
681 436 1
681 496 1
681 570 1
681 646 1
681 703 1
681 765 1
681 781 1
681 797 1
681 829 1
681 858 1
682 121 1
682 137 1
682 139 1
682 170 1
682 192 1
682 206 1
682 273 1
682 291 1
682 327 1
682 410 1
682 435 1
682 460 1
682 466 1
682 485 1
682 493 1
682 535 1
682 620 1
682 656 1
682 687 1
682 696 1
682 705 1
682 772 1
682 812 1
682 897 1
683 14 1
683 36 1
683 48 1
683 214 1
683 216 1
683 352 1
683 446 1
683 453 1
683 476 1
683 552 1
683 557 1
683 593 1
683 629 1
683 646 1
683 676 1
683 774 1
683 808 1
683 923 1
683 972 1
684 81 1
684 114 1
684 124 1
684 198 1
684 228 1
684 266 1
684 451 1
684 641 1
684 726 1
684 731 1
684 733 1
684 742 1
684 811 1
684 831 1
684 836 1
684 920 1
684 937 1
685 1 1
685 14 1
685 110 1
685 118 1
685 212 1
685 234 1
685 311 1
685 420 1
685 596 1
685 715 1
685 731 1
685 789 1
685 806 1
685 867 1
685 943 1
685 962 1
685 982 1
685 991 1
686 5 1
686 52 1
686 151 1
686 188 1
686 209 1
686 221 1
686 279 1
686 290 1
686 325 1
686 329 1
686 350 1
686 356 1
686 368 1
686 431 1
686 534 1
686 557 1
686 579 1
686 611 1
686 615 1
686 692 1
686 701 1
686 733 1
686 742 1
686 766 1
686 863 1
686 869 1
686 881 1
686 903 1
686 982 1
687 64 1
687 148 1
687 190 1
687 337 1
687 350 1
687 435 1
687 445 1
687 467 1
687 469 1
687 481 1
687 488 1
687 505 1
687 510 1
687 579 1
687 682 1
687 691 1
687 923 1
687 936 1
687 941 1
687 942 1
688 9 1
688 40 1
688 43 1
688 45 1
688 63 1
688 79 1
688 133 1
688 186 1
688 222 1
688 460 1
688 478 1
688 485 1
688 496 1
688 582 1
688 649 1
688 694 1
688 717 1
688 745 1
688 747 1
688 759 1
688 801 1
688 853 1
688 864 1
688 888 1
688 929 1
688 952 1
688 990 1
689 5 1
689 12 1
689 35 1
689 38 1
689 62 1
689 105 1
689 130 1
689 131 1
689 177 1
689 186 1
689 193 1
689 275 1
689 356 1
689 366 1
689 368 1
689 497 1
689 512 1
689 517 1
689 521 1
689 601 1
689 671 1
689 737 1
689 761 1
689 771 1
689 787 1
689 818 1
689 865 1
689 874 1
689 912 1
690 157 1
690 179 1
690 212 1
690 223 1
690 487 1
690 489 1
690 492 1
690 493 1
690 497 1
690 528 1
690 530 1
690 625 1
690 708 1
690 723 1
690 774 1
690 804 1
690 876 1
690 886 1
690 967 1
690 984 1
691 16 1
691 111 1
691 119 1
691 161 1
691 225 1
691 256 1
691 260 1
691 285 1
691 327 1
691 330 1
691 466 1
691 493 1
691 494 1
691 502 1
691 624 1
691 687 1
691 823 1
691 850 1
691 872 1
691 891 1
691 942 1
692 92 1
692 157 1
692 198 1
692 234 1
692 287 1
692 428 1
692 478 1
692 649 1
692 686 1
692 744 1
692 752 1
692 805 1
692 945 1
693 83 1
693 92 1
693 191 1
693 234 1
693 384 1
693 399 1
693 468 1
693 493 1
693 505 1
693 527 1
693 549 1
693 563 1
693 625 1
693 635 1
693 751 1
693 814 1
693 876 1
693 924 1
693 962 1
694 1 1
694 57 1
694 114 1
694 120 1
694 173 1
694 289 1
694 423 1
694 439 1
694 467 1
694 596 1
694 625 1
694 688 1
694 722 1
694 758 1
694 760 1
694 902 1
694 954 1
694 962 1
695 15 1
695 49 1
695 70 1
695 97 1
695 149 1
695 176 1
695 209 1
695 356 1
695 384 1
695 450 1
695 482 1
695 489 1
695 527 1
695 533 1
695 607 1
695 633 1
695 664 1
695 701 1
695 723 1
695 729 1
695 748 1
695 784 1
695 866 1
695 881 1
696 61 1
696 100 1
696 171 1
696 230 1
696 403 1
696 460 1
696 479 1
696 482 1
696 523 1
696 525 1
696 586 1
696 628 1
696 651 1
696 682 1
696 744 1
696 782 1
696 801 1
696 837 1
696 888 1
696 926 1
696 953 1
697 42 1
697 50 1
697 115 1
697 245 1
697 376 1
697 400 1
697 429 1
697 511 1
697 541 1
697 552 1
697 628 1
697 725 1
697 743 1
697 796 1
697 820 1
697 891 1
697 920 1
697 965 1
698 20 1
698 23 1
698 172 1
698 178 1
698 187 1
698 189 1
698 213 1
698 231 1
698 279 1
698 286 1
698 296 1
698 304 1
698 340 1
698 420 1
698 501 1
698 511 1
698 552 1
698 587 1
698 757 1
698 806 1
698 951 1
699 66 1
699 69 1
699 114 1
699 245 1
699 404 1
699 422 1
699 455 1
699 645 1
699 765 1
699 873 1
699 882 1
699 912 1
699 931 1
700 200 1
700 204 1
700 296 1
700 320 1
700 353 1
700 356 1
700 598 1
700 657 1
700 710 1
700 831 1
700 979 1
700 996 1
700 997 1
701 27 1
701 165 1
701 199 1
701 209 1
701 223 1
701 251 1
701 272 1
701 576 1
701 675 1
701 677 1
701 686 1
701 695 1
701 808 1
701 847 1
701 883 1
701 917 1
701 980 1
702 22 1
702 36 1
702 74 1
702 133 1
702 152 1
702 256 1
702 261 1
702 273 1
702 299 1
702 404 1
702 457 1
702 509 1
702 608 1
702 649 1
702 812 1
702 882 1
702 922 1
702 963 1
703 12 1
703 50 1
703 71 1
703 73 1
703 81 1
703 122 1
703 215 1
703 227 1
703 229 1
703 314 1
703 331 1
703 406 1
703 412 1
703 433 1
703 583 1
703 609 1
703 681 1
703 769 1
703 809 1
703 848 1
703 868 1
703 902 1
703 945 1
703 949 1
703 972 1
704 47 1
704 68 1
704 105 1
704 160 1
704 221 1
704 248 1
704 290 1
704 323 1
704 343 1
704 524 1
704 553 1
704 593 1
704 652 1
704 723 1
704 726 1
704 739 1
704 813 1
704 890 1
704 966 1
704 983 1
705 16 1
705 79 1
705 250 1
705 256 1
705 281 1
705 305 1
705 339 1
705 396 1
705 420 1
705 440 1
705 474 1
705 574 1
705 651 1
705 658 1
705 670 1
705 682 1
705 822 1
705 958 1
705 966 1
705 990 1
706 59 1
706 163 1
706 176 1
706 196 1
706 224 1
706 260 1
706 363 1
706 430 1
706 473 1
706 487 1
706 528 1
706 568 1
706 741 1
706 755 1
706 770 1
706 856 1
706 956 1
706 963 1
706 965 1
706 992 1
707 141 1
707 180 1
707 182 1
707 292 1
707 374 1
707 391 1
707 463 1
707 490 1
707 527 1
707 544 1
707 637 1
707 642 1
707 669 1
707 745 1
707 757 1
707 813 1
707 838 1
707 866 1
707 896 1
707 909 1
707 915 1
708 15 1
708 19 1
708 35 1
708 86 1
708 97 1
708 126 1
708 191 1
708 212 1
708 303 1
708 320 1
708 433 1
708 493 1
708 532 1
708 614 1
708 690 1
708 739 1
708 750 1
708 843 1
708 930 1
708 953 1
709 9 1
709 123 1
709 173 1
709 181 1
709 183 1
709 260 1
709 293 1
709 356 1
709 358 1
709 380 1
709 432 1
709 487 1
709 561 1
709 657 1
709 674 1
709 778 1
709 792 1
709 812 1
709 814 1
709 828 1
709 893 1
709 959 1
710 75 1
710 143 1
710 152 1
710 164 1
710 187 1
710 219 1
710 232 1
710 293 1
710 399 1
710 456 1
710 557 1
710 582 1
710 624 1
710 700 1
710 752 1
710 865 1
710 991 1
711 49 1
711 95 1
711 124 1
711 165 1
711 239 1
711 253 1
711 285 1
711 369 1
711 410 1
711 449 1
711 490 1
711 524 1
711 664 1
711 781 1
711 826 1
711 844 1
711 872 1
711 940 1
711 976 1
711 984 1
712 98 1
712 124 1
712 238 1
712 291 1
712 369 1
712 380 1
712 397 1
712 405 1
712 488 1
712 493 1
712 535 1
712 567 1
712 578 1
712 589 1
712 604 1
712 609 1
712 644 1
712 804 1
712 840 1
712 900 1
712 984 1
713 47 1
713 57 1
713 70 1
713 208 1
713 275 1
713 373 1
713 450 1
713 476 1
713 491 1
713 622 1
713 756 1
713 768 1
713 776 1
713 796 1
713 836 1
713 840 1
713 868 1
714 20 1
714 51 1
714 140 1
714 250 1
714 282 1
714 338 1
714 344 1
714 350 1
714 372 1
714 384 1
714 465 1
714 493 1
714 658 1
714 675 1
714 677 1
714 737 1
714 748 1
714 812 1
714 837 1
714 841 1
714 967 1
715 20 1
715 34 1
715 196 1
715 295 1
715 334 1
715 348 1
715 413 1
715 418 1
715 453 1
715 555 1
715 597 1
715 625 1
715 685 1
715 740 1
715 742 1
715 769 1
715 829 1
715 841 1
715 853 1
715 937 1
715 949 1
715 966 1
716 19 1
716 55 1
716 176 1
716 216 1
716 233 1
716 316 1
716 317 1
716 492 1
716 602 1
716 629 1
716 639 1
716 673 1
716 675 1
716 723 1
716 770 1
716 794 1
716 970 1
716 986 1
717 19 1
717 26 1
717 77 1
717 94 1
717 229 1
717 249 1
717 261 1
717 283 1
717 301 1
717 468 1
717 507 1
717 599 1
717 618 1
717 665 1
717 688 1
717 738 1
717 754 1
717 915 1
717 955 1
718 6 1
718 57 1
718 71 1
718 100 1
718 122 1
718 144 1
718 166 1
718 202 1
718 238 1
718 359 1
718 371 1
718 430 1
718 433 1
718 450 1
718 493 1
718 569 1
718 582 1
718 583 1
718 658 1
718 759 1
718 763 1
718 767 1
718 799 1
718 816 1
718 820 1
718 834 1
718 880 1
718 915 1
718 938 1
718 975 1
719 8 1
719 19 1
719 98 1
719 102 1
719 115 1
719 233 1
719 400 1
719 447 1
719 482 1
719 663 1
719 778 1
719 800 1
719 856 1
719 899 1
719 992 1
720 13 1
720 44 1
720 119 1
720 144 1
720 173 1
720 181 1
720 345 1
720 393 1
720 416 1
720 458 1
720 509 1
720 517 1
720 670 1
720 756 1
720 838 1
720 856 1
720 874 1
720 967 1
720 976 1
720 980 1
721 9 1
721 172 1
721 286 1
721 382 1
721 462 1
721 480 1
721 675 1
721 741 1
721 774 1
721 796 1
721 861 1
721 875 1
721 950 1
722 98 1
722 108 1
722 131 1
722 280 1
722 323 1
722 344 1
722 435 1
722 471 1
722 566 1
722 586 1
722 623 1
722 665 1
722 694 1
722 996 1
723 165 1
723 201 1
723 202 1
723 237 1
723 238 1
723 282 1
723 297 1
723 333 1
723 365 1
723 375 1
723 401 1
723 494 1
723 563 1
723 568 1
723 577 1
723 596 1
723 653 1
723 690 1
723 695 1
723 704 1
723 716 1
723 738 1
723 804 1
723 814 1
723 865 1
723 872 1
723 887 1
723 897 1
723 981 1
724 2 1
724 69 1
724 90 1
724 92 1
724 164 1
724 245 1
724 282 1
724 300 1
724 341 1
724 357 1
724 370 1
724 542 1
724 610 1
724 625 1
724 626 1
724 633 1
724 679 1
724 789 1
724 827 1
724 848 1
725 26 1
725 48 1
725 103 1
725 130 1
725 198 1
725 445 1
725 458 1
725 475 1
725 645 1
725 697 1
725 784 1
725 923 1
726 2 1
726 3 1
726 60 1
726 89 1
726 158 1
726 167 1
726 183 1
726 205 1
726 343 1
726 372 1
726 398 1
726 410 1
726 435 1
726 459 1
726 461 1
726 464 1
726 485 1
726 506 1
726 518 1
726 649 1
726 664 1
726 684 1
726 704 1
726 731 1
726 786 1
726 791 1
726 808 1
726 854 1
726 882 1
726 955 1
726 958 1
726 966 1
727 29 1
727 56 1
727 85 1
727 91 1
727 101 1
727 119 1
727 268 1
727 276 1
727 277 1
727 301 1
727 308 1
727 335 1
727 385 1
727 414 1
727 595 1
727 630 1
727 661 1
727 747 1
727 770 1
727 783 1
727 827 1
727 831 1
727 859 1
727 876 1
727 884 1
727 939 1
728 145 1
728 153 1
728 158 1
728 284 1
728 290 1
728 306 1
728 341 1
728 349 1
728 361 1
728 450 1
728 483 1
728 537 1
728 591 1
728 623 1
728 729 1
728 732 1
728 748 1
728 769 1
728 773 1
728 804 1
728 853 1
728 923 1
728 935 1
729 11 1
729 13 1
729 66 1
729 182 1
729 186 1
729 201 1
729 213 1
729 233 1
729 253 1
729 340 1
729 400 1
729 454 1
729 464 1
729 502 1
729 568 1
729 631 1
729 650 1
729 695 1
729 728 1
729 751 1
729 774 1
729 901 1
729 984 1
730 33 1
730 61 1
730 68 1
730 75 1
730 101 1
730 139 1
730 232 1
730 323 1
730 331 1
730 348 1
730 402 1
730 467 1
730 469 1
730 530 1
730 544 1
730 848 1
730 893 1
730 898 1
730 956 1
730 970 1
730 985 1
731 65 1
731 71 1
731 84 1
731 156 1
731 213 1
731 219 1
731 277 1
731 287 1
731 427 1
731 429 1
731 493 1
731 526 1
731 642 1
731 684 1
731 685 1
731 726 1
731 844 1
731 932 1
732 5 1
732 43 1
732 47 1
732 99 1
732 268 1
732 434 1
732 436 1
732 443 1
732 466 1
732 556 1
732 576 1
732 620 1
732 666 1
732 728 1
732 756 1
732 759 1
732 778 1
732 783 1
732 823 1
732 892 1
732 910 1
732 966 1
732 973 1
733 7 1
733 16 1
733 27 1
733 59 1
733 153 1
733 242 1
733 333 1
733 350 1
733 383 1
733 458 1
733 478 1
733 491 1
733 513 1
733 571 1
733 602 1
733 645 1
733 684 1
733 686 1
733 737 1
733 739 1
733 784 1
733 815 1
733 849 1
733 959 1
733 970 1
734 7 1
734 59 1
734 111 1
734 115 1
734 243 1
734 252 1
734 271 1
734 339 1
734 380 1
734 386 1
734 489 1
734 551 1
734 581 1
734 583 1
734 597 1
734 668 1
734 737 1
734 797 1
734 809 1
734 863 1
734 866 1
734 982 1
734 994 1
735 20 1
735 38 1
735 56 1
735 138 1
735 245 1
735 342 1
735 394 1
735 463 1
735 482 1
735 487 1
735 572 1
735 676 1
735 760 1
735 788 1
735 802 1
735 852 1
735 853 1
735 975 1
735 989 1
735 990 1
735 998 1
736 88 1
736 101 1
736 113 1
736 157 1
736 210 1
736 268 1
736 289 1
736 310 1
736 426 1
736 443 1
736 461 1
736 548 1
736 558 1
736 573 1
736 617 1
736 749 1
736 795 1
736 844 1
736 937 1
736 938 1
736 959 1
737 64 1
737 99 1
737 123 1
737 187 1
737 262 1
737 317 1
737 452 1
737 470 1
737 526 1
737 605 1
737 689 1
737 714 1
737 733 1
737 734 1
737 809 1
737 864 1
737 892 1
737 907 1
737 940 1
737 970 1
738 57 1
738 136 1
738 172 1
738 273 1
738 283 1
738 290 1
738 322 1
738 328 1
738 406 1
738 436 1
738 463 1
738 528 1
738 586 1
738 594 1
738 598 1
738 717 1
738 723 1
738 809 1
738 813 1
738 852 1
738 863 1
738 923 1
738 928 1
738 929 1
738 960 1
738 970 1
738 989 1
739 28 1
739 185 1
739 194 1
739 296 1
739 308 1
739 309 1
739 356 1
739 370 1
739 529 1
739 585 1
739 597 1
739 644 1
739 657 1
739 704 1
739 708 1
739 733 1
739 749 1
739 767 1
739 874 1
739 948 1
739 951 1
739 984 1
740 17 1
740 257 1
740 393 1
740 416 1
740 417 1
740 468 1
740 595 1
740 679 1
740 715 1
740 767 1
740 782 1
740 792 1
741 36 1
741 139 1
741 208 1
741 286 1
741 319 1
741 329 1
741 346 1
741 395 1
741 502 1
741 619 1
741 656 1
741 678 1
741 706 1
741 721 1
741 794 1
741 810 1
741 818 1
741 861 1
741 895 1
741 925 1
741 963 1
741 966 1
741 980 1
741 990 1
742 5 1
742 7 1
742 58 1
742 66 1
742 92 1
742 104 1
742 160 1
742 196 1
742 241 1
742 271 1
742 290 1
742 293 1
742 313 1
742 358 1
742 359 1
742 449 1
742 466 1
742 645 1
742 684 1
742 686 1
742 715 1
742 797 1
742 817 1
742 830 1
742 842 1
742 950 1
742 995 1
743 5 1
743 38 1
743 78 1
743 183 1
743 320 1
743 337 1
743 366 1
743 398 1
743 434 1
743 452 1
743 601 1
743 621 1
743 697 1
743 773 1
743 789 1
743 922 1
743 933 1
743 976 1
743 979 1
743 995 1
744 22 1
744 130 1
744 202 1
744 215 1
744 221 1
744 347 1
744 515 1
744 532 1
744 622 1
744 645 1
744 662 1
744 692 1
744 696 1
744 761 1
744 765 1
744 778 1
744 880 1
744 941 1
744 949 1
745 6 1
745 26 1
745 36 1
745 91 1
745 171 1
745 208 1
745 287 1
745 289 1
745 293 1
745 355 1
745 375 1
745 420 1
745 445 1
745 467 1
745 492 1
745 523 1
745 578 1
745 653 1
745 674 1
745 688 1
745 707 1
745 812 1
745 833 1
745 899 1
745 927 1
745 930 1
746 39 1
746 71 1
746 137 1
746 173 1
746 464 1
746 476 1
746 504 1
746 559 1
746 573 1
746 582 1
746 674 1
746 787 1
746 841 1
746 899 1
746 907 1
746 937 1
747 80 1
747 106 1
747 146 1
747 176 1
747 208 1
747 222 1
747 237 1
747 276 1
747 389 1
747 405 1
747 513 1
747 555 1
747 669 1
747 688 1
747 727 1
747 828 1
747 860 1
748 111 1
748 139 1
748 170 1
748 172 1
748 268 1
748 272 1
748 332 1
748 349 1
748 352 1
748 362 1
748 412 1
748 486 1
748 556 1
748 560 1
748 605 1
748 653 1
748 695 1
748 714 1
748 728 1
748 751 1
748 820 1
748 824 1
748 863 1
748 918 1
748 938 1
748 952 1
748 979 1
748 992 1
749 81 1
749 102 1
749 122 1
749 188 1
749 218 1
749 293 1
749 310 1
749 412 1
749 420 1
749 430 1
749 452 1
749 493 1
749 540 1
749 616 1
749 643 1
749 736 1
749 739 1
749 809 1
749 916 1
749 938 1
749 944 1
749 946 1
749 955 1
750 36 1
750 134 1
750 297 1
750 343 1
750 361 1
750 371 1
750 400 1
750 411 1
750 437 1
750 475 1
750 553 1
750 620 1
750 625 1
750 676 1
750 708 1
750 789 1
750 813 1
750 822 1
750 864 1
750 900 1
750 908 1
750 958 1
751 161 1
751 177 1
751 235 1
751 273 1
751 279 1
751 286 1
751 287 1
751 314 1
751 389 1
751 396 1
751 398 1
751 399 1
751 428 1
751 445 1
751 559 1
751 566 1
751 567 1
751 595 1
751 596 1
751 693 1
751 729 1
751 748 1
751 776 1
751 815 1
751 963 1
751 966 1
752 23 1
752 52 1
752 56 1
752 149 1
752 197 1
752 240 1
752 253 1
752 301 1
752 442 1
752 455 1
752 479 1
752 517 1
752 530 1
752 607 1
752 664 1
752 692 1
752 710 1
752 789 1
752 815 1
752 929 1
752 984 1
753 18 1
753 113 1
753 173 1
753 230 1
753 232 1
753 240 1
753 244 1
753 256 1
753 345 1
753 383 1
753 442 1
753 445 1
753 616 1
753 763 1
753 827 1
753 833 1
753 936 1
754 3 1
754 38 1
754 49 1
754 73 1
754 146 1
754 183 1
754 201 1
754 263 1
754 286 1
754 358 1
754 383 1
754 457 1
754 558 1
754 591 1
754 606 1
754 616 1
754 717 1
754 770 1
754 853 1
754 887 1
755 8 1
755 14 1
755 23 1
755 125 1
755 354 1
755 474 1
755 506 1
755 553 1
755 573 1
755 577 1
755 592 1
755 601 1
755 614 1
755 615 1
755 706 1
755 760 1
755 839 1
755 872 1
755 964 1
756 13 1
756 56 1
756 66 1
756 202 1
756 205 1
756 262 1
756 371 1
756 374 1
756 380 1
756 381 1
756 396 1
756 400 1
756 454 1
756 459 1
756 467 1
756 475 1
756 498 1
756 531 1
756 552 1
756 713 1
756 720 1
756 732 1
756 806 1
756 810 1
756 820 1
756 837 1
756 869 1
756 881 1
756 895 1
756 949 1
756 959 1
757 19 1
757 59 1
757 77 1
757 109 1
757 121 1
757 131 1
757 134 1
757 171 1
757 176 1
757 231 1
757 265 1
757 273 1
757 280 1
757 379 1
757 511 1
757 567 1
757 637 1
757 698 1
757 707 1
757 826 1
757 891 1
757 901 1
757 934 1
757 966 1
757 973 1
758 104 1
758 122 1
758 178 1
758 248 1
758 291 1
758 380 1
758 395 1
758 448 1
758 515 1
758 544 1
758 560 1
758 566 1
758 694 1
758 763 1
758 789 1
758 823 1
758 839 1
758 863 1
758 866 1
758 929 1
758 960 1
758 1000 1
759 25 1
759 206 1
759 235 1
759 237 1
759 238 1
759 242 1
759 343 1
759 430 1
759 483 1
759 514 1
759 526 1
759 559 1
759 560 1
759 563 1
759 569 1
759 667 1
759 688 1
759 718 1
759 732 1
759 766 1
759 826 1
759 857 1
759 883 1
759 902 1
759 924 1
759 996 1
760 4 1
760 91 1
760 102 1
760 107 1
760 108 1
760 146 1
760 259 1
760 268 1
760 273 1
760 280 1
760 394 1
760 412 1
760 450 1
760 493 1
760 511 1
760 566 1
760 598 1
760 694 1
760 735 1
760 755 1
760 817 1
760 865 1
760 975 1
761 6 1
761 56 1
761 73 1
761 85 1
761 112 1
761 210 1
761 244 1
761 263 1
761 276 1
761 342 1
761 343 1
761 361 1
761 405 1
761 529 1
761 595 1
761 604 1
761 616 1
761 689 1
761 744 1
761 902 1
761 918 1
762 5 1
762 112 1
762 133 1
762 144 1
762 182 1
762 217 1
762 233 1
762 280 1
762 450 1
762 552 1
762 607 1
762 645 1
762 663 1
762 875 1
762 896 1
762 912 1
762 915 1
763 47 1
763 76 1
763 163 1
763 190 1
763 242 1
763 277 1
763 287 1
763 463 1
763 511 1
763 607 1
763 608 1
763 650 1
763 676 1
763 718 1
763 753 1
763 758 1
763 785 1
763 798 1
763 845 1
763 879 1
763 971 1
764 74 1
764 122 1
764 156 1
764 236 1
764 238 1
764 253 1
764 334 1
764 350 1
764 367 1
764 432 1
764 454 1
764 614 1
764 641 1
764 653 1
764 671 1
764 785 1
764 836 1
764 954 1
764 963 1
765 133 1
765 201 1
765 244 1
765 372 1
765 394 1
765 406 1
765 463 1
765 492 1
765 525 1
765 611 1
765 681 1
765 699 1
765 744 1
765 766 1
765 774 1
765 867 1
765 980 1
766 122 1
766 232 1
766 258 1
766 299 1
766 371 1
766 397 1
766 502 1
766 562 1
766 596 1
766 624 1
766 639 1
766 649 1
766 667 1
766 686 1
766 759 1
766 765 1
766 767 1
766 774 1
766 785 1
766 817 1
766 832 1
766 858 1
766 940 1
766 944 1
767 167 1
767 178 1
767 219 1
767 335 1
767 414 1
767 430 1
767 448 1
767 460 1
767 508 1
767 530 1
767 612 1
767 658 1
767 670 1
767 718 1
767 739 1
767 740 1
767 766 1
767 829 1
767 870 1
767 962 1
768 92 1
768 108 1
768 160 1
768 170 1
768 215 1
768 228 1
768 231 1
768 243 1
768 307 1
768 423 1
768 484 1
768 514 1
768 555 1
768 624 1
768 638 1
768 713 1
768 787 1
768 825 1
768 889 1
768 923 1
768 929 1
769 167 1
769 213 1
769 230 1
769 282 1
769 288 1
769 317 1
769 475 1
769 624 1
769 650 1
769 703 1
769 715 1
769 728 1
769 782 1
769 866 1
769 952 1
769 958 1
769 986 1
770 52 1
770 69 1
770 105 1
770 179 1
770 220 1
770 353 1
770 468 1
770 550 1
770 591 1
770 616 1
770 706 1
770 716 1
770 727 1
770 754 1
770 795 1
770 959 1
770 990 1
771 4 1
771 42 1
771 73 1
771 82 1
771 125 1
771 143 1
771 171 1
771 193 1
771 272 1
771 334 1
771 336 1
771 403 1
771 605 1
771 689 1
771 834 1
771 837 1
772 155 1
772 161 1
772 179 1
772 198 1
772 229 1
772 233 1
772 297 1
772 307 1
772 323 1
772 346 1
772 464 1
772 471 1
772 485 1
772 501 1
772 506 1
772 546 1
772 568 1
772 574 1
772 643 1
772 682 1
772 881 1
772 907 1
773 76 1
773 93 1
773 134 1
773 171 1
773 209 1
773 250 1
773 264 1
773 322 1
773 325 1
773 337 1
773 464 1
773 603 1
773 613 1
773 633 1
773 653 1
773 728 1
773 743 1
773 813 1
773 888 1
773 916 1
773 927 1
773 951 1
774 96 1
774 130 1
774 224 1
774 265 1
774 313 1
774 349 1
774 382 1
774 401 1
774 417 1
774 463 1
774 488 1
774 530 1
774 641 1
774 683 1
774 690 1
774 721 1
774 729 1
774 765 1
774 766 1
774 842 1
774 891 1
774 896 1
774 938 1
774 982 1
774 992 1
774 998 1
775 5 1
775 15 1
775 36 1
775 53 1
775 96 1
775 130 1
775 132 1
775 164 1
775 227 1
775 261 1
775 294 1
775 322 1
775 329 1
775 345 1
775 384 1
775 454 1
775 488 1
775 490 1
775 571 1
775 595 1
775 613 1
775 787 1
775 812 1
775 823 1
775 840 1
775 851 1
775 907 1
775 957 1
776 17 1
776 64 1
776 95 1
776 189 1
776 214 1
776 332 1
776 413 1
776 428 1
776 469 1
776 558 1
776 559 1
776 622 1
776 713 1
776 751 1
776 797 1
776 826 1
776 867 1
776 898 1
776 899 1
776 902 1
776 921 1
776 967 1
777 44 1
777 116 1
777 117 1
777 186 1
777 225 1
777 227 1
777 284 1
777 377 1
777 424 1
777 493 1
777 663 1
777 863 1
777 878 1
777 887 1
777 973 1
777 996 1
777 999 1
778 4 1
778 27 1
778 100 1
778 181 1
778 206 1
778 308 1
778 375 1
778 414 1
778 424 1
778 440 1
778 503 1
778 581 1
778 641 1
778 709 1
778 719 1
778 732 1
778 744 1
778 804 1
778 843 1
778 955 1
779 3 1
779 6 1
779 54 1
779 84 1
779 132 1
779 169 1
779 218 1
779 220 1
779 229 1
779 256 1
779 445 1
779 493 1
779 520 1
779 539 1
779 662 1
779 671 1
779 862 1
779 946 1
779 996 1
780 1 1
780 14 1
780 41 1
780 218 1
780 286 1
780 340 1
780 378 1
780 386 1
780 434 1
780 448 1
780 453 1
780 547 1
780 618 1
780 630 1
780 665 1
780 781 1
780 850 1
780 925 1
780 988 1
781 19 1
781 102 1
781 110 1
781 120 1
781 233 1
781 255 1
781 256 1
781 264 1
781 379 1
781 393 1
781 426 1
781 454 1
781 474 1
781 476 1
781 483 1
781 505 1
781 654 1
781 673 1
781 681 1
781 711 1
781 780 1
781 796 1
781 809 1
781 871 1
781 894 1
781 988 1
781 989 1
782 53 1
782 79 1
782 191 1
782 288 1
782 308 1
782 331 1
782 361 1
782 440 1
782 496 1
782 547 1
782 580 1
782 586 1
782 616 1
782 642 1
782 650 1
782 661 1
782 696 1
782 740 1
782 769 1
782 816 1
783 155 1
783 177 1
783 200 1
783 346 1
783 388 1
783 512 1
783 582 1
783 654 1
783 727 1
783 732 1
783 819 1
783 832 1
783 927 1
783 931 1
783 947 1
784 79 1
784 81 1
784 130 1
784 293 1
784 311 1
784 315 1
784 374 1
784 440 1
784 540 1
784 590 1
784 599 1
784 602 1
784 669 1
784 695 1
784 725 1
784 733 1
784 794 1
784 798 1
784 822 1
784 827 1
784 930 1
784 941 1
785 112 1
785 180 1
785 225 1
785 256 1
785 265 1
785 292 1
785 305 1
785 395 1
785 399 1
785 485 1
785 500 1
785 522 1
785 579 1
785 637 1
785 763 1
785 764 1
785 766 1
785 792 1
785 848 1
785 885 1
785 895 1
785 976 1
785 983 1
786 42 1
786 74 1
786 138 1
786 287 1
786 307 1
786 316 1
786 363 1
786 387 1
786 570 1
786 638 1
786 676 1
786 726 1
786 848 1
786 878 1
786 896 1
786 900 1
786 910 1
786 934 1
786 935 1
787 3 1
787 37 1
787 99 1
787 127 1
787 137 1
787 165 1
787 201 1
787 206 1
787 220 1
787 237 1
787 248 1
787 294 1
787 306 1
787 347 1
787 475 1
787 648 1
787 660 1
787 670 1
787 689 1
787 746 1
787 768 1
787 775 1
787 795 1
787 883 1
788 37 1
788 56 1
788 100 1
788 240 1
788 315 1
788 386 1
788 530 1
788 600 1
788 609 1
788 647 1
788 651 1
788 676 1
788 735 1
788 795 1
788 830 1
788 831 1
788 947 1
788 989 1
789 39 1
789 194 1
789 287 1
789 294 1
789 486 1
789 497 1
789 553 1
789 585 1
789 623 1
789 667 1
789 685 1
789 724 1
789 743 1
789 750 1
789 752 1
789 758 1
789 860 1
790 28 1
790 45 1
790 127 1
790 129 1
790 178 1
790 219 1
790 316 1
790 440 1
790 458 1
790 509 1
790 578 1
790 666 1
790 794 1
790 807 1
790 850 1
791 89 1
791 155 1
791 196 1
791 284 1
791 370 1
791 384 1
791 400 1
791 410 1
791 414 1
791 460 1
791 490 1
791 518 1
791 523 1
791 526 1
791 547 1
791 563 1
791 579 1
791 590 1
791 632 1
791 648 1
791 680 1
791 726 1
791 814 1
791 825 1
791 838 1
791 863 1
791 992 1
791 998 1
792 70 1
792 91 1
792 95 1
792 96 1
792 256 1
792 274 1
792 277 1
792 408 1
792 448 1
792 464 1
792 506 1
792 539 1
792 709 1
792 740 1
792 785 1
792 896 1
792 942 1
792 943 1
792 978 1
792 993 1
793 16 1
793 19 1
793 21 1
793 197 1
793 250 1
793 300 1
793 356 1
793 361 1
793 374 1
793 429 1
793 509 1
793 640 1
793 671 1
793 892 1
793 919 1
793 930 1
794 126 1
794 128 1
794 162 1
794 167 1
794 169 1
794 176 1
794 178 1
794 215 1
794 219 1
794 238 1
794 240 1
794 279 1
794 334 1
794 388 1
794 396 1
794 411 1
794 416 1
794 471 1
794 545 1
794 617 1
794 671 1
794 716 1
794 741 1
794 784 1
794 790 1
794 816 1
794 902 1
794 970 1
795 276 1
795 290 1
795 385 1
795 433 1
795 436 1
795 465 1
795 537 1
795 646 1
795 662 1
795 736 1
795 770 1
795 787 1
795 788 1
795 843 1
795 847 1
795 908 1
795 951 1
796 13 1
796 91 1
796 285 1
796 289 1
796 292 1
796 293 1
796 297 1
796 338 1
796 373 1
796 516 1
796 608 1
796 697 1
796 713 1
796 721 1
796 781 1
796 908 1
797 52 1
797 97 1
797 150 1
797 177 1
797 178 1
797 212 1
797 217 1
797 223 1
797 336 1
797 388 1
797 444 1
797 468 1
797 528 1
797 542 1
797 554 1
797 558 1
797 577 1
797 602 1
797 634 1
797 681 1
797 734 1
797 742 1
797 776 1
797 818 1
797 822 1
797 870 1
798 54 1
798 120 1
798 169 1
798 208 1
798 252 1
798 293 1
798 378 1
798 428 1
798 466 1
798 549 1
798 763 1
798 784 1
798 827 1
798 846 1
798 857 1
798 990 1
799 116 1
799 170 1
799 198 1
799 217 1
799 227 1
799 245 1
799 290 1
799 339 1
799 365 1
799 400 1
799 407 1
799 460 1
799 560 1
799 580 1
799 594 1
799 608 1
799 640 1
799 718 1
799 832 1
799 845 1
799 862 1
799 884 1
799 885 1
799 917 1
800 8 1
800 70 1
800 77 1
800 79 1
800 380 1
800 415 1
800 474 1
800 551 1
800 578 1
800 719 1
800 878 1
800 917 1
800 964 1
800 981 1
801 44 1
801 222 1
801 225 1
801 250 1
801 303 1
801 342 1
801 346 1
801 358 1
801 469 1
801 618 1
801 644 1
801 665 1
801 688 1
801 696 1
801 881 1
801 923 1
802 6 1
802 29 1
802 133 1
802 178 1
802 314 1
802 458 1
802 538 1
802 605 1
802 622 1
802 664 1
802 735 1
802 843 1
802 849 1
802 869 1
802 887 1
802 899 1
802 984 1
803 1 1
803 19 1
803 69 1
803 181 1
803 265 1
803 273 1
803 289 1
803 393 1
803 467 1
803 490 1
803 499 1
803 584 1
804 6 1
804 62 1
804 79 1
804 138 1
804 225 1
804 303 1
804 317 1
804 356 1
804 448 1
804 458 1
804 459 1
804 467 1
804 496 1
804 572 1
804 578 1
804 653 1
804 667 1
804 690 1
804 712 1
804 723 1
804 728 1
804 778 1
804 844 1
804 855 1
804 893 1
804 912 1
804 947 1
804 971 1
804 975 1
804 980 1
804 995 1
805 5 1
805 40 1
805 75 1
805 81 1
805 106 1
805 158 1
805 195 1
805 471 1
805 477 1
805 548 1
805 552 1
805 607 1
805 637 1
805 692 1
805 809 1
805 816 1
805 822 1
805 854 1
805 861 1
805 875 1
805 913 1
805 979 1
805 980 1
806 38 1
806 52 1
806 121 1
806 139 1
806 210 1
806 214 1
806 229 1
806 252 1
806 268 1
806 377 1
806 388 1
806 446 1
806 492 1
806 506 1
806 522 1
806 552 1
806 573 1
806 670 1
806 685 1
806 698 1
806 756 1
806 879 1
806 889 1
806 936 1
806 938 1
806 993 1
806 1000 1
807 51 1
807 63 1
807 74 1
807 159 1
807 212 1
807 230 1
807 414 1
807 457 1
807 491 1
807 524 1
807 525 1
807 549 1
807 649 1
807 790 1
807 936 1
807 969 1
808 40 1
808 83 1
808 131 1
808 164 1
808 213 1
808 276 1
808 315 1
808 362 1
808 412 1
808 438 1
808 653 1
808 661 1
808 683 1
808 701 1
808 726 1
808 891 1
808 961 1
808 985 1
809 13 1
809 46 1
809 129 1
809 193 1
809 202 1
809 247 1
809 283 1
809 326 1
809 495 1
809 504 1
809 546 1
809 562 1
809 595 1
809 604 1
809 639 1
809 703 1
809 734 1
809 737 1
809 738 1
809 749 1
809 781 1
809 805 1
809 930 1
810 33 1
810 206 1
810 219 1
810 224 1
810 324 1
810 389 1
810 432 1
810 493 1
810 522 1
810 589 1
810 650 1
810 741 1
810 756 1
810 937 1
811 88 1
811 199 1
811 203 1
811 275 1
811 451 1
811 465 1
811 467 1
811 559 1
811 657 1
811 684 1
811 983 1
811 993 1
812 83 1
812 103 1
812 144 1
812 185 1
812 196 1
812 273 1
812 365 1
812 370 1
812 372 1
812 393 1
812 406 1
812 475 1
812 499 1
812 536 1
812 630 1
812 641 1
812 682 1
812 702 1
812 709 1
812 714 1
812 745 1
812 775 1
812 820 1
812 829 1
812 864 1
812 897 1
813 101 1
813 206 1
813 344 1
813 362 1
813 444 1
813 458 1
813 503 1
813 578 1
813 579 1
813 600 1
813 659 1
813 704 1
813 707 1
813 738 1
813 750 1
813 773 1
813 816 1
813 889 1
813 891 1
813 892 1
813 960 1
813 977 1
814 23 1
814 24 1
814 49 1
814 68 1
814 70 1
814 77 1
814 226 1
814 325 1
814 397 1
814 398 1
814 458 1
814 490 1
814 506 1
814 533 1
814 574 1
814 666 1
814 693 1
814 709 1
814 723 1
814 791 1
814 857 1
814 882 1
814 903 1
814 905 1
814 943 1
814 986 1
815 55 1
815 57 1
815 110 1
815 177 1
815 192 1
815 203 1
815 251 1
815 270 1
815 279 1
815 311 1
815 348 1
815 359 1
815 400 1
815 407 1
815 555 1
815 596 1
815 733 1
815 751 1
815 752 1
815 838 1
815 872 1
815 885 1
815 915 1
815 958 1
816 64 1
816 333 1
816 351 1
816 490 1
816 535 1
816 633 1
816 635 1
816 718 1
816 782 1
816 794 1
816 805 1
816 813 1
816 842 1
816 883 1
816 987 1
816 992 1
817 16 1
817 49 1
817 184 1
817 266 1
817 274 1
817 310 1
817 389 1
817 496 1
817 538 1
817 552 1
817 678 1
817 742 1
817 760 1
817 766 1
817 839 1
817 840 1
817 910 1
817 944 1
817 945 1
818 31 1
818 67 1
818 223 1
818 237 1
818 310 1
818 321 1
818 322 1
818 344 1
818 384 1
818 403 1
818 421 1
818 465 1
818 649 1
818 689 1
818 741 1
818 797 1
818 872 1
818 922 1
818 938 1
818 952 1
819 44 1
819 93 1
819 154 1
819 155 1
819 216 1
819 387 1
819 393 1
819 398 1
819 441 1
819 462 1
819 472 1
819 477 1
819 527 1
819 586 1
819 600 1
819 663 1
819 783 1
819 847 1
819 865 1
819 893 1
819 946 1
819 948 1
819 995 1
819 998 1
820 87 1
820 179 1
820 210 1
820 231 1
820 238 1
820 247 1
820 257 1
820 264 1
820 330 1
820 445 1
820 493 1
820 599 1
820 639 1
820 642 1
820 697 1
820 718 1
820 748 1
820 756 1
820 812 1
820 841 1
820 993 1
821 32 1
821 66 1
821 134 1
821 157 1
821 181 1
821 203 1
821 235 1
821 437 1
821 541 1
821 551 1
821 565 1
821 595 1
821 610 1
821 611 1
821 641 1
821 668 1
822 45 1
822 72 1
822 78 1
822 95 1
822 134 1
822 136 1
822 233 1
822 235 1
822 247 1
822 251 1
822 252 1
822 255 1
822 291 1
822 296 1
822 388 1
822 414 1
822 478 1
822 549 1
822 591 1
822 656 1
822 705 1
822 750 1
822 784 1
822 797 1
822 805 1
822 836 1
822 924 1
823 12 1
823 53 1
823 90 1
823 146 1
823 211 1
823 313 1
823 322 1
823 430 1
823 551 1
823 570 1
823 616 1
823 691 1
823 732 1
823 758 1
823 775 1
823 832 1
823 909 1
823 948 1
823 973 1
823 983 1
824 90 1
824 100 1
824 106 1
824 155 1
824 185 1
824 331 1
824 332 1
824 370 1
824 438 1
824 440 1
824 482 1
824 593 1
824 748 1
824 859 1
824 991 1
824 995 1
825 14 1
825 20 1
825 40 1
825 54 1
825 96 1
825 118 1
825 274 1
825 293 1
825 318 1
825 347 1
825 401 1
825 470 1
825 507 1
825 768 1
825 791 1
825 852 1
825 864 1
825 866 1
825 875 1
825 907 1
825 941 1
826 8 1
826 18 1
826 29 1
826 46 1
826 80 1
826 94 1
826 113 1
826 115 1
826 154 1
826 261 1
826 304 1
826 357 1
826 416 1
826 445 1
826 466 1
826 479 1
826 560 1
826 625 1
826 643 1
826 711 1
826 757 1
826 759 1
826 776 1
826 850 1
826 882 1
826 927 1
826 931 1
827 45 1
827 57 1
827 205 1
827 206 1
827 291 1
827 331 1
827 367 1
827 415 1
827 430 1
827 434 1
827 572 1
827 580 1
827 668 1
827 724 1
827 727 1
827 753 1
827 784 1
827 798 1
827 995 1
828 20 1
828 131 1
828 165 1
828 359 1
828 393 1
828 395 1
828 423 1
828 432 1
828 443 1
828 505 1
828 515 1
828 571 1
828 645 1
828 709 1
828 747 1
828 838 1
828 842 1
828 866 1
828 912 1
828 930 1
828 932 1
828 948 1
828 980 1
828 990 1
829 51 1
829 137 1
829 317 1
829 343 1
829 350 1
829 362 1
829 462 1
829 478 1
829 506 1
829 619 1
829 630 1
829 639 1
829 675 1
829 681 1
829 715 1
829 767 1
829 812 1
829 869 1
829 903 1
829 927 1
829 988 1
830 59 1
830 92 1
830 93 1
830 111 1
830 176 1
830 199 1
830 231 1
830 236 1
830 265 1
830 269 1
830 275 1
830 297 1
830 299 1
830 376 1
830 400 1
830 522 1
830 554 1
830 584 1
830 742 1
830 788 1
830 896 1
831 24 1
831 75 1
831 91 1
831 126 1
831 171 1
831 196 1
831 309 1
831 388 1
831 397 1
831 532 1
831 582 1
831 591 1
831 596 1
831 684 1
831 700 1
831 727 1
831 788 1
831 838 1
831 855 1
831 887 1
831 891 1
831 908 1
831 922 1
831 955 1
831 1000 1
832 83 1
832 114 1
832 202 1
832 219 1
832 238 1
832 239 1
832 259 1
832 373 1
832 407 1
832 509 1
832 611 1
832 766 1
832 783 1
832 799 1
832 823 1
832 920 1
832 945 1
832 968 1
833 52 1
833 60 1
833 120 1
833 123 1
833 147 1
833 203 1
833 251 1
833 279 1
833 291 1
833 342 1
833 369 1
833 371 1
833 427 1
833 450 1
833 469 1
833 516 1
833 550 1
833 563 1
833 648 1
833 656 1
833 671 1
833 745 1
833 753 1
833 841 1
833 938 1
834 12 1
834 22 1
834 69 1
834 151 1
834 220 1
834 265 1
834 305 1
834 342 1
834 374 1
834 388 1
834 417 1
834 507 1
834 511 1
834 530 1
834 611 1
834 622 1
834 624 1
834 718 1
834 771 1
834 935 1
834 955 1
834 982 1
834 993 1
835 51 1
835 82 1
835 168 1
835 185 1
835 258 1
835 278 1
835 298 1
835 313 1
835 318 1
835 407 1
835 423 1
835 446 1
835 471 1
835 540 1
835 929 1
835 957 1
835 968 1
836 167 1
836 204 1
836 208 1
836 279 1
836 288 1
836 361 1
836 436 1
836 541 1
836 638 1
836 676 1
836 684 1
836 713 1
836 764 1
836 822 1
836 848 1
837 26 1
837 166 1
837 257 1
837 329 1
837 344 1
837 380 1
837 599 1
837 601 1
837 674 1
837 696 1
837 714 1
837 756 1
837 771 1
837 862 1
837 900 1
837 934 1
837 948 1
838 51 1
838 55 1
838 187 1
838 243 1
838 303 1
838 415 1
838 438 1
838 480 1
838 483 1
838 525 1
838 591 1
838 631 1
838 639 1
838 707 1
838 720 1
838 791 1
838 815 1
838 828 1
838 831 1
838 848 1
838 859 1
838 910 1
838 968 1
839 13 1
839 24 1
839 172 1
839 184 1
839 187 1
839 217 1
839 233 1
839 250 1
839 259 1
839 264 1
839 268 1
839 392 1
839 418 1
839 553 1
839 570 1
839 583 1
839 617 1
839 755 1
839 758 1
839 817 1
839 845 1
839 857 1
839 866 1
839 923 1
839 949 1
839 983 1
840 81 1
840 159 1
840 186 1
840 320 1
840 387 1
840 712 1
840 713 1
840 775 1
840 817 1
840 843 1
840 846 1
840 886 1
840 904 1
840 954 1
841 134 1
841 233 1
841 271 1
841 325 1
841 393 1
841 413 1
841 432 1
841 567 1
841 714 1
841 715 1
841 746 1
841 820 1
841 833 1
841 958 1
841 999 1
841 1000 1
842 23 1
842 64 1
842 79 1
842 160 1
842 305 1
842 389 1
842 428 1
842 478 1
842 497 1
842 510 1
842 592 1
842 666 1
842 674 1
842 675 1
842 742 1
842 774 1
842 816 1
842 828 1
842 891 1
842 911 1
842 925 1
842 943 1
843 22 1
843 43 1
843 93 1
843 101 1
843 149 1
843 170 1
843 247 1
843 287 1
843 290 1
843 421 1
843 449 1
843 502 1
843 509 1
843 528 1
843 568 1
843 708 1
843 778 1
843 795 1
843 802 1
843 840 1
843 847 1
843 869 1
843 876 1
843 941 1
843 942 1
844 9 1
844 15 1
844 140 1
844 146 1
844 224 1
844 274 1
844 275 1
844 281 1
844 313 1
844 352 1
844 353 1
844 391 1
844 457 1
844 502 1
844 504 1
844 711 1
844 731 1
844 736 1
844 804 1
845 168 1
845 242 1
845 255 1
845 292 1
845 346 1
845 389 1
845 464 1
845 518 1
845 531 1
845 536 1
845 564 1
845 577 1
845 591 1
845 594 1
845 634 1
845 658 1
845 763 1
845 799 1
845 839 1
845 944 1
845 976 1
846 15 1
846 19 1
846 122 1
846 157 1
846 242 1
846 272 1
846 318 1
846 384 1
846 386 1
846 387 1
846 459 1
846 518 1
846 523 1
846 591 1
846 798 1
846 840 1
846 908 1
846 940 1
847 2 1
847 55 1
847 246 1
847 282 1
847 335 1
847 344 1
847 349 1
847 394 1
847 397 1
847 427 1
847 561 1
847 597 1
847 634 1
847 701 1
847 795 1
847 819 1
847 843 1
847 870 1
847 946 1
847 985 1
848 172 1
848 202 1
848 236 1
848 262 1
848 454 1
848 490 1
848 496 1
848 525 1
848 703 1
848 724 1
848 730 1
848 785 1
848 786 1
848 836 1
848 838 1
848 970 1
849 26 1
849 39 1
849 44 1
849 58 1
849 78 1
849 85 1
849 371 1
849 392 1
849 418 1
849 450 1
849 592 1
849 609 1
849 657 1
849 733 1
849 802 1
849 964 1
850 12 1
850 16 1
850 36 1
850 183 1
850 200 1
850 280 1
850 297 1
850 337 1
850 406 1
850 441 1
850 473 1
850 479 1
850 505 1
850 558 1
850 691 1
850 780 1
850 790 1
850 826 1
850 999 1
851 32 1
851 78 1
851 90 1
851 444 1
851 448 1
851 573 1
851 630 1
851 679 1
851 775 1
851 863 1
851 867 1
851 890 1
851 930 1
851 954 1
852 66 1
852 118 1
852 130 1
852 149 1
852 175 1
852 225 1
852 278 1
852 308 1
852 378 1
852 520 1
852 523 1
852 660 1
852 735 1
852 738 1
852 825 1
852 889 1
852 938 1
852 943 1
852 961 1
852 993 1
853 209 1
853 223 1
853 265 1
853 278 1
853 279 1
853 331 1
853 353 1
853 357 1
853 440 1
853 482 1
853 531 1
853 556 1
853 592 1
853 632 1
853 678 1
853 688 1
853 715 1
853 728 1
853 735 1
853 754 1
853 933 1
853 939 1
853 946 1
853 967 1
854 22 1
854 111 1
854 122 1
854 124 1
854 148 1
854 222 1
854 382 1
854 442 1
854 475 1
854 483 1
854 516 1
854 524 1
854 726 1
854 805 1
854 855 1
854 889 1
855 9 1
855 65 1
855 91 1
855 98 1
855 158 1
855 162 1
855 219 1
855 223 1
855 323 1
855 482 1
855 495 1
855 500 1
855 534 1
855 617 1
855 619 1
855 804 1
855 831 1
855 854 1
856 9 1
856 23 1
856 82 1
856 136 1
856 142 1
856 159 1
856 175 1
856 206 1
856 219 1
856 220 1
856 245 1
856 274 1
856 308 1
856 375 1
856 400 1
856 446 1
856 572 1
856 577 1
856 671 1
856 706 1
856 719 1
856 720 1
856 883 1
856 917 1
857 17 1
857 46 1
857 125 1
857 177 1
857 242 1
857 252 1
857 259 1
857 357 1
857 413 1
857 433 1
857 662 1
857 759 1
857 798 1
857 814 1
857 839 1
857 934 1
857 944 1
857 947 1
857 951 1
858 19 1
858 45 1
858 70 1
858 168 1
858 204 1
858 222 1
858 247 1
858 282 1
858 308 1
858 326 1
858 380 1
858 406 1
858 415 1
858 464 1
858 491 1
858 494 1
858 681 1
858 766 1
858 932 1
858 980 1
859 5 1
859 19 1
859 34 1
859 95 1
859 103 1
859 138 1
859 159 1
859 240 1
859 268 1
859 270 1
859 431 1
859 446 1
859 470 1
859 516 1
859 548 1
859 655 1
859 727 1
859 824 1
859 838 1
859 886 1
859 965 1
859 972 1
860 92 1
860 138 1
860 186 1
860 244 1
860 249 1
860 264 1
860 313 1
860 353 1
860 386 1
860 413 1
860 478 1
860 488 1
860 556 1
860 570 1
860 626 1
860 747 1
860 789 1
860 891 1
860 914 1
860 948 1
861 67 1
861 142 1
861 167 1
861 185 1
861 206 1
861 210 1
861 240 1
861 245 1
861 269 1
861 275 1
861 285 1
861 366 1
861 423 1
861 437 1
861 439 1
861 500 1
861 721 1
861 741 1
861 805 1
861 908 1
861 925 1
861 947 1
861 986 1
862 69 1
862 132 1
862 181 1
862 253 1
862 258 1
862 271 1
862 283 1
862 314 1
862 398 1
862 413 1
862 447 1
862 461 1
862 533 1
862 554 1
862 609 1
862 633 1
862 779 1
862 799 1
862 837 1
862 922 1
862 996 1
863 197 1
863 273 1
863 303 1
863 350 1
863 419 1
863 437 1
863 496 1
863 686 1
863 734 1
863 738 1
863 748 1
863 758 1
863 777 1
863 791 1
863 851 1
863 895 1
863 898 1
863 909 1
863 916 1
863 960 1
863 973 1
864 98 1
864 161 1
864 178 1
864 285 1
864 318 1
864 568 1
864 688 1
864 737 1
864 750 1
864 812 1
864 825 1
864 915 1
864 930 1
864 948 1
864 950 1
864 957 1
865 44 1
865 97 1
865 132 1
865 154 1
865 166 1
865 170 1
865 222 1
865 258 1
865 282 1
865 334 1
865 389 1
865 431 1
865 461 1
865 467 1
865 469 1
865 618 1
865 625 1
865 638 1
865 689 1
865 710 1
865 723 1
865 760 1
865 819 1
865 929 1
865 960 1
865 990 1
866 73 1
866 79 1
866 132 1
866 174 1
866 204 1
866 238 1
866 271 1
866 278 1
866 338 1
866 396 1
866 551 1
866 617 1
866 638 1
866 695 1
866 707 1
866 734 1
866 758 1
866 769 1
866 825 1
866 828 1
866 839 1
866 955 1
866 1000 1
867 6 1
867 35 1
867 55 1
867 83 1
867 94 1
867 113 1
867 232 1
867 340 1
867 346 1
867 376 1
867 454 1
867 465 1
867 468 1
867 501 1
867 546 1
867 598 1
867 602 1
867 649 1
867 685 1
867 765 1
867 776 1
867 851 1
868 54 1
868 69 1
868 121 1
868 171 1
868 359 1
868 397 1
868 445 1
868 476 1
868 496 1
868 508 1
868 615 1
868 635 1
868 703 1
868 713 1
868 879 1
868 940 1
868 954 1
868 983 1
869 4 1
869 123 1
869 128 1
869 141 1
869 162 1
869 212 1
869 286 1
869 300 1
869 324 1
869 335 1
869 345 1
869 369 1
869 385 1
869 463 1
869 471 1
869 491 1
869 596 1
869 686 1
869 756 1
869 802 1
869 829 1
869 843 1
869 893 1
869 896 1
869 903 1
869 908 1
869 921 1
869 939 1
869 959 1
869 998 1
870 47 1
870 56 1
870 99 1
870 137 1
870 169 1
870 204 1
870 285 1
870 315 1
870 353 1
870 360 1
870 412 1
870 481 1
870 505 1
870 635 1
870 767 1
870 797 1
870 847 1
871 83 1
871 142 1
871 210 1
871 302 1
871 387 1
871 414 1
871 468 1
871 483 1
871 536 1
871 549 1
871 611 1
871 635 1
871 639 1
871 648 1
871 781 1
871 899 1
871 939 1
871 970 1
872 29 1
872 117 1
872 224 1
872 319 1
872 378 1
872 517 1
872 520 1
872 638 1
872 691 1
872 711 1
872 723 1
872 755 1
872 815 1
872 818 1
872 876 1
872 956 1
873 3 1
873 66 1
873 153 1
873 159 1
873 218 1
873 248 1
873 256 1
873 298 1
873 302 1
873 309 1
873 325 1
873 435 1
873 454 1
873 523 1
873 526 1
873 534 1
873 553 1
873 556 1
873 631 1
873 699 1
873 906 1
873 923 1
874 17 1
874 37 1
874 113 1
874 244 1
874 293 1
874 333 1
874 422 1
874 499 1
874 561 1
874 656 1
874 689 1
874 720 1
874 739 1
874 915 1
874 999 1
875 161 1
875 195 1
875 284 1
875 303 1
875 440 1
875 441 1
875 465 1
875 555 1
875 583 1
875 614 1
875 628 1
875 721 1
875 762 1
875 805 1
875 825 1
875 904 1
875 915 1
875 941 1
876 56 1
876 58 1
876 118 1
876 138 1
876 179 1
876 307 1
876 477 1
876 480 1
876 483 1
876 508 1
876 522 1
876 548 1
876 613 1
876 690 1
876 693 1
876 727 1
876 843 1
876 872 1
876 890 1
876 921 1
876 924 1
876 932 1
877 39 1
877 60 1
877 161 1
877 348 1
877 377 1
877 632 1
877 655 1
877 673 1
877 938 1
877 968 1
878 19 1
878 122 1
878 171 1
878 184 1
878 189 1
878 234 1
878 247 1
878 473 1
878 492 1
878 529 1
878 634 1
878 673 1
878 777 1
878 786 1
878 800 1
878 887 1
878 903 1
879 28 1
879 83 1
879 127 1
879 137 1
879 147 1
879 239 1
879 245 1
879 248 1
879 276 1
879 333 1
879 340 1
879 370 1
879 394 1
879 409 1
879 428 1
879 458 1
879 470 1
879 494 1
879 562 1
879 579 1
879 593 1
879 763 1
879 806 1
879 868 1
879 899 1
879 917 1
879 918 1
879 922 1
879 974 1
879 998 1
880 31 1
880 64 1
880 99 1
880 151 1
880 308 1
880 394 1
880 410 1
880 472 1
880 535 1
880 538 1
880 541 1
880 553 1
880 604 1
880 637 1
880 667 1
880 718 1
880 744 1
880 881 1
881 35 1
881 206 1
881 237 1
881 292 1
881 326 1
881 390 1
881 444 1
881 533 1
881 629 1
881 675 1
881 686 1
881 695 1
881 756 1
881 772 1
881 801 1
881 880 1
881 964 1
882 28 1
882 95 1
882 120 1
882 150 1
882 232 1
882 296 1
882 297 1
882 325 1
882 503 1
882 565 1
882 614 1
882 641 1
882 699 1
882 702 1
882 726 1
882 814 1
882 826 1
882 892 1
882 916 1
882 948 1
883 46 1
883 82 1
883 127 1
883 205 1
883 261 1
883 294 1
883 432 1
883 566 1
883 588 1
883 609 1
883 701 1
883 759 1
883 787 1
883 816 1
883 856 1
883 901 1
883 991 1
884 167 1
884 201 1
884 292 1
884 337 1
884 372 1
884 446 1
884 447 1
884 473 1
884 478 1
884 506 1
884 518 1
884 578 1
884 596 1
884 629 1
884 656 1
884 727 1
884 799 1
884 936 1
885 92 1
885 132 1
885 174 1
885 297 1
885 323 1
885 351 1
885 357 1
885 368 1
885 385 1
885 402 1
885 585 1
885 597 1
885 615 1
885 622 1
885 785 1
885 799 1
885 815 1
885 915 1
886 111 1
886 135 1
886 142 1
886 206 1
886 226 1
886 279 1
886 307 1
886 317 1
886 421 1
886 598 1
886 647 1
886 663 1
886 690 1
886 840 1
886 859 1
886 904 1
886 945 1
887 23 1
887 41 1
887 46 1
887 49 1
887 61 1
887 89 1
887 97 1
887 148 1
887 151 1
887 157 1
887 216 1
887 253 1
887 262 1
887 273 1
887 357 1
887 363 1
887 436 1
887 507 1
887 514 1
887 534 1
887 586 1
887 589 1
887 723 1
887 754 1
887 777 1
887 802 1
887 831 1
887 878 1
887 892 1
887 917 1
888 169 1
888 272 1
888 275 1
888 277 1
888 278 1
888 483 1
888 491 1
888 627 1
888 656 1
888 674 1
888 688 1
888 696 1
888 773 1
888 899 1
888 904 1
888 938 1
888 981 1
889 45 1
889 61 1
889 74 1
889 95 1
889 232 1
889 317 1
889 328 1
889 414 1
889 431 1
889 432 1
889 452 1
889 506 1
889 509 1
889 526 1
889 565 1
889 579 1
889 630 1
889 768 1
889 806 1
889 813 1
889 852 1
889 854 1
890 54 1
890 62 1
890 85 1
890 189 1
890 199 1
890 205 1
890 339 1
890 444 1
890 460 1
890 477 1
890 582 1
890 584 1
890 704 1
890 851 1
890 876 1
890 915 1
890 921 1
890 936 1
891 55 1
891 94 1
891 212 1
891 219 1
891 259 1
891 304 1
891 325 1
891 327 1
891 410 1
891 432 1
891 646 1
891 653 1
891 668 1
891 691 1
891 697 1
891 757 1
891 774 1
891 808 1
891 813 1
891 831 1
891 842 1
891 860 1
891 976 1
891 984 1
892 19 1
892 111 1
892 132 1
892 141 1
892 154 1
892 194 1
892 230 1
892 259 1
892 302 1
892 432 1
892 440 1
892 453 1
892 504 1
892 507 1
892 602 1
892 644 1
892 673 1
892 675 1
892 732 1
892 737 1
892 793 1
892 813 1
892 882 1
892 887 1
892 942 1
893 45 1
893 100 1
893 116 1
893 159 1
893 177 1
893 191 1
893 250 1
893 276 1
893 534 1
893 589 1
893 657 1
893 709 1
893 730 1
893 804 1
893 819 1
893 869 1
893 927 1
894 33 1
894 89 1
894 151 1
894 278 1
894 372 1
894 437 1
894 497 1
894 530 1
894 562 1
894 582 1
894 583 1
894 591 1
894 639 1
894 664 1
894 781 1
894 978 1
895 27 1
895 76 1
895 93 1
895 190 1
895 203 1
895 242 1
895 335 1
895 470 1
895 486 1
895 511 1
895 561 1
895 741 1
895 756 1
895 785 1
895 863 1
895 898 1
895 919 1
895 931 1
895 951 1
895 956 1
895 979 1
896 28 1
896 72 1
896 80 1
896 101 1
896 141 1
896 167 1
896 172 1
896 236 1
896 307 1
896 370 1
896 401 1
896 417 1
896 548 1
896 600 1
896 612 1
896 622 1
896 624 1
896 642 1
896 707 1
896 762 1
896 774 1
896 786 1
896 792 1
896 830 1
896 869 1
896 920 1
896 941 1
896 977 1
897 2 1
897 4 1
897 159 1
897 188 1
897 232 1
897 414 1
897 422 1
897 428 1
897 440 1
897 587 1
897 680 1
897 682 1
897 723 1
897 812 1
897 932 1
897 935 1
897 959 1
897 968 1
897 973 1
898 32 1
898 37 1
898 203 1
898 260 1
898 296 1
898 359 1
898 418 1
898 451 1
898 454 1
898 544 1
898 547 1
898 554 1
898 581 1
898 596 1
898 601 1
898 610 1
898 730 1
898 776 1
898 863 1
898 895 1
898 919 1
898 925 1
898 991 1
899 81 1
899 93 1
899 94 1
899 274 1
899 399 1
899 421 1
899 469 1
899 546 1
899 563 1
899 619 1
899 649 1
899 719 1
899 745 1
899 746 1
899 776 1
899 802 1
899 871 1
899 879 1
899 888 1
899 925 1
899 926 1
900 29 1
900 199 1
900 306 1
900 319 1
900 336 1
900 349 1
900 418 1
900 438 1
900 439 1
900 464 1
900 466 1
900 537 1
900 613 1
900 665 1
900 712 1
900 750 1
900 786 1
900 837 1
900 901 1
900 917 1
900 947 1
900 993 1
901 49 1
901 51 1
901 94 1
901 187 1
901 486 1
901 509 1
901 577 1
901 612 1
901 613 1
901 729 1
901 757 1
901 883 1
901 900 1
901 915 1
901 941 1
901 951 1
901 978 1
901 982 1
901 991 1
901 996 1
902 64 1
902 109 1
902 116 1
902 249 1
902 258 1
902 274 1
902 285 1
902 332 1
902 396 1
902 413 1
902 616 1
902 636 1
902 652 1
902 694 1
902 703 1
902 759 1
902 761 1
902 776 1
902 794 1
902 939 1
903 36 1
903 80 1
903 169 1
903 220 1
903 221 1
903 246 1
903 306 1
903 330 1
903 379 1
903 448 1
903 494 1
903 530 1
903 614 1
903 621 1
903 663 1
903 679 1
903 680 1
903 686 1
903 814 1
903 829 1
903 869 1
903 878 1
904 5 1
904 38 1
904 57 1
904 89 1
904 185 1
904 197 1
904 224 1
904 278 1
904 287 1
904 291 1
904 299 1
904 333 1
904 355 1
904 358 1
904 381 1
904 383 1
904 384 1
904 458 1
904 491 1
904 840 1
904 875 1
904 886 1
904 888 1
904 910 1
904 922 1
905 15 1
905 23 1
905 89 1
905 113 1
905 200 1
905 212 1
905 222 1
905 296 1
905 351 1
905 382 1
905 511 1
905 531 1
905 535 1
905 552 1
905 620 1
905 650 1
905 814 1
905 920 1
905 936 1
906 51 1
906 105 1
906 188 1
906 198 1
906 222 1
906 313 1
906 318 1
906 324 1
906 350 1
906 351 1
906 382 1
906 383 1
906 388 1
906 415 1
906 438 1
906 462 1
906 591 1
906 639 1
906 648 1
906 660 1
906 873 1
906 933 1
906 960 1
907 26 1
907 68 1
907 73 1
907 99 1
907 104 1
907 161 1
907 169 1
907 196 1
907 225 1
907 347 1
907 390 1
907 482 1
907 507 1
907 542 1
907 597 1
907 621 1
907 641 1
907 653 1
907 663 1
907 737 1
907 746 1
907 772 1
907 775 1
907 825 1
908 30 1
908 108 1
908 159 1
908 160 1
908 197 1
908 204 1
908 206 1
908 208 1
908 306 1
908 310 1
908 368 1
908 428 1
908 571 1
908 607 1
908 617 1
908 750 1
908 795 1
908 796 1
908 831 1
908 846 1
908 861 1
908 869 1
908 921 1
908 977 1
908 991 1
909 79 1
909 98 1
909 134 1
909 137 1
909 148 1
909 196 1
909 197 1
909 200 1
909 211 1
909 310 1
909 341 1
909 433 1
909 464 1
909 564 1
909 570 1
909 585 1
909 631 1
909 643 1
909 647 1
909 663 1
909 707 1
909 823 1
909 863 1
909 932 1
909 958 1
910 98 1
910 161 1
910 240 1
910 275 1
910 293 1
910 324 1
910 337 1
910 397 1
910 413 1
910 476 1
910 494 1
910 510 1
910 602 1
910 613 1
910 732 1
910 786 1
910 817 1
910 838 1
910 904 1
910 932 1
910 967 1
911 20 1
911 190 1
911 200 1
911 246 1
911 273 1
911 318 1
911 355 1
911 370 1
911 444 1
911 465 1
911 466 1
911 574 1
911 630 1
911 657 1
911 675 1
911 842 1
911 930 1
911 953 1
912 5 1
912 42 1
912 47 1
912 72 1
912 82 1
912 100 1
912 156 1
912 172 1
912 226 1
912 240 1
912 312 1
912 384 1
912 506 1
912 624 1
912 626 1
912 631 1
912 643 1
912 666 1
912 672 1
912 689 1
912 699 1
912 762 1
912 804 1
912 828 1
912 950 1
913 122 1
913 123 1
913 159 1
913 272 1
913 368 1
913 440 1
913 450 1
913 458 1
913 470 1
913 499 1
913 573 1
913 604 1
913 610 1
913 661 1
913 671 1
913 805 1
913 914 1
913 941 1
913 975 1
914 33 1
914 94 1
914 119 1
914 128 1
914 213 1
914 256 1
914 273 1
914 342 1
914 344 1
914 482 1
914 509 1
914 546 1
914 589 1
914 638 1
914 675 1
914 860 1
914 913 1
915 34 1
915 69 1
915 105 1
915 145 1
915 148 1
915 185 1
915 260 1
915 342 1
915 503 1
915 517 1
915 574 1
915 662 1
915 707 1
915 717 1
915 718 1
915 762 1
915 815 1
915 864 1
915 874 1
915 875 1
915 885 1
915 890 1
915 901 1
916 8 1
916 54 1
916 99 1
916 198 1
916 262 1
916 320 1
916 327 1
916 367 1
916 420 1
916 437 1
916 510 1
916 521 1
916 537 1
916 541 1
916 585 1
916 601 1
916 622 1
916 749 1
916 773 1
916 863 1
916 882 1
916 927 1
916 945 1
916 946 1
917 51 1
917 63 1
917 74 1
917 156 1
917 174 1
917 243 1
917 315 1
917 354 1
917 413 1
917 453 1
917 583 1
917 597 1
917 669 1
917 701 1
917 799 1
917 800 1
917 856 1
917 879 1
917 887 1
917 900 1
917 935 1
918 86 1
918 206 1
918 225 1
918 233 1
918 255 1
918 259 1
918 269 1
918 280 1
918 325 1
918 330 1
918 449 1
918 499 1
918 629 1
918 678 1
918 748 1
918 761 1
918 879 1
918 936 1
919 36 1
919 95 1
919 126 1
919 142 1
919 223 1
919 224 1
919 248 1
919 312 1
919 356 1
919 463 1
919 481 1
919 595 1
919 615 1
919 624 1
919 793 1
919 895 1
919 898 1
920 34 1
920 59 1
920 101 1
920 103 1
920 144 1
920 188 1
920 248 1
920 301 1
920 311 1
920 345 1
920 587 1
920 661 1
920 684 1
920 697 1
920 832 1
920 896 1
920 905 1
920 937 1
920 974 1
921 7 1
921 74 1
921 256 1
921 274 1
921 341 1
921 370 1
921 415 1
921 416 1
921 500 1
921 503 1
921 548 1
921 586 1
921 590 1
921 663 1
921 672 1
921 776 1
921 869 1
921 876 1
921 890 1
921 908 1
921 937 1
921 971 1
922 60 1
922 132 1
922 178 1
922 252 1
922 354 1
922 392 1
922 393 1
922 411 1
922 532 1
922 573 1
922 702 1
922 743 1
922 818 1
922 831 1
922 862 1
922 879 1
922 904 1
923 162 1
923 167 1
923 247 1
923 255 1
923 395 1
923 445 1
923 485 1
923 579 1
923 589 1
923 632 1
923 633 1
923 645 1
923 683 1
923 687 1
923 725 1
923 728 1
923 738 1
923 768 1
923 801 1
923 839 1
923 873 1
923 948 1
924 34 1
924 54 1
924 75 1
924 145 1
924 199 1
924 236 1
924 281 1
924 308 1
924 310 1
924 418 1
924 452 1
924 470 1
924 640 1
924 693 1
924 759 1
924 822 1
924 876 1
924 995 1
925 11 1
925 69 1
925 78 1
925 149 1
925 195 1
925 236 1
925 277 1
925 299 1
925 321 1
925 355 1
925 395 1
925 402 1
925 485 1
925 542 1
925 572 1
925 576 1
925 657 1
925 669 1
925 741 1
925 780 1
925 842 1
925 861 1
925 898 1
925 899 1
925 948 1
926 69 1
926 83 1
926 114 1
926 220 1
926 225 1
926 299 1
926 457 1
926 551 1
926 651 1
926 662 1
926 696 1
926 899 1
927 59 1
927 77 1
927 138 1
927 174 1
927 190 1
927 217 1
927 246 1
927 259 1
927 379 1
927 400 1
927 406 1
927 408 1
927 583 1
927 639 1
927 664 1
927 673 1
927 745 1
927 773 1
927 783 1
927 826 1
927 829 1
927 893 1
927 916 1
927 933 1
927 962 1
928 12 1
928 80 1
928 179 1
928 187 1
928 191 1
928 213 1
928 246 1
928 352 1
928 357 1
928 387 1
928 390 1
928 394 1
928 458 1
928 614 1
928 658 1
928 738 1
929 11 1
929 17 1
929 37 1
929 162 1
929 233 1
929 458 1
929 541 1
929 610 1
929 660 1
929 688 1
929 738 1
929 752 1
929 758 1
929 768 1
929 835 1
929 865 1
929 948 1
930 33 1
930 35 1
930 63 1
930 133 1
930 145 1
930 173 1
930 204 1
930 313 1
930 379 1
930 406 1
930 438 1
930 445 1
930 554 1
930 555 1
930 708 1
930 745 1
930 784 1
930 793 1
930 809 1
930 828 1
930 851 1
930 864 1
930 911 1
930 932 1
930 990 1
931 28 1
931 50 1
931 70 1
931 145 1
931 198 1
931 275 1
931 335 1
931 382 1
931 463 1
931 526 1
931 562 1
931 576 1
931 653 1
931 699 1
931 783 1
931 826 1
931 895 1
932 37 1
932 137 1
932 204 1
932 269 1
932 293 1
932 297 1
932 394 1
932 407 1
932 409 1
932 570 1
932 576 1
932 677 1
932 731 1
932 828 1
932 858 1
932 876 1
932 897 1
932 909 1
932 910 1
932 930 1
932 959 1
932 966 1
932 1000 1
933 27 1
933 50 1
933 51 1
933 156 1
933 161 1
933 216 1
933 263 1
933 301 1
933 318 1
933 514 1
933 555 1
933 559 1
933 589 1
933 637 1
933 679 1
933 743 1
933 853 1
933 906 1
933 927 1
934 7 1
934 12 1
934 111 1
934 202 1
934 217 1
934 220 1
934 242 1
934 270 1
934 298 1
934 406 1
934 462 1
934 478 1
934 484 1
934 485 1
934 493 1
934 494 1
934 499 1
934 551 1
934 643 1
934 757 1
934 786 1
934 837 1
934 857 1
934 960 1
934 978 1
935 39 1
935 43 1
935 51 1
935 104 1
935 106 1
935 177 1
935 201 1
935 337 1
935 351 1
935 383 1
935 438 1
935 458 1
935 481 1
935 499 1
935 500 1
935 516 1
935 580 1
935 647 1
935 728 1
935 786 1
935 834 1
935 897 1
935 917 1
936 44 1
936 236 1
936 237 1
936 264 1
936 414 1
936 447 1
936 508 1
936 516 1
936 548 1
936 631 1
936 675 1
936 687 1
936 753 1
936 806 1
936 807 1
936 884 1
936 890 1
936 905 1
936 918 1
936 955 1
936 977 1
937 124 1
937 209 1
937 210 1
937 256 1
937 395 1
937 399 1
937 455 1
937 460 1
937 484 1
937 513 1
937 543 1
937 579 1
937 684 1
937 715 1
937 736 1
937 746 1
937 810 1
937 920 1
937 921 1
937 940 1
937 949 1
937 970 1
938 60 1
938 107 1
938 160 1
938 183 1
938 201 1
938 233 1
938 240 1
938 293 1
938 448 1
938 501 1
938 665 1
938 676 1
938 718 1
938 736 1
938 748 1
938 749 1
938 774 1
938 806 1
938 818 1
938 833 1
938 852 1
938 877 1
938 888 1
938 942 1
938 944 1
938 947 1
939 73 1
939 84 1
939 163 1
939 217 1
939 235 1
939 339 1
939 346 1
939 438 1
939 457 1
939 493 1
939 543 1
939 562 1
939 598 1
939 624 1
939 643 1
939 662 1
939 667 1
939 727 1
939 853 1
939 869 1
939 871 1
939 902 1
939 946 1
940 22 1
940 93 1
940 105 1
940 114 1
940 145 1
940 188 1
940 220 1
940 225 1
940 303 1
940 329 1
940 519 1
940 520 1
940 547 1
940 616 1
940 711 1
940 737 1
940 766 1
940 846 1
940 868 1
940 937 1
940 987 1
940 989 1
941 13 1
941 76 1
941 237 1
941 277 1
941 293 1
941 302 1
941 309 1
941 325 1
941 343 1
941 348 1
941 352 1
941 512 1
941 523 1
941 537 1
941 549 1
941 634 1
941 636 1
941 665 1
941 687 1
941 744 1
941 784 1
941 825 1
941 843 1
941 875 1
941 896 1
941 901 1
941 913 1
942 47 1
942 246 1
942 396 1
942 516 1
942 591 1
942 623 1
942 687 1
942 691 1
942 792 1
942 843 1
942 892 1
942 938 1
942 965 1
942 977 1
942 991 1
943 20 1
943 30 1
943 77 1
943 119 1
943 274 1
943 276 1
943 337 1
943 372 1
943 374 1
943 391 1
943 428 1
943 433 1
943 446 1
943 542 1
943 646 1
943 685 1
943 792 1
943 814 1
943 842 1
943 852 1
943 974 1
944 110 1
944 129 1
944 176 1
944 236 1
944 258 1
944 454 1
944 494 1
944 649 1
944 650 1
944 749 1
944 766 1
944 817 1
944 845 1
944 857 1
944 938 1
944 966 1
944 969 1
944 991 1
945 27 1
945 33 1
945 74 1
945 209 1
945 319 1
945 328 1
945 383 1
945 400 1
945 407 1
945 420 1
945 525 1
945 535 1
945 545 1
945 558 1
945 561 1
945 597 1
945 605 1
945 628 1
945 657 1
945 692 1
945 703 1
945 817 1
945 832 1
945 886 1
945 916 1
945 957 1
945 995 1
946 9 1
946 131 1
946 144 1
946 161 1
946 187 1
946 264 1
946 268 1
946 314 1
946 316 1
946 353 1
946 385 1
946 426 1
946 453 1
946 532 1
946 581 1
946 586 1
946 608 1
946 624 1
946 659 1
946 749 1
946 779 1
946 819 1
946 847 1
946 853 1
946 916 1
946 939 1
946 958 1
946 961 1
947 180 1
947 369 1
947 445 1
947 469 1
947 522 1
947 646 1
947 670 1
947 783 1
947 788 1
947 804 1
947 857 1
947 861 1
947 900 1
947 938 1
948 26 1
948 158 1
948 175 1
948 319 1
948 358 1
948 371 1
948 389 1
948 537 1
948 578 1
948 584 1
948 739 1
948 819 1
948 823 1
948 828 1
948 837 1
948 860 1
948 864 1
948 882 1
948 923 1
948 925 1
948 929 1
948 950 1
949 16 1
949 61 1
949 86 1
949 162 1
949 182 1
949 219 1
949 347 1
949 355 1
949 397 1
949 527 1
949 538 1
949 574 1
949 640 1
949 703 1
949 715 1
949 744 1
949 756 1
949 839 1
949 937 1
949 976 1
950 17 1
950 35 1
950 47 1
950 178 1
950 219 1
950 339 1
950 441 1
950 505 1
950 540 1
950 554 1
950 558 1
950 559 1
950 577 1
950 654 1
950 667 1
950 721 1
950 742 1
950 864 1
950 912 1
950 948 1
951 57 1
951 73 1
951 112 1
951 138 1
951 145 1
951 174 1
951 209 1
951 224 1
951 295 1
951 314 1
951 360 1
951 400 1
951 406 1
951 464 1
951 483 1
951 593 1
951 698 1
951 739 1
951 773 1
951 795 1
951 857 1
951 895 1
951 901 1
951 953 1
951 964 1
951 973 1
952 192 1
952 320 1
952 441 1
952 482 1
952 583 1
952 617 1
952 688 1
952 748 1
952 769 1
952 818 1
953 70 1
953 84 1
953 95 1
953 167 1
953 202 1
953 212 1
953 260 1
953 275 1
953 314 1
953 315 1
953 346 1
953 411 1
953 414 1
953 429 1
953 536 1
953 588 1
953 646 1
953 656 1
953 696 1
953 708 1
953 911 1
953 951 1
953 955 1
953 961 1
953 978 1
954 48 1
954 76 1
954 78 1
954 87 1
954 124 1
954 217 1
954 332 1
954 367 1
954 391 1
954 429 1
954 595 1
954 675 1
954 694 1
954 764 1
954 840 1
954 851 1
954 868 1
954 992 1
955 53 1
955 75 1
955 122 1
955 233 1
955 259 1
955 353 1
955 354 1
955 426 1
955 460 1
955 530 1
955 609 1
955 625 1
955 663 1
955 665 1
955 717 1
955 726 1
955 749 1
955 778 1
955 831 1
955 834 1
955 866 1
955 936 1
955 953 1
956 15 1
956 53 1
956 102 1
956 110 1
956 115 1
956 126 1
956 152 1
956 182 1
956 201 1
956 211 1
956 225 1
956 286 1
956 345 1
956 464 1
956 497 1
956 500 1
956 563 1
956 623 1
956 630 1
956 706 1
956 730 1
956 872 1
956 895 1
957 12 1
957 27 1
957 33 1
957 61 1
957 100 1
957 140 1
957 170 1
957 177 1
957 232 1
957 269 1
957 354 1
957 387 1
957 423 1
957 449 1
957 475 1
957 511 1
957 536 1
957 551 1
957 630 1
957 670 1
957 775 1
957 835 1
957 864 1
957 945 1
958 2 1
958 73 1
958 100 1
958 108 1
958 132 1
958 146 1
958 159 1
958 183 1
958 196 1
958 230 1
958 257 1
958 288 1
958 391 1
958 433 1
958 525 1
958 530 1
958 535 1
958 585 1
958 705 1
958 726 1
958 750 1
958 769 1
958 815 1
958 841 1
958 909 1
958 946 1
958 980 1
958 999 1
959 59 1
959 90 1
959 206 1
959 224 1
959 267 1
959 275 1
959 337 1
959 341 1
959 345 1
959 404 1
959 405 1
959 427 1
959 502 1
959 508 1
959 527 1
959 545 1
959 560 1
959 709 1
959 733 1
959 736 1
959 756 1
959 770 1
959 869 1
959 897 1
959 932 1
960 75 1
960 155 1
960 425 1
960 455 1
960 461 1
960 466 1
960 475 1
960 580 1
960 581 1
960 738 1
960 758 1
960 813 1
960 863 1
960 865 1
960 906 1
960 934 1
960 969 1
961 21 1
961 43 1
961 61 1
961 80 1
961 108 1
961 275 1
961 304 1
961 483 1
961 495 1
961 546 1
961 580 1
961 596 1
961 808 1
961 852 1
961 946 1
961 953 1
962 16 1
962 139 1
962 399 1
962 505 1
962 570 1
962 580 1
962 585 1
962 599 1
962 655 1
962 685 1
962 693 1
962 694 1
962 767 1
962 927 1
963 5 1
963 14 1
963 28 1
963 36 1
963 122 1
963 147 1
963 200 1
963 208 1
963 286 1
963 374 1
963 382 1
963 427 1
963 459 1
963 523 1
963 529 1
963 539 1
963 560 1
963 563 1
963 588 1
963 626 1
963 702 1
963 706 1
963 741 1
963 751 1
963 764 1
964 28 1
964 61 1
964 103 1
964 118 1
964 128 1
964 152 1
964 179 1
964 196 1
964 199 1
964 217 1
964 339 1
964 554 1
964 582 1
964 621 1
964 665 1
964 674 1
964 755 1
964 800 1
964 849 1
964 881 1
964 951 1
964 989 1
965 22 1
965 39 1
965 61 1
965 145 1
965 198 1
965 214 1
965 227 1
965 303 1
965 337 1
965 361 1
965 364 1
965 473 1
965 590 1
965 697 1
965 706 1
965 859 1
965 942 1
965 988 1
965 992 1
966 12 1
966 42 1
966 65 1
966 135 1
966 185 1
966 352 1
966 403 1
966 405 1
966 448 1
966 475 1
966 476 1
966 499 1
966 527 1
966 592 1
966 674 1
966 679 1
966 704 1
966 705 1
966 715 1
966 726 1
966 732 1
966 741 1
966 751 1
966 757 1
966 932 1
966 944 1
967 64 1
967 73 1
967 112 1
967 132 1
967 189 1
967 220 1
967 241 1
967 311 1
967 320 1
967 375 1
967 421 1
967 474 1
967 557 1
967 588 1
967 615 1
967 646 1
967 664 1
967 690 1
967 714 1
967 720 1
967 776 1
967 853 1
967 910 1
968 27 1
968 54 1
968 66 1
968 68 1
968 103 1
968 232 1
968 236 1
968 298 1
968 355 1
968 386 1
968 400 1
968 483 1
968 529 1
968 575 1
968 605 1
968 616 1
968 676 1
968 832 1
968 835 1
968 838 1
968 877 1
968 897 1
968 985 1
969 75 1
969 103 1
969 184 1
969 230 1
969 362 1
969 395 1
969 491 1
969 551 1
969 555 1
969 598 1
969 624 1
969 807 1
969 944 1
969 960 1
970 36 1
970 49 1
970 51 1
970 65 1
970 70 1
970 146 1
970 263 1
970 298 1
970 300 1
970 384 1
970 476 1
970 507 1
970 538 1
970 564 1
970 587 1
970 627 1
970 655 1
970 716 1
970 730 1
970 733 1
970 737 1
970 738 1
970 794 1
970 848 1
970 871 1
970 937 1
970 971 1
971 31 1
971 45 1
971 58 1
971 78 1
971 88 1
971 163 1
971 187 1
971 256 1
971 334 1
971 563 1
971 666 1
971 763 1
971 804 1
971 921 1
971 970 1
972 97 1
972 159 1
972 222 1
972 232 1
972 235 1
972 318 1
972 358 1
972 470 1
972 536 1
972 567 1
972 605 1
972 631 1
972 649 1
972 673 1
972 683 1
972 703 1
972 859 1
972 973 1
973 27 1
973 64 1
973 115 1
973 159 1
973 182 1
973 213 1
973 227 1
973 299 1
973 362 1
973 373 1
973 427 1
973 469 1
973 481 1
973 498 1
973 558 1
973 587 1
973 612 1
973 732 1
973 757 1
973 777 1
973 823 1
973 863 1
973 897 1
973 951 1
973 972 1
973 985 1
973 998 1
974 65 1
974 70 1
974 143 1
974 151 1
974 306 1
974 329 1
974 348 1
974 539 1
974 574 1
974 623 1
974 627 1
974 879 1
974 920 1
974 943 1
975 84 1
975 214 1
975 301 1
975 353 1
975 368 1
975 435 1
975 578 1
975 680 1
975 718 1
975 735 1
975 760 1
975 804 1
975 913 1
976 92 1
976 149 1
976 214 1
976 332 1
976 435 1
976 511 1
976 596 1
976 604 1
976 631 1
976 711 1
976 720 1
976 743 1
976 785 1
976 845 1
976 891 1
976 949 1
976 992 1
977 206 1
977 245 1
977 264 1
977 333 1
977 426 1
977 499 1
977 516 1
977 590 1
977 813 1
977 896 1
977 908 1
977 936 1
977 942 1
978 103 1
978 122 1
978 317 1
978 336 1
978 342 1
978 357 1
978 366 1
978 436 1
978 547 1
978 603 1
978 661 1
978 792 1
978 894 1
978 901 1
978 934 1
978 953 1
979 17 1
979 61 1
979 104 1
979 141 1
979 218 1
979 295 1
979 351 1
979 355 1
979 436 1
979 446 1
979 448 1
979 463 1
979 523 1
979 554 1
979 580 1
979 596 1
979 604 1
979 642 1
979 700 1
979 743 1
979 748 1
979 805 1
979 895 1
979 993 1
980 46 1
980 151 1
980 233 1
980 313 1
980 445 1
980 451 1
980 457 1
980 467 1
980 478 1
980 511 1
980 519 1
980 571 1
980 613 1
980 701 1
980 720 1
980 741 1
980 765 1
980 804 1
980 805 1
980 828 1
980 858 1
980 958 1
980 989 1
981 93 1
981 121 1
981 139 1
981 198 1
981 221 1
981 226 1
981 227 1
981 263 1
981 296 1
981 386 1
981 421 1
981 460 1
981 474 1
981 488 1
981 502 1
981 513 1
981 601 1
981 607 1
981 624 1
981 645 1
981 723 1
981 800 1
981 888 1
982 35 1
982 48 1
982 95 1
982 122 1
982 160 1
982 171 1
982 264 1
982 303 1
982 336 1
982 363 1
982 459 1
982 462 1
982 500 1
982 541 1
982 580 1
982 584 1
982 596 1
982 685 1
982 686 1
982 734 1
982 774 1
982 834 1
982 901 1
983 1 1
983 6 1
983 42 1
983 59 1
983 60 1
983 76 1
983 81 1
983 242 1
983 320 1
983 346 1
983 448 1
983 472 1
983 488 1
983 492 1
983 573 1
983 578 1
983 634 1
983 653 1
983 704 1
983 785 1
983 811 1
983 823 1
983 839 1
983 868 1
983 993 1
984 30 1
984 75 1
984 111 1
984 134 1
984 143 1
984 172 1
984 198 1
984 213 1
984 262 1
984 321 1
984 453 1
984 476 1
984 553 1
984 587 1
984 593 1
984 599 1
984 690 1
984 711 1
984 712 1
984 729 1
984 739 1
984 752 1
984 802 1
984 891 1
984 987 1
985 73 1
985 213 1
985 247 1
985 253 1
985 260 1
985 359 1
985 432 1
985 503 1
985 637 1
985 730 1
985 808 1
985 847 1
985 968 1
985 973 1
985 991 1
986 103 1
986 189 1
986 204 1
986 229 1
986 267 1
986 277 1
986 293 1
986 415 1
986 446 1
986 467 1
986 475 1
986 502 1
986 522 1
986 567 1
986 593 1
986 643 1
986 716 1
986 769 1
986 814 1
986 861 1
987 81 1
987 86 1
987 113 1
987 222 1
987 255 1
987 301 1
987 306 1
987 372 1
987 450 1
987 521 1
987 538 1
987 557 1
987 573 1
987 601 1
987 613 1
987 645 1
987 676 1
987 816 1
987 940 1
987 984 1
988 2 1
988 45 1
988 85 1
988 145 1
988 158 1
988 211 1
988 303 1
988 384 1
988 390 1
988 464 1
988 608 1
988 780 1
988 781 1
988 829 1
988 965 1
989 75 1
989 99 1
989 123 1
989 174 1
989 261 1
989 265 1
989 273 1
989 316 1
989 347 1
989 364 1
989 479 1
989 554 1
989 735 1
989 738 1
989 781 1
989 788 1
989 940 1
989 964 1
989 980 1
990 210 1
990 237 1
990 268 1
990 293 1
990 316 1
990 374 1
990 388 1
990 504 1
990 529 1
990 619 1
990 688 1
990 705 1
990 735 1
990 741 1
990 770 1
990 798 1
990 828 1
990 865 1
990 930 1
990 998 1
991 95 1
991 148 1
991 297 1
991 302 1
991 497 1
991 580 1
991 583 1
991 631 1
991 634 1
991 685 1
991 710 1
991 824 1
991 883 1
991 898 1
991 901 1
991 908 1
991 942 1
991 944 1
991 985 1
992 39 1
992 107 1
992 132 1
992 152 1
992 262 1
992 266 1
992 302 1
992 311 1
992 335 1
992 383 1
992 402 1
992 418 1
992 424 1
992 432 1
992 439 1
992 540 1
992 568 1
992 587 1
992 596 1
992 639 1
992 706 1
992 719 1
992 748 1
992 774 1
992 791 1
992 816 1
992 954 1
992 965 1
992 976 1
993 58 1
993 99 1
993 127 1
993 131 1
993 196 1
993 354 1
993 364 1
993 429 1
993 526 1
993 541 1
993 581 1
993 604 1
993 606 1
993 609 1
993 610 1
993 626 1
993 645 1
993 656 1
993 792 1
993 806 1
993 811 1
993 820 1
993 834 1
993 852 1
993 900 1
993 979 1
993 983 1
994 5 1
994 301 1
994 408 1
994 464 1
994 484 1
994 626 1
994 645 1
994 662 1
994 734 1
995 4 1
995 47 1
995 56 1
995 69 1
995 174 1
995 205 1
995 306 1
995 318 1
995 336 1
995 393 1
995 412 1
995 449 1
995 451 1
995 545 1
995 606 1
995 614 1
995 619 1
995 742 1
995 743 1
995 804 1
995 819 1
995 824 1
995 827 1
995 924 1
995 945 1
996 141 1
996 314 1
996 326 1
996 336 1
996 347 1
996 378 1
996 401 1
996 585 1
996 586 1
996 649 1
996 663 1
996 700 1
996 722 1
996 759 1
996 777 1
996 779 1
996 862 1
996 901 1
997 8 1
997 32 1
997 40 1
997 44 1
997 90 1
997 112 1
997 170 1
997 286 1
997 296 1
997 346 1
997 480 1
997 498 1
997 511 1
997 524 1
997 545 1
997 550 1
997 552 1
997 558 1
997 598 1
997 664 1
997 700 1
997 999 1
998 14 1
998 34 1
998 45 1
998 64 1
998 89 1
998 98 1
998 259 1
998 280 1
998 336 1
998 418 1
998 419 1
998 455 1
998 522 1
998 527 1
998 605 1
998 678 1
998 735 1
998 774 1
998 791 1
998 819 1
998 869 1
998 879 1
998 973 1
998 990 1
999 49 1
999 53 1
999 61 1
999 94 1
999 368 1
999 396 1
999 467 1
999 518 1
999 526 1
999 562 1
999 667 1
999 777 1
999 841 1
999 850 1
999 874 1
999 958 1
999 997 1
1000 22 1
1000 30 1
1000 69 1
1000 90 1
1000 127 1
1000 155 1
1000 182 1
1000 201 1
1000 217 1
1000 368 1
1000 419 1
1000 455 1
1000 478 1
1000 498 1
1000 524 1
1000 758 1
1000 806 1
1000 831 1
1000 841 1
1000 866 1
1000 932 1
