%%MatrixMarket matrix coordinate real general
%
1000 1000 11818
1 2 1
1 3 1
1 4 1
1 5 1
1 6 1
1 7 1
1 8 1
1 11 1
1 14 1
1 15 1
1 16 1
1 17 1
1 18 1
1 21 1
1 26 1
1 28 1
1 30 1
1 31 1
1 32 1
1 40 1
1 41 1
1 43 1
1 44 1
1 46 1
1 54 1
1 55 1
1 57 1
1 62 1
1 63 1
1 67 1
1 70 1
1 71 1
1 76 1
1 85 1
1 92 1
1 93 1
1 97 1
1 102 1
1 105 1
1 107 1
1 109 1
1 111 1
1 117 1
1 126 1
1 127 1
1 129 1
1 146 1
1 155 1
1 157 1
1 158 1
1 159 1
1 160 1
1 162 1
1 163 1
1 170 1
1 171 1
1 174 1
1 179 1
1 181 1
1 187 1
1 190 1
1 191 1
1 192 1
1 208 1
1 213 1
1 216 1
1 229 1
1 234 1
1 238 1
1 242 1
1 249 1
1 255 1
1 267 1
1 268 1
1 284 1
1 294 1
1 298 1
1 330 1
1 339 1
1 347 1
1 358 1
1 361 1
1 374 1
1 377 1
1 388 1
1 398 1
1 400 1
1 405 1
1 406 1
1 425 1
1 430 1
1 432 1
1 434 1
1 437 1
1 438 1
1 469 1
1 475 1
1 479 1
1 502 1
1 519 1
1 538 1
1 545 1
1 557 1
1 564 1
1 569 1
1 572 1
1 580 1
1 581 1
1 608 1
1 614 1
1 621 1
1 656 1
1 657 1
1 661 1
1 667 1
1 678 1
1 704 1
1 707 1
1 716 1
1 737 1
1 754 1
1 763 1
1 774 1
1 785 1
1 818 1
1 822 1
1 842 1
1 876 1
1 911 1
1 915 1
1 920 1
1 924 1
1 943 1
1 946 1
1 947 1
1 961 1
1 987 1
1 991 1
1 999 1
2 1 1
2 3 1
2 4 1
2 5 1
2 7 1
2 8 1
2 9 1
2 10 1
2 12 1
2 13 1
2 14 1
2 15 1
2 16 1
2 18 1
2 23 1
2 25 1
2 27 1
2 28 1
2 32 1
2 33 1
2 39 1
2 43 1
2 63 1
2 64 1
2 71 1
2 72 1
2 75 1
2 76 1
2 95 1
2 98 1
2 104 1
2 122 1
2 139 1
2 147 1
2 150 1
2 153 1
2 179 1
2 180 1
2 191 1
2 200 1
2 202 1
2 207 1
2 212 1
2 214 1
2 220 1
2 261 1
2 265 1
2 266 1
2 270 1
2 273 1
2 285 1
2 288 1
2 302 1
2 304 1
2 305 1
2 319 1
2 338 1
2 346 1
2 371 1
2 375 1
2 377 1
2 384 1
2 389 1
2 390 1
2 399 1
2 415 1
2 417 1
2 430 1
2 431 1
2 441 1
2 451 1
2 510 1
2 513 1
2 518 1
2 525 1
2 543 1
2 550 1
2 571 1
2 572 1
2 599 1
2 603 1
2 607 1
2 609 1
2 613 1
2 618 1
2 626 1
2 631 1
2 651 1
2 680 1
2 685 1
2 704 1
2 712 1
2 724 1
2 738 1
2 760 1
2 766 1
2 787 1
2 788 1
2 792 1
2 802 1
2 824 1
2 827 1
2 864 1
2 897 1
2 898 1
2 908 1
2 913 1
2 915 1
2 940 1
2 949 1
2 957 1
2 973 1
3 1 1
3 2 1
3 4 1
3 5 1
3 6 1
3 7 1
3 8 1
3 9 1
3 10 1
3 11 1
3 14 1
3 16 1
3 17 1
3 18 1
3 20 1
3 21 1
3 23 1
3 24 1
3 25 1
3 30 1
3 32 1
3 45 1
3 48 1
3 58 1
3 60 1
3 64 1
3 65 1
3 71 1
3 76 1
3 79 1
3 80 1
3 81 1
3 88 1
3 89 1
3 94 1
3 97 1
3 99 1
3 100 1
3 103 1
3 105 1
3 106 1
3 112 1
3 119 1
3 130 1
3 131 1
3 140 1
3 141 1
3 144 1
3 146 1
3 161 1
3 177 1
3 182 1
3 183 1
3 192 1
3 196 1
3 200 1
3 204 1
3 210 1
3 215 1
3 225 1
3 232 1
3 235 1
3 245 1
3 246 1
3 249 1
3 251 1
3 253 1
3 255 1
3 257 1
3 267 1
3 273 1
3 278 1
3 285 1
3 286 1
3 291 1
3 293 1
3 301 1
3 304 1
3 307 1
3 312 1
3 321 1
3 323 1
3 327 1
3 333 1
3 335 1
3 349 1
3 352 1
3 356 1
3 357 1
3 364 1
3 368 1
3 369 1
3 378 1
3 383 1
3 394 1
3 406 1
3 410 1
3 418 1
3 421 1
3 456 1
3 458 1
3 459 1
3 475 1
3 486 1
3 491 1
3 492 1
3 496 1
3 512 1
3 521 1
3 529 1
3 546 1
3 556 1
3 580 1
3 595 1
3 612 1
3 640 1
3 646 1
3 648 1
3 658 1
3 660 1
3 662 1
3 678 1
3 682 1
3 715 1
3 719 1
3 733 1
3 741 1
3 761 1
3 773 1
3 776 1
3 792 1
3 793 1
3 805 1
3 817 1
3 821 1
3 826 1
3 832 1
3 845 1
3 853 1
3 858 1
3 859 1
3 873 1
3 878 1
3 885 1
3 919 1
3 923 1
3 933 1
3 944 1
3 961 1
3 964 1
3 969 1
3 975 1
3 976 1
3 989 1
3 993 1
3 994 1
4 1 1
4 2 1
4 3 1
4 5 1
4 6 1
4 7 1
4 8 1
4 9 1
4 11 1
4 12 1
4 15 1
4 19 1
4 21 1
4 22 1
4 23 1
4 26 1
4 31 1
4 33 1
4 39 1
4 40 1
4 46 1
4 47 1
4 48 1
4 51 1
4 52 1
4 54 1
4 56 1
4 57 1
4 61 1
4 69 1
4 75 1
4 80 1
4 81 1
4 86 1
4 88 1
4 95 1
4 103 1
4 105 1
4 128 1
4 131 1
4 142 1
4 147 1
4 148 1
4 162 1
4 164 1
4 169 1
4 174 1
4 175 1
4 180 1
4 184 1
4 218 1
4 228 1
4 236 1
4 244 1
4 246 1
4 251 1
4 261 1
4 278 1
4 279 1
4 296 1
4 331 1
4 336 1
4 339 1
4 348 1
4 352 1
4 364 1
4 371 1
4 386 1
4 401 1
4 420 1
4 430 1
4 448 1
4 455 1
4 460 1
4 497 1
4 498 1
4 511 1
4 525 1
4 531 1
4 548 1
4 583 1
4 636 1
4 638 1
4 642 1
4 643 1
4 649 1
4 662 1
4 664 1
4 665 1
4 679 1
4 694 1
4 712 1
4 735 1
4 796 1
4 798 1
4 804 1
4 841 1
4 844 1
4 858 1
4 864 1
4 886 1
4 912 1
4 960 1
4 970 1
5 1 1
5 2 1
5 3 1
5 4 1
5 6 1
5 8 1
5 9 1
5 10 1
5 11 1
5 13 1
5 14 1
5 19 1
5 20 1
5 26 1
5 28 1
5 29 1
5 31 1
5 35 1
5 38 1
5 42 1
5 44 1
5 45 1
5 47 1
5 49 1
5 64 1
5 74 1
5 75 1
5 77 1
5 78 1
5 93 1
5 94 1
5 103 1
5 112 1
5 113 1
5 117 1
5 122 1
5 124 1
5 126 1
5 128 1
5 134 1
5 135 1
5 138 1
5 140 1
5 145 1
5 156 1
5 158 1
5 161 1
5 162 1
5 183 1
5 197 1
5 201 1
5 205 1
5 208 1
5 212 1
5 225 1
5 227 1
5 230 1
5 233 1
5 235 1
5 239 1
5 246 1
5 257 1
5 263 1
5 268 1
5 289 1
5 290 1
5 291 1
5 299 1
5 300 1
5 301 1
5 325 1
5 332 1
5 339 1
5 343 1
5 345 1
5 346 1
5 357 1
5 369 1
5 370 1
5 373 1
5 374 1
5 379 1
5 392 1
5 397 1
5 439 1
5 452 1
5 459 1
5 467 1
5 469 1
5 474 1
5 485 1
5 496 1
5 497 1
5 515 1
5 536 1
5 537 1
5 541 1
5 554 1
5 558 1
5 566 1
5 596 1
5 603 1
5 631 1
5 647 1
5 653 1
5 659 1
5 665 1
5 697 1
5 704 1
5 712 1
5 723 1
5 729 1
5 740 1
5 753 1
5 755 1
5 823 1
5 828 1
5 842 1
5 856 1
5 865 1
5 875 1
5 881 1
5 882 1
5 895 1
5 909 1
5 917 1
5 923 1
5 943 1
5 961 1
5 992 1
5 995 1
6 1 1
6 3 1
6 4 1
6 5 1
6 9 1
6 11 1
6 12 1
6 19 1
6 20 1
6 21 1
6 25 1
6 26 1
6 28 1
6 36 1
6 37 1
6 41 1
6 42 1
6 45 1
6 50 1
6 57 1
6 60 1
6 61 1
6 62 1
6 70 1
6 74 1
6 77 1
6 85 1
6 89 1
6 90 1
6 102 1
6 117 1
6 125 1
6 126 1
6 147 1
6 167 1
6 169 1
6 181 1
6 205 1
6 206 1
6 215 1
6 217 1
6 233 1
6 247 1
6 257 1
6 272 1
6 286 1
6 296 1
6 318 1
6 328 1
6 334 1
6 341 1
6 357 1
6 358 1
6 360 1
6 363 1
6 382 1
6 383 1
6 394 1
6 404 1
6 413 1
6 419 1
6 446 1
6 504 1
6 508 1
6 515 1
6 523 1
6 532 1
6 535 1
6 560 1
6 562 1
6 581 1
6 595 1
6 604 1
6 611 1
6 632 1
6 642 1
6 651 1
6 654 1
6 669 1
6 673 1
6 682 1
6 705 1
6 708 1
6 773 1
6 787 1
6 796 1
6 836 1
6 845 1
6 877 1
6 884 1
6 961 1
6 966 1
6 982 1
6 1000 1
7 1 1
7 2 1
7 3 1
7 4 1
7 12 1
7 16 1
7 18 1
7 19 1
7 21 1
7 25 1
7 27 1
7 35 1
7 39 1
7 46 1
7 49 1
7 51 1
7 52 1
7 53 1
7 54 1
7 66 1
7 80 1
7 82 1
7 109 1
7 148 1
7 153 1
7 179 1
7 202 1
7 217 1
7 235 1
7 249 1
7 262 1
7 321 1
7 361 1
7 378 1
7 391 1
7 400 1
7 420 1
7 451 1
7 455 1
7 498 1
7 510 1
7 531 1
7 533 1
7 548 1
7 562 1
7 569 1
7 587 1
7 609 1
7 655 1
7 663 1
7 664 1
7 675 1
7 679 1
7 681 1
7 736 1
7 757 1
7 759 1
7 773 1
7 811 1
7 827 1
7 863 1
7 875 1
7 898 1
7 915 1
7 946 1
7 953 1
7 969 1
7 976 1
7 994 1
8 1 1
8 2 1
8 3 1
8 4 1
8 5 1
8 10 1
8 13 1
8 14 1
8 15 1
8 16 1
8 17 1
8 20 1
8 22 1
8 23 1
8 27 1
8 30 1
8 34 1
8 35 1
8 36 1
8 44 1
8 46 1
8 47 1
8 53 1
8 78 1
8 87 1
8 91 1
8 92 1
8 104 1
8 111 1
8 113 1
8 114 1
8 115 1
8 118 1
8 124 1
8 130 1
8 161 1
8 163 1
8 185 1
8 207 1
8 218 1
8 220 1
8 222 1
8 229 1
8 239 1
8 240 1
8 242 1
8 252 1
8 265 1
8 270 1
8 281 1
8 283 1
8 297 1
8 305 1
8 308 1
8 312 1
8 332 1
8 342 1
8 345 1
8 346 1
8 348 1
8 352 1
8 354 1
8 364 1
8 372 1
8 375 1
8 431 1
8 466 1
8 470 1
8 472 1
8 478 1
8 487 1
8 504 1
8 507 1
8 522 1
8 541 1
8 543 1
8 550 1
8 552 1
8 592 1
8 609 1
8 619 1
8 670 1
8 674 1
8 704 1
8 726 1
8 727 1
8 771 1
8 797 1
8 809 1
8 856 1
8 860 1
8 881 1
8 891 1
8 901 1
8 907 1
8 925 1
8 932 1
8 943 1
8 947 1
8 981 1
9 2 1
9 3 1
9 4 1
9 5 1
9 6 1
9 10 1
9 13 1
9 15 1
9 28 1
9 29 1
9 34 1
9 37 1
9 42 1
9 45 1
9 48 1
9 51 1
9 54 1
9 56 1
9 58 1
9 59 1
9 60 1
9 62 1
9 64 1
9 68 1
9 75 1
9 78 1
9 85 1
9 92 1
9 108 1
9 112 1
9 113 1
9 121 1
9 127 1
9 128 1
9 129 1
9 131 1
9 134 1
9 136 1
9 142 1
9 169 1
9 175 1
9 187 1
9 190 1
9 195 1
9 196 1
9 201 1
9 203 1
9 206 1
9 211 1
9 233 1
9 237 1
9 240 1
9 241 1
9 247 1
9 270 1
9 289 1
9 294 1
9 299 1
9 318 1
9 325 1
9 348 1
9 373 1
9 388 1
9 399 1
9 426 1
9 430 1
9 444 1
9 453 1
9 459 1
9 462 1
9 464 1
9 483 1
9 493 1
9 525 1
9 526 1
9 533 1
9 553 1
9 566 1
9 582 1
9 584 1
9 591 1
9 601 1
9 606 1
9 616 1
9 625 1
9 632 1
9 665 1
9 667 1
9 675 1
9 687 1
9 688 1
9 772 1
9 796 1
9 830 1
9 842 1
9 865 1
9 889 1
9 892 1
9 900 1
9 922 1
9 934 1
9 939 1
9 945 1
9 951 1
9 956 1
9 967 1
9 971 1
9 973 1
9 986 1
9 991 1
10 2 1
10 3 1
10 5 1
10 8 1
10 9 1
10 13 1
10 16 1
10 17 1
10 22 1
10 24 1
10 29 1
10 30 1
10 36 1
10 37 1
10 38 1
10 45 1
10 58 1
10 64 1
10 65 1
10 70 1
10 71 1
10 79 1
10 83 1
10 96 1
10 106 1
10 140 1
10 146 1
10 156 1
10 158 1
10 166 1
10 176 1
10 177 1
10 190 1
10 194 1
10 196 1
10 214 1
10 216 1
10 231 1
10 243 1
10 253 1
10 259 1
10 267 1
10 280 1
10 283 1
10 300 1
10 305 1
10 311 1
10 319 1
10 321 1
10 327 1
10 398 1
10 416 1
10 427 1
10 435 1
10 450 1
10 484 1
10 499 1
10 501 1
10 503 1
10 506 1
10 528 1
10 536 1
10 540 1
10 542 1
10 553 1
10 554 1
10 570 1
10 582 1
10 602 1
10 605 1
10 607 1
10 649 1
10 666 1
10 682 1
10 687 1
10 690 1
10 722 1
10 756 1
10 818 1
10 826 1
10 844 1
10 861 1
10 869 1
10 882 1
10 897 1
10 903 1
10 928 1
10 994 1
11 1 1
11 3 1
11 4 1
11 5 1
11 6 1
11 12 1
11 14 1
11 19 1
11 20 1
11 24 1
11 26 1
11 31 1
11 33 1
11 36 1
11 37 1
11 47 1
11 52 1
11 55 1
11 69 1
11 71 1
11 73 1
11 77 1
11 80 1
11 83 1
11 84 1
11 86 1
11 91 1
11 114 1
11 125 1
11 132 1
11 143 1
11 147 1
11 184 1
11 221 1
11 225 1
11 227 1
11 231 1
11 247 1
11 250 1
11 258 1
11 269 1
11 277 1
11 310 1
11 317 1
11 318 1
11 336 1
11 350 1
11 367 1
11 373 1
11 387 1
11 394 1
11 396 1
11 432 1
11 446 1
11 475 1
11 494 1
11 523 1
11 532 1
11 537 1
11 551 1
11 579 1
11 612 1
11 629 1
11 644 1
11 653 1
11 699 1
11 702 1
11 705 1
11 721 1
11 781 1
11 792 1
11 822 1
11 843 1
11 874 1
11 921 1
11 932 1
11 937 1
11 983 1
11 996 1
12 2 1
12 4 1
12 6 1
12 7 1
12 11 1
12 18 1
12 19 1
12 33 1
12 49 1
12 52 1
12 61 1
12 66 1
12 69 1
12 125 1
12 143 1
12 147 1
12 154 1
12 164 1
12 181 1
12 205 1
12 235 1
12 254 1
12 275 1
12 285 1
12 309 1
12 326 1
12 386 1
12 417 1
12 426 1
12 437 1
12 446 1
12 448 1
12 511 1
12 520 1
12 533 1
12 550 1
12 558 1
12 579 1
12 590 1
12 629 1
12 675 1
12 685 1
12 686 1
12 698 1
12 730 1
12 748 1
12 765 1
12 771 1
12 804 1
12 850 1
12 860 1
12 913 1
12 920 1
12 959 1
13 2 1
13 5 1
13 8 1
13 9 1
13 10 1
13 17 1
13 29 1
13 34 1
13 38 1
13 59 1
13 75 1
13 78 1
13 138 1
13 140 1
13 145 1
13 207 1
13 319 1
13 377 1
13 403 1
13 435 1
13 469 1
13 605 1
13 756 1
13 862 1
14 1 1
14 2 1
14 3 1
14 5 1
14 8 1
14 11 1
14 17 1
14 20 1
14 27 1
14 38 1
14 59 1
14 93 1
14 104 1
14 105 1
14 115 1
14 119 1
14 122 1
14 134 1
14 141 1
14 150 1
14 153 1
14 171 1
14 177 1
14 185 1
14 216 1
14 238 1
14 274 1
14 280 1
14 335 1
14 346 1
14 374 1
14 381 1
14 397 1
14 494 1
14 513 1
14 550 1
14 552 1
14 585 1
14 594 1
14 612 1
14 635 1
14 661 1
14 666 1
14 713 1
14 732 1
14 785 1
14 806 1
14 840 1
14 843 1
14 866 1
14 874 1
14 955 1
14 972 1
15 1 1
15 2 1
15 4 1
15 8 1
15 9 1
15 22 1
15 40 1
15 48 1
15 64 1
15 75 1
15 85 1
15 92 1
15 118 1
15 130 1
15 137 1
15 172 1
15 187 1
15 189 1
15 207 1
15 236 1
15 240 1
15 247 1
15 264 1
15 275 1
15 281 1
15 292 1
15 294 1
15 339 1
15 362 1
15 366 1
15 409 1
15 414 1
15 415 1
15 441 1
15 443 1
15 458 1
15 468 1
15 557 1
15 571 1
15 582 1
15 594 1
15 613 1
15 618 1
15 631 1
15 638 1
15 680 1
15 725 1
15 752 1
15 760 1
15 786 1
15 794 1
15 847 1
15 857 1
15 944 1
15 953 1
15 959 1
16 1 1
16 2 1
16 3 1
16 7 1
16 8 1
16 10 1
16 21 1
16 25 1
16 35 1
16 36 1
16 45 1
16 63 1
16 65 1
16 70 1
16 96 1
16 106 1
16 107 1
16 114 1
16 115 1
16 145 1
16 150 1
16 156 1
16 167 1
16 170 1
16 188 1
16 201 1
16 219 1
16 248 1
16 251 1
16 271 1
16 287 1
16 297 1
16 310 1
16 383 1
16 409 1
16 427 1
16 445 1
16 472 1
16 544 1
16 557 1
16 565 1
16 572 1
16 584 1
16 593 1
16 601 1
16 652 1
16 664 1
16 687 1
16 695 1
16 711 1
16 768 1
16 824 1
16 844 1
16 862 1
16 877 1
16 928 1
16 978 1
16 997 1
16 998 1
17 1 1
17 3 1
17 8 1
17 10 1
17 13 1
17 14 1
17 22 1
17 23 1
17 24 1
17 30 1
17 34 1
17 46 1
17 48 1
17 58 1
17 60 1
17 87 1
17 99 1
17 100 1
17 101 1
17 105 1
17 108 1
17 120 1
17 121 1
17 122 1
17 155 1
17 171 1
17 178 1
17 229 1
17 252 1
17 266 1
17 380 1
17 384 1
17 454 1
17 462 1
17 464 1
17 477 1
17 509 1
17 540 1
17 597 1
17 602 1
17 605 1
17 619 1
17 657 1
17 710 1
17 729 1
17 751 1
17 763 1
17 818 1
17 835 1
17 855 1
17 902 1
17 916 1
17 928 1
17 937 1
17 939 1
17 997 1
18 1 1
18 2 1
18 3 1
18 7 1
18 12 1
18 32 1
18 33 1
18 39 1
18 40 1
18 43 1
18 55 1
18 72 1
18 127 1
18 144 1
18 153 1
18 165 1
18 221 1
18 226 1
18 249 1
18 254 1
18 361 1
18 390 1
18 402 1
18 471 1
18 497 1
18 510 1
18 533 1
18 592 1
18 600 1
18 622 1
18 748 1
18 775 1
18 795 1
18 941 1
19 4 1
19 5 1
19 6 1
19 7 1
19 11 1
19 12 1
19 37 1
19 41 1
19 47 1
19 49 1
19 50 1
19 51 1
19 53 1
19 66 1
19 81 1
19 82 1
19 96 1
19 97 1
19 126 1
19 135 1
19 142 1
19 148 1
19 193 1
19 198 1
19 217 1
19 227 1
19 239 1
19 246 1
19 254 1
19 269 1
19 278 1
19 286 1
19 287 1
19 298 1
19 307 1
19 337 1
19 354 1
19 359 1
19 365 1
19 369 1
19 376 1
19 404 1
19 410 1
19 419 1
19 425 1
19 428 1
19 433 1
19 466 1
19 488 1
19 509 1
19 515 1
19 530 1
19 536 1
19 619 1
19 655 1
19 671 1
19 686 1
19 746 1
19 755 1
19 779 1
19 781 1
19 808 1
19 863 1
19 865 1
19 880 1
19 913 1
19 958 1
20 3 1
20 5 1
20 6 1
20 8 1
20 11 1
20 14 1
20 24 1
20 27 1
20 35 1
20 36 1
20 38 1
20 53 1
20 55 1
20 59 1
20 80 1
20 88 1
20 94 1
20 135 1
20 144 1
20 152 1
20 185 1
20 212 1
20 215 1
20 242 1
20 245 1
20 274 1
20 338 1
20 349 1
20 369 1
20 376 1
20 404 1
20 410 1
20 432 1
20 475 1
20 495 1
20 500 1
20 529 1
20 576 1
20 617 1
20 752 1
21 1 1
21 3 1
21 4 1
21 6 1
21 7 1
21 16 1
21 25 1
21 61 1
21 89 1
21 107 1
21 130 1
21 167 1
21 394 1
21 493 1
21 634 1
21 672 1
21 776 1
21 836 1
21 911 1
22 4 1
22 8 1
22 10 1
22 15 1
22 17 1
22 23 1
22 24 1
22 30 1
22 40 1
22 58 1
22 120 1
22 130 1
22 137 1
22 166 1
22 172 1
22 176 1
22 180 1
22 189 1
22 199 1
22 236 1
22 281 1
22 288 1
22 401 1
22 507 1
22 522 1
22 542 1
22 549 1
22 553 1
22 676 1
22 764 1
22 771 1
22 794 1
22 868 1
22 882 1
22 897 1
22 916 1
22 925 1
23 2 1
23 3 1
23 4 1
23 8 1
23 17 1
23 22 1
23 32 1
23 94 1
23 101 1
23 128 1
23 139 1
23 211 1
23 229 1
23 251 1
23 261 1
23 419 1
23 463 1
23 470 1
23 508 1
23 640 1
23 771 1
23 784 1
23 855 1
23 870 1
23 882 1
23 914 1
23 939 1
23 941 1
23 942 1
23 981 1
24 3 1
24 10 1
24 11 1
24 17 1
24 20 1
24 22 1
24 58 1
24 60 1
24 88 1
24 89 1
24 90 1
24 159 1
24 225 1
24 243 1
24 245 1
24 260 1
24 307 1
24 315 1
24 316 1
24 325 1
24 329 1
24 379 1
24 387 1
24 389 1
24 432 1
24 443 1
24 500 1
24 540 1
24 553 1
24 623 1
24 670 1
24 677 1
24 691 1
24 722 1
24 731 1
24 761 1
24 845 1
24 855 1
24 955 1
25 2 1
25 3 1
25 6 1
25 7 1
25 16 1
25 21 1
25 27 1
25 35 1
25 63 1
25 98 1
25 115 1
25 130 1
25 191 1
25 196 1
25 200 1
25 202 1
25 209 1
25 217 1
25 262 1
25 271 1
25 287 1
25 297 1
25 314 1
25 456 1
25 566 1
25 589 1
25 640 1
25 663 1
25 672 1
25 679 1
25 702 1
25 773 1
25 827 1
25 936 1
25 964 1
25 965 1
25 966 1
26 1 1
26 4 1
26 5 1
26 6 1
26 11 1
26 28 1
26 31 1
26 39 1
26 42 1
26 44 1
26 49 1
26 50 1
26 52 1
26 56 1
26 57 1
26 67 1
26 73 1
26 74 1
26 90 1
26 118 1
26 136 1
26 146 1
26 155 1
26 161 1
26 162 1
26 168 1
26 169 1
26 170 1
26 171 1
26 184 1
26 193 1
26 215 1
26 228 1
26 250 1
26 293 1
26 294 1
26 329 1
26 331 1
26 340 1
26 368 1
26 378 1
26 422 1
26 453 1
26 480 1
26 483 1
26 491 1
26 492 1
26 519 1
26 545 1
26 564 1
26 583 1
26 636 1
26 637 1
26 643 1
26 648 1
26 703 1
26 709 1
26 757 1
26 804 1
26 816 1
26 893 1
26 896 1
26 946 1
26 974 1
27 2 1
27 7 1
27 8 1
27 14 1
27 20 1
27 25 1
27 53 1
27 59 1
27 93 1
27 98 1
27 115 1
27 177 1
27 212 1
27 217 1
27 238 1
27 262 1
27 272 1
27 297 1
27 308 1
27 312 1
27 315 1
27 353 1
27 401 1
27 417 1
27 439 1
27 440 1
27 556 1
27 590 1
27 612 1
27 635 1
27 641 1
27 752 1
27 782 1
27 799 1
27 840 1
27 898 1
27 902 1
27 907 1
27 918 1
27 919 1
27 948 1
27 984 1
28 1 1
28 2 1
28 5 1
28 6 1
28 9 1
28 26 1
28 29 1
28 41 1
28 42 1
28 50 1
28 62 1
28 102 1
28 108 1
28 110 1
28 162 1
28 164 1
28 178 1
28 198 1
28 203 1
28 233 1
28 318 1
28 328 1
28 362 1
28 363 1
28 395 1
28 412 1
28 442 1
28 486 1
28 493 1
28 627 1
28 661 1
28 712 1
28 754 1
28 766 1
28 850 1
28 876 1
28 992 1
29 5 1
29 9 1
29 10 1
29 13 1
29 28 1
29 34 1
29 37 1
29 38 1
29 42 1
29 51 1
29 54 1
29 56 1
29 62 1
29 68 1
29 83 1
29 106 1
29 109 1
29 110 1
29 116 1
29 133 1
29 160 1
29 231 1
29 233 1
29 270 1
29 328 1
29 362 1
29 395 1
29 399 1
29 408 1
29 423 1
29 435 1
29 505 1
29 533 1
29 563 1
29 570 1
29 585 1
29 721 1
29 735 1
29 783 1
29 862 1
29 866 1
29 905 1
29 981 1
30 1 1
30 3 1
30 8 1
30 10 1
30 17 1
30 22 1
30 48 1
30 65 1
30 99 1
30 155 1
30 166 1
30 219 1
30 237 1
30 249 1
30 331 1
30 405 1
30 412 1
30 429 1
30 462 1
30 464 1
30 546 1
30 561 1
30 814 1
30 861 1
30 918 1
30 923 1
30 989 1
31 1 1
31 4 1
31 5 1
31 11 1
31 26 1
31 39 1
31 44 1
31 49 1
31 71 1
31 74 1
31 76 1
31 84 1
31 87 1
31 103 1
31 111 1
31 123 1
31 126 1
31 146 1
31 149 1
31 157 1
31 159 1
31 175 1
31 186 1
31 192 1
31 215 1
31 234 1
31 236 1
31 256 1
31 258 1
31 264 1
31 274 1
31 282 1
31 295 1
31 313 1
31 319 1
31 329 1
31 353 1
31 355 1
31 368 1
31 375 1
31 405 1
31 414 1
31 418 1
31 422 1
31 436 1
31 440 1
31 457 1
31 460 1
31 538 1
31 577 1
31 583 1
31 588 1
31 626 1
31 648 1
31 677 1
31 696 1
31 719 1
31 725 1
31 742 1
31 776 1
31 780 1
31 954 1
32 1 1
32 2 1
32 3 1
32 18 1
32 23 1
32 40 1
32 43 1
32 94 1
32 97 1
32 101 1
32 102 1
32 103 1
32 139 1
32 182 1
32 226 1
32 301 1
32 481 1
32 508 1
32 517 1
32 640 1
32 750 1
32 792 1
32 819 1
32 833 1
32 914 1
32 920 1
32 974 1
33 2 1
33 4 1
33 11 1
33 12 1
33 18 1
33 69 1
33 254 1
33 275 1
33 417 1
33 511 1
33 629 1
33 679 1
33 959 1
34 8 1
34 9 1
34 13 1
34 17 1
34 29 1
34 46 1
34 56 1
34 59 1
34 78 1
34 91 1
34 116 1
34 138 1
34 175 1
34 188 1
34 222 1
34 411 1
34 430 1
34 482 1
34 599 1
34 668 1
34 684 1
34 689 1
34 727 1
34 766 1
34 782 1
34 791 1
34 803 1
34 851 1
34 862 1
34 922 1
34 956 1
34 960 1
35 5 1
35 7 1
35 8 1
35 16 1
35 20 1
35 25 1
35 94 1
35 117 1
35 137 1
35 141 1
35 149 1
35 152 1
35 173 1
35 230 1
35 271 1
35 299 1
35 402 1
35 639 1
35 808 1
36 6 1
36 8 1
36 10 1
36 11 1
36 16 1
36 20 1
36 55 1
36 69 1
36 73 1
36 96 1
36 114 1
36 132 1
36 145 1
36 243 1
36 247 1
36 259 1
36 283 1
36 310 1
36 360 1
36 364 1
36 371 1
36 427 1
36 506 1
36 601 1
36 641 1
36 860 1
36 862 1
36 926 1
36 987 1
37 6 1
37 9 1
37 10 1
37 11 1
37 19 1
37 29 1
37 41 1
37 47 1
37 54 1
37 68 1
37 77 1
37 82 1
37 83 1
37 109 1
37 127 1
37 132 1
37 147 1
37 190 1
37 194 1
37 283 1
37 286 1
37 317 1
37 387 1
37 398 1
37 408 1
37 476 1
37 477 1
37 500 1
37 553 1
37 563 1
37 572 1
37 574 1
37 623 1
37 669 1
37 671 1
37 721 1
37 753 1
37 774 1
37 830 1
37 854 1
37 870 1
37 883 1
37 890 1
37 898 1
37 903 1
37 966 1
38 5 1
38 10 1
38 13 1
38 14 1
38 20 1
38 29 1
38 134 1
38 185 1
38 231 1
38 435 1
38 563 1
38 785 1
39 2 1
39 4 1
39 7 1
39 18 1
39 26 1
39 31 1
39 43 1
39 44 1
39 56 1
39 67 1
39 72 1
39 73 1
39 79 1
39 95 1
39 131 1
39 153 1
39 165 1
39 179 1
39 193 1
39 194 1
39 214 1
39 236 1
39 260 1
39 279 1
39 296 1
39 304 1
39 321 1
39 350 1
39 355 1
39 402 1
39 405 1
39 471 1
39 473 1
39 490 1
39 491 1
39 559 1
39 581 1
39 587 1
39 602 1
39 615 1
39 616 1
39 626 1
39 703 1
39 705 1
39 724 1
39 736 1
39 795 1
39 802 1
39 807 1
39 809 1
39 832 1
39 841 1
39 891 1
39 915 1
39 973 1
39 976 1
39 999 1
40 1 1
40 4 1
40 15 1
40 18 1
40 22 1
40 32 1
40 43 1
40 55 1
40 63 1
40 72 1
40 84 1
40 123 1
40 180 1
40 191 1
40 197 1
40 221 1
40 226 1
40 236 1
40 241 1
40 362 1
40 366 1
40 469 1
40 497 1
40 505 1
40 517 1
40 524 1
40 610 1
40 621 1
40 647 1
40 690 1
40 760 1
40 775 1
40 778 1
40 867 1
40 876 1
40 879 1
41 1 1
41 6 1
41 19 1
41 28 1
41 37 1
41 50 1
41 62 1
41 66 1
41 67 1
41 82 1
41 139 1
41 148 1
41 189 1
41 208 1
41 268 1
41 278 1
41 287 1
41 290 1
41 322 1
41 337 1
41 363 1
41 407 1
41 476 1
41 535 1
41 595 1
41 608 1
41 825 1
41 931 1
42 5 1
42 6 1
42 9 1
42 26 1
42 28 1
42 29 1
42 50 1
42 51 1
42 57 1
42 102 1
42 164 1
42 168 1
42 178 1
42 198 1
42 340 1
42 347 1
42 373 1
42 424 1
42 444 1
42 539 1
42 547 1
42 674 1
42 737 1
42 783 1
42 834 1
42 931 1
43 1 1
43 2 1
43 18 1
43 32 1
43 39 1
43 40 1
43 63 1
43 72 1
43 84 1
43 102 1
43 133 1
43 160 1
43 165 1
43 226 1
43 398 1
43 438 1
43 473 1
43 524 1
43 559 1
43 605 1
43 680 1
43 724 1
43 750 1
43 794 1
43 975 1
44 1 1
44 5 1
44 8 1
44 26 1
44 31 1
44 39 1
44 73 1
44 79 1
44 93 1
44 113 1
44 118 1
44 138 1
44 154 1
44 155 1
44 194 1
44 199 1
44 263 1
44 282 1
44 303 1
44 314 1
44 329 1
44 348 1
44 355 1
44 433 1
44 445 1
44 608 1
44 677 1
44 729 1
44 740 1
44 848 1
44 961 1
45 3 1
45 5 1
45 6 1
45 9 1
45 10 1
45 16 1
45 65 1
45 77 1
45 78 1
45 106 1
45 107 1
45 170 1
45 183 1
45 197 1
45 209 1
45 210 1
45 219 1
45 223 1
45 267 1
45 435 1
45 484 1
45 504 1
45 603 1
45 646 1
45 711 1
45 821 1
45 859 1
45 869 1
45 884 1
46 1 1
46 4 1
46 7 1
46 8 1
46 17 1
46 34 1
46 87 1
46 91 1
46 100 1
46 101 1
46 111 1
46 116 1
46 400 1
46 656 1
46 664 1
46 797 1
46 901 1
46 953 1
46 997 1
47 4 1
47 5 1
47 8 1
47 11 1
47 19 1
47 37 1
47 77 1
47 124 1
47 185 1
47 218 1
47 250 1
47 286 1
47 408 1
47 500 1
47 563 1
47 767 1
47 781 1
47 849 1
47 898 1
48 3 1
48 4 1
48 9 1
48 15 1
48 17 1
48 30 1
48 65 1
48 99 1
48 100 1
48 108 1
48 121 1
48 169 1
48 210 1
48 219 1
48 252 1
48 276 1
48 311 1
48 337 1
48 386 1
48 464 1
48 489 1
48 513 1
48 523 1
48 540 1
48 555 1
48 576 1
48 582 1
48 627 1
48 675 1
48 745 1
48 762 1
48 790 1
48 799 1
48 833 1
48 838 1
48 847 1
48 928 1
48 937 1
48 953 1
49 5 1
49 7 1
49 12 1
49 19 1
49 26 1
49 31 1
49 52 1
49 53 1
49 61 1
49 74 1
49 81 1
49 82 1
49 104 1
49 143 1
49 151 1
49 173 1
49 215 1
49 244 1
49 293 1
49 420 1
49 428 1
49 438 1
49 444 1
49 451 1
49 452 1
49 466 1
49 476 1
49 532 1
49 620 1
49 628 1
49 645 1
49 646 1
49 659 1
49 686 1
49 744 1
49 746 1
49 822 1
49 861 1
49 872 1
49 968 1
50 6 1
50 19 1
50 26 1
50 28 1
50 41 1
50 42 1
50 66 1
50 139 1
50 164 1
50 168 1
50 189 1
50 254 1
50 276 1
50 289 1
50 298 1
50 307 1
50 323 1
50 404 1
50 413 1
50 424 1
50 463 1
50 509 1
50 530 1
50 539 1
50 588 1
50 715 1
50 817 1
50 946 1
51 4 1
51 7 1
51 9 1
51 19 1
51 29 1
51 42 1
51 68 1
51 112 1
51 142 1
51 148 1
51 174 1
51 184 1
51 193 1
51 206 1
51 269 1
51 309 1
51 320 1
51 395 1
51 436 1
51 455 1
51 659 1
51 727 1
51 783 1
51 839 1
51 858 1
51 863 1
51 921 1
51 969 1
51 977 1
51 982 1
51 988 1
52 4 1
52 7 1
52 11 1
52 12 1
52 26 1
52 49 1
52 61 1
52 66 1
52 154 1
52 184 1
52 326 1
52 336 1
52 350 1
52 411 1
52 420 1
52 434 1
52 446 1
52 562 1
52 583 1
52 825 1
52 924 1
53 7 1
53 8 1
53 19 1
53 20 1
53 27 1
53 49 1
53 81 1
53 82 1
53 96 1
53 97 1
53 104 1
53 120 1
53 125 1
53 135 1
53 151 1
53 152 1
53 230 1
53 242 1
53 244 1
53 297 1
53 317 1
53 353 1
53 365 1
53 438 1
53 444 1
53 567 1
53 576 1
53 586 1
53 617 1
53 641 1
53 655 1
53 663 1
53 744 1
53 798 1
53 801 1
53 813 1
53 856 1
53 958 1
53 983 1
54 1 1
54 4 1
54 7 1
54 9 1
54 29 1
54 37 1
54 57 1
54 68 1
54 95 1
54 109 1
54 127 1
54 174 1
54 190 1
54 234 1
54 256 1
54 270 1
54 283 1
54 423 1
54 502 1
54 632 1
54 697 1
54 881 1
54 905 1
54 909 1
55 1 1
55 11 1
55 18 1
55 20 1
55 36 1
55 40 1
55 69 1
55 72 1
55 80 1
55 114 1
55 123 1
55 124 1
55 127 1
55 144 1
55 157 1
55 213 1
55 255 1
55 324 1
55 373 1
55 382 1
55 390 1
55 403 1
55 449 1
55 549 1
55 565 1
55 591 1
55 621 1
55 630 1
55 728 1
55 770 1
55 926 1
56 4 1
56 9 1
56 26 1
56 29 1
56 34 1
56 39 1
56 67 1
56 116 1
56 131 1
56 136 1
56 171 1
56 188 1
56 228 1
56 260 1
56 367 1
56 519 1
56 581 1
56 585 1
56 645 1
56 657 1
56 684 1
56 766 1
56 782 1
56 802 1
56 883 1
56 886 1
56 949 1
57 1 1
57 4 1
57 6 1
57 26 1
57 42 1
57 54 1
57 74 1
57 95 1
57 105 1
57 174 1
57 244 1
57 256 1
57 272 1
57 306 1
57 378 1
57 420 1
57 501 1
57 709 1
57 714 1
57 737 1
57 846 1
58 3 1
58 9 1
58 10 1
58 17 1
58 22 1
58 24 1
58 60 1
58 79 1
58 90 1
58 98 1
58 120 1
58 131 1
58 134 1
58 176 1
58 204 1
58 213 1
58 224 1
58 255 1
58 266 1
58 388 1
58 556 1
58 575 1
58 614 1
58 666 1
58 668 1
58 676 1
58 706 1
58 729 1
58 749 1
58 800 1
58 935 1
58 952 1
58 980 1
58 993 1
59 9 1
59 13 1
59 14 1
59 20 1
59 27 1
59 34 1
59 93 1
59 175 1
59 203 1
59 274 1
59 315 1
59 494 1
59 495 1
59 526 1
59 625 1
59 668 1
59 694 1
59 732 1
59 752 1
59 837 1
59 908 1
59 919 1
60 3 1
60 6 1
60 9 1
60 17 1
60 24 1
60 58 1
60 90 1
60 98 1
60 119 1
60 159 1
60 224 1
60 233 1
60 253 1
60 266 1
60 383 1
60 384 1
60 416 1
60 575 1
60 601 1
60 614 1
60 625 1
60 662 1
60 687 1
60 749 1
60 803 1
60 855 1
60 887 1
60 919 1
60 985 1
61 4 1
61 6 1
61 12 1
61 21 1
61 49 1
61 52 1
61 89 1
61 143 1
61 154 1
61 167 1
61 168 1
61 173 1
61 426 1
61 508 1
61 531 1
61 560 1
61 634 1
61 734 1
61 743 1
61 962 1
62 1 1
62 6 1
62 9 1
62 28 1
62 29 1
62 41 1
62 67 1
62 70 1
62 108 1
62 110 1
62 181 1
62 203 1
62 206 1
62 271 1
62 298 1
62 328 1
62 358 1
62 407 1
62 412 1
62 447 1
62 462 1
62 505 1
62 533 1
62 598 1
62 622 1
62 701 1
62 748 1
62 866 1
62 884 1
62 912 1
62 965 1
62 986 1
63 1 1
63 2 1
63 16 1
63 25 1
63 40 1
63 43 1
63 84 1
63 115 1
63 133 1
63 150 1
63 160 1
63 179 1
63 191 1
63 197 1
63 200 1
63 209 1
63 224 1
63 388 1
63 502 1
63 568 1
63 717 1
63 794 1
63 924 1
63 966 1
63 978 1
64 2 1
64 3 1
64 5 1
64 9 1
64 10 1
64 15 1
64 85 1
64 112 1
64 121 1
64 172 1
64 186 1
64 441 1
64 443 1
64 491 1
64 597 1
64 599 1
64 688 1
64 843 1
64 885 1
64 944 1
64 959 1
65 3 1
65 10 1
65 16 1
65 30 1
65 45 1
65 48 1
65 70 1
65 107 1
65 201 1
65 219 1
65 237 1
65 248 1
65 251 1
65 396 1
65 484 1
65 628 1
65 637 1
65 691 1
65 923 1
66 7 1
66 12 1
66 19 1
66 41 1
66 50 1
66 52 1
66 139 1
66 148 1
66 198 1
66 235 1
66 254 1
66 276 1
66 437 1
66 446 1
66 535 1
66 558 1
66 574 1
66 698 1
66 700 1
66 773 1
66 924 1
67 1 1
67 26 1
67 39 1
67 41 1
67 56 1
67 62 1
67 136 1
67 193 1
67 208 1
67 260 1
67 298 1
67 367 1
67 406 1
67 407 1
67 434 1
67 490 1
67 492 1
67 555 1
67 598 1
67 883 1
67 965 1
67 974 1
68 9 1
68 29 1
68 37 1
68 51 1
68 54 1
68 109 1
68 110 1
68 112 1
68 129 1
68 133 1
68 399 1
68 453 1
68 741 1
68 905 1
68 957 1
68 981 1
69 4 1
69 11 1
69 12 1
69 33 1
69 36 1
69 55 1
69 73 1
69 86 1
69 91 1
69 164 1
69 261 1
69 373 1
69 629 1
69 636 1
69 679 1
69 733 1
69 841 1
70 1 1
70 6 1
70 10 1
70 16 1
70 62 1
70 65 1
70 85 1
70 156 1
70 181 1
70 201 1
70 206 1
70 296 1
70 682 1
70 691 1
71 1 1
71 2 1
71 3 1
71 10 1
71 11 1
71 31 1
71 76 1
71 84 1
71 87 1
71 123 1
71 146 1
71 149 1
71 158 1
71 186 1
71 214 1
71 216 1
71 221 1
71 222 1
71 227 1
71 282 1
71 285 1
71 291 1
71 300 1
71 310 1
71 319 1
71 327 1
71 330 1
71 336 1
71 341 1
71 344 1
71 421 1
71 440 1
71 447 1
71 454 1
71 457 1
71 554 1
71 630 1
71 686 1
71 696 1
71 767 1
71 822 1
72 2 1
72 18 1
72 39 1
72 40 1
72 43 1
72 55 1
72 95 1
72 123 1
72 124 1
72 144 1
72 221 1
72 241 1
72 279 1
72 304 1
72 403 1
72 471 1
72 473 1
72 506 1
72 615 1
72 616 1
72 622 1
72 647 1
72 655 1
72 680 1
72 770 1
72 807 1
72 941 1
72 980 1
73 11 1
73 26 1
73 36 1
73 39 1
73 44 1
73 69 1
73 79 1
73 86 1
73 118 1
73 132 1
73 154 1
73 165 1
73 182 1
73 277 1
73 282 1
73 292 1
73 313 1
73 314 1
73 343 1
73 396 1
73 427 1
73 491 1
73 641 1
73 733 1
73 740 1
73 759 1
73 783 1
73 839 1
73 899 1
73 906 1
73 926 1
73 930 1
73 996 1
74 5 1
74 6 1
74 26 1
74 31 1
74 49 1
74 57 1
74 90 1
74 161 1
74 195 1
74 272 1
74 378 1
74 453 1
74 483 1
74 659 1
74 714 1
74 822 1
74 846 1
74 896 1
74 916 1
75 2 1
75 4 1
75 5 1
75 9 1
75 13 1
75 15 1
75 145 1
75 201 1
75 263 1
75 300 1
75 370 1
75 403 1
75 415 1
75 541 1
75 685 1
75 779 1
75 801 1
75 864 1
75 889 1
76 1 1
76 2 1
76 3 1
76 31 1
76 71 1
76 87 1
76 111 1
76 157 1
76 192 1
76 229 1
76 273 1
76 284 1
76 295 1
76 327 1
76 353 1
76 406 1
76 460 1
76 487 1
76 634 1
76 719 1
76 806 1
76 826 1
76 969 1
77 5 1
77 6 1
77 11 1
77 37 1
77 45 1
77 47 1
77 83 1
77 257 1
77 504 1
77 560 1
77 642 1
77 669 1
77 781 1
78 5 1
78 8 1
78 9 1
78 13 1
78 34 1
78 45 1
78 138 1
78 183 1
78 222 1
78 289 1
78 342 1
78 343 1
78 354 1
78 656 1
78 903 1
79 3 1
79 10 1
79 39 1
79 44 1
79 58 1
79 73 1
79 165 1
79 177 1
79 194 1
79 232 1
79 313 1
79 492 1
79 666 1
79 722 1
79 740 1
79 899 1
80 3 1
80 4 1
80 7 1
80 11 1
80 20 1
80 55 1
80 81 1
80 86 1
80 114 1
80 140 1
80 218 1
80 475 1
80 498 1
80 548 1
80 700 1
80 888 1
80 950 1
81 3 1
81 4 1
81 19 1
81 49 1
81 53 1
81 80 1
81 86 1
81 88 1
81 96 1
81 99 1
81 140 1
81 152 1
81 220 1
81 244 1
81 335 1
81 455 1
81 461 1
81 466 1
81 476 1
81 514 1
81 530 1
81 532 1
81 692 1
81 700 1
81 741 1
81 808 1
81 888 1
81 979 1
82 7 1
82 19 1
82 37 1
82 41 1
82 49 1
82 53 1
82 104 1
82 337 1
82 452 1
82 476 1
82 572 1
82 574 1
82 617 1
82 620 1
82 663 1
82 779 1
82 811 1
82 869 1
83 10 1
83 11 1
83 29 1
83 37 1
83 77 1
83 106 1
83 132 1
83 143 1
83 166 1
83 194 1
83 231 1
83 248 1
83 280 1
83 480 1
83 482 1
83 501 1
83 582 1
83 669 1
83 714 1
83 795 1
83 883 1
83 921 1
84 11 1
84 31 1
84 40 1
84 43 1
84 63 1
84 71 1
84 123 1
84 133 1
84 197 1
84 221 1
84 256 1
84 258 1
84 264 1
84 313 1
84 375 1
84 542 1
84 568 1
84 610 1
84 688 1
84 695 1
84 767 1
84 780 1
84 797 1
84 848 1
85 1 1
85 6 1
85 9 1
85 15 1
85 64 1
85 70 1
85 92 1
85 113 1
85 121 1
85 142 1
85 151 1
85 172 1
85 186 1
85 264 1
85 275 1
85 277 1
85 296 1
85 365 1
85 381 1
85 392 1
85 459 1
85 581 1
85 614 1
85 624 1
85 678 1
85 843 1
85 929 1
86 4 1
86 11 1
86 69 1
86 73 1
86 80 1
86 81 1
86 91 1
86 218 1
86 277 1
86 292 1
86 322 1
86 367 1
86 455 1
86 460 1
86 528 1
86 636 1
86 653 1
86 700 1
86 702 1
86 711 1
86 733 1
86 783 1
86 899 1
87 8 1
87 17 1
87 31 1
87 46 1
87 71 1
87 76 1
87 100 1
87 111 1
87 149 1
87 163 1
87 178 1
87 234 1
87 295 1
87 380 1
87 385 1
87 454 1
87 634 1
87 726 1
87 751 1
87 871 1
88 3 1
88 4 1
88 20 1
88 24 1
88 81 1
88 89 1
88 99 1
88 144 1
88 183 1
88 243 1
88 316 1
88 391 1
88 461 1
88 805 1
89 3 1
89 6 1
89 21 1
89 24 1
89 61 1
89 88 1
89 167 1
89 168 1
89 243 1
89 260 1
89 334 1
89 344 1
89 527 1
89 531 1
89 560 1
89 634 1
89 805 1
89 836 1
89 852 1
89 944 1
89 962 1
90 6 1
90 24 1
90 26 1
90 58 1
90 60 1
90 74 1
90 98 1
90 119 1
90 159 1
90 161 1
90 169 1
90 195 1
90 204 1
90 253 1
90 258 1
90 345 1
90 360 1
90 393 1
90 450 1
90 529 1
90 706 1
90 722 1
90 819 1
90 846 1
90 893 1
91 8 1
91 11 1
91 34 1
91 46 1
91 69 1
91 86 1
91 636 1
91 653 1
91 797 1
92 1 1
92 8 1
92 9 1
92 15 1
92 85 1
92 113 1
92 118 1
92 187 1
92 237 1
92 240 1
92 306 1
92 342 1
92 409 1
92 519 1
92 584 1
92 693 1
92 725 1
92 789 1
92 991 1
93 1 1
93 5 1
93 14 1
93 27 1
93 44 1
93 59 1
93 138 1
93 158 1
93 177 1
93 199 1
93 262 1
93 280 1
93 303 1
93 315 1
93 401 1
93 433 1
93 494 1
93 526 1
93 577 1
93 580 1
93 608 1
93 718 1
93 810 1
93 853 1
93 909 1
94 3 1
94 5 1
94 20 1
94 23 1
94 32 1
94 35 1
94 101 1
94 103 1
94 117 1
94 128 1
94 135 1
94 137 1
94 141 1
94 149 1
94 152 1
94 208 1
94 211 1
94 223 1
94 245 1
94 323 1
94 419 1
94 452 1
94 463 1
94 465 1
94 481 1
94 485 1
94 507 1
94 579 1
94 633 1
94 697 1
94 718 1
94 750 1
94 871 1
94 894 1
94 900 1
94 914 1
94 974 1
95 2 1
95 4 1
95 39 1
95 54 1
95 57 1
95 72 1
95 244 1
95 279 1
96 10 1
96 16 1
96 19 1
96 36 1
96 53 1
96 81 1
96 97 1
96 120 1
96 125 1
96 152 1
96 220 1
96 243 1
96 310 1
96 317 1
96 427 1
96 808 1
96 813 1
96 880 1
97 1 1
97 3 1
97 19 1
97 32 1
97 53 1
97 96 1
97 120 1
97 135 1
97 192 1
97 230 1
97 354 1
97 798 1
97 858 1
97 880 1
97 983 1
98 2 1
98 25 1
98 27 1
98 58 1
98 60 1
98 90 1
98 119 1
98 204 1
98 212 1
98 224 1
98 258 1
98 479 1
98 625 1
98 676 1
99 3 1
99 17 1
99 30 1
99 48 1
99 81 1
99 88 1
99 108 1
99 183 1
99 210 1
99 391 1
99 461 1
99 464 1
99 496 1
99 597 1
99 741 1
99 835 1
100 3 1
100 17 1
100 46 1
100 48 1
100 87 1
100 101 1
100 116 1
100 121 1
100 122 1
100 178 1
100 276 1
100 386 1
100 477 1
100 509 1
100 650 1
100 751 1
100 793 1
101 17 1
101 23 1
101 32 1
101 46 1
101 94 1
101 100 1
101 116 1
101 128 1
101 223 1
101 470 1
101 477 1
101 481 1
101 640 1
101 900 1
101 997 1
102 1 1
102 6 1
102 28 1
102 32 1
102 42 1
102 43 1
102 178 1
102 347 1
102 398 1
102 499 1
102 763 1
102 854 1
102 920 1
102 935 1
103 3 1
103 4 1
103 5 1
103 31 1
103 32 1
103 94 1
103 175 1
103 182 1
103 323 1
103 356 1
103 579 1
103 750 1
103 878 1
103 954 1
104 2 1
104 8 1
104 14 1
104 49 1
104 53 1
104 82 1
104 151 1
104 265 1
104 346 1
104 431 1
104 452 1
104 585 1
104 617 1
104 739 1
104 811 1
104 869 1
104 958 1
104 988 1
105 1 1
105 3 1
105 4 1
105 14 1
105 17 1
105 57 1
105 119 1
105 293 1
105 381 1
105 420 1
105 449 1
105 501 1
105 633 1
105 737 1
105 846 1
106 3 1
106 10 1
106 16 1
106 29 1
106 45 1
106 83 1
106 166 1
106 170 1
106 176 1
106 209 1
106 210 1
106 223 1
106 248 1
106 259 1
106 340 1
106 380 1
106 418 1
106 480 1
106 615 1
106 695 1
106 710 1
106 731 1
106 826 1
106 968 1
106 990 1
107 1 1
107 16 1
107 21 1
107 45 1
107 65 1
107 167 1
107 219 1
107 248 1
107 396 1
107 445 1
107 493 1
107 565 1
107 628 1
107 652 1
107 821 1
107 873 1
107 911 1
107 997 1
108 9 1
108 17 1
108 28 1
108 48 1
108 62 1
108 99 1
108 110 1
108 210 1
108 311 1
108 318 1
108 442 1
108 462 1
108 627 1
108 665 1
108 667 1
108 748 1
108 835 1
108 850 1
108 912 1
108 937 1
109 1 1
109 7 1
109 29 1
109 37 1
109 54 1
109 68 1
109 110 1
109 160 1
109 234 1
109 284 1
109 295 1
109 316 1
109 363 1
109 407 1
109 408 1
109 424 1
109 569 1
109 570 1
109 721 1
109 736 1
109 741 1
109 880 1
109 927 1
109 957 1
109 998 1
110 28 1
110 29 1
110 62 1
110 68 1
110 108 1
110 109 1
110 133 1
110 160 1
110 203 1
110 271 1
110 447 1
110 741 1
110 748 1
111 1 1
111 8 1
111 31 1
111 46 1
111 76 1
111 87 1
111 126 1
111 129 1
111 157 1
111 163 1
111 229 1
111 252 1
111 267 1
111 274 1
111 284 1
111 466 1
111 588 1
111 703 1
111 901 1
111 995 1
112 3 1
112 5 1
112 9 1
112 51 1
112 64 1
112 68 1
112 129 1
112 206 1
112 211 1
112 320 1
112 356 1
112 359 1
112 491 1
112 525 1
112 922 1
112 945 1
113 5 1
113 8 1
113 9 1
113 44 1
113 85 1
113 92 1
113 237 1
113 239 1
113 348 1
113 431 1
113 459 1
114 8 1
114 11 1
114 16 1
114 36 1
114 55 1
114 80 1
114 145 1
114 188 1
114 364 1
114 383 1
114 472 1
114 689 1
114 709 1
114 891 1
115 8 1
115 14 1
115 16 1
115 25 1
115 27 1
115 63 1
115 209 1
115 238 1
115 287 1
115 312 1
115 314 1
115 439 1
115 502 1
115 522 1
115 550 1
115 720 1
115 806 1
115 978 1
116 29 1
116 34 1
116 46 1
116 56 1
116 100 1
116 101 1
116 188 1
116 411 1
116 482 1
116 585 1
117 1 1
117 5 1
117 6 1
117 35 1
117 94 1
117 137 1
117 173 1
117 205 1
117 230 1
117 328 1
117 452 1
117 465 1
117 507 1
117 561 1
117 596 1
117 620 1
117 639 1
117 701 1
117 704 1
117 905 1
118 8 1
118 15 1
118 26 1
118 44 1
118 73 1
118 92 1
118 154 1
118 155 1
118 182 1
118 240 1
118 263 1
118 306 1
118 342 1
118 423 1
118 473 1
118 480 1
118 575 1
118 586 1
118 693 1
118 742 1
118 759 1
119 3 1
119 14 1
119 60 1
119 90 1
119 98 1
119 105 1
119 141 1
119 293 1
119 335 1
119 381 1
119 449 1
119 625 1
119 633 1
119 874 1
119 985 1
120 17 1
120 22 1
120 53 1
120 58 1
120 96 1
120 97 1
120 125 1
120 176 1
120 199 1
120 370 1
120 567 1
120 693 1
120 729 1
120 798 1
120 868 1
120 916 1
120 952 1
121 9 1
121 17 1
121 48 1
121 64 1
121 85 1
121 100 1
121 122 1
121 142 1
121 151 1
121 186 1
121 195 1
121 252 1
121 276 1
121 277 1
121 337 1
121 365 1
121 392 1
121 597 1
121 606 1
121 650 1
121 688 1
121 743 1
121 762 1
121 763 1
121 777 1
121 793 1
121 929 1
122 2 1
122 5 1
122 14 1
122 17 1
122 100 1
122 121 1
122 150 1
122 374 1
122 389 1
122 509 1
122 545 1
122 717 1
122 763 1
122 823 1
122 902 1
123 31 1
123 40 1
123 55 1
123 71 1
123 72 1
123 84 1
123 124 1
123 256 1
123 440 1
123 449 1
123 471 1
123 488 1
123 583 1
123 621 1
123 638 1
123 647 1
123 708 1
123 728 1
123 742 1
123 767 1
123 848 1
123 867 1
124 5 1
124 8 1
124 47 1
124 55 1
124 72 1
124 123 1
124 185 1
124 308 1
124 346 1
124 372 1
124 393 1
124 441 1
124 449 1
124 471 1
124 488 1
124 544 1
124 630 1
124 638 1
124 708 1
124 744 1
124 829 1
124 837 1
125 6 1
125 11 1
125 12 1
125 53 1
125 96 1
125 120 1
125 181 1
125 309 1
125 523 1
125 579 1
125 673 1
125 874 1
126 1 1
126 5 1
126 6 1
126 19 1
126 31 1
126 111 1
126 129 1
126 159 1
126 163 1
126 217 1
126 246 1
126 274 1
126 377 1
126 472 1
126 777 1
126 842 1
126 929 1
126 995 1
127 1 1
127 9 1
127 18 1
127 37 1
127 54 1
127 55 1
127 157 1
127 283 1
127 324 1
127 382 1
127 553 1
127 671 1
127 697 1
127 870 1
127 926 1
128 4 1
128 5 1
128 9 1
128 23 1
128 94 1
128 101 1
128 162 1
128 211 1
128 223 1
128 268 1
128 325 1
128 348 1
128 470 1
128 534 1
128 653 1
128 723 1
128 784 1
128 855 1
128 917 1
129 1 1
129 9 1
129 68 1
129 111 1
129 112 1
129 126 1
129 163 1
129 211 1
129 359 1
129 621 1
129 747 1
129 929 1
129 995 1
130 3 1
130 8 1
130 15 1
130 21 1
130 22 1
130 25 1
130 137 1
130 196 1
130 207 1
130 257 1
130 394 1
130 507 1
130 522 1
130 547 1
130 672 1
130 713 1
130 765 1
130 790 1
131 3 1
131 4 1
131 9 1
131 39 1
131 56 1
131 58 1
131 134 1
131 136 1
131 204 1
131 213 1
131 296 1
131 662 1
131 749 1
131 886 1
131 980 1
132 11 1
132 36 1
132 37 1
132 73 1
132 83 1
132 143 1
132 387 1
132 396 1
132 427 1
132 482 1
132 551 1
132 714 1
132 937 1
133 29 1
133 43 1
133 63 1
133 68 1
133 84 1
133 110 1
133 568 1
133 794 1
134 5 1
134 9 1
134 14 1
134 38 1
134 58 1
134 131 1
134 136 1
134 213 1
134 241 1
134 388 1
134 591 1
135 5 1
135 19 1
135 20 1
135 53 1
135 94 1
135 97 1
135 208 1
135 212 1
135 225 1
135 230 1
135 290 1
135 338 1
135 354 1
135 359 1
135 365 1
135 366 1
135 428 1
135 514 1
135 633 1
135 746 1
135 834 1
135 840 1
135 847 1
136 9 1
136 26 1
136 56 1
136 67 1
136 131 1
136 134 1
136 171 1
136 241 1
136 367 1
136 643 1
136 645 1
136 738 1
136 757 1
136 949 1
137 15 1
137 22 1
137 35 1
137 94 1
137 117 1
137 130 1
137 141 1
137 172 1
137 173 1
137 207 1
137 468 1
137 485 1
137 522 1
137 676 1
137 752 1
137 808 1
138 5 1
138 13 1
138 34 1
138 44 1
138 78 1
138 93 1
138 199 1
138 718 1
138 729 1
138 810 1
139 2 1
139 23 1
139 32 1
139 41 1
139 50 1
139 66 1
139 189 1
139 261 1
139 276 1
139 289 1
139 338 1
139 415 1
139 508 1
139 530 1
139 535 1
139 613 1
139 626 1
139 692 1
139 824 1
139 906 1
139 942 1
139 984 1
140 3 1
140 5 1
140 10 1
140 13 1
140 80 1
140 81 1
140 156 1
140 335 1
140 469 1
140 485 1
140 569 1
140 631 1
140 644 1
140 756 1
140 992 1
141 3 1
141 14 1
141 35 1
141 94 1
141 119 1
141 137 1
141 149 1
141 335 1
141 402 1
141 485 1
141 635 1
141 681 1
141 808 1
141 866 1
142 4 1
142 9 1
142 19 1
142 51 1
142 85 1
142 121 1
142 151 1
142 174 1
142 193 1
142 195 1
142 269 1
142 309 1
142 395 1
142 488 1
142 619 1
142 712 1
142 723 1
142 735 1
142 788 1
142 839 1
142 887 1
142 956 1
142 982 1
143 11 1
143 12 1
143 49 1
143 61 1
143 83 1
143 132 1
143 173 1
143 231 1
143 426 1
143 482 1
143 645 1
143 699 1
143 795 1
143 831 1
143 1000 1
144 3 1
144 18 1
144 20 1
144 55 1
144 72 1
144 88 1
144 349 1
144 376 1
144 390 1
144 403 1
144 456 1
144 516 1
144 549 1
144 639 1
144 648 1
144 941 1
145 5 1
145 13 1
145 16 1
145 36 1
145 75 1
145 114 1
145 188 1
145 300 1
145 403 1
145 557 1
145 689 1
145 716 1
145 779 1
146 1 1
146 3 1
146 10 1
146 26 1
146 31 1
146 71 1
146 158 1
146 170 1
146 238 1
146 285 1
146 321 1
146 344 1
146 486 1
146 499 1
146 521 1
146 580 1
146 607 1
146 660 1
146 667 1
146 885 1
147 2 1
147 4 1
147 6 1
147 11 1
147 12 1
147 37 1
147 285 1
147 317 1
147 371 1
147 384 1
147 446 1
147 623 1
147 804 1
147 966 1
148 4 1
148 7 1
148 19 1
148 41 1
148 51 1
148 66 1
148 198 1
148 278 1
148 455 1
148 531 1
148 609 1
149 31 1
149 35 1
149 71 1
149 87 1
149 94 1
149 141 1
149 186 1
149 222 1
149 234 1
149 385 1
149 402 1
149 454 1
149 606 1
149 630 1
149 672 1
149 751 1
149 849 1
149 871 1
150 2 1
150 14 1
150 16 1
150 63 1
150 122 1
150 153 1
150 180 1
150 288 1
150 374 1
150 389 1
150 397 1
150 545 1
150 552 1
150 717 1
150 823 1
151 49 1
151 53 1
151 85 1
151 104 1
151 121 1
151 142 1
151 392 1
151 624 1
151 707 1
151 744 1
152 20 1
152 35 1
152 53 1
152 81 1
152 94 1
152 96 1
152 220 1
152 245 1
152 317 1
152 567 1
152 617 1
153 2 1
153 7 1
153 14 1
153 18 1
153 39 1
153 150 1
153 180 1
153 321 1
153 513 1
153 940 1
154 12 1
154 44 1
154 52 1
154 61 1
154 73 1
154 118 1
154 182 1
154 263 1
154 282 1
154 326 1
154 343 1
154 423 1
154 445 1
154 742 1
154 920 1
155 1 1
155 17 1
155 26 1
155 30 1
155 44 1
155 118 1
155 249 1
155 331 1
155 429 1
155 462 1
155 480 1
155 657 1
156 5 1
156 10 1
156 16 1
156 70 1
156 140 1
156 485 1
156 515 1
156 536 1
156 568 1
156 569 1
156 573 1
156 644 1
156 823 1
156 844 1
157 1 1
157 31 1
157 55 1
157 76 1
157 111 1
157 127 1
157 192 1
157 213 1
157 324 1
157 588 1
157 703 1
157 806 1
158 1 1
158 5 1
158 10 1
158 71 1
158 93 1
158 146 1
158 300 1
158 344 1
158 374 1
158 499 1
158 503 1
158 528 1
158 580 1
158 785 1
158 896 1
158 909 1
159 1 1
159 24 1
159 31 1
159 60 1
159 90 1
159 126 1
159 253 1
159 393 1
159 538 1
159 722 1
159 842 1
159 845 1
160 1 1
160 29 1
160 43 1
160 63 1
160 109 1
160 110 1
160 179 1
160 330 1
160 408 1
160 438 1
160 754 1
161 3 1
161 5 1
161 8 1
161 26 1
161 74 1
161 90 1
161 195 1
161 235 1
161 333 1
161 352 1
161 483 1
161 637 1
161 819 1
161 910 1
161 943 1
162 1 1
162 4 1
162 5 1
162 26 1
162 28 1
162 128 1
162 268 1
162 357 1
162 379 1
162 545 1
162 558 1
162 810 1
163 1 1
163 8 1
163 87 1
163 111 1
163 126 1
163 129 1
163 252 1
163 281 1
163 332 1
163 372 1
163 377 1
163 472 1
163 621 1
163 726 1
163 777 1
163 929 1
163 933 1
164 4 1
164 12 1
164 28 1
164 42 1
164 50 1
164 69 1
164 198 1
164 261 1
164 279 1
164 386 1
164 424 1
164 481 1
164 486 1
164 547 1
164 674 1
164 835 1
164 963 1
165 18 1
165 39 1
165 43 1
165 73 1
165 79 1
165 226 1
165 313 1
165 402 1
165 559 1
165 605 1
165 736 1
165 899 1
165 906 1
165 986 1
165 999 1
166 10 1
166 22 1
166 30 1
166 83 1
166 106 1
166 176 1
166 248 1
166 280 1
166 305 1
166 380 1
166 542 1
166 710 1
166 756 1
166 789 1
166 861 1
167 6 1
167 16 1
167 21 1
167 61 1
167 89 1
167 107 1
167 168 1
167 334 1
167 341 1
167 445 1
167 493 1
167 508 1
167 527 1
167 584 1
167 651 1
167 734 1
167 743 1
167 745 1
167 761 1
167 821 1
167 852 1
167 873 1
167 982 1
167 989 1
168 26 1
168 42 1
168 50 1
168 61 1
168 89 1
168 167 1
168 340 1
168 527 1
168 531 1
168 734 1
168 946 1
169 4 1
169 6 1
169 9 1
169 26 1
169 48 1
169 90 1
169 464 1
169 796 1
169 893 1
170 1 1
170 16 1
170 26 1
170 45 1
170 106 1
170 146 1
170 209 1
170 238 1
170 242 1
170 294 1
170 340 1
170 490 1
170 498 1
170 503 1
170 578 1
170 607 1
170 695 1
170 716 1
170 731 1
170 739 1
170 990 1
171 1 1
171 14 1
171 17 1
171 26 1
171 56 1
171 136 1
171 216 1
171 479 1
171 519 1
171 643 1
171 645 1
171 657 1
171 713 1
171 738 1
172 15 1
172 22 1
172 64 1
172 85 1
172 137 1
172 189 1
172 264 1
172 288 1
172 302 1
172 333 1
172 334 1
172 381 1
172 443 1
172 468 1
172 551 1
172 676 1
172 764 1
172 786 1
173 35 1
173 49 1
173 61 1
173 117 1
173 137 1
173 143 1
173 639 1
173 645 1
173 831 1
173 861 1
174 1 1
174 4 1
174 51 1
174 54 1
174 57 1
174 142 1
174 184 1
174 190 1
174 228 1
174 256 1
174 265 1
174 269 1
174 273 1
174 306 1
174 347 1
174 351 1
174 436 1
174 442 1
174 524 1
174 604 1
174 712 1
174 727 1
174 816 1
174 881 1
174 940 1
175 4 1
175 9 1
175 31 1
175 34 1
175 59 1
175 103 1
175 203 1
175 430 1
175 668 1
175 694 1
175 837 1
175 954 1
176 10 1
176 22 1
176 58 1
176 106 1
176 120 1
176 166 1
176 199 1
176 259 1
176 305 1
176 327 1
176 370 1
176 416 1
176 567 1
176 710 1
176 815 1
176 952 1
177 3 1
177 10 1
177 14 1
177 27 1
177 79 1
177 93 1
177 232 1
177 253 1
177 262 1
177 272 1
177 280 1
177 303 1
177 308 1
177 417 1
177 450 1
177 526 1
177 612 1
177 769 1
177 799 1
178 17 1
178 28 1
178 42 1
178 87 1
178 100 1
178 102 1
178 347 1
178 380 1
178 499 1
178 737 1
179 1 1
179 2 1
179 7 1
179 39 1
179 63 1
179 160 1
179 202 1
179 214 1
179 330 1
179 388 1
179 391 1
179 399 1
179 587 1
179 602 1
179 705 1
180 2 1
180 4 1
180 22 1
180 40 1
180 150 1
180 153 1
180 288 1
180 401 1
180 649 1
180 940 1
181 1 1
181 6 1
181 12 1
181 62 1
181 70 1
181 125 1
181 205 1
181 309 1
181 326 1
181 448 1
181 520 1
181 673 1
181 829 1
181 863 1
182 3 1
182 32 1
182 73 1
182 103 1
182 118 1
182 154 1
182 301 1
182 356 1
182 423 1
182 473 1
182 658 1
182 759 1
182 839 1
182 993 1
183 3 1
183 5 1
183 45 1
183 78 1
183 88 1
183 99 1
183 197 1
183 391 1
183 496 1
184 4 1
184 11 1
184 26 1
184 51 1
184 52 1
184 174 1
184 228 1
184 250 1
184 265 1
184 273 1
184 324 1
184 352 1
184 436 1
184 461 1
184 644 1
184 659 1
184 706 1
184 770 1
184 805 1
184 858 1
184 904 1
184 948 1
184 950 1
185 8 1
185 14 1
185 20 1
185 38 1
185 47 1
185 124 1
185 218 1
185 250 1
185 308 1
185 393 1
185 517 1
185 544 1
185 596 1
185 610 1
185 652 1
185 660 1
185 778 1
185 785 1
185 955 1
185 971 1
186 31 1
186 64 1
186 71 1
186 85 1
186 121 1
186 149 1
186 222 1
186 277 1
186 282 1
186 341 1
186 414 1
186 418 1
186 447 1
186 597 1
186 777 1
186 843 1
187 1 1
187 9 1
187 15 1
187 92 1
187 240 1
187 409 1
187 426 1
187 519 1
187 557 1
187 571 1
187 594 1
187 725 1
187 991 1
188 16 1
188 34 1
188 56 1
188 114 1
188 116 1
188 145 1
188 383 1
188 411 1
188 544 1
188 557 1
188 611 1
188 664 1
188 684 1
188 689 1
188 709 1
188 716 1
188 956 1
189 15 1
189 22 1
189 41 1
189 50 1
189 139 1
189 172 1
189 288 1
189 289 1
189 302 1
189 551 1
189 692 1
190 1 1
190 9 1
190 10 1
190 37 1
190 54 1
190 174 1
190 196 1
190 299 1
190 347 1
190 398 1
190 477 1
190 478 1
190 999 1
191 1 1
191 2 1
191 25 1
191 40 1
191 63 1
191 200 1
191 224 1
191 266 1
191 320 1
191 469 1
191 673 1
191 717 1
191 738 1
191 778 1
191 924 1
191 947 1
191 966 1
192 1 1
192 3 1
192 31 1
192 76 1
192 97 1
192 157 1
192 460 1
192 475 1
192 678 1
192 806 1
192 858 1
192 979 1
193 19 1
193 26 1
193 39 1
193 51 1
193 67 1
193 142 1
193 309 1
193 488 1
193 492 1
193 703 1
193 723 1
193 788 1
193 977 1
194 10 1
194 37 1
194 39 1
194 44 1
194 79 1
194 83 1
194 582 1
194 883 1
194 903 1
195 9 1
195 74 1
195 90 1
195 121 1
195 142 1
195 161 1
195 606 1
195 819 1
195 846 1
195 956 1
195 967 1
196 3 1
196 9 1
196 10 1
196 25 1
196 130 1
196 190 1
196 200 1
196 202 1
196 232 1
196 257 1
196 299 1
196 385 1
196 456 1
196 478 1
196 547 1
196 589 1
196 713 1
196 765 1
197 5 1
197 40 1
197 45 1
197 63 1
197 84 1
197 183 1
197 603 1
197 610 1
198 19 1
198 28 1
198 42 1
198 66 1
198 148 1
198 164 1
198 486 1
198 674 1
198 754 1
199 22 1
199 44 1
199 93 1
199 120 1
199 138 1
199 176 1
199 303 1
199 370 1
199 577 1
199 693 1
199 718 1
199 815 1
199 868 1
200 2 1
200 3 1
200 25 1
200 63 1
200 191 1
200 196 1
200 202 1
200 224 1
200 232 1
200 266 1
200 320 1
200 385 1
200 510 1
200 573 1
200 600 1
200 618 1
200 640 1
200 673 1
200 719 1
200 832 1
200 892 1
200 938 1
201 5 1
201 9 1
201 16 1
201 65 1
201 70 1
201 75 1
201 251 1
201 263 1
201 291 1
201 397 1
201 413 1
201 439 1
201 691 1
201 856 1
201 877 1
201 889 1
201 939 1
202 2 1
202 7 1
202 25 1
202 179 1
202 196 1
202 200 1
202 232 1
202 391 1
202 456 1
202 548 1
202 757 1
203 9 1
203 28 1
203 59 1
203 62 1
203 110 1
203 175 1
203 271 1
203 412 1
203 526 1
203 837 1
203 908 1
204 3 1
204 58 1
204 90 1
204 98 1
204 131 1
204 255 1
204 258 1
204 345 1
204 479 1
204 529 1
204 706 1
204 749 1
204 935 1
205 5 1
205 6 1
205 12 1
205 117 1
205 181 1
205 328 1
205 448 1
205 863 1
206 6 1
206 9 1
206 51 1
206 62 1
206 70 1
206 112 1
206 320 1
206 356 1
206 358 1
206 559 1
206 564 1
206 622 1
206 682 1
206 922 1
207 2 1
207 8 1
207 13 1
207 15 1
207 130 1
207 137 1
207 220 1
207 302 1
207 670 1
207 752 1
207 838 1
208 1 1
208 5 1
208 41 1
208 67 1
208 94 1
208 135 1
208 225 1
208 268 1
208 290 1
208 339 1
208 361 1
208 406 1
208 422 1
208 425 1
208 514 1
208 598 1
208 633 1
208 697 1
208 894 1
209 25 1
209 45 1
209 63 1
209 106 1
209 115 1
209 170 1
209 314 1
209 340 1
209 502 1
209 566 1
210 3 1
210 45 1
210 48 1
210 99 1
210 106 1
210 108 1
210 223 1
210 311 1
210 418 1
210 513 1
210 546 1
210 615 1
210 732 1
210 769 1
210 790 1
210 821 1
210 833 1
210 886 1
210 968 1
211 9 1
211 23 1
211 94 1
211 112 1
211 128 1
211 129 1
211 359 1
211 419 1
211 525 1
211 616 1
211 747 1
211 758 1
211 784 1
211 892 1
211 941 1
212 2 1
212 5 1
212 20 1
212 27 1
212 98 1
212 135 1
212 290 1
212 301 1
212 338 1
212 366 1
212 746 1
212 784 1
212 834 1
213 1 1
213 55 1
213 58 1
213 131 1
213 134 1
213 157 1
213 255 1
213 437 1
213 538 1
213 591 1
214 2 1
214 10 1
214 39 1
214 71 1
214 179 1
214 216 1
214 311 1
214 399 1
214 457 1
214 602 1
214 607 1
214 788 1
214 802 1
214 820 1
214 973 1
215 3 1
215 6 1
215 20 1
215 26 1
215 31 1
215 49 1
215 286 1
215 293 1
215 368 1
215 369 1
215 404 1
215 428 1
215 436 1
215 611 1
215 696 1
215 730 1
215 772 1
215 816 1
215 877 1
215 879 1
216 1 1
216 10 1
216 14 1
216 71 1
216 171 1
216 214 1
216 311 1
216 457 1
216 479 1
216 554 1
216 661 1
216 686 1
216 713 1
216 972 1
217 6 1
217 7 1
217 19 1
217 25 1
217 27 1
217 126 1
217 246 1
217 262 1
217 410 1
217 515 1
217 534 1
217 536 1
217 893 1
217 964 1
218 4 1
218 8 1
218 47 1
218 80 1
218 86 1
218 185 1
218 250 1
218 517 1
218 548 1
218 610 1
219 16 1
219 30 1
219 45 1
219 48 1
219 65 1
219 107 1
219 237 1
219 546 1
219 711 1
219 884 1
220 2 1
220 8 1
220 81 1
220 96 1
220 152 1
220 207 1
220 270 1
220 302 1
220 451 1
220 518 1
220 670 1
220 838 1
220 857 1
220 932 1
221 11 1
221 18 1
221 40 1
221 71 1
221 72 1
221 84 1
221 227 1
221 241 1
221 497 1
221 600 1
221 622 1
221 655 1
221 690 1
221 696 1
222 8 1
222 34 1
222 71 1
222 78 1
222 149 1
222 186 1
222 341 1
222 342 1
222 727 1
222 791 1
223 45 1
223 94 1
223 101 1
223 106 1
223 128 1
223 210 1
223 470 1
223 534 1
223 968 1
224 58 1
224 60 1
224 63 1
224 98 1
224 191 1
224 200 1
224 575 1
224 676 1
224 717 1
225 3 1
225 5 1
225 11 1
225 24 1
225 135 1
225 208 1
225 245 1
225 315 1
225 339 1
225 458 1
225 474 1
225 514 1
225 598 1
225 758 1
225 923 1
226 18 1
226 32 1
226 40 1
226 43 1
226 165 1
226 517 1
226 524 1
226 605 1
226 750 1
226 819 1
226 975 1
226 986 1
227 5 1
227 11 1
227 19 1
227 71 1
227 221 1
227 239 1
227 269 1
227 310 1
227 421 1
227 425 1
227 429 1
227 696 1
227 875 1
228 4 1
228 26 1
228 56 1
228 174 1
228 184 1
228 265 1
228 331 1
228 352 1
228 448 1
228 589 1
228 770 1
228 940 1
228 950 1
229 1 1
229 8 1
229 17 1
229 23 1
229 76 1
229 111 1
229 267 1
229 284 1
229 470 1
229 619 1
229 870 1
229 939 1
230 5 1
230 35 1
230 53 1
230 97 1
230 117 1
230 135 1
230 299 1
231 10 1
231 11 1
231 29 1
231 38 1
231 83 1
231 143 1
231 570 1
231 699 1
231 795 1
231 921 1
231 1000 1
232 3 1
232 79 1
232 177 1
232 196 1
232 200 1
232 202 1
232 385 1
232 492 1
232 573 1
232 938 1
233 5 1
233 6 1
233 9 1
233 28 1
233 29 1
233 60 1
233 395 1
233 601 1
233 992 1
233 995 1
234 1 1
234 31 1
234 54 1
234 87 1
234 109 1
234 149 1
234 284 1
234 295 1
234 358 1
234 385 1
234 407 1
234 502 1
234 606 1
234 909 1
235 3 1
235 5 1
235 7 1
235 12 1
235 66 1
235 161 1
235 333 1
235 437 1
235 574 1
235 675 1
235 759 1
235 773 1
235 910 1
236 4 1
236 15 1
236 22 1
236 31 1
236 39 1
236 40 1
236 281 1
236 362 1
236 405 1
236 549 1
236 857 1
237 9 1
237 30 1
237 65 1
237 92 1
237 113 1
237 219 1
237 546 1
237 584 1
237 789 1
238 1 1
238 14 1
238 27 1
238 115 1
238 146 1
238 170 1
238 242 1
238 490 1
238 607 1
238 667 1
238 707 1
238 791 1
239 5 1
239 8 1
239 19 1
239 113 1
239 227 1
239 332 1
239 369 1
239 376 1
239 425 1
239 429 1
239 875 1
239 878 1
240 8 1
240 9 1
240 15 1
240 92 1
240 118 1
240 187 1
240 247 1
240 292 1
240 306 1
240 349 1
240 426 1
240 458 1
240 516 1
241 9 1
241 40 1
241 72 1
241 134 1
241 136 1
241 221 1
242 1 1
242 8 1
242 20 1
242 53 1
242 170 1
242 238 1
242 490 1
242 498 1
242 576 1
242 578 1
242 707 1
242 775 1
242 791 1
243 10 1
243 24 1
243 36 1
243 88 1
243 89 1
243 96 1
243 259 1
243 260 1
243 316 1
243 344 1
243 371 1
243 379 1
243 389 1
243 484 1
243 578 1
243 728 1
243 780 1
244 4 1
244 49 1
244 53 1
244 57 1
244 81 1
244 95 1
244 438 1
244 476 1
244 514 1
244 628 1
244 734 1
244 910 1
244 927 1
245 3 1
245 20 1
245 24 1
245 94 1
245 152 1
245 225 1
245 307 1
245 312 1
245 315 1
245 325 1
245 329 1
245 458 1
245 512 1
245 518 1
245 617 1
245 691 1
245 726 1
245 758 1
245 815 1
245 936 1
246 3 1
246 4 1
246 5 1
246 19 1
246 126 1
246 217 1
246 278 1
246 410 1
246 459 1
246 497 1
246 534 1
246 643 1
246 650 1
246 755 1
246 853 1
246 859 1
246 893 1
246 912 1
247 6 1
247 9 1
247 11 1
247 15 1
247 36 1
247 240 1
247 292 1
247 294 1
247 318 1
247 349 1
247 360 1
247 382 1
247 414 1
247 494 1
247 527 1
247 587 1
247 900 1
248 16 1
248 65 1
248 83 1
248 106 1
248 107 1
248 166 1
248 380 1
248 396 1
248 480 1
248 637 1
248 652 1
248 789 1
249 1 1
249 3 1
249 7 1
249 18 1
249 30 1
249 155 1
249 331 1
249 361 1
249 378 1
249 405 1
249 412 1
249 592 1
249 595 1
249 681 1
249 918 1
250 11 1
250 26 1
250 47 1
250 184 1
250 185 1
250 218 1
250 517 1
250 644 1
250 660 1
250 805 1
251 3 1
251 4 1
251 16 1
251 23 1
251 65 1
251 201 1
251 364 1
251 877 1
252 8 1
252 17 1
252 48 1
252 111 1
252 121 1
252 163 1
252 281 1
252 372 1
252 466 1
252 478 1
252 540 1
252 674 1
252 683 1
252 745 1
252 762 1
252 786 1
252 933 1
253 3 1
253 10 1
253 60 1
253 90 1
253 159 1
253 177 1
253 393 1
253 450 1
254 12 1
254 18 1
254 19 1
254 33 1
254 50 1
254 66 1
254 275 1
254 298 1
254 323 1
254 351 1
254 400 1
254 748 1
254 850 1
254 996 1
255 1 1
255 3 1
255 55 1
255 58 1
255 204 1
255 213 1
255 437 1
255 556 1
255 591 1
255 800 1
256 31 1
256 54 1
256 57 1
256 84 1
256 123 1
256 174 1
256 306 1
256 375 1
256 542 1
256 583 1
256 797 1
256 848 1
256 881 1
257 3 1
257 5 1
257 6 1
257 77 1
257 130 1
257 196 1
257 547 1
257 560 1
258 11 1
258 31 1
258 84 1
258 90 1
258 98 1
258 204 1
258 264 1
258 345 1
258 360 1
258 457 1
258 479 1
258 698 1
259 10 1
259 36 1
259 106 1
259 176 1
259 243 1
259 371 1
259 506 1
259 578 1
259 658 1
259 826 1
259 951 1
260 24 1
260 39 1
260 56 1
260 67 1
260 89 1
260 243 1
260 344 1
260 379 1
260 387 1
260 484 1
260 490 1
260 555 1
260 581 1
260 883 1
261 2 1
261 4 1
261 23 1
261 69 1
261 139 1
261 164 1
261 279 1
261 338 1
261 415 1
261 481 1
261 651 1
261 835 1
261 942 1
261 963 1
262 7 1
262 25 1
262 27 1
262 93 1
262 177 1
262 217 1
262 272 1
262 526 1
262 679 1
262 782 1
262 964 1
263 5 1
263 44 1
263 75 1
263 118 1
263 154 1
263 201 1
263 291 1
263 370 1
263 413 1
263 742 1
264 15 1
264 31 1
264 84 1
264 85 1
264 172 1
264 258 1
264 275 1
264 313 1
264 381 1
264 457 1
264 688 1
264 695 1
265 2 1
265 8 1
265 104 1
265 174 1
265 184 1
265 228 1
265 273 1
265 305 1
265 324 1
265 351 1
265 431 1
265 442 1
265 461 1
265 603 1
265 706 1
265 770 1
265 940 1
265 988 1
266 2 1
266 17 1
266 58 1
266 60 1
266 191 1
266 200 1
266 320 1
266 384 1
266 416 1
266 510 1
266 600 1
266 614 1
266 618 1
266 668 1
266 699 1
266 738 1
266 803 1
266 813 1
266 887 1
266 892 1
266 897 1
267 1 1
267 3 1
267 10 1
267 45 1
267 111 1
267 229 1
267 435 1
267 646 1
267 682 1
267 975 1
268 1 1
268 5 1
268 41 1
268 128 1
268 162 1
268 208 1
268 290 1
268 357 1
268 361 1
268 422 1
268 537 1
268 653 1
268 810 1
268 889 1
268 931 1
269 11 1
269 19 1
269 51 1
269 142 1
269 174 1
269 227 1
269 727 1
269 839 1
269 921 1
270 2 1
270 8 1
270 9 1
270 29 1
270 54 1
270 220 1
270 423 1
270 451 1
270 632 1
270 704 1
270 772 1
270 932 1
270 957 1
271 16 1
271 25 1
271 35 1
271 62 1
271 110 1
271 203 1
271 447 1
272 6 1
272 27 1
272 57 1
272 74 1
272 177 1
272 262 1
272 308 1
272 714 1
272 769 1
272 782 1
273 2 1
273 3 1
273 76 1
273 174 1
273 184 1
273 265 1
273 304 1
273 324 1
273 351 1
273 524 1
273 543 1
273 733 1
274 14 1
274 20 1
274 31 1
274 59 1
274 111 1
274 126 1
274 495 1
275 12 1
275 15 1
275 33 1
275 85 1
275 254 1
275 264 1
275 511 1
276 48 1
276 50 1
276 66 1
276 100 1
276 121 1
276 139 1
276 337 1
276 386 1
276 489 1
276 555 1
276 650 1
276 743 1
277 11 1
277 73 1
277 85 1
277 86 1
277 121 1
277 186 1
277 292 1
277 322 1
277 365 1
277 367 1
277 537 1
277 932 1
278 3 1
278 4 1
278 19 1
278 41 1
278 148 1
278 246 1
278 287 1
278 322 1
278 433 1
278 467 1
278 608 1
278 853 1
278 859 1
278 865 1
278 912 1
279 4 1
279 39 1
279 72 1
279 95 1
279 164 1
279 261 1
279 304 1
279 350 1
279 355 1
279 481 1
279 506 1
279 720 1
279 841 1
280 10 1
280 14 1
280 83 1
280 93 1
280 166 1
280 177 1
280 303 1
280 501 1
280 853 1
281 8 1
281 15 1
281 22 1
281 163 1
281 236 1
281 252 1
281 332 1
281 372 1
281 478 1
281 504 1
281 549 1
281 786 1
281 794 1
281 807 1
282 31 1
282 44 1
282 71 1
282 73 1
282 154 1
282 186 1
282 314 1
282 319 1
282 330 1
282 336 1
282 343 1
282 414 1
282 445 1
282 447 1
282 465 1
282 848 1
283 8 1
283 10 1
283 36 1
283 37 1
283 54 1
283 127 1
283 671 1
283 697 1
283 753 1
283 860 1
284 1 1
284 76 1
284 109 1
284 111 1
284 229 1
284 234 1
284 295 1
284 316 1
284 358 1
284 432 1
284 570 1
285 2 1
285 3 1
285 12 1
285 71 1
285 146 1
285 147 1
285 291 1
285 384 1
285 390 1
285 486 1
285 793 1
285 976 1
286 3 1
286 6 1
286 19 1
286 37 1
286 47 1
286 215 1
286 357 1
286 368 1
286 408 1
286 611 1
286 879 1
286 933 1
286 1000 1
287 16 1
287 19 1
287 25 1
287 41 1
287 115 1
287 278 1
287 297 1
287 322 1
287 409 1
287 433 1
287 467 1
287 671 1
287 768 1
288 2 1
288 22 1
288 150 1
288 172 1
288 180 1
288 189 1
288 302 1
288 333 1
288 764 1
288 925 1
289 5 1
289 9 1
289 50 1
289 78 1
289 139 1
289 189 1
289 343 1
289 496 1
289 530 1
289 588 1
289 692 1
289 828 1
289 851 1
289 865 1
289 945 1
290 5 1
290 41 1
290 135 1
290 208 1
290 212 1
290 268 1
290 301 1
290 931 1
291 3 1
291 5 1
291 71 1
291 201 1
291 263 1
291 285 1
291 397 1
291 413 1
291 467 1
291 474 1
291 793 1
292 15 1
292 73 1
292 86 1
292 240 1
292 247 1
292 277 1
292 322 1
292 349 1
292 414 1
292 458 1
292 516 1
292 528 1
292 539 1
292 587 1
292 593 1
292 783 1
292 800 1
293 3 1
293 26 1
293 49 1
293 105 1
293 119 1
293 215 1
293 428 1
294 1 1
294 9 1
294 15 1
294 26 1
294 170 1
294 247 1
294 716 1
294 774 1
294 900 1
295 31 1
295 76 1
295 87 1
295 109 1
295 234 1
295 284 1
295 316 1
295 353 1
295 363 1
295 407 1
295 424 1
295 487 1
295 512 1
295 634 1
295 776 1
296 4 1
296 6 1
296 39 1
296 70 1
296 85 1
296 131 1
296 662 1
297 8 1
297 16 1
297 25 1
297 27 1
297 53 1
297 287 1
297 353 1
297 409 1
297 856 1
297 907 1
297 984 1
298 1 1
298 19 1
298 50 1
298 62 1
298 67 1
298 254 1
298 307 1
298 323 1
298 351 1
298 400 1
298 463 1
298 598 1
298 715 1
299 5 1
299 9 1
299 35 1
299 190 1
299 196 1
299 230 1
299 478 1
300 5 1
300 10 1
300 71 1
300 75 1
300 145 1
300 158 1
300 541 1
300 779 1
300 801 1
301 3 1
301 5 1
301 32 1
301 182 1
301 212 1
301 290 1
301 993 1
302 2 1
302 172 1
302 189 1
302 207 1
302 220 1
302 288 1
302 333 1
302 334 1
302 518 1
302 551 1
302 857 1
302 917 1
303 44 1
303 93 1
303 177 1
303 199 1
303 280 1
303 433 1
303 577 1
303 853 1
304 2 1
304 3 1
304 39 1
304 72 1
304 273 1
304 279 1
304 350 1
304 506 1
304 543 1
304 615 1
304 720 1
304 733 1
304 827 1
304 832 1
304 904 1
305 2 1
305 8 1
305 10 1
305 166 1
305 176 1
305 265 1
305 327 1
305 375 1
305 541 1
305 603 1
305 690 1
305 760 1
305 762 1
306 57 1
306 92 1
306 118 1
306 174 1
306 240 1
306 256 1
306 342 1
306 575 1
307 3 1
307 19 1
307 24 1
307 50 1
307 245 1
307 298 1
307 312 1
307 325 1
307 443 1
307 463 1
307 726 1
307 761 1
307 817 1
307 936 1
308 8 1
308 27 1
308 124 1
308 177 1
308 185 1
308 272 1
308 372 1
308 393 1
308 417 1
308 440 1
308 441 1
308 543 1
308 590 1
308 592 1
308 635 1
308 769 1
308 829 1
309 12 1
309 51 1
309 125 1
309 142 1
309 181 1
309 193 1
309 326 1
309 395 1
309 723 1
309 977 1
310 11 1
310 16 1
310 36 1
310 71 1
310 96 1
310 227 1
310 421 1
310 601 1
310 987 1
311 10 1
311 48 1
311 108 1
311 210 1
311 214 1
311 216 1
311 513 1
311 523 1
311 627 1
311 732 1
311 907 1
311 967 1
312 3 1
312 8 1
312 27 1
312 115 1
312 245 1
312 307 1
312 439 1
312 522 1
312 556 1
312 720 1
312 809 1
312 936 1
313 31 1
313 73 1
313 79 1
313 84 1
313 165 1
313 264 1
313 688 1
313 780 1
313 899 1
313 906 1
314 25 1
314 44 1
314 73 1
314 115 1
314 209 1
314 282 1
314 566 1
315 24 1
315 27 1
315 59 1
315 93 1
315 225 1
315 245 1
315 401 1
315 691 1
315 758 1
316 24 1
316 88 1
316 109 1
316 243 1
316 284 1
316 295 1
316 363 1
316 512 1
316 570 1
316 768 1
316 880 1
316 927 1
317 11 1
317 37 1
317 53 1
317 96 1
317 147 1
317 152 1
317 567 1
317 623 1
317 774 1
317 813 1
317 854 1
318 6 1
318 9 1
318 11 1
318 28 1
318 108 1
318 247 1
318 394 1
318 442 1
318 493 1
318 494 1
318 629 1
318 867 1
319 2 1
319 10 1
319 13 1
319 31 1
319 71 1
319 282 1
319 330 1
319 377 1
319 465 1
319 724 1
319 812 1
320 51 1
320 112 1
320 191 1
320 200 1
320 206 1
320 266 1
320 356 1
320 559 1
320 673 1
320 892 1
321 3 1
321 7 1
321 10 1
321 39 1
321 146 1
321 153 1
321 521 1
321 915 1
322 41 1
322 86 1
322 277 1
322 278 1
322 287 1
322 292 1
322 467 1
322 528 1
322 608 1
323 3 1
323 50 1
323 94 1
323 103 1
323 254 1
323 298 1
323 351 1
323 579 1
323 996 1
324 55 1
324 127 1
324 157 1
324 184 1
324 265 1
324 273 1
324 382 1
324 461 1
324 565 1
324 948 1
325 5 1
325 9 1
325 24 1
325 128 1
325 245 1
325 307 1
325 329 1
325 443 1
325 518 1
325 623 1
325 624 1
325 654 1
325 670 1
325 683 1
325 723 1
325 726 1
325 731 1
325 955 1
326 12 1
326 52 1
326 154 1
326 181 1
326 309 1
326 520 1
326 829 1
326 920 1
327 3 1
327 10 1
327 71 1
327 76 1
327 176 1
327 305 1
327 406 1
327 416 1
327 421 1
327 690 1
327 952 1
328 6 1
328 28 1
328 29 1
328 62 1
328 117 1
328 205 1
328 362 1
328 505 1
328 661 1
328 735 1
329 24 1
329 26 1
329 31 1
329 44 1
329 245 1
329 325 1
329 355 1
329 518 1
329 623 1
329 624 1
329 648 1
329 683 1
329 815 1
329 888 1
330 1 1
330 71 1
330 160 1
330 179 1
330 282 1
330 319 1
330 336 1
330 465 1
330 754 1
330 812 1
330 911 1
331 4 1
331 26 1
331 30 1
331 155 1
331 228 1
331 249 1
331 412 1
331 429 1
331 561 1
331 636 1
331 798 1
332 5 1
332 8 1
332 163 1
332 239 1
332 281 1
332 345 1
332 392 1
332 495 1
332 504 1
332 552 1
332 947 1
333 3 1
333 161 1
333 172 1
333 235 1
333 288 1
333 302 1
333 334 1
333 910 1
333 917 1
334 6 1
334 89 1
334 167 1
334 172 1
334 302 1
334 333 1
334 341 1
334 562 1
334 684 1
334 761 1
334 852 1
334 917 1
334 972 1
335 3 1
335 14 1
335 81 1
335 119 1
335 140 1
335 141 1
335 635 1
335 681 1
336 4 1
336 11 1
336 52 1
336 71 1
336 282 1
336 330 1
336 350 1
336 411 1
337 19 1
337 41 1
337 48 1
337 82 1
337 121 1
337 276 1
337 779 1
338 2 1
338 20 1
338 135 1
338 139 1
338 212 1
338 261 1
338 366 1
338 415 1
338 613 1
338 626 1
338 651 1
338 784 1
338 906 1
338 984 1
339 1 1
339 4 1
339 5 1
339 15 1
339 208 1
339 225 1
339 474 1
339 598 1
339 638 1
339 753 1
340 26 1
340 42 1
340 106 1
340 168 1
340 170 1
340 209 1
341 6 1
341 71 1
341 167 1
341 186 1
341 222 1
341 334 1
341 562 1
341 632 1
341 651 1
341 684 1
341 761 1
341 972 1
341 989 1
342 8 1
342 78 1
342 92 1
342 118 1
342 222 1
342 306 1
342 354 1
342 487 1
342 575 1
342 656 1
342 693 1
343 5 1
343 73 1
343 78 1
343 154 1
343 282 1
343 289 1
343 496 1
344 71 1
344 89 1
344 146 1
344 158 1
344 243 1
344 260 1
345 5 1
345 8 1
345 90 1
345 204 1
345 258 1
345 332 1
345 360 1
345 392 1
345 450 1
345 489 1
345 495 1
345 529 1
345 552 1
345 554 1
345 698 1
345 812 1
345 881 1
346 2 1
346 5 1
346 8 1
346 14 1
346 104 1
346 124 1
346 585 1
346 594 1
346 666 1
346 739 1
347 1 1
347 42 1
347 102 1
347 174 1
347 178 1
347 190 1
347 499 1
347 737 1
347 854 1
347 999 1
348 4 1
348 8 1
348 9 1
348 44 1
348 113 1
348 128 1
348 431 1
349 3 1
349 20 1
349 144 1
349 240 1
349 247 1
349 292 1
349 376 1
349 410 1
349 456 1
349 516 1
349 521 1
349 539 1
349 593 1
349 639 1
349 817 1
349 864 1
350 11 1
350 39 1
350 52 1
350 279 1
350 304 1
350 336 1
350 355 1
350 411 1
350 434 1
350 764 1
350 825 1
350 832 1
350 904 1
350 985 1
351 174 1
351 254 1
351 265 1
351 273 1
351 298 1
351 323 1
351 400 1
351 442 1
351 524 1
351 604 1
351 816 1
351 996 1
352 3 1
352 4 1
352 8 1
352 161 1
352 184 1
352 228 1
352 448 1
352 589 1
353 27 1
353 31 1
353 53 1
353 76 1
353 295 1
353 297 1
353 487 1
353 641 1
353 719 1
353 776 1
353 801 1
353 984 1
354 8 1
354 19 1
354 78 1
354 97 1
354 135 1
354 342 1
354 359 1
354 487 1
354 656 1
354 903 1
355 31 1
355 39 1
355 44 1
355 279 1
355 329 1
355 350 1
355 677 1
355 725 1
355 841 1
356 3 1
356 103 1
356 112 1
356 182 1
356 206 1
356 320 1
356 559 1
356 564 1
356 658 1
356 878 1
357 3 1
357 5 1
357 6 1
357 162 1
357 268 1
357 286 1
357 379 1
357 537 1
357 810 1
357 845 1
357 889 1
357 933 1
358 1 1
358 6 1
358 62 1
358 206 1
358 234 1
358 284 1
358 432 1
358 622 1
358 701 1
358 884 1
359 19 1
359 112 1
359 129 1
359 135 1
359 211 1
359 354 1
359 747 1
360 6 1
360 36 1
360 90 1
360 247 1
360 258 1
360 345 1
360 382 1
360 450 1
360 489 1
360 527 1
360 535 1
360 698 1
360 787 1
360 812 1
361 1 1
361 7 1
361 18 1
361 208 1
361 249 1
361 268 1
361 422 1
361 425 1
361 510 1
361 592 1
361 681 1
361 811 1
361 943 1
362 15 1
362 28 1
362 29 1
362 40 1
362 236 1
362 328 1
362 366 1
362 505 1
362 661 1
362 857 1
363 6 1
363 28 1
363 41 1
363 109 1
363 295 1
363 316 1
363 424 1
363 512 1
363 595 1
363 669 1
363 768 1
363 825 1
363 890 1
363 998 1
364 3 1
364 4 1
364 8 1
364 36 1
364 114 1
364 251 1
365 19 1
365 53 1
365 85 1
365 121 1
365 135 1
365 277 1
365 428 1
365 840 1
365 847 1
365 929 1
366 15 1
366 40 1
366 135 1
366 212 1
366 338 1
366 362 1
366 505 1
366 746 1
366 760 1
366 784 1
367 11 1
367 56 1
367 67 1
367 86 1
367 136 1
367 277 1
367 537 1
368 3 1
368 26 1
368 31 1
368 215 1
368 286 1
368 422 1
368 436 1
368 577 1
368 730 1
368 804 1
368 816 1
369 3 1
369 5 1
369 19 1
369 20 1
369 215 1
369 239 1
369 376 1
369 404 1
370 5 1
370 75 1
370 120 1
370 176 1
370 199 1
370 263 1
370 567 1
370 693 1
370 815 1
371 2 1
371 4 1
371 36 1
371 147 1
371 243 1
371 259 1
371 525 1
371 578 1
371 658 1
371 780 1
371 951 1
372 8 1
372 124 1
372 163 1
372 252 1
372 281 1
372 308 1
372 441 1
372 543 1
372 933 1
373 5 1
373 9 1
373 11 1
373 42 1
373 55 1
373 69 1
373 444 1
373 483 1
373 566 1
373 931 1
374 1 1
374 5 1
374 14 1
374 122 1
374 150 1
374 158 1
374 397 1
374 545 1
374 785 1
375 2 1
375 8 1
375 31 1
375 84 1
375 256 1
375 305 1
375 541 1
375 542 1
375 609 1
375 762 1
376 19 1
376 20 1
376 144 1
376 239 1
376 349 1
376 369 1
376 516 1
376 864 1
377 1 1
377 2 1
377 13 1
377 126 1
377 163 1
377 319 1
377 472 1
377 724 1
378 3 1
378 7 1
378 26 1
378 57 1
378 74 1
378 249 1
378 453 1
378 595 1
378 709 1
378 994 1
379 5 1
379 24 1
379 162 1
379 243 1
379 260 1
379 357 1
379 387 1
379 389 1
379 484 1
379 558 1
379 677 1
379 728 1
379 852 1
380 17 1
380 87 1
380 106 1
380 166 1
380 178 1
380 248 1
380 454 1
380 710 1
380 789 1
380 977 1
381 14 1
381 85 1
381 105 1
381 119 1
381 172 1
381 264 1
381 449 1
381 874 1
382 6 1
382 55 1
382 127 1
382 247 1
382 324 1
382 360 1
382 527 1
382 535 1
382 565 1
382 926 1
383 3 1
383 6 1
383 16 1
383 60 1
383 114 1
383 188 1
383 544 1
383 611 1
383 662 1
383 824 1
384 2 1
384 17 1
384 60 1
384 147 1
384 266 1
384 285 1
384 390 1
384 416 1
384 749 1
385 87 1
385 149 1
385 196 1
385 200 1
385 232 1
385 234 1
385 573 1
385 606 1
385 672 1
385 751 1
385 849 1
386 4 1
386 12 1
386 48 1
386 100 1
386 164 1
386 276 1
386 489 1
387 11 1
387 24 1
387 37 1
387 132 1
387 260 1
387 379 1
387 551 1
387 721 1
387 792 1
387 983 1
388 1 1
388 9 1
388 58 1
388 63 1
388 134 1
388 179 1
388 591 1
389 2 1
389 24 1
389 122 1
389 150 1
389 243 1
389 379 1
389 677 1
389 823 1
390 2 1
390 18 1
390 55 1
390 144 1
390 285 1
390 384 1
390 549 1
391 7 1
391 88 1
391 99 1
391 179 1
391 183 1
391 202 1
391 548 1
391 875 1
392 5 1
392 85 1
392 121 1
392 151 1
392 332 1
392 345 1
392 495 1
392 554 1
392 624 1
392 707 1
393 90 1
393 124 1
393 159 1
393 185 1
393 253 1
393 308 1
393 544 1
393 596 1
393 971 1
394 3 1
394 6 1
394 11 1
394 21 1
394 130 1
394 318 1
394 776 1
395 28 1
395 29 1
395 51 1
395 142 1
395 233 1
395 309 1
396 11 1
396 65 1
396 73 1
396 107 1
396 132 1
396 248 1
396 628 1
396 637 1
396 996 1
397 5 1
397 14 1
397 150 1
397 201 1
397 291 1
397 374 1
397 439 1
397 467 1
397 552 1
398 1 1
398 10 1
398 37 1
398 43 1
398 102 1
398 190 1
398 477 1
398 763 1
399 2 1
399 9 1
399 29 1
399 68 1
399 179 1
399 214 1
399 453 1
399 802 1
399 820 1
400 1 1
400 7 1
400 46 1
400 254 1
400 298 1
400 351 1
400 656 1
400 953 1
401 4 1
401 22 1
401 27 1
401 93 1
401 180 1
401 315 1
401 649 1
401 844 1
402 18 1
402 35 1
402 39 1
402 141 1
402 149 1
402 165 1
402 471 1
402 736 1
403 13 1
403 55 1
403 72 1
403 75 1
403 144 1
403 145 1
403 770 1
403 980 1
404 6 1
404 19 1
404 20 1
404 50 1
404 215 1
404 369 1
404 413 1
404 419 1
404 509 1
404 604 1
405 1 1
405 30 1
405 31 1
405 39 1
405 236 1
405 249 1
405 626 1
406 1 1
406 3 1
406 67 1
406 76 1
406 208 1
406 327 1
406 421 1
406 434 1
406 826 1
407 41 1
407 62 1
407 67 1
407 109 1
407 234 1
407 295 1
408 29 1
408 37 1
408 47 1
408 109 1
408 160 1
408 286 1
408 500 1
408 767 1
408 849 1
408 930 1
409 15 1
409 16 1
409 92 1
409 187 1
409 287 1
409 297 1
409 768 1
410 3 1
410 19 1
410 20 1
410 217 1
410 246 1
410 349 1
410 521 1
410 529 1
410 534 1
410 536 1
410 650 1
410 715 1
410 747 1
410 755 1
410 913 1
411 34 1
411 52 1
411 116 1
411 188 1
411 336 1
411 350 1
411 434 1
411 482 1
411 599 1
411 764 1
411 922 1
411 956 1
412 28 1
412 30 1
412 62 1
412 203 1
412 249 1
412 331 1
412 561 1
412 814 1
412 918 1
413 6 1
413 50 1
413 201 1
413 263 1
413 291 1
413 404 1
414 15 1
414 31 1
414 186 1
414 247 1
414 282 1
414 292 1
414 418 1
414 587 1
414 800 1
415 2 1
415 15 1
415 75 1
415 139 1
415 261 1
415 338 1
415 613 1
415 618 1
415 685 1
416 10 1
416 60 1
416 176 1
416 266 1
416 327 1
416 384 1
416 749 1
416 803 1
416 952 1
417 2 1
417 12 1
417 27 1
417 33 1
417 177 1
417 308 1
417 440 1
417 550 1
417 590 1
417 799 1
418 3 1
418 31 1
418 106 1
418 186 1
418 210 1
418 414 1
418 546 1
418 615 1
419 6 1
419 19 1
419 23 1
419 94 1
419 211 1
419 404 1
419 463 1
419 604 1
419 941 1
420 4 1
420 7 1
420 49 1
420 52 1
420 57 1
420 105 1
420 451 1
420 501 1
420 562 1
421 3 1
421 71 1
421 227 1
421 310 1
421 327 1
421 406 1
422 26 1
422 31 1
422 208 1
422 268 1
422 361 1
422 368 1
422 804 1
423 29 1
423 54 1
423 118 1
423 154 1
423 182 1
423 270 1
423 473 1
423 586 1
423 872 1
424 42 1
424 50 1
424 109 1
424 164 1
424 295 1
424 363 1
424 539 1
424 547 1
424 834 1
424 998 1
425 1 1
425 19 1
425 208 1
425 227 1
425 239 1
425 361 1
425 429 1
425 878 1
425 943 1
426 9 1
426 12 1
426 61 1
426 143 1
426 187 1
426 240 1
427 10 1
427 16 1
427 36 1
427 73 1
427 96 1
427 132 1
427 641 1
427 687 1
427 930 1
428 19 1
428 49 1
428 135 1
428 215 1
428 293 1
428 365 1
428 840 1
429 30 1
429 155 1
429 227 1
429 239 1
429 331 1
429 425 1
429 878 1
430 1 1
430 2 1
430 4 1
430 9 1
430 34 1
430 175 1
430 915 1
431 2 1
431 8 1
431 104 1
431 113 1
431 265 1
431 348 1
431 988 1
432 1 1
432 11 1
432 20 1
432 24 1
432 284 1
432 358 1
432 500 1
433 19 1
433 44 1
433 93 1
433 278 1
433 287 1
433 303 1
433 671 1
433 865 1
434 1 1
434 52 1
434 67 1
434 350 1
434 406 1
434 411 1
434 764 1
434 825 1
435 10 1
435 13 1
435 29 1
435 38 1
435 45 1
435 267 1
435 563 1
435 869 1
436 31 1
436 51 1
436 174 1
436 184 1
436 215 1
436 368 1
436 577 1
436 659 1
436 696 1
436 730 1
436 772 1
437 1 1
437 12 1
437 66 1
437 213 1
437 235 1
437 255 1
437 538 1
437 558 1
437 574 1
437 700 1
437 765 1
438 1 1
438 43 1
438 49 1
438 53 1
438 160 1
438 244 1
438 444 1
438 586 1
438 628 1
438 734 1
438 872 1
438 910 1
438 927 1
438 990 1
439 5 1
439 27 1
439 115 1
439 201 1
439 312 1
439 397 1
439 556 1
439 856 1
439 902 1
440 27 1
440 31 1
440 71 1
440 123 1
440 308 1
440 417 1
440 590 1
441 2 1
441 15 1
441 64 1
441 124 1
441 308 1
441 372 1
441 571 1
441 599 1
441 829 1
441 959 1
442 28 1
442 108 1
442 174 1
442 265 1
442 318 1
442 351 1
442 604 1
442 627 1
443 15 1
443 24 1
443 64 1
443 172 1
443 307 1
443 325 1
443 468 1
443 670 1
443 944 1
444 9 1
444 42 1
444 49 1
444 53 1
444 373 1
444 438 1
444 483 1
444 586 1
444 931 1
445 16 1
445 44 1
445 107 1
445 154 1
445 167 1
445 282 1
445 565 1
445 584 1
445 593 1
445 848 1
445 873 1
445 938 1
445 998 1
446 6 1
446 11 1
446 12 1
446 52 1
446 66 1
446 147 1
446 532 1
446 654 1
446 828 1
446 895 1
446 924 1
447 62 1
447 71 1
447 110 1
447 186 1
447 271 1
447 282 1
448 4 1
448 12 1
448 181 1
448 205 1
448 228 1
448 352 1
448 589 1
448 863 1
449 55 1
449 105 1
449 119 1
449 123 1
449 124 1
449 381 1
449 488 1
449 630 1
449 633 1
449 728 1
449 744 1
450 10 1
450 90 1
450 177 1
450 253 1
450 345 1
450 360 1
450 489 1
451 2 1
451 7 1
451 49 1
451 220 1
451 270 1
451 420 1
452 5 1
452 49 1
452 82 1
452 94 1
452 104 1
452 117 1
452 465 1
452 561 1
452 596 1
452 620 1
452 905 1
453 9 1
453 26 1
453 68 1
453 74 1
453 378 1
453 399 1
454 17 1
454 71 1
454 87 1
454 149 1
454 380 1
454 630 1
454 710 1
454 977 1
455 4 1
455 7 1
455 51 1
455 81 1
455 86 1
455 148 1
455 460 1
455 511 1
455 642 1
455 960 1
456 3 1
456 25 1
456 144 1
456 196 1
456 202 1
456 349 1
456 589 1
456 648 1
456 663 1
456 702 1
457 31 1
457 71 1
457 214 1
457 216 1
457 258 1
457 264 1
457 686 1
458 3 1
458 15 1
458 225 1
458 240 1
458 245 1
458 292 1
458 512 1
459 3 1
459 5 1
459 9 1
459 85 1
459 113 1
459 246 1
460 4 1
460 31 1
460 76 1
460 86 1
460 192 1
460 455 1
460 511 1
461 81 1
461 88 1
461 99 1
461 184 1
461 265 1
461 324 1
461 706 1
461 948 1
462 9 1
462 17 1
462 30 1
462 62 1
462 108 1
462 155 1
462 665 1
463 23 1
463 50 1
463 94 1
463 298 1
463 307 1
463 419 1
463 715 1
463 817 1
464 9 1
464 17 1
464 30 1
464 48 1
464 99 1
464 169 1
464 597 1
465 94 1
465 117 1
465 282 1
465 319 1
465 330 1
465 452 1
465 507 1
465 561 1
465 718 1
465 812 1
465 871 1
466 8 1
466 19 1
466 49 1
466 81 1
466 111 1
466 252 1
466 530 1
466 746 1
466 968 1
467 5 1
467 278 1
467 287 1
467 291 1
467 322 1
467 397 1
467 474 1
468 15 1
468 137 1
468 172 1
468 443 1
468 786 1
469 1 1
469 5 1
469 13 1
469 40 1
469 140 1
469 191 1
469 756 1
469 778 1
469 876 1
469 947 1
469 992 1
470 8 1
470 23 1
470 101 1
470 128 1
470 223 1
470 229 1
470 534 1
470 870 1
470 914 1
470 942 1
471 18 1
471 39 1
471 72 1
471 123 1
471 124 1
471 402 1
471 708 1
471 795 1
472 8 1
472 16 1
472 114 1
472 126 1
472 163 1
472 377 1
472 777 1
472 891 1
472 925 1
473 39 1
473 43 1
473 72 1
473 118 1
473 182 1
473 423 1
473 586 1
473 616 1
473 724 1
473 809 1
473 872 1
474 5 1
474 225 1
474 291 1
474 339 1
474 467 1
474 753 1
474 923 1
475 1 1
475 3 1
475 11 1
475 20 1
475 80 1
475 192 1
475 678 1
475 979 1
476 37 1
476 41 1
476 49 1
476 81 1
476 82 1
476 244 1
476 514 1
476 532 1
476 572 1
476 646 1
476 692 1
476 979 1
477 17 1
477 37 1
477 100 1
477 101 1
477 190 1
477 398 1
477 751 1
478 8 1
478 190 1
478 196 1
478 252 1
478 281 1
478 299 1
478 674 1
478 683 1
478 786 1
478 807 1
478 820 1
479 1 1
479 98 1
479 171 1
479 204 1
479 216 1
479 258 1
480 26 1
480 83 1
480 106 1
480 118 1
480 155 1
480 248 1
481 32 1
481 94 1
481 101 1
481 164 1
481 261 1
481 279 1
481 835 1
481 900 1
481 914 1
482 34 1
482 83 1
482 116 1
482 132 1
482 143 1
482 411 1
482 599 1
482 714 1
483 9 1
483 26 1
483 74 1
483 161 1
483 373 1
483 444 1
483 637 1
483 896 1
483 916 1
484 10 1
484 45 1
484 65 1
484 243 1
484 260 1
484 379 1
484 728 1
484 852 1
485 5 1
485 94 1
485 137 1
485 140 1
485 141 1
485 156 1
485 515 1
485 568 1
485 569 1
485 573 1
485 631 1
485 647 1
485 740 1
485 895 1
485 954 1
486 3 1
486 28 1
486 146 1
486 164 1
486 198 1
486 285 1
486 660 1
486 754 1
486 873 1
486 876 1
486 885 1
486 964 1
486 976 1
487 8 1
487 76 1
487 295 1
487 342 1
487 353 1
487 354 1
488 19 1
488 123 1
488 124 1
488 142 1
488 193 1
488 449 1
488 619 1
488 638 1
488 788 1
489 48 1
489 276 1
489 345 1
489 360 1
489 386 1
489 450 1
489 555 1
490 39 1
490 67 1
490 170 1
490 238 1
490 242 1
490 260 1
490 498 1
490 503 1
490 520 1
490 555 1
491 3 1
491 26 1
491 39 1
491 64 1
491 73 1
491 112 1
491 885 1
492 3 1
492 26 1
492 67 1
492 79 1
492 193 1
492 232 1
492 974 1
493 9 1
493 21 1
493 28 1
493 107 1
493 167 1
493 318 1
493 821 1
494 11 1
494 14 1
494 59 1
494 93 1
494 247 1
494 318 1
494 629 1
494 732 1
494 867 1
495 20 1
495 59 1
495 274 1
495 332 1
495 345 1
495 392 1
496 3 1
496 5 1
496 99 1
496 183 1
496 289 1
496 343 1
496 828 1
497 4 1
497 5 1
497 18 1
497 40 1
497 221 1
497 246 1
497 600 1
497 643 1
497 665 1
497 690 1
497 755 1
497 775 1
497 879 1
498 4 1
498 7 1
498 80 1
498 170 1
498 242 1
498 490 1
498 503 1
498 520 1
498 578 1
498 739 1
498 775 1
499 10 1
499 102 1
499 146 1
499 158 1
499 178 1
499 347 1
499 503 1
499 854 1
499 935 1
500 20 1
500 24 1
500 37 1
500 47 1
500 408 1
500 432 1
500 563 1
500 767 1
500 830 1
501 10 1
501 57 1
501 83 1
501 105 1
501 280 1
501 420 1
502 1 1
502 54 1
502 63 1
502 115 1
502 209 1
502 234 1
502 909 1
503 10 1
503 158 1
503 170 1
503 490 1
503 498 1
503 499 1
503 520 1
503 528 1
503 649 1
503 739 1
503 831 1
503 896 1
504 6 1
504 8 1
504 45 1
504 77 1
504 281 1
504 332 1
505 29 1
505 40 1
505 62 1
505 328 1
505 362 1
505 366 1
505 735 1
505 866 1
506 10 1
506 36 1
506 72 1
506 259 1
506 279 1
506 304 1
506 720 1
507 8 1
507 22 1
507 94 1
507 117 1
507 130 1
507 465 1
507 718 1
508 6 1
508 23 1
508 32 1
508 61 1
508 139 1
508 167 1
508 743 1
508 745 1
508 982 1
509 17 1
509 19 1
509 50 1
509 100 1
509 122 1
509 404 1
510 2 1
510 7 1
510 18 1
510 200 1
510 266 1
510 361 1
510 600 1
510 811 1
510 897 1
510 949 1
511 4 1
511 12 1
511 33 1
511 275 1
511 455 1
511 460 1
511 642 1
511 694 1
511 959 1
512 3 1
512 245 1
512 295 1
512 316 1
512 363 1
512 458 1
512 768 1
513 2 1
513 14 1
513 48 1
513 153 1
513 210 1
513 311 1
513 523 1
513 576 1
513 732 1
513 769 1
513 790 1
513 907 1
513 934 1
513 967 1
514 81 1
514 135 1
514 208 1
514 225 1
514 244 1
514 476 1
514 692 1
515 5 1
515 6 1
515 19 1
515 156 1
515 217 1
515 485 1
515 568 1
515 740 1
515 954 1
516 144 1
516 240 1
516 292 1
516 349 1
516 376 1
516 539 1
516 639 1
516 864 1
517 32 1
517 40 1
517 185 1
517 218 1
517 226 1
517 250 1
517 610 1
517 660 1
518 2 1
518 220 1
518 245 1
518 302 1
518 325 1
518 329 1
518 624 1
518 654 1
518 815 1
518 857 1
519 1 1
519 26 1
519 56 1
519 92 1
519 171 1
519 187 1
519 657 1
519 991 1
520 12 1
520 181 1
520 326 1
520 490 1
520 498 1
520 503 1
520 829 1
521 3 1
521 146 1
521 321 1
521 349 1
521 410 1
521 580 1
521 817 1
522 8 1
522 22 1
522 115 1
522 130 1
522 137 1
522 312 1
522 720 1
522 809 1
523 6 1
523 11 1
523 48 1
523 125 1
523 311 1
523 513 1
523 576 1
523 874 1
523 907 1
524 40 1
524 43 1
524 174 1
524 226 1
524 273 1
524 351 1
524 816 1
525 2 1
525 4 1
525 9 1
525 112 1
525 211 1
525 371 1
525 616 1
525 758 1
525 934 1
525 945 1
525 971 1
526 9 1
526 59 1
526 93 1
526 177 1
526 203 1
526 262 1
526 625 1
527 89 1
527 167 1
527 168 1
527 247 1
527 360 1
527 382 1
528 10 1
528 86 1
528 158 1
528 292 1
528 322 1
528 503 1
528 649 1
528 831 1
528 896 1
529 3 1
529 20 1
529 90 1
529 204 1
529 345 1
529 410 1
529 715 1
529 747 1
530 19 1
530 50 1
530 81 1
530 139 1
530 289 1
530 466 1
530 588 1
530 851 1
531 4 1
531 7 1
531 61 1
531 89 1
531 148 1
531 168 1
531 560 1
531 609 1
532 6 1
532 11 1
532 49 1
532 81 1
532 446 1
532 476 1
532 646 1
532 654 1
532 705 1
532 828 1
532 979 1
533 7 1
533 9 1
533 12 1
533 18 1
533 29 1
533 62 1
533 986 1
534 128 1
534 217 1
534 223 1
534 246 1
534 410 1
534 470 1
534 650 1
534 893 1
535 6 1
535 41 1
535 66 1
535 139 1
535 360 1
535 382 1
535 787 1
535 796 1
536 5 1
536 10 1
536 19 1
536 156 1
536 217 1
536 410 1
536 755 1
536 823 1
536 882 1
536 994 1
537 5 1
537 11 1
537 268 1
537 277 1
537 357 1
537 367 1
537 889 1
537 932 1
538 1 1
538 31 1
538 159 1
538 213 1
538 437 1
539 42 1
539 50 1
539 292 1
539 349 1
539 424 1
539 516 1
539 593 1
540 10 1
540 17 1
540 24 1
540 48 1
540 252 1
540 602 1
540 745 1
540 799 1
540 928 1
541 5 1
541 8 1
541 75 1
541 300 1
541 305 1
541 375 1
541 762 1
542 10 1
542 22 1
542 84 1
542 166 1
542 256 1
542 375 1
542 756 1
542 797 1
543 2 1
543 8 1
543 273 1
543 304 1
543 308 1
543 372 1
543 592 1
543 827 1
544 16 1
544 124 1
544 185 1
544 188 1
544 383 1
544 393 1
544 596 1
544 611 1
544 652 1
544 778 1
544 824 1
545 1 1
545 26 1
545 122 1
545 150 1
545 162 1
545 374 1
545 564 1
545 717 1
545 987 1
546 3 1
546 30 1
546 210 1
546 219 1
546 237 1
546 418 1
547 42 1
547 130 1
547 164 1
547 196 1
547 257 1
547 424 1
547 713 1
547 834 1
548 4 1
548 7 1
548 80 1
548 202 1
548 218 1
548 391 1
548 757 1
548 875 1
549 22 1
549 55 1
549 144 1
549 236 1
549 281 1
549 390 1
550 2 1
550 8 1
550 12 1
550 14 1
550 115 1
550 417 1
550 590 1
550 685 1
550 730 1
550 806 1
551 11 1
551 132 1
551 172 1
551 189 1
551 302 1
551 387 1
551 937 1
551 983 1
552 8 1
552 14 1
552 150 1
552 332 1
552 345 1
552 397 1
552 947 1
553 9 1
553 10 1
553 22 1
553 24 1
553 37 1
553 127 1
553 830 1
553 870 1
553 897 1
554 5 1
554 10 1
554 71 1
554 216 1
554 345 1
554 392 1
555 48 1
555 67 1
555 260 1
555 276 1
555 489 1
555 490 1
556 3 1
556 27 1
556 58 1
556 255 1
556 312 1
556 439 1
556 800 1
556 902 1
556 918 1
556 948 1
557 1 1
557 15 1
557 16 1
557 145 1
557 187 1
557 188 1
557 571 1
557 664 1
558 5 1
558 12 1
558 66 1
558 162 1
558 379 1
558 437 1
558 698 1
558 700 1
558 765 1
558 771 1
558 836 1
558 868 1
558 970 1
559 39 1
559 43 1
559 165 1
559 206 1
559 320 1
559 356 1
559 564 1
560 6 1
560 61 1
560 77 1
560 89 1
560 257 1
560 531 1
560 642 1
560 781 1
560 962 1
561 30 1
561 117 1
561 331 1
561 412 1
561 452 1
561 465 1
561 620 1
561 701 1
561 814 1
562 6 1
562 7 1
562 52 1
562 334 1
562 341 1
562 420 1
562 632 1
562 684 1
563 29 1
563 37 1
563 38 1
563 47 1
563 435 1
563 500 1
563 830 1
563 898 1
564 1 1
564 26 1
564 206 1
564 356 1
564 545 1
564 559 1
564 987 1
565 16 1
565 55 1
565 107 1
565 324 1
565 382 1
565 445 1
565 593 1
565 938 1
565 997 1
566 5 1
566 9 1
566 25 1
566 209 1
566 314 1
566 373 1
566 842 1
567 53 1
567 120 1
567 152 1
567 176 1
567 317 1
567 370 1
568 63 1
568 84 1
568 133 1
568 156 1
568 485 1
568 515 1
568 573 1
568 954 1
569 1 1
569 7 1
569 109 1
569 140 1
569 156 1
569 485 1
569 644 1
569 736 1
569 946 1
570 10 1
570 29 1
570 109 1
570 231 1
570 284 1
570 316 1
570 880 1
571 2 1
571 15 1
571 187 1
571 441 1
571 557 1
571 594 1
571 613 1
571 787 1
572 1 1
572 2 1
572 16 1
572 37 1
572 82 1
572 476 1
572 574 1
573 156 1
573 200 1
573 232 1
573 385 1
573 485 1
573 568 1
573 938 1
574 37 1
574 66 1
574 82 1
574 235 1
574 437 1
574 572 1
575 58 1
575 60 1
575 118 1
575 224 1
575 306 1
575 342 1
576 20 1
576 48 1
576 53 1
576 242 1
576 513 1
576 523 1
577 31 1
577 93 1
577 199 1
577 303 1
577 368 1
577 436 1
578 170 1
578 242 1
578 243 1
578 259 1
578 371 1
578 498 1
578 658 1
578 775 1
578 780 1
579 11 1
579 12 1
579 94 1
579 103 1
579 125 1
579 323 1
580 1 1
580 3 1
580 93 1
580 146 1
580 158 1
580 521 1
581 1 1
581 6 1
581 39 1
581 56 1
581 85 1
581 260 1
581 614 1
581 802 1
582 9 1
582 10 1
582 15 1
582 48 1
582 83 1
582 194 1
582 675 1
582 847 1
583 4 1
583 26 1
583 31 1
583 52 1
583 123 1
583 256 1
583 742 1
584 9 1
584 16 1
584 92 1
584 167 1
584 237 1
584 445 1
584 789 1
585 14 1
585 29 1
585 56 1
585 104 1
585 116 1
585 346 1
585 594 1
585 739 1
585 958 1
586 53 1
586 118 1
586 423 1
586 438 1
586 444 1
586 473 1
586 872 1
587 7 1
587 39 1
587 179 1
587 247 1
587 292 1
587 414 1
587 705 1
587 800 1
587 891 1
587 976 1
588 31 1
588 50 1
588 111 1
588 157 1
588 289 1
588 530 1
588 703 1
588 851 1
589 25 1
589 196 1
589 228 1
589 352 1
589 448 1
589 456 1
589 663 1
590 12 1
590 27 1
590 308 1
590 417 1
590 440 1
590 550 1
590 635 1
591 9 1
591 55 1
591 134 1
591 213 1
591 255 1
591 388 1
592 8 1
592 18 1
592 249 1
592 308 1
592 361 1
592 543 1
593 16 1
593 292 1
593 349 1
593 445 1
593 539 1
593 565 1
593 938 1
593 998 1
594 14 1
594 15 1
594 187 1
594 346 1
594 571 1
594 585 1
594 666 1
595 3 1
595 6 1
595 41 1
595 249 1
595 363 1
595 378 1
595 669 1
595 708 1
595 825 1
595 890 1
595 894 1
595 963 1
596 5 1
596 117 1
596 185 1
596 393 1
596 452 1
596 544 1
596 652 1
596 971 1
597 17 1
597 64 1
597 99 1
597 121 1
597 186 1
597 464 1
597 777 1
598 62 1
598 67 1
598 208 1
598 225 1
598 298 1
598 339 1
598 965 1
599 2 1
599 34 1
599 64 1
599 411 1
599 441 1
599 482 1
599 922 1
599 960 1
600 18 1
600 200 1
600 221 1
600 266 1
600 497 1
600 510 1
600 618 1
600 699 1
601 9 1
601 16 1
601 36 1
601 60 1
601 233 1
601 310 1
601 687 1
601 862 1
601 987 1
602 10 1
602 17 1
602 39 1
602 179 1
602 214 1
602 540 1
602 818 1
603 2 1
603 5 1
603 45 1
603 197 1
603 265 1
603 305 1
603 760 1
604 6 1
604 174 1
604 351 1
604 404 1
604 419 1
604 442 1
605 10 1
605 13 1
605 17 1
605 43 1
605 165 1
605 226 1
605 975 1
605 986 1
606 9 1
606 121 1
606 149 1
606 195 1
606 234 1
606 385 1
606 672 1
607 2 1
607 10 1
607 146 1
607 170 1
607 214 1
607 238 1
607 788 1
607 908 1
608 1 1
608 41 1
608 44 1
608 93 1
608 278 1
608 322 1
608 961 1
609 2 1
609 7 1
609 8 1
609 148 1
609 375 1
609 531 1
610 40 1
610 84 1
610 185 1
610 197 1
610 218 1
610 517 1
611 6 1
611 188 1
611 215 1
611 286 1
611 383 1
611 544 1
611 877 1
611 879 1
611 1000 1
612 3 1
612 11 1
612 14 1
612 27 1
612 177 1
612 840 1
612 843 1
613 2 1
613 15 1
613 139 1
613 338 1
613 415 1
613 571 1
613 631 1
613 680 1
613 787 1
613 814 1
613 984 1
614 1 1
614 58 1
614 60 1
614 85 1
614 266 1
614 581 1
614 668 1
614 678 1
614 813 1
614 993 1
615 39 1
615 72 1
615 106 1
615 210 1
615 304 1
615 418 1
616 9 1
616 39 1
616 72 1
616 211 1
616 473 1
616 525 1
616 758 1
616 807 1
616 892 1
616 934 1
617 20 1
617 53 1
617 82 1
617 104 1
617 152 1
617 245 1
617 811 1
618 2 1
618 15 1
618 200 1
618 266 1
618 415 1
618 600 1
618 699 1
619 8 1
619 17 1
619 19 1
619 142 1
619 229 1
619 488 1
620 49 1
620 82 1
620 117 1
620 452 1
620 561 1
620 701 1
620 905 1
621 1 1
621 40 1
621 55 1
621 123 1
621 129 1
621 163 1
621 867 1
622 18 1
622 62 1
622 72 1
622 206 1
622 221 1
622 358 1
622 655 1
622 701 1
623 24 1
623 37 1
623 147 1
623 317 1
623 325 1
623 329 1
623 774 1
624 85 1
624 151 1
624 325 1
624 329 1
624 392 1
624 518 1
624 654 1
624 683 1
624 707 1
624 888 1
625 9 1
625 59 1
625 60 1
625 98 1
625 119 1
625 526 1
625 985 1
626 2 1
626 31 1
626 39 1
626 139 1
626 338 1
626 405 1
626 824 1
626 906 1
627 28 1
627 48 1
627 108 1
627 311 1
627 442 1
627 850 1
628 49 1
628 65 1
628 107 1
628 244 1
628 396 1
628 438 1
628 734 1
628 872 1
628 990 1
629 11 1
629 12 1
629 33 1
629 69 1
629 318 1
629 494 1
629 867 1
630 55 1
630 71 1
630 124 1
630 149 1
630 449 1
630 454 1
630 744 1
630 837 1
631 2 1
631 5 1
631 15 1
631 140 1
631 485 1
631 613 1
631 647 1
631 680 1
631 814 1
632 6 1
632 9 1
632 54 1
632 270 1
632 341 1
632 562 1
632 772 1
632 951 1
633 94 1
633 105 1
633 119 1
633 135 1
633 208 1
633 449 1
634 21 1
634 61 1
634 76 1
634 87 1
634 89 1
634 295 1
635 14 1
635 27 1
635 141 1
635 308 1
635 335 1
635 590 1
635 681 1
635 866 1
636 4 1
636 26 1
636 69 1
636 86 1
636 91 1
636 331 1
636 798 1
636 970 1
637 26 1
637 65 1
637 161 1
637 248 1
637 396 1
637 483 1
638 4 1
638 15 1
638 123 1
638 124 1
638 339 1
638 488 1
639 35 1
639 117 1
639 144 1
639 173 1
639 349 1
639 516 1
640 3 1
640 23 1
640 25 1
640 32 1
640 101 1
640 200 1
640 719 1
641 27 1
641 36 1
641 53 1
641 73 1
641 353 1
641 427 1
641 801 1
641 926 1
641 930 1
642 4 1
642 6 1
642 77 1
642 455 1
642 511 1
642 560 1
642 694 1
642 781 1
642 960 1
643 4 1
643 26 1
643 136 1
643 171 1
643 246 1
643 497 1
643 738 1
643 757 1
644 11 1
644 140 1
644 156 1
644 184 1
644 250 1
644 569 1
644 805 1
644 904 1
645 49 1
645 56 1
645 136 1
645 143 1
645 171 1
645 173 1
645 831 1
645 861 1
645 949 1
646 3 1
646 45 1
646 49 1
646 267 1
646 476 1
646 532 1
646 859 1
646 975 1
647 5 1
647 40 1
647 72 1
647 123 1
647 485 1
647 631 1
647 895 1
648 3 1
648 26 1
648 31 1
648 144 1
648 329 1
648 456 1
649 4 1
649 10 1
649 180 1
649 401 1
649 503 1
649 528 1
649 831 1
649 844 1
650 100 1
650 121 1
650 246 1
650 276 1
650 410 1
650 534 1
650 743 1
650 793 1
651 2 1
651 6 1
651 167 1
651 261 1
651 338 1
651 341 1
651 989 1
652 16 1
652 107 1
652 185 1
652 248 1
652 544 1
652 596 1
652 778 1
653 5 1
653 11 1
653 86 1
653 91 1
653 128 1
653 268 1
653 702 1
653 711 1
654 6 1
654 325 1
654 446 1
654 518 1
654 532 1
654 624 1
654 828 1
654 895 1
655 7 1
655 19 1
655 53 1
655 72 1
655 221 1
655 622 1
655 958 1
656 1 1
656 46 1
656 78 1
656 342 1
656 354 1
656 400 1
656 903 1
657 1 1
657 17 1
657 56 1
657 155 1
657 171 1
657 519 1
657 818 1
658 3 1
658 182 1
658 259 1
658 356 1
658 371 1
658 578 1
658 951 1
659 5 1
659 49 1
659 51 1
659 74 1
659 184 1
659 436 1
659 822 1
660 3 1
660 146 1
660 185 1
660 250 1
660 486 1
660 517 1
660 873 1
660 885 1
661 1 1
661 14 1
661 28 1
661 216 1
661 328 1
661 362 1
661 972 1
662 3 1
662 4 1
662 60 1
662 131 1
662 296 1
662 383 1
662 919 1
663 7 1
663 25 1
663 53 1
663 82 1
663 456 1
663 589 1
663 702 1
663 936 1
664 4 1
664 7 1
664 16 1
664 46 1
664 188 1
664 557 1
665 4 1
665 5 1
665 9 1
665 108 1
665 462 1
665 497 1
665 667 1
665 973 1
666 10 1
666 14 1
666 58 1
666 79 1
666 346 1
666 594 1
666 722 1
667 1 1
667 9 1
667 108 1
667 146 1
667 238 1
667 665 1
667 973 1
668 34 1
668 58 1
668 59 1
668 175 1
668 266 1
668 614 1
668 694 1
668 813 1
668 993 1
669 6 1
669 37 1
669 77 1
669 83 1
669 363 1
669 595 1
669 708 1
670 8 1
670 24 1
670 207 1
670 220 1
670 325 1
670 443 1
670 731 1
670 838 1
671 19 1
671 37 1
671 127 1
671 283 1
671 287 1
671 433 1
671 753 1
672 21 1
672 25 1
672 130 1
672 149 1
672 385 1
672 606 1
673 6 1
673 125 1
673 181 1
673 191 1
673 200 1
673 320 1
674 8 1
674 42 1
674 164 1
674 198 1
674 252 1
674 478 1
674 683 1
674 820 1
675 7 1
675 9 1
675 12 1
675 48 1
675 235 1
675 582 1
675 759 1
676 22 1
676 58 1
676 98 1
676 137 1
676 172 1
676 224 1
677 24 1
677 31 1
677 44 1
677 355 1
677 379 1
677 389 1
677 725 1
678 1 1
678 3 1
678 85 1
678 192 1
678 475 1
678 614 1
678 979 1
679 4 1
679 7 1
679 25 1
679 33 1
679 69 1
679 262 1
679 827 1
679 841 1
680 2 1
680 15 1
680 43 1
680 72 1
680 613 1
680 631 1
680 814 1
681 7 1
681 141 1
681 249 1
681 335 1
681 361 1
681 635 1
682 3 1
682 6 1
682 10 1
682 70 1
682 206 1
682 267 1
683 252 1
683 325 1
683 329 1
683 478 1
683 624 1
683 674 1
683 820 1
683 888 1
684 34 1
684 56 1
684 188 1
684 334 1
684 341 1
684 562 1
684 689 1
684 766 1
684 803 1
684 851 1
685 2 1
685 12 1
685 75 1
685 415 1
685 550 1
685 730 1
685 860 1
685 913 1
686 12 1
686 19 1
686 49 1
686 71 1
686 216 1
686 457 1
687 9 1
687 10 1
687 16 1
687 60 1
687 427 1
687 601 1
688 9 1
688 64 1
688 84 1
688 121 1
688 264 1
688 313 1
688 695 1
689 34 1
689 114 1
689 145 1
689 188 1
689 684 1
689 709 1
689 716 1
689 803 1
690 10 1
690 40 1
690 221 1
690 305 1
690 327 1
690 497 1
690 879 1
691 24 1
691 65 1
691 70 1
691 201 1
691 245 1
691 315 1
692 81 1
692 139 1
692 189 1
692 289 1
692 476 1
692 514 1
693 92 1
693 118 1
693 120 1
693 199 1
693 342 1
693 370 1
694 4 1
694 59 1
694 175 1
694 511 1
694 642 1
694 668 1
695 16 1
695 84 1
695 106 1
695 170 1
695 264 1
695 688 1
695 731 1
696 31 1
696 71 1
696 215 1
696 221 1
696 227 1
696 436 1
696 772 1
697 5 1
697 54 1
697 94 1
697 127 1
697 208 1
697 283 1
697 894 1
698 12 1
698 66 1
698 258 1
698 345 1
698 360 1
698 558 1
698 771 1
698 812 1
698 836 1
698 868 1
699 11 1
699 143 1
699 231 1
699 266 1
699 600 1
699 618 1
700 66 1
700 80 1
700 81 1
700 86 1
700 437 1
700 558 1
700 888 1
700 950 1
701 62 1
701 117 1
701 358 1
701 561 1
701 620 1
701 622 1
702 11 1
702 25 1
702 86 1
702 456 1
702 653 1
702 663 1
702 711 1
702 936 1
702 965 1
703 26 1
703 39 1
703 111 1
703 157 1
703 193 1
703 588 1
704 1 1
704 2 1
704 5 1
704 8 1
704 117 1
704 270 1
704 957 1
705 6 1
705 11 1
705 39 1
705 179 1
705 532 1
705 587 1
705 891 1
706 58 1
706 90 1
706 184 1
706 204 1
706 265 1
706 461 1
706 935 1
707 1 1
707 151 1
707 238 1
707 242 1
707 392 1
707 624 1
707 791 1
708 6 1
708 123 1
708 124 1
708 471 1
708 595 1
708 669 1
709 26 1
709 57 1
709 114 1
709 188 1
709 378 1
709 689 1
710 17 1
710 106 1
710 166 1
710 176 1
710 380 1
710 454 1
710 977 1
711 16 1
711 45 1
711 86 1
711 219 1
711 653 1
711 702 1
711 884 1
712 2 1
712 4 1
712 5 1
712 28 1
712 142 1
712 174 1
712 735 1
712 766 1
712 887 1
713 14 1
713 130 1
713 171 1
713 196 1
713 216 1
713 547 1
713 765 1
713 790 1
714 57 1
714 74 1
714 83 1
714 132 1
714 272 1
714 482 1
715 3 1
715 50 1
715 298 1
715 410 1
715 463 1
715 529 1
715 747 1
716 1 1
716 145 1
716 170 1
716 188 1
716 294 1
716 689 1
716 774 1
717 63 1
717 122 1
717 150 1
717 191 1
717 224 1
717 545 1
718 93 1
718 94 1
718 138 1
718 199 1
718 465 1
718 507 1
718 810 1
718 871 1
719 3 1
719 31 1
719 76 1
719 200 1
719 353 1
719 640 1
719 832 1
720 115 1
720 279 1
720 304 1
720 312 1
720 506 1
720 522 1
721 11 1
721 29 1
721 37 1
721 109 1
721 387 1
721 792 1
722 10 1
722 24 1
722 79 1
722 90 1
722 159 1
722 666 1
722 845 1
723 5 1
723 128 1
723 142 1
723 193 1
723 309 1
723 325 1
723 917 1
724 2 1
724 39 1
724 43 1
724 319 1
724 377 1
724 473 1
724 809 1
725 15 1
725 31 1
725 92 1
725 187 1
725 355 1
725 677 1
726 8 1
726 87 1
726 163 1
726 245 1
726 307 1
726 325 1
727 8 1
727 34 1
727 51 1
727 174 1
727 222 1
727 269 1
727 791 1
727 921 1
727 988 1
728 55 1
728 123 1
728 243 1
728 379 1
728 449 1
728 484 1
728 852 1
729 5 1
729 17 1
729 44 1
729 58 1
729 120 1
729 138 1
729 952 1
730 12 1
730 215 1
730 368 1
730 436 1
730 550 1
730 685 1
730 860 1
731 24 1
731 106 1
731 170 1
731 325 1
731 670 1
731 695 1
731 955 1
731 990 1
732 14 1
732 59 1
732 210 1
732 311 1
732 494 1
732 513 1
732 769 1
732 886 1
732 934 1
732 967 1
733 3 1
733 69 1
733 73 1
733 86 1
733 273 1
733 304 1
734 61 1
734 167 1
734 168 1
734 244 1
734 438 1
734 628 1
734 910 1
734 990 1
735 4 1
735 29 1
735 142 1
735 328 1
735 505 1
735 712 1
735 887 1
736 7 1
736 39 1
736 109 1
736 165 1
736 402 1
736 569 1
736 999 1
737 1 1
737 42 1
737 57 1
737 105 1
737 178 1
737 347 1
737 846 1
738 2 1
738 136 1
738 171 1
738 191 1
738 266 1
738 643 1
739 104 1
739 170 1
739 346 1
739 498 1
739 503 1
739 585 1
739 958 1
740 5 1
740 44 1
740 73 1
740 79 1
740 485 1
740 515 1
741 3 1
741 68 1
741 81 1
741 99 1
741 109 1
741 110 1
741 957 1
742 31 1
742 118 1
742 123 1
742 154 1
742 263 1
742 583 1
743 61 1
743 121 1
743 167 1
743 276 1
743 508 1
743 650 1
743 745 1
744 49 1
744 53 1
744 124 1
744 151 1
744 449 1
744 630 1
744 837 1
745 48 1
745 167 1
745 252 1
745 508 1
745 540 1
745 743 1
745 799 1
746 19 1
746 49 1
746 135 1
746 212 1
746 366 1
746 466 1
746 834 1
746 968 1
747 129 1
747 211 1
747 359 1
747 410 1
747 529 1
747 715 1
748 12 1
748 18 1
748 62 1
748 108 1
748 110 1
748 254 1
748 850 1
748 912 1
749 58 1
749 60 1
749 131 1
749 204 1
749 384 1
749 416 1
749 980 1
750 32 1
750 43 1
750 94 1
750 103 1
750 226 1
750 819 1
750 833 1
750 974 1
751 17 1
751 87 1
751 100 1
751 149 1
751 385 1
751 477 1
751 849 1
751 871 1
752 15 1
752 20 1
752 27 1
752 59 1
752 137 1
752 207 1
752 919 1
753 5 1
753 37 1
753 283 1
753 339 1
753 474 1
753 671 1
754 1 1
754 28 1
754 160 1
754 198 1
754 330 1
754 486 1
754 876 1
754 911 1
755 5 1
755 19 1
755 246 1
755 410 1
755 497 1
755 536 1
755 913 1
756 10 1
756 13 1
756 140 1
756 166 1
756 469 1
756 542 1
756 992 1
757 7 1
757 26 1
757 136 1
757 202 1
757 548 1
757 643 1
758 211 1
758 225 1
758 245 1
758 315 1
758 525 1
758 616 1
759 7 1
759 73 1
759 118 1
759 182 1
759 235 1
759 675 1
759 839 1
760 2 1
760 15 1
760 40 1
760 305 1
760 366 1
760 603 1
761 3 1
761 24 1
761 167 1
761 307 1
761 334 1
761 341 1
761 972 1
762 48 1
762 121 1
762 252 1
762 305 1
762 375 1
762 541 1
763 1 1
763 17 1
763 102 1
763 121 1
763 122 1
763 398 1
763 902 1
764 22 1
764 172 1
764 288 1
764 350 1
764 411 1
764 434 1
764 925 1
765 12 1
765 130 1
765 196 1
765 437 1
765 558 1
765 713 1
765 790 1
766 2 1
766 28 1
766 34 1
766 56 1
766 684 1
766 712 1
766 782 1
767 47 1
767 71 1
767 84 1
767 123 1
767 408 1
767 500 1
767 849 1
767 930 1
768 16 1
768 287 1
768 316 1
768 363 1
768 409 1
768 512 1
769 177 1
769 210 1
769 272 1
769 308 1
769 513 1
769 732 1
769 886 1
769 934 1
770 55 1
770 72 1
770 184 1
770 228 1
770 265 1
770 403 1
770 950 1
770 980 1
771 8 1
771 12 1
771 22 1
771 23 1
771 558 1
771 698 1
771 836 1
771 882 1
771 970 1
771 981 1
772 9 1
772 215 1
772 270 1
772 436 1
772 632 1
772 696 1
772 951 1
773 3 1
773 6 1
773 7 1
773 25 1
773 66 1
773 235 1
774 1 1
774 37 1
774 294 1
774 317 1
774 623 1
774 716 1
774 854 1
774 890 1
774 978 1
775 18 1
775 40 1
775 242 1
775 497 1
775 498 1
775 578 1
776 3 1
776 21 1
776 31 1
776 295 1
776 353 1
776 394 1
777 121 1
777 126 1
777 163 1
777 186 1
777 472 1
777 597 1
778 40 1
778 185 1
778 191 1
778 469 1
778 544 1
778 652 1
779 19 1
779 75 1
779 82 1
779 145 1
779 300 1
779 337 1
779 801 1
780 31 1
780 84 1
780 243 1
780 313 1
780 371 1
780 578 1
781 11 1
781 19 1
781 47 1
781 77 1
781 560 1
781 642 1
782 27 1
782 34 1
782 56 1
782 262 1
782 272 1
782 766 1
783 29 1
783 42 1
783 51 1
783 73 1
783 86 1
783 292 1
783 899 1
784 23 1
784 128 1
784 211 1
784 212 1
784 338 1
784 366 1
784 855 1
785 1 1
785 14 1
785 38 1
785 158 1
785 185 1
785 374 1
785 955 1
786 15 1
786 172 1
786 252 1
786 281 1
786 468 1
786 478 1
786 807 1
787 2 1
787 6 1
787 360 1
787 535 1
787 571 1
787 613 1
787 796 1
788 2 1
788 142 1
788 193 1
788 214 1
788 488 1
788 607 1
788 908 1
789 92 1
789 166 1
789 237 1
789 248 1
789 380 1
789 584 1
790 48 1
790 130 1
790 210 1
790 513 1
790 713 1
790 765 1
790 833 1
790 838 1
791 34 1
791 222 1
791 238 1
791 242 1
791 707 1
791 727 1
792 2 1
792 3 1
792 11 1
792 32 1
792 387 1
792 721 1
793 3 1
793 100 1
793 121 1
793 285 1
793 291 1
793 650 1
794 15 1
794 22 1
794 43 1
794 63 1
794 133 1
794 281 1
795 18 1
795 39 1
795 83 1
795 143 1
795 231 1
795 471 1
795 1000 1
796 4 1
796 6 1
796 9 1
796 169 1
796 535 1
796 787 1
797 8 1
797 46 1
797 84 1
797 91 1
797 256 1
797 542 1
798 4 1
798 53 1
798 97 1
798 120 1
798 331 1
798 636 1
798 970 1
798 983 1
799 27 1
799 48 1
799 177 1
799 417 1
799 540 1
799 745 1
800 58 1
800 255 1
800 292 1
800 414 1
800 556 1
800 587 1
801 53 1
801 75 1
801 300 1
801 353 1
801 641 1
801 779 1
802 2 1
802 39 1
802 56 1
802 214 1
802 399 1
802 581 1
802 820 1
803 34 1
803 60 1
803 266 1
803 416 1
803 684 1
803 689 1
803 851 1
803 887 1
804 4 1
804 12 1
804 26 1
804 147 1
804 368 1
804 422 1
805 3 1
805 88 1
805 89 1
805 184 1
805 250 1
805 644 1
805 904 1
805 944 1
805 962 1
806 14 1
806 76 1
806 115 1
806 157 1
806 192 1
806 550 1
807 39 1
807 72 1
807 281 1
807 478 1
807 616 1
807 786 1
808 19 1
808 35 1
808 81 1
808 96 1
808 137 1
808 141 1
809 8 1
809 39 1
809 312 1
809 473 1
809 522 1
809 724 1
810 93 1
810 138 1
810 162 1
810 268 1
810 357 1
810 718 1
811 7 1
811 82 1
811 104 1
811 361 1
811 510 1
811 617 1
811 869 1
812 319 1
812 330 1
812 345 1
812 360 1
812 465 1
812 698 1
813 53 1
813 96 1
813 266 1
813 317 1
813 614 1
813 668 1
814 30 1
814 412 1
814 561 1
814 613 1
814 631 1
814 680 1
815 176 1
815 199 1
815 245 1
815 329 1
815 370 1
815 518 1
816 26 1
816 174 1
816 215 1
816 351 1
816 368 1
816 524 1
817 3 1
817 50 1
817 307 1
817 349 1
817 463 1
817 521 1
818 1 1
818 10 1
818 17 1
818 602 1
818 657 1
819 32 1
819 90 1
819 161 1
819 195 1
819 226 1
819 750 1
819 833 1
820 214 1
820 399 1
820 478 1
820 674 1
820 683 1
820 802 1
821 3 1
821 45 1
821 107 1
821 167 1
821 210 1
821 493 1
822 1 1
822 11 1
822 49 1
822 71 1
822 74 1
822 659 1
823 5 1
823 122 1
823 150 1
823 156 1
823 389 1
823 536 1
824 2 1
824 16 1
824 139 1
824 383 1
824 544 1
824 626 1
825 41 1
825 52 1
825 350 1
825 363 1
825 434 1
825 595 1
825 890 1
825 894 1
825 901 1
826 3 1
826 10 1
826 76 1
826 106 1
826 259 1
826 406 1
826 969 1
827 2 1
827 7 1
827 25 1
827 304 1
827 543 1
827 679 1
828 5 1
828 289 1
828 446 1
828 496 1
828 532 1
828 654 1
828 895 1
829 124 1
829 181 1
829 308 1
829 326 1
829 441 1
829 520 1
830 9 1
830 37 1
830 500 1
830 553 1
830 563 1
831 143 1
831 173 1
831 503 1
831 528 1
831 645 1
831 649 1
832 3 1
832 39 1
832 200 1
832 304 1
832 350 1
832 719 1
832 904 1
832 985 1
833 32 1
833 48 1
833 210 1
833 750 1
833 790 1
833 819 1
833 838 1
834 42 1
834 135 1
834 212 1
834 424 1
834 547 1
834 746 1
835 17 1
835 99 1
835 108 1
835 164 1
835 261 1
835 481 1
835 963 1
836 6 1
836 21 1
836 89 1
836 558 1
836 698 1
836 771 1
836 868 1
836 970 1
837 59 1
837 124 1
837 175 1
837 203 1
837 630 1
837 744 1
837 908 1
838 48 1
838 207 1
838 220 1
838 670 1
838 790 1
838 833 1
839 51 1
839 73 1
839 142 1
839 182 1
839 269 1
839 759 1
839 982 1
840 14 1
840 27 1
840 135 1
840 365 1
840 428 1
840 612 1
840 847 1
841 4 1
841 39 1
841 69 1
841 279 1
841 355 1
841 679 1
842 1 1
842 5 1
842 9 1
842 126 1
842 159 1
842 566 1
843 11 1
843 14 1
843 64 1
843 85 1
843 186 1
843 612 1
844 4 1
844 10 1
844 16 1
844 156 1
844 401 1
844 649 1
844 928 1
845 3 1
845 6 1
845 24 1
845 159 1
845 357 1
845 722 1
846 57 1
846 74 1
846 90 1
846 105 1
846 195 1
846 737 1
847 15 1
847 48 1
847 135 1
847 365 1
847 582 1
847 840 1
847 953 1
848 44 1
848 84 1
848 123 1
848 256 1
848 282 1
848 445 1
849 47 1
849 149 1
849 385 1
849 408 1
849 751 1
849 767 1
849 930 1
850 12 1
850 28 1
850 108 1
850 254 1
850 627 1
850 748 1
851 34 1
851 289 1
851 530 1
851 588 1
851 684 1
851 803 1
852 89 1
852 167 1
852 334 1
852 379 1
852 484 1
852 728 1
853 3 1
853 93 1
853 246 1
853 278 1
853 280 1
853 303 1
853 859 1
854 37 1
854 102 1
854 317 1
854 347 1
854 499 1
854 774 1
854 890 1
854 935 1
854 978 1
855 17 1
855 23 1
855 24 1
855 60 1
855 128 1
855 784 1
856 5 1
856 8 1
856 53 1
856 201 1
856 297 1
856 439 1
857 15 1
857 220 1
857 236 1
857 302 1
857 362 1
857 518 1
858 3 1
858 4 1
858 51 1
858 97 1
858 184 1
858 192 1
859 3 1
859 45 1
859 246 1
859 278 1
859 646 1
859 853 1
860 8 1
860 12 1
860 36 1
860 283 1
860 685 1
860 730 1
861 10 1
861 30 1
861 49 1
861 166 1
861 173 1
861 645 1
862 13 1
862 16 1
862 29 1
862 34 1
862 36 1
862 601 1
863 7 1
863 19 1
863 51 1
863 181 1
863 205 1
863 448 1
863 969 1
864 2 1
864 4 1
864 75 1
864 349 1
864 376 1
864 516 1
865 5 1
865 9 1
865 19 1
865 278 1
865 289 1
865 433 1
865 945 1
866 14 1
866 29 1
866 62 1
866 141 1
866 505 1
866 635 1
867 40 1
867 123 1
867 318 1
867 494 1
867 621 1
867 629 1
868 22 1
868 120 1
868 199 1
868 558 1
868 698 1
868 836 1
869 10 1
869 45 1
869 82 1
869 104 1
869 435 1
869 811 1
870 23 1
870 37 1
870 127 1
870 229 1
870 470 1
870 553 1
870 914 1
870 942 1
871 87 1
871 94 1
871 149 1
871 465 1
871 718 1
871 751 1
872 49 1
872 423 1
872 438 1
872 473 1
872 586 1
872 628 1
873 3 1
873 107 1
873 167 1
873 445 1
873 486 1
873 660 1
873 964 1
874 11 1
874 14 1
874 119 1
874 125 1
874 381 1
874 523 1
875 5 1
875 7 1
875 227 1
875 239 1
875 391 1
875 548 1
876 1 1
876 28 1
876 40 1
876 469 1
876 486 1
876 754 1
877 6 1
877 16 1
877 201 1
877 215 1
877 251 1
877 611 1
878 3 1
878 103 1
878 239 1
878 356 1
878 425 1
878 429 1
879 40 1
879 215 1
879 286 1
879 497 1
879 611 1
879 690 1
880 19 1
880 96 1
880 97 1
880 109 1
880 316 1
880 570 1
880 927 1
881 5 1
881 8 1
881 54 1
881 174 1
881 256 1
881 345 1
882 5 1
882 10 1
882 22 1
882 23 1
882 536 1
882 771 1
882 994 1
883 37 1
883 56 1
883 67 1
883 83 1
883 194 1
883 260 1
884 6 1
884 45 1
884 62 1
884 219 1
884 358 1
884 711 1
885 3 1
885 64 1
885 146 1
885 486 1
885 491 1
885 660 1
886 4 1
886 56 1
886 131 1
886 210 1
886 732 1
886 769 1
887 60 1
887 142 1
887 266 1
887 712 1
887 735 1
887 803 1
888 80 1
888 81 1
888 329 1
888 624 1
888 683 1
888 700 1
888 950 1
889 9 1
889 75 1
889 201 1
889 268 1
889 357 1
889 537 1
889 939 1
890 37 1
890 363 1
890 595 1
890 774 1
890 825 1
890 854 1
890 894 1
890 901 1
890 963 1
890 978 1
891 8 1
891 39 1
891 114 1
891 472 1
891 587 1
891 705 1
891 925 1
892 9 1
892 200 1
892 211 1
892 266 1
892 320 1
892 616 1
893 26 1
893 90 1
893 169 1
893 217 1
893 246 1
893 534 1
894 94 1
894 208 1
894 595 1
894 697 1
894 825 1
894 890 1
894 901 1
894 963 1
895 5 1
895 446 1
895 485 1
895 647 1
895 654 1
895 828 1
896 26 1
896 74 1
896 158 1
896 483 1
896 503 1
896 528 1
896 916 1
897 2 1
897 10 1
897 22 1
897 266 1
897 510 1
897 553 1
897 949 1
898 2 1
898 7 1
898 27 1
898 37 1
898 47 1
898 563 1
899 73 1
899 79 1
899 86 1
899 165 1
899 313 1
899 783 1
900 9 1
900 94 1
900 101 1
900 247 1
900 294 1
900 481 1
901 8 1
901 46 1
901 111 1
901 825 1
901 890 1
901 894 1
902 17 1
902 27 1
902 122 1
902 439 1
902 556 1
902 763 1
902 918 1
903 10 1
903 37 1
903 78 1
903 194 1
903 354 1
903 656 1
904 184 1
904 304 1
904 350 1
904 644 1
904 805 1
904 832 1
904 985 1
905 29 1
905 54 1
905 68 1
905 117 1
905 452 1
905 620 1
905 981 1
906 73 1
906 139 1
906 165 1
906 313 1
906 338 1
906 626 1
907 8 1
907 27 1
907 297 1
907 311 1
907 513 1
907 523 1
908 2 1
908 59 1
908 203 1
908 607 1
908 788 1
908 837 1
909 5 1
909 54 1
909 93 1
909 158 1
909 234 1
909 502 1
910 161 1
910 235 1
910 244 1
910 333 1
910 438 1
910 734 1
910 927 1
911 1 1
911 21 1
911 107 1
911 330 1
911 754 1
912 4 1
912 62 1
912 108 1
912 246 1
912 278 1
912 748 1
913 2 1
913 12 1
913 19 1
913 410 1
913 685 1
913 755 1
914 23 1
914 32 1
914 94 1
914 470 1
914 481 1
914 870 1
914 942 1
915 1 1
915 2 1
915 7 1
915 39 1
915 321 1
915 430 1
916 17 1
916 22 1
916 74 1
916 120 1
916 483 1
916 896 1
917 5 1
917 128 1
917 302 1
917 333 1
917 334 1
917 723 1
918 27 1
918 30 1
918 249 1
918 412 1
918 556 1
918 902 1
918 948 1
919 3 1
919 27 1
919 59 1
919 60 1
919 662 1
919 752 1
920 1 1
920 12 1
920 32 1
920 102 1
920 154 1
920 326 1
921 11 1
921 51 1
921 83 1
921 231 1
921 269 1
921 727 1
921 988 1
922 9 1
922 34 1
922 112 1
922 206 1
922 411 1
922 599 1
922 960 1
923 3 1
923 5 1
923 30 1
923 65 1
923 225 1
923 474 1
923 989 1
924 1 1
924 52 1
924 63 1
924 66 1
924 191 1
924 446 1
925 8 1
925 22 1
925 288 1
925 472 1
925 764 1
925 891 1
926 36 1
926 55 1
926 73 1
926 127 1
926 382 1
926 641 1
927 109 1
927 244 1
927 316 1
927 438 1
927 880 1
927 910 1
928 10 1
928 16 1
928 17 1
928 48 1
928 540 1
928 844 1
929 85 1
929 121 1
929 126 1
929 129 1
929 163 1
929 365 1
930 73 1
930 408 1
930 427 1
930 641 1
930 767 1
930 849 1
931 41 1
931 42 1
931 268 1
931 290 1
931 373 1
931 444 1
932 8 1
932 11 1
932 220 1
932 270 1
932 277 1
932 537 1
933 3 1
933 163 1
933 252 1
933 286 1
933 357 1
933 372 1
934 9 1
934 513 1
934 525 1
934 616 1
934 732 1
934 769 1
935 58 1
935 102 1
935 204 1
935 499 1
935 706 1
935 854 1
936 25 1
936 245 1
936 307 1
936 312 1
936 663 1
936 702 1
936 965 1
937 11 1
937 17 1
937 48 1
937 108 1
937 132 1
937 551 1
938 200 1
938 232 1
938 445 1
938 565 1
938 573 1
938 593 1
939 9 1
939 17 1
939 23 1
939 201 1
939 229 1
939 889 1
940 2 1
940 153 1
940 174 1
940 180 1
940 228 1
940 265 1
941 18 1
941 23 1
941 72 1
941 144 1
941 211 1
941 419 1
942 23 1
942 139 1
942 261 1
942 470 1
942 870 1
942 914 1
943 1 1
943 5 1
943 8 1
943 161 1
943 361 1
943 425 1
944 3 1
944 15 1
944 64 1
944 89 1
944 443 1
944 805 1
944 962 1
945 9 1
945 112 1
945 289 1
945 525 1
945 865 1
945 971 1
946 1 1
946 7 1
946 26 1
946 50 1
946 168 1
946 569 1
947 1 1
947 8 1
947 191 1
947 332 1
947 469 1
947 552 1
948 27 1
948 184 1
948 324 1
948 461 1
948 556 1
948 918 1
949 2 1
949 56 1
949 136 1
949 510 1
949 645 1
949 897 1
950 80 1
950 184 1
950 228 1
950 700 1
950 770 1
950 888 1
951 9 1
951 259 1
951 371 1
951 632 1
951 658 1
951 772 1
952 58 1
952 120 1
952 176 1
952 327 1
952 416 1
952 729 1
953 7 1
953 15 1
953 46 1
953 48 1
953 400 1
953 847 1
954 31 1
954 103 1
954 175 1
954 485 1
954 515 1
954 568 1
955 14 1
955 24 1
955 185 1
955 325 1
955 731 1
955 785 1
956 9 1
956 34 1
956 142 1
956 188 1
956 195 1
956 411 1
956 967 1
957 2 1
957 68 1
957 109 1
957 270 1
957 704 1
957 741 1
958 19 1
958 53 1
958 104 1
958 585 1
958 655 1
958 739 1
959 12 1
959 15 1
959 33 1
959 64 1
959 441 1
959 511 1
960 4 1
960 34 1
960 455 1
960 599 1
960 642 1
960 922 1
961 1 1
961 3 1
961 5 1
961 6 1
961 44 1
961 608 1
962 61 1
962 89 1
962 560 1
962 805 1
962 944 1
963 164 1
963 261 1
963 595 1
963 835 1
963 890 1
963 894 1
964 3 1
964 25 1
964 217 1
964 262 1
964 486 1
964 873 1
965 25 1
965 62 1
965 67 1
965 598 1
965 702 1
965 936 1
966 6 1
966 25 1
966 37 1
966 63 1
966 147 1
966 191 1
967 9 1
967 195 1
967 311 1
967 513 1
967 732 1
967 956 1
968 49 1
968 106 1
968 210 1
968 223 1
968 466 1
968 746 1
969 3 1
969 7 1
969 51 1
969 76 1
969 826 1
969 863 1
970 4 1
970 558 1
970 636 1
970 771 1
970 798 1
970 836 1
971 9 1
971 185 1
971 393 1
971 525 1
971 596 1
971 945 1
972 14 1
972 216 1
972 334 1
972 341 1
972 661 1
972 761 1
973 2 1
973 9 1
973 39 1
973 214 1
973 665 1
973 667 1
974 26 1
974 32 1
974 67 1
974 94 1
974 492 1
974 750 1
975 3 1
975 43 1
975 226 1
975 267 1
975 605 1
975 646 1
976 3 1
976 7 1
976 39 1
976 285 1
976 486 1
976 587 1
977 51 1
977 193 1
977 309 1
977 380 1
977 454 1
977 710 1
978 16 1
978 63 1
978 115 1
978 774 1
978 854 1
978 890 1
979 81 1
979 192 1
979 475 1
979 476 1
979 532 1
979 678 1
980 58 1
980 72 1
980 131 1
980 403 1
980 749 1
980 770 1
981 8 1
981 23 1
981 29 1
981 68 1
981 771 1
981 905 1
982 6 1
982 51 1
982 142 1
982 167 1
982 508 1
982 839 1
983 11 1
983 53 1
983 97 1
983 387 1
983 551 1
983 798 1
984 27 1
984 139 1
984 297 1
984 338 1
984 353 1
984 613 1
985 60 1
985 119 1
985 350 1
985 625 1
985 832 1
985 904 1
986 9 1
986 62 1
986 165 1
986 226 1
986 533 1
986 605 1
987 1 1
987 36 1
987 310 1
987 545 1
987 564 1
987 601 1
988 51 1
988 104 1
988 265 1
988 431 1
988 727 1
988 921 1
989 3 1
989 30 1
989 167 1
989 341 1
989 651 1
989 923 1
990 106 1
990 170 1
990 438 1
990 628 1
990 731 1
990 734 1
991 1 1
991 9 1
991 92 1
991 187 1
991 519 1
992 5 1
992 28 1
992 140 1
992 233 1
992 469 1
992 756 1
992 995 1
993 3 1
993 58 1
993 182 1
993 301 1
993 614 1
993 668 1
994 3 1
994 7 1
994 10 1
994 378 1
994 536 1
994 882 1
995 5 1
995 111 1
995 126 1
995 129 1
995 233 1
995 992 1
996 11 1
996 73 1
996 254 1
996 323 1
996 351 1
996 396 1
997 16 1
997 17 1
997 46 1
997 101 1
997 107 1
997 565 1
998 16 1
998 109 1
998 363 1
998 424 1
998 445 1
998 593 1
999 1 1
999 39 1
999 165 1
999 190 1
999 347 1
999 736 1
1000 6 1
1000 143 1
1000 231 1
1000 286 1
1000 611 1
1000 795 1
