%%MatrixMarket matrix coordinate real general
%
1000 1000 11832
1 2 1
1 3 1
1 4 1
1 5 1
1 6 1
1 7 1
1 8 1
1 12 1
1 14 1
1 16 1
1 23 1
1 26 1
1 27 1
1 28 1
1 31 1
1 32 1
1 33 1
1 35 1
1 36 1
1 37 1
1 44 1
1 47 1
1 48 1
1 51 1
1 52 1
1 61 1
1 63 1
1 66 1
1 81 1
1 93 1
1 112 1
1 117 1
1 120 1
1 129 1
1 130 1
1 132 1
1 135 1
1 136 1
1 138 1
1 140 1
1 144 1
1 147 1
1 154 1
1 156 1
1 157 1
1 171 1
1 180 1
1 196 1
1 202 1
1 212 1
1 215 1
1 228 1
1 229 1
1 234 1
1 236 1
1 239 1
1 248 1
1 258 1
1 264 1
1 267 1
1 268 1
1 273 1
1 278 1
1 279 1
1 282 1
1 283 1
1 284 1
1 285 1
1 292 1
1 304 1
1 305 1
1 317 1
1 318 1
1 323 1
1 325 1
1 327 1
1 339 1
1 345 1
1 346 1
1 354 1
1 360 1
1 362 1
1 368 1
1 380 1
1 382 1
1 407 1
1 415 1
1 423 1
1 437 1
1 439 1
1 448 1
1 450 1
1 459 1
1 460 1
1 461 1
1 462 1
1 472 1
1 478 1
1 479 1
1 494 1
1 518 1
1 519 1
1 524 1
1 529 1
1 530 1
1 546 1
1 551 1
1 576 1
1 581 1
1 608 1
1 614 1
1 627 1
1 631 1
1 704 1
1 714 1
1 750 1
1 801 1
1 818 1
1 838 1
1 853 1
1 888 1
1 901 1
1 907 1
1 926 1
1 933 1
1 935 1
1 938 1
1 941 1
1 942 1
1 985 1
2 1 1
2 3 1
2 4 1
2 6 1
2 8 1
2 9 1
2 10 1
2 12 1
2 13 1
2 14 1
2 15 1
2 17 1
2 19 1
2 20 1
2 22 1
2 25 1
2 26 1
2 27 1
2 31 1
2 34 1
2 41 1
2 54 1
2 56 1
2 59 1
2 63 1
2 68 1
2 74 1
2 77 1
2 79 1
2 84 1
2 88 1
2 97 1
2 132 1
2 134 1
2 140 1
2 143 1
2 153 1
2 158 1
2 170 1
2 173 1
2 175 1
2 188 1
2 191 1
2 192 1
2 194 1
2 196 1
2 202 1
2 206 1
2 209 1
2 216 1
2 224 1
2 230 1
2 242 1
2 243 1
2 245 1
2 250 1
2 258 1
2 259 1
2 286 1
2 304 1
2 317 1
2 319 1
2 321 1
2 335 1
2 348 1
2 364 1
2 373 1
2 385 1
2 389 1
2 395 1
2 416 1
2 426 1
2 436 1
2 442 1
2 451 1
2 453 1
2 479 1
2 482 1
2 500 1
2 508 1
2 510 1
2 515 1
2 517 1
2 534 1
2 543 1
2 546 1
2 552 1
2 553 1
2 561 1
2 571 1
2 575 1
2 598 1
2 604 1
2 607 1
2 619 1
2 621 1
2 623 1
2 631 1
2 639 1
2 641 1
2 679 1
2 698 1
2 721 1
2 725 1
2 738 1
2 741 1
2 750 1
2 782 1
2 785 1
2 793 1
2 798 1
2 808 1
2 828 1
2 835 1
2 861 1
2 868 1
2 878 1
2 889 1
2 894 1
2 917 1
2 928 1
2 959 1
2 961 1
2 967 1
2 968 1
2 984 1
3 1 1
3 2 1
3 4 1
3 5 1
3 7 1
3 8 1
3 9 1
3 12 1
3 14 1
3 15 1
3 21 1
3 25 1
3 26 1
3 28 1
3 34 1
3 38 1
3 45 1
3 46 1
3 51 1
3 52 1
3 55 1
3 57 1
3 60 1
3 64 1
3 65 1
3 67 1
3 75 1
3 76 1
3 83 1
3 96 1
3 97 1
3 104 1
3 109 1
3 110 1
3 120 1
3 123 1
3 124 1
3 143 1
3 148 1
3 151 1
3 152 1
3 165 1
3 166 1
3 181 1
3 189 1
3 198 1
3 205 1
3 207 1
3 211 1
3 213 1
3 215 1
3 227 1
3 234 1
3 238 1
3 241 1
3 245 1
3 250 1
3 252 1
3 257 1
3 261 1
3 273 1
3 300 1
3 301 1
3 344 1
3 346 1
3 355 1
3 361 1
3 378 1
3 402 1
3 405 1
3 409 1
3 418 1
3 464 1
3 480 1
3 498 1
3 528 1
3 542 1
3 545 1
3 546 1
3 551 1
3 558 1
3 561 1
3 566 1
3 567 1
3 568 1
3 572 1
3 574 1
3 579 1
3 584 1
3 600 1
3 614 1
3 621 1
3 626 1
3 630 1
3 637 1
3 640 1
3 645 1
3 663 1
3 666 1
3 667 1
3 673 1
3 674 1
3 678 1
3 699 1
3 710 1
3 727 1
3 735 1
3 792 1
3 800 1
3 817 1
3 828 1
3 846 1
3 851 1
3 857 1
3 866 1
3 874 1
3 922 1
3 955 1
3 984 1
3 994 1
4 1 1
4 2 1
4 3 1
4 5 1
4 6 1
4 7 1
4 9 1
4 10 1
4 11 1
4 13 1
4 14 1
4 16 1
4 17 1
4 18 1
4 20 1
4 25 1
4 29 1
4 31 1
4 35 1
4 36 1
4 39 1
4 41 1
4 44 1
4 45 1
4 47 1
4 48 1
4 49 1
4 51 1
4 53 1
4 55 1
4 57 1
4 66 1
4 69 1
4 73 1
4 74 1
4 78 1
4 79 1
4 81 1
4 86 1
4 89 1
4 90 1
4 95 1
4 111 1
4 112 1
4 123 1
4 124 1
4 134 1
4 136 1
4 139 1
4 141 1
4 145 1
4 146 1
4 149 1
4 152 1
4 154 1
4 161 1
4 170 1
4 177 1
4 179 1
4 184 1
4 186 1
4 187 1
4 198 1
4 207 1
4 208 1
4 222 1
4 231 1
4 238 1
4 240 1
4 254 1
4 255 1
4 260 1
4 272 1
4 273 1
4 276 1
4 277 1
4 278 1
4 282 1
4 295 1
4 296 1
4 298 1
4 299 1
4 301 1
4 304 1
4 309 1
4 313 1
4 316 1
4 320 1
4 327 1
4 329 1
4 330 1
4 331 1
4 342 1
4 343 1
4 347 1
4 351 1
4 371 1
4 384 1
4 394 1
4 396 1
4 402 1
4 404 1
4 406 1
4 412 1
4 414 1
4 423 1
4 435 1
4 441 1
4 443 1
4 448 1
4 453 1
4 454 1
4 458 1
4 463 1
4 489 1
4 490 1
4 503 1
4 513 1
4 525 1
4 541 1
4 546 1
4 553 1
4 562 1
4 563 1
4 578 1
4 581 1
4 583 1
4 589 1
4 597 1
4 599 1
4 621 1
4 623 1
4 624 1
4 632 1
4 633 1
4 651 1
4 663 1
4 678 1
4 683 1
4 688 1
4 693 1
4 711 1
4 728 1
4 732 1
4 739 1
4 740 1
4 745 1
4 770 1
4 772 1
4 783 1
4 786 1
4 812 1
4 823 1
4 830 1
4 836 1
4 846 1
4 850 1
4 853 1
4 854 1
4 856 1
4 865 1
4 872 1
4 878 1
4 887 1
4 918 1
4 942 1
4 953 1
4 959 1
4 984 1
4 987 1
4 993 1
5 1 1
5 3 1
5 4 1
5 7 1
5 8 1
5 9 1
5 11 1
5 12 1
5 14 1
5 16 1
5 18 1
5 28 1
5 34 1
5 35 1
5 39 1
5 40 1
5 41 1
5 45 1
5 47 1
5 51 1
5 53 1
5 59 1
5 61 1
5 66 1
5 72 1
5 75 1
5 90 1
5 107 1
5 113 1
5 123 1
5 129 1
5 130 1
5 134 1
5 135 1
5 136 1
5 137 1
5 142 1
5 146 1
5 147 1
5 150 1
5 176 1
5 185 1
5 186 1
5 193 1
5 195 1
5 203 1
5 227 1
5 233 1
5 253 1
5 265 1
5 267 1
5 290 1
5 298 1
5 306 1
5 313 1
5 325 1
5 328 1
5 343 1
5 346 1
5 380 1
5 393 1
5 452 1
5 474 1
5 485 1
5 502 1
5 509 1
5 528 1
5 557 1
5 583 1
5 605 1
5 623 1
5 630 1
5 633 1
5 662 1
5 680 1
5 686 1
5 705 1
5 712 1
5 716 1
5 718 1
5 731 1
5 735 1
5 741 1
5 742 1
5 750 1
5 754 1
5 757 1
5 775 1
5 795 1
5 861 1
5 865 1
5 866 1
5 870 1
5 877 1
5 880 1
5 995 1
6 1 1
6 2 1
6 4 1
6 8 1
6 9 1
6 10 1
6 13 1
6 17 1
6 19 1
6 21 1
6 22 1
6 23 1
6 24 1
6 26 1
6 31 1
6 35 1
6 36 1
6 46 1
6 50 1
6 79 1
6 80 1
6 84 1
6 93 1
6 94 1
6 105 1
6 112 1
6 126 1
6 142 1
6 202 1
6 205 1
6 214 1
6 218 1
6 248 1
6 249 1
6 297 1
6 321 1
6 327 1
6 364 1
6 367 1
6 372 1
6 390 1
6 412 1
6 451 1
6 472 1
6 495 1
6 508 1
6 524 1
6 527 1
6 547 1
6 571 1
6 582 1
6 606 1
6 611 1
6 626 1
6 635 1
6 641 1
6 649 1
6 654 1
6 663 1
6 671 1
6 687 1
6 699 1
6 804 1
6 821 1
6 826 1
6 828 1
6 937 1
7 1 1
7 3 1
7 4 1
7 5 1
7 9 1
7 11 1
7 14 1
7 18 1
7 20 1
7 21 1
7 39 1
7 41 1
7 45 1
7 57 1
7 69 1
7 92 1
7 96 1
7 107 1
7 135 1
7 160 1
7 161 1
7 176 1
7 179 1
7 200 1
7 214 1
7 215 1
7 217 1
7 220 1
7 221 1
7 266 1
7 328 1
7 340 1
7 350 1
7 378 1
7 391 1
7 395 1
7 448 1
7 466 1
7 490 1
7 501 1
7 505 1
7 531 1
7 533 1
7 537 1
7 564 1
7 569 1
7 604 1
7 630 1
7 642 1
7 724 1
7 725 1
7 728 1
7 740 1
7 790 1
7 803 1
7 858 1
7 864 1
7 892 1
7 915 1
7 920 1
7 966 1
8 1 1
8 2 1
8 3 1
8 5 1
8 6 1
8 12 1
8 17 1
8 23 1
8 27 1
8 28 1
8 30 1
8 32 1
8 36 1
8 38 1
8 42 1
8 48 1
8 51 1
8 54 1
8 56 1
8 61 1
8 62 1
8 84 1
8 110 1
8 112 1
8 117 1
8 132 1
8 133 1
8 137 1
8 167 1
8 192 1
8 202 1
8 212 1
8 218 1
8 221 1
8 248 1
8 270 1
8 285 1
8 300 1
8 316 1
8 382 1
8 391 1
8 428 1
8 439 1
8 451 1
8 474 1
8 488 1
8 506 1
8 524 1
8 530 1
8 559 1
8 568 1
8 580 1
8 651 1
8 662 1
8 736 1
8 750 1
8 818 1
8 842 1
8 875 1
8 919 1
9 2 1
9 3 1
9 4 1
9 5 1
9 6 1
9 7 1
9 10 1
9 11 1
9 15 1
9 17 1
9 19 1
9 21 1
9 39 1
9 40 1
9 42 1
9 45 1
9 59 1
9 63 1
9 68 1
9 73 1
9 74 1
9 75 1
9 83 1
9 92 1
9 98 1
9 100 1
9 104 1
9 117 1
9 122 1
9 124 1
9 126 1
9 142 1
9 150 1
9 155 1
9 160 1
9 162 1
9 164 1
9 169 1
9 174 1
9 179 1
9 188 1
9 205 1
9 220 1
9 230 1
9 232 1
9 244 1
9 252 1
9 293 1
9 320 1
9 376 1
9 389 1
9 396 1
9 409 1
9 411 1
9 458 1
9 504 1
9 513 1
9 561 1
9 599 1
9 605 1
9 609 1
9 638 1
9 641 1
9 687 1
9 696 1
9 706 1
9 726 1
9 738 1
9 757 1
9 790 1
9 802 1
9 819 1
9 850 1
9 867 1
9 871 1
9 904 1
9 940 1
9 952 1
9 969 1
9 1000 1
10 2 1
10 4 1
10 6 1
10 9 1
10 11 1
10 13 1
10 15 1
10 18 1
10 19 1
10 20 1
10 24 1
10 34 1
10 37 1
10 49 1
10 53 1
10 58 1
10 60 1
10 62 1
10 74 1
10 77 1
10 79 1
10 95 1
10 105 1
10 119 1
10 122 1
10 139 1
10 152 1
10 153 1
10 159 1
10 165 1
10 169 1
10 170 1
10 175 1
10 185 1
10 210 1
10 211 1
10 223 1
10 243 1
10 247 1
10 254 1
10 264 1
10 304 1
10 344 1
10 356 1
10 357 1
10 369 1
10 374 1
10 384 1
10 412 1
10 418 1
10 433 1
10 445 1
10 450 1
10 468 1
10 515 1
10 534 1
10 540 1
10 542 1
10 571 1
10 607 1
10 663 1
10 721 1
10 725 1
10 726 1
10 732 1
10 746 1
10 751 1
10 770 1
10 771 1
10 800 1
10 804 1
10 809 1
10 810 1
10 839 1
10 878 1
10 906 1
10 927 1
11 4 1
11 5 1
11 7 1
11 9 1
11 10 1
11 13 1
11 15 1
11 16 1
11 18 1
11 20 1
11 29 1
11 37 1
11 40 1
11 43 1
11 49 1
11 72 1
11 73 1
11 98 1
11 105 1
11 111 1
11 118 1
11 122 1
11 139 1
11 144 1
11 164 1
11 176 1
11 179 1
11 188 1
11 193 1
11 206 1
11 220 1
11 230 1
11 268 1
11 278 1
11 279 1
11 312 1
11 313 1
11 322 1
11 328 1
11 330 1
11 348 1
11 356 1
11 359 1
11 392 1
11 400 1
11 404 1
11 418 1
11 489 1
11 496 1
11 512 1
11 522 1
11 528 1
11 531 1
11 575 1
11 591 1
11 635 1
11 694 1
11 725 1
11 737 1
11 751 1
11 882 1
11 888 1
11 891 1
11 892 1
12 1 1
12 2 1
12 3 1
12 5 1
12 8 1
12 17 1
12 23 1
12 27 1
12 30 1
12 34 1
12 41 1
12 85 1
12 108 1
12 150 1
12 167 1
12 180 1
12 189 1
12 191 1
12 300 1
12 311 1
12 317 1
12 343 1
12 353 1
12 375 1
12 407 1
12 435 1
12 478 1
12 497 1
12 502 1
12 517 1
12 529 1
12 549 1
12 627 1
12 639 1
12 662 1
12 736 1
12 794 1
12 928 1
13 2 1
13 4 1
13 6 1
13 10 1
13 11 1
13 16 1
13 18 1
13 19 1
13 22 1
13 24 1
13 25 1
13 32 1
13 36 1
13 37 1
13 39 1
13 43 1
13 50 1
13 54 1
13 58 1
13 65 1
13 71 1
13 77 1
13 92 1
13 102 1
13 105 1
13 107 1
13 114 1
13 116 1
13 121 1
13 126 1
13 127 1
13 144 1
13 159 1
13 160 1
13 182 1
13 194 1
13 210 1
13 211 1
13 232 1
13 254 1
13 257 1
13 264 1
13 301 1
13 305 1
13 319 1
13 321 1
13 322 1
13 335 1
13 370 1
13 375 1
13 379 1
13 386 1
13 395 1
13 422 1
13 435 1
13 450 1
13 456 1
13 508 1
13 523 1
13 526 1
13 570 1
13 596 1
13 608 1
13 620 1
13 654 1
13 692 1
13 695 1
13 707 1
13 739 1
13 746 1
13 806 1
13 810 1
13 813 1
13 819 1
13 860 1
13 939 1
13 991 1
14 1 1
14 2 1
14 3 1
14 4 1
14 5 1
14 7 1
14 15 1
14 26 1
14 52 1
14 55 1
14 124 1
14 135 1
14 180 1
14 187 1
14 245 1
14 292 1
14 295 1
14 343 1
14 370 1
14 493 1
14 510 1
14 566 1
14 602 1
14 623 1
14 649 1
14 660 1
14 683 1
14 728 1
14 772 1
14 778 1
14 810 1
14 822 1
14 824 1
14 836 1
14 850 1
15 2 1
15 3 1
15 9 1
15 10 1
15 11 1
15 14 1
15 25 1
15 26 1
15 38 1
15 40 1
15 46 1
15 72 1
15 82 1
15 83 1
15 94 1
15 99 1
15 100 1
15 122 1
15 149 1
15 166 1
15 194 1
15 216 1
15 233 1
15 246 1
15 249 1
15 297 1
15 323 1
15 356 1
15 359 1
15 360 1
15 376 1
15 410 1
15 485 1
15 510 1
15 522 1
15 544 1
15 648 1
15 671 1
15 808 1
15 815 1
15 834 1
15 846 1
15 874 1
15 923 1
15 935 1
15 998 1
16 1 1
16 4 1
16 5 1
16 11 1
16 13 1
16 28 1
16 35 1
16 36 1
16 37 1
16 44 1
16 48 1
16 53 1
16 63 1
16 71 1
16 78 1
16 90 1
16 102 1
16 105 1
16 111 1
16 114 1
16 116 1
16 140 1
16 149 1
16 160 1
16 183 1
16 187 1
16 190 1
16 194 1
16 253 1
16 299 1
16 308 1
16 316 1
16 393 1
16 414 1
16 448 1
16 449 1
16 465 1
16 489 1
16 492 1
16 509 1
16 535 1
16 559 1
16 576 1
16 596 1
16 632 1
16 754 1
16 834 1
16 867 1
16 873 1
16 882 1
16 947 1
16 979 1
17 2 1
17 4 1
17 6 1
17 8 1
17 9 1
17 12 1
17 21 1
17 23 1
17 41 1
17 42 1
17 44 1
17 54 1
17 56 1
17 79 1
17 85 1
17 96 1
17 99 1
17 102 1
17 124 1
17 155 1
17 196 1
17 236 1
17 270 1
17 306 1
17 349 1
17 390 1
17 426 1
17 433 1
17 599 1
17 611 1
17 658 1
17 681 1
17 709 1
17 799 1
17 892 1
17 916 1
17 963 1
18 4 1
18 5 1
18 7 1
18 10 1
18 11 1
18 13 1
18 25 1
18 32 1
18 40 1
18 43 1
18 49 1
18 58 1
18 62 1
18 65 1
18 69 1
18 115 1
18 118 1
18 119 1
18 138 1
18 141 1
18 155 1
18 159 1
18 175 1
18 176 1
18 177 1
18 201 1
18 213 1
18 230 1
18 237 1
18 240 1
18 247 1
18 260 1
18 277 1
18 290 1
18 305 1
18 349 1
18 363 1
18 365 1
18 405 1
18 408 1
18 410 1
18 422 1
18 442 1
18 457 1
18 490 1
18 510 1
18 542 1
18 557 1
18 581 1
18 610 1
18 635 1
18 653 1
18 670 1
18 693 1
18 715 1
18 723 1
18 747 1
18 824 1
18 890 1
18 912 1
18 924 1
18 938 1
18 983 1
19 2 1
19 6 1
19 9 1
19 10 1
19 13 1
19 22 1
19 24 1
19 34 1
19 50 1
19 63 1
19 80 1
19 83 1
19 88 1
19 103 1
19 117 1
19 121 1
19 133 1
19 158 1
19 162 1
19 193 1
19 210 1
19 226 1
19 287 1
19 373 1
19 465 1
19 467 1
19 533 1
19 600 1
19 610 1
19 619 1
19 636 1
19 641 1
19 712 1
19 748 1
19 815 1
19 891 1
19 949 1
19 971 1
20 2 1
20 4 1
20 7 1
20 10 1
20 11 1
20 29 1
20 95 1
20 136 1
20 139 1
20 338 1
20 420 1
20 486 1
20 693 1
20 878 1
20 892 1
21 3 1
21 6 1
21 7 1
21 9 1
21 17 1
21 23 1
21 24 1
21 29 1
21 33 1
21 42 1
21 44 1
21 46 1
21 50 1
21 56 1
21 70 1
21 88 1
21 91 1
21 93 1
21 96 1
21 101 1
21 104 1
21 128 1
21 142 1
21 150 1
21 151 1
21 156 1
21 160 1
21 162 1
21 200 1
21 217 1
21 232 1
21 249 1
21 253 1
21 262 1
21 270 1
21 281 1
21 284 1
21 310 1
21 363 1
21 377 1
21 381 1
21 394 1
21 397 1
21 398 1
21 400 1
21 432 1
21 433 1
21 438 1
21 444 1
21 505 1
21 513 1
21 527 1
21 544 1
21 556 1
21 597 1
21 619 1
21 625 1
21 643 1
21 647 1
21 666 1
21 694 1
21 696 1
21 699 1
21 736 1
21 744 1
21 761 1
21 787 1
21 789 1
21 792 1
21 837 1
21 859 1
21 883 1
21 897 1
21 900 1
21 969 1
21 1000 1
22 2 1
22 6 1
22 13 1
22 19 1
22 50 1
22 77 1
22 80 1
22 107 1
22 127 1
22 183 1
22 188 1
22 189 1
22 197 1
22 232 1
22 250 1
22 259 1
22 263 1
22 444 1
22 451 1
22 465 1
22 467 1
22 600 1
22 619 1
22 626 1
22 729 1
22 786 1
22 857 1
23 1 1
23 6 1
23 8 1
23 12 1
23 17 1
23 21 1
23 24 1
23 27 1
23 29 1
23 30 1
23 32 1
23 33 1
23 42 1
23 44 1
23 82 1
23 87 1
23 101 1
23 112 1
23 172 1
23 178 1
23 212 1
23 219 1
23 221 1
23 236 1
23 239 1
23 256 1
23 270 1
23 271 1
23 286 1
23 311 1
23 338 1
23 361 1
23 363 1
23 373 1
23 375 1
23 390 1
23 425 1
23 434 1
23 446 1
23 472 1
23 507 1
23 520 1
23 529 1
23 538 1
23 573 1
23 631 1
23 635 1
23 655 1
23 656 1
23 684 1
23 689 1
23 744 1
23 830 1
23 845 1
23 847 1
23 905 1
23 985 1
23 986 1
23 988 1
24 6 1
24 10 1
24 13 1
24 19 1
24 21 1
24 23 1
24 29 1
24 30 1
24 46 1
24 70 1
24 88 1
24 91 1
24 109 1
24 121 1
24 199 1
24 210 1
24 254 1
24 291 1
24 377 1
24 515 1
24 533 1
24 594 1
24 610 1
24 655 1
24 698 1
24 862 1
24 885 1
25 2 1
25 3 1
25 4 1
25 13 1
25 15 1
25 18 1
25 32 1
25 54 1
25 64 1
25 78 1
25 97 1
25 127 1
25 165 1
25 166 1
25 194 1
25 254 1
25 314 1
25 360 1
25 366 1
25 403 1
25 464 1
25 469 1
25 543 1
25 570 1
25 730 1
25 741 1
25 753 1
25 984 1
26 1 1
26 2 1
26 3 1
26 6 1
26 14 1
26 15 1
26 27 1
26 35 1
26 38 1
26 52 1
26 59 1
26 65 1
26 67 1
26 85 1
26 86 1
26 94 1
26 115 1
26 132 1
26 171 1
26 181 1
26 213 1
26 222 1
26 257 1
26 275 1
26 281 1
26 292 1
26 297 1
26 309 1
26 326 1
26 332 1
26 333 1
26 334 1
26 350 1
26 413 1
26 418 1
26 438 1
26 471 1
26 503 1
26 580 1
26 584 1
26 602 1
26 609 1
26 620 1
26 631 1
26 669 1
26 673 1
26 766 1
26 797 1
26 827 1
26 828 1
26 876 1
26 877 1
26 883 1
26 929 1
26 945 1
26 994 1
27 1 1
27 2 1
27 8 1
27 12 1
27 23 1
27 26 1
27 30 1
27 31 1
27 42 1
27 59 1
27 67 1
27 84 1
27 125 1
27 133 1
27 158 1
27 178 1
27 180 1
27 216 1
27 219 1
27 224 1
27 251 1
27 256 1
27 288 1
27 311 1
27 334 1
27 341 1
27 435 1
27 482 1
27 498 1
27 520 1
27 580 1
27 588 1
27 675 1
27 679 1
27 726 1
27 738 1
27 753 1
27 772 1
27 794 1
27 820 1
27 847 1
27 944 1
27 979 1
27 988 1
28 1 1
28 3 1
28 5 1
28 8 1
28 16 1
28 37 1
28 38 1
28 53 1
28 71 1
28 72 1
28 110 1
28 120 1
28 147 1
28 198 1
28 207 1
28 224 1
28 306 1
28 308 1
28 362 1
28 452 1
28 519 1
28 530 1
28 560 1
28 566 1
28 583 1
28 614 1
28 731 1
28 777 1
28 835 1
28 857 1
28 880 1
28 932 1
28 974 1
29 4 1
29 11 1
29 20 1
29 21 1
29 23 1
29 24 1
29 30 1
29 33 1
29 82 1
29 88 1
29 109 1
29 136 1
29 163 1
29 172 1
29 181 1
29 198 1
29 212 1
29 223 1
29 225 1
29 291 1
29 338 1
29 340 1
29 361 1
29 380 1
29 420 1
29 473 1
29 515 1
29 563 1
29 573 1
29 594 1
29 595 1
29 611 1
29 698 1
29 723 1
29 724 1
29 731 1
29 851 1
29 908 1
30 8 1
30 12 1
30 23 1
30 24 1
30 27 1
30 29 1
30 133 1
30 167 1
30 180 1
30 191 1
30 288 1
30 294 1
30 353 1
30 361 1
30 373 1
30 422 1
30 425 1
30 434 1
30 549 1
30 624 1
30 655 1
30 726 1
30 909 1
30 980 1
31 1 1
31 2 1
31 4 1
31 6 1
31 27 1
31 158 1
31 251 1
31 256 1
31 258 1
31 472 1
31 477 1
31 498 1
31 608 1
31 768 1
31 820 1
32 1 1
32 8 1
32 13 1
32 18 1
32 23 1
32 25 1
32 33 1
32 43 1
32 48 1
32 54 1
32 61 1
32 64 1
32 87 1
32 93 1
32 112 1
32 138 1
32 182 1
32 210 1
32 247 1
32 275 1
32 314 1
32 404 1
32 405 1
32 421 1
32 424 1
32 437 1
32 449 1
32 459 1
32 464 1
32 506 1
32 586 1
32 610 1
32 666 1
32 685 1
32 714 1
32 785 1
33 1 1
33 21 1
33 23 1
33 29 1
33 32 1
33 82 1
33 87 1
33 93 1
33 144 1
33 247 1
33 270 1
33 271 1
33 286 1
33 424 1
33 437 1
33 445 1
33 467 1
33 507 1
33 556 1
33 595 1
33 631 1
33 647 1
33 790 1
33 830 1
33 844 1
33 967 1
34 2 1
34 3 1
34 5 1
34 10 1
34 12 1
34 19 1
34 75 1
34 88 1
34 103 1
34 134 1
34 150 1
34 153 1
34 158 1
34 162 1
34 173 1
34 189 1
34 195 1
34 203 1
34 226 1
34 280 1
34 291 1
34 300 1
34 337 1
34 351 1
34 430 1
34 470 1
34 471 1
34 522 1
34 606 1
34 613 1
34 707 1
34 758 1
34 861 1
35 1 1
35 4 1
35 5 1
35 6 1
35 16 1
35 26 1
35 52 1
35 94 1
35 186 1
35 202 1
35 239 1
35 364 1
35 495 1
35 582 1
35 712 1
35 830 1
35 897 1
35 942 1
36 1 1
36 4 1
36 6 1
36 8 1
36 13 1
36 16 1
36 39 1
36 48 1
36 51 1
36 90 1
36 102 1
36 154 1
36 166 1
36 183 1
36 218 1
36 283 1
36 285 1
36 327 1
36 329 1
36 382 1
36 391 1
36 407 1
36 454 1
36 509 1
36 521 1
36 551 1
36 763 1
36 791 1
36 822 1
36 947 1
37 1 1
37 10 1
37 11 1
37 13 1
37 16 1
37 28 1
37 58 1
37 71 1
37 92 1
37 110 1
37 139 1
37 224 1
37 231 1
37 322 1
37 335 1
37 440 1
37 465 1
37 475 1
37 496 1
37 552 1
37 572 1
37 762 1
37 779 1
37 833 1
37 839 1
37 899 1
38 3 1
38 8 1
38 15 1
38 26 1
38 28 1
38 46 1
38 60 1
38 64 1
38 67 1
38 73 1
38 82 1
38 110 1
38 119 1
38 149 1
38 157 1
38 164 1
38 168 1
38 211 1
38 235 1
38 265 1
38 293 1
38 297 1
38 355 1
38 485 1
38 566 1
38 622 1
38 645 1
38 652 1
38 673 1
38 700 1
38 765 1
38 767 1
38 773 1
38 807 1
38 873 1
38 896 1
38 954 1
39 4 1
39 5 1
39 7 1
39 9 1
39 13 1
39 36 1
39 59 1
39 68 1
39 90 1
39 92 1
39 113 1
39 142 1
39 166 1
39 276 1
39 283 1
39 435 1
39 440 1
39 453 1
39 609 1
39 620 1
39 634 1
39 738 1
39 819 1
39 890 1
40 5 1
40 9 1
40 11 1
40 15 1
40 18 1
40 43 1
40 58 1
40 69 1
40 72 1
40 98 1
40 100 1
40 111 1
40 169 1
40 174 1
40 193 1
40 201 1
40 276 1
40 312 1
40 347 1
40 409 1
40 417 1
40 434 1
40 521 1
40 523 1
40 575 1
40 591 1
40 605 1
40 654 1
40 784 1
40 871 1
40 886 1
40 916 1
40 998 1
41 2 1
41 4 1
41 5 1
41 7 1
41 12 1
41 17 1
41 45 1
41 47 1
41 55 1
41 57 1
41 85 1
41 97 1
41 102 1
41 107 1
41 108 1
41 161 1
41 186 1
41 196 1
41 200 1
41 201 1
41 221 1
41 240 1
41 266 1
41 296 1
41 340 1
41 350 1
41 351 1
41 402 1
41 517 1
41 621 1
41 657 1
41 681 1
41 692 1
41 716 1
41 756 1
41 783 1
41 811 1
42 8 1
42 9 1
42 17 1
42 21 1
42 23 1
42 27 1
42 56 1
42 124 1
42 128 1
42 178 1
42 221 1
42 239 1
42 389 1
42 580 1
42 689 1
42 694 1
42 818 1
42 840 1
42 915 1
42 924 1
42 963 1
43 11 1
43 13 1
43 18 1
43 32 1
43 40 1
43 49 1
43 58 1
43 65 1
43 71 1
43 76 1
43 89 1
43 111 1
43 113 1
43 155 1
43 197 1
43 204 1
43 210 1
43 240 1
43 263 1
43 276 1
43 279 1
43 288 1
43 290 1
43 303 1
43 308 1
43 365 1
43 405 1
43 417 1
43 449 1
43 456 1
43 457 1
43 523 1
43 560 1
43 685 1
43 707 1
43 715 1
43 727 1
43 788 1
43 841 1
43 868 1
43 905 1
43 916 1
43 999 1
44 1 1
44 4 1
44 16 1
44 17 1
44 21 1
44 23 1
44 47 1
44 63 1
44 66 1
44 78 1
44 101 1
44 141 1
44 154 1
44 190 1
44 207 1
44 236 1
44 241 1
44 253 1
44 281 1
44 283 1
44 299 1
44 303 1
44 325 1
44 337 1
44 393 1
44 433 1
44 446 1
44 449 1
44 450 1
44 454 1
44 487 1
44 525 1
44 643 1
44 668 1
44 691 1
44 744 1
44 748 1
44 792 1
44 872 1
44 892 1
44 945 1
45 3 1
45 4 1
45 5 1
45 7 1
45 9 1
45 41 1
45 55 1
45 69 1
45 221 1
45 313 1
45 395 1
45 501 1
45 533 1
45 605 1
45 687 1
45 692 1
45 711 1
46 3 1
46 6 1
46 15 1
46 21 1
46 24 1
46 38 1
46 50 1
46 60 1
46 70 1
46 73 1
46 76 1
46 80 1
46 82 1
46 83 1
46 94 1
46 99 1
46 101 1
46 106 1
46 119 1
46 123 1
46 125 1
46 130 1
46 148 1
46 157 1
46 168 1
46 174 1
46 204 1
46 216 1
46 228 1
46 234 1
46 235 1
46 271 1
46 297 1
46 336 1
46 366 1
46 397 1
46 401 1
46 405 1
46 411 1
46 425 1
46 432 1
46 530 1
46 547 1
46 588 1
46 628 1
46 649 1
46 697 1
46 708 1
46 805 1
46 972 1
47 1 1
47 4 1
47 5 1
47 41 1
47 44 1
47 57 1
47 66 1
47 81 1
47 89 1
47 97 1
47 123 1
47 128 1
47 145 1
47 184 1
47 222 1
47 231 1
47 282 1
47 283 1
47 296 1
47 307 1
47 328 1
47 341 1
47 358 1
47 388 1
47 490 1
47 546 1
47 548 1
47 675 1
47 684 1
47 745 1
47 770 1
47 777 1
47 825 1
47 827 1
47 849 1
47 855 1
47 865 1
47 910 1
48 1 1
48 4 1
48 8 1
48 16 1
48 32 1
48 36 1
48 61 1
48 111 1
48 132 1
48 154 1
48 183 1
48 248 1
48 273 1
48 459 1
48 492 1
48 647 1
48 740 1
48 919 1
48 953 1
48 987 1
49 4 1
49 10 1
49 11 1
49 18 1
49 43 1
49 53 1
49 60 1
49 62 1
49 81 1
49 86 1
49 104 1
49 118 1
49 147 1
49 148 1
49 177 1
49 213 1
49 235 1
49 240 1
49 277 1
49 279 1
49 331 1
49 332 1
49 408 1
49 442 1
49 443 1
49 510 1
49 512 1
49 601 1
49 652 1
49 682 1
49 709 1
49 774 1
49 778 1
49 788 1
49 791 1
49 881 1
49 905 1
49 912 1
49 925 1
49 939 1
50 6 1
50 13 1
50 19 1
50 21 1
50 22 1
50 46 1
50 93 1
50 107 1
50 151 1
50 178 1
50 189 1
50 205 1
50 209 1
50 297 1
50 372 1
50 398 1
50 463 1
50 467 1
50 484 1
50 520 1
50 687 1
50 786 1
50 805 1
50 809 1
51 1 1
51 3 1
51 4 1
51 5 1
51 8 1
51 36 1
51 117 1
51 137 1
51 152 1
51 277 1
51 285 1
51 298 1
51 318 1
51 327 1
51 329 1
51 347 1
51 371 1
51 392 1
51 424 1
51 436 1
51 441 1
51 460 1
51 462 1
51 469 1
51 492 1
51 521 1
51 618 1
51 763 1
51 907 1
51 990 1
52 1 1
52 3 1
52 14 1
52 26 1
52 35 1
52 55 1
52 65 1
52 86 1
52 91 1
52 98 1
52 100 1
52 109 1
52 129 1
52 163 1
52 171 1
52 182 1
52 196 1
52 215 1
52 222 1
52 225 1
52 227 1
52 239 1
52 292 1
52 298 1
52 314 1
52 317 1
52 326 1
52 370 1
52 471 1
52 481 1
52 483 1
52 495 1
52 498 1
52 504 1
52 532 1
52 615 1
52 636 1
52 646 1
52 649 1
52 811 1
52 824 1
52 872 1
52 894 1
53 4 1
53 5 1
53 10 1
53 16 1
53 28 1
53 49 1
53 60 1
53 72 1
53 81 1
53 86 1
53 90 1
53 104 1
53 114 1
53 131 1
53 135 1
53 147 1
53 148 1
53 192 1
53 218 1
53 235 1
53 238 1
53 246 1
53 259 1
53 321 1
53 427 1
53 497 1
53 591 1
53 603 1
53 742 1
53 759 1
53 770 1
53 776 1
53 903 1
53 927 1
53 931 1
53 968 1
54 2 1
54 8 1
54 13 1
54 17 1
54 25 1
54 32 1
54 56 1
54 62 1
54 64 1
54 70 1
54 78 1
54 116 1
54 127 1
54 143 1
54 168 1
54 173 1
54 182 1
54 203 1
54 242 1
54 270 1
54 302 1
54 315 1
54 316 1
54 366 1
54 375 1
54 379 1
54 446 1
54 641 1
54 708 1
54 785 1
54 814 1
54 876 1
54 917 1
54 957 1
54 958 1
54 965 1
55 3 1
55 4 1
55 14 1
55 41 1
55 45 1
55 52 1
55 109 1
55 182 1
55 245 1
55 252 1
55 287 1
55 351 1
55 354 1
55 370 1
55 481 1
55 493 1
55 545 1
55 554 1
55 566 1
55 692 1
55 717 1
55 722 1
55 822 1
55 862 1
55 914 1
55 936 1
55 977 1
55 986 1
55 990 1
56 2 1
56 8 1
56 17 1
56 21 1
56 42 1
56 54 1
56 62 1
56 70 1
56 96 1
56 99 1
56 116 1
56 128 1
56 145 1
56 156 1
56 167 1
56 306 1
56 379 1
56 381 1
56 455 1
56 477 1
56 507 1
56 538 1
56 559 1
56 563 1
56 641 1
56 706 1
56 730 1
56 787 1
56 820 1
56 840 1
56 843 1
56 900 1
56 963 1
57 3 1
57 4 1
57 7 1
57 41 1
57 47 1
57 97 1
57 186 1
57 201 1
57 208 1
57 301 1
57 430 1
57 518 1
57 545 1
57 613 1
57 752 1
57 823 1
57 863 1
57 948 1
57 981 1
58 10 1
58 13 1
58 18 1
58 37 1
58 40 1
58 43 1
58 69 1
58 92 1
58 114 1
58 115 1
58 131 1
58 146 1
58 155 1
58 276 1
58 319 1
58 339 1
58 347 1
58 349 1
58 387 1
58 450 1
58 516 1
58 557 1
58 565 1
58 577 1
58 617 1
58 661 1
58 806 1
58 839 1
58 938 1
58 940 1
59 2 1
59 5 1
59 9 1
59 26 1
59 27 1
59 39 1
59 67 1
59 68 1
59 75 1
59 84 1
59 85 1
59 87 1
59 108 1
59 113 1
59 115 1
59 118 1
59 125 1
59 132 1
59 216 1
59 245 1
59 275 1
59 289 1
59 294 1
59 320 1
59 333 1
59 336 1
59 346 1
59 416 1
59 447 1
59 571 1
59 588 1
59 601 1
59 627 1
59 634 1
59 660 1
59 672 1
59 733 1
59 742 1
59 772 1
59 789 1
59 821 1
59 827 1
59 829 1
59 855 1
59 896 1
59 928 1
60 3 1
60 10 1
60 38 1
60 46 1
60 49 1
60 53 1
60 64 1
60 73 1
60 76 1
60 80 1
60 81 1
60 106 1
60 131 1
60 164 1
60 172 1
60 192 1
60 204 1
60 208 1
60 218 1
60 244 1
60 269 1
60 293 1
60 302 1
60 310 1
60 365 1
60 397 1
60 512 1
60 634 1
60 664 1
60 709 1
60 746 1
60 759 1
60 793 1
60 845 1
60 873 1
60 896 1
60 921 1
60 930 1
60 950 1
61 1 1
61 5 1
61 8 1
61 32 1
61 48 1
61 66 1
61 137 1
61 176 1
61 185 1
61 439 1
61 459 1
61 795 1
62 8 1
62 10 1
62 18 1
62 49 1
62 54 1
62 56 1
62 70 1
62 119 1
62 138 1
62 141 1
62 153 1
62 203 1
62 213 1
62 260 1
62 332 1
62 374 1
62 455 1
62 477 1
62 487 1
62 532 1
62 559 1
62 642 1
63 1 1
63 2 1
63 9 1
63 16 1
63 19 1
63 44 1
63 68 1
63 83 1
63 103 1
63 126 1
63 133 1
63 140 1
63 154 1
63 156 1
63 190 1
63 217 1
63 236 1
63 267 1
63 303 1
63 311 1
63 326 1
63 353 1
63 417 1
63 431 1
63 476 1
63 504 1
63 535 1
63 554 1
63 570 1
63 637 1
63 688 1
63 729 1
63 771 1
63 869 1
64 3 1
64 25 1
64 32 1
64 38 1
64 54 1
64 60 1
64 67 1
64 78 1
64 164 1
64 168 1
64 208 1
64 242 1
64 244 1
64 255 1
64 262 1
64 269 1
64 314 1
64 361 1
64 486 1
64 567 1
64 638 1
64 645 1
64 700 1
64 754 1
64 785 1
64 965 1
64 982 1
65 3 1
65 13 1
65 18 1
65 26 1
65 43 1
65 52 1
65 71 1
65 76 1
65 86 1
65 91 1
65 95 1
65 98 1
65 121 1
65 181 1
65 215 1
65 281 1
65 298 1
65 301 1
65 307 1
65 309 1
65 334 1
65 365 1
65 386 1
65 401 1
65 414 1
65 484 1
65 514 1
65 532 1
65 558 1
65 599 1
65 618 1
65 681 1
65 780 1
65 811 1
65 964 1
65 997 1
66 1 1
66 4 1
66 5 1
66 44 1
66 47 1
66 61 1
66 129 1
66 141 1
66 170 1
66 229 1
66 241 1
66 274 1
66 315 1
66 325 1
66 367 1
66 558 1
66 715 1
66 733 1
66 775 1
66 795 1
66 911 1
66 982 1
67 3 1
67 26 1
67 27 1
67 38 1
67 59 1
67 64 1
67 84 1
67 85 1
67 87 1
67 108 1
67 211 1
67 294 1
67 334 1
67 341 1
67 361 1
67 421 1
67 567 1
67 584 1
67 587 1
67 645 1
67 675 1
67 733 1
67 976 1
67 982 1
68 2 1
68 9 1
68 39 1
68 59 1
68 63 1
68 75 1
68 122 1
68 140 1
68 320 1
68 504 1
68 634 1
68 738 1
68 798 1
68 821 1
68 867 1
68 890 1
69 4 1
69 7 1
69 18 1
69 40 1
69 45 1
69 58 1
69 115 1
69 131 1
69 201 1
69 313 1
69 342 1
69 501 1
69 653 1
69 693 1
69 723 1
69 966 1
69 983 1
70 21 1
70 24 1
70 46 1
70 54 1
70 56 1
70 62 1
70 116 1
70 203 1
70 377 1
70 394 1
70 446 1
70 455 1
70 487 1
70 507 1
70 642 1
70 697 1
70 702 1
70 957 1
70 970 1
71 13 1
71 16 1
71 28 1
71 37 1
71 43 1
71 65 1
71 76 1
71 89 1
71 106 1
71 110 1
71 113 1
71 121 1
71 204 1
71 219 1
71 226 1
71 231 1
71 261 1
71 301 1
71 308 1
71 388 1
71 401 1
71 414 1
71 440 1
71 465 1
71 488 1
71 511 1
71 539 1
71 569 1
71 586 1
71 681 1
71 727 1
71 843 1
71 849 1
71 880 1
71 898 1
72 5 1
72 11 1
72 15 1
72 28 1
72 40 1
72 53 1
72 135 1
72 306 1
72 522 1
72 575 1
72 654 1
72 891 1
72 998 1
73 4 1
73 9 1
73 11 1
73 38 1
73 46 1
73 60 1
73 106 1
73 157 1
73 172 1
73 179 1
73 188 1
73 252 1
73 269 1
73 295 1
73 318 1
73 348 1
73 352 1
73 404 1
73 411 1
73 503 1
73 676 1
73 732 1
73 786 1
73 805 1
73 825 1
73 896 1
73 904 1
73 943 1
73 962 1
74 2 1
74 4 1
74 9 1
74 10 1
74 77 1
74 79 1
74 152 1
74 165 1
74 169 1
74 191 1
74 230 1
74 242 1
74 289 1
74 376 1
74 506 1
74 508 1
74 539 1
74 541 1
74 673 1
74 726 1
74 785 1
74 809 1
74 889 1
74 949 1
75 3 1
75 5 1
75 9 1
75 34 1
75 59 1
75 68 1
75 122 1
75 203 1
75 227 1
75 280 1
75 320 1
75 393 1
75 660 1
75 686 1
75 705 1
75 893 1
76 3 1
76 43 1
76 46 1
76 60 1
76 65 1
76 71 1
76 80 1
76 89 1
76 106 1
76 121 1
76 123 1
76 125 1
76 159 1
76 171 1
76 197 1
76 219 1
76 271 1
76 307 1
76 308 1
76 336 1
76 365 1
76 387 1
76 416 1
76 419 1
76 420 1
76 431 1
76 457 1
76 564 1
76 586 1
76 592 1
76 632 1
76 657 1
76 700 1
76 792 1
76 831 1
76 845 1
76 868 1
76 898 1
76 901 1
76 910 1
76 931 1
76 946 1
77 2 1
77 10 1
77 13 1
77 22 1
77 74 1
77 165 1
77 170 1
77 188 1
77 191 1
77 206 1
77 232 1
77 335 1
77 395 1
77 506 1
77 553 1
77 607 1
77 949 1
77 968 1
78 4 1
78 16 1
78 25 1
78 44 1
78 54 1
78 64 1
78 127 1
78 143 1
78 168 1
78 299 1
78 302 1
78 414 1
78 525 1
78 578 1
78 708 1
78 744 1
78 834 1
79 2 1
79 4 1
79 6 1
79 10 1
79 17 1
79 74 1
79 152 1
79 175 1
79 185 1
79 209 1
79 223 1
79 242 1
79 243 1
79 319 1
79 327 1
79 329 1
79 356 1
79 364 1
79 389 1
79 403 1
79 406 1
79 500 1
79 540 1
79 611 1
79 612 1
79 658 1
79 679 1
79 721 1
79 779 1
79 846 1
79 894 1
79 963 1
79 976 1
79 998 1
80 6 1
80 19 1
80 22 1
80 46 1
80 60 1
80 76 1
80 125 1
80 159 1
80 171 1
80 195 1
80 204 1
80 302 1
80 365 1
80 401 1
80 431 1
80 443 1
80 461 1
80 465 1
80 476 1
80 573 1
80 669 1
80 716 1
80 900 1
80 910 1
81 1 1
81 4 1
81 47 1
81 49 1
81 53 1
81 60 1
81 89 1
81 128 1
81 131 1
81 147 1
81 238 1
81 330 1
81 512 1
81 546 1
81 634 1
81 855 1
81 903 1
81 933 1
82 15 1
82 23 1
82 29 1
82 33 1
82 38 1
82 46 1
82 119 1
82 149 1
82 172 1
82 271 1
82 445 1
82 467 1
82 538 1
82 595 1
82 598 1
82 628 1
82 713 1
82 790 1
82 844 1
83 3 1
83 9 1
83 15 1
83 19 1
83 46 1
83 63 1
83 94 1
83 103 1
83 117 1
83 126 1
83 193 1
83 217 1
83 272 1
83 311 1
83 353 1
83 405 1
83 431 1
83 432 1
83 476 1
83 688 1
83 712 1
83 722 1
83 757 1
84 2 1
84 6 1
84 8 1
84 27 1
84 59 1
84 67 1
84 108 1
84 125 1
84 192 1
84 341 1
84 385 1
84 421 1
84 524 1
84 587 1
84 875 1
85 12 1
85 17 1
85 26 1
85 41 1
85 59 1
85 67 1
85 87 1
85 102 1
85 108 1
85 115 1
85 118 1
85 184 1
85 289 1
85 336 1
85 355 1
85 357 1
85 369 1
85 399 1
85 415 1
85 428 1
85 438 1
85 447 1
85 648 1
85 756 1
85 957 1
85 991 1
86 4 1
86 26 1
86 49 1
86 52 1
86 53 1
86 65 1
86 91 1
86 95 1
86 104 1
86 881 1
87 23 1
87 32 1
87 33 1
87 59 1
87 67 1
87 85 1
87 424 1
88 2 1
88 19 1
88 21 1
88 24 1
88 29 1
88 34 1
88 91 1
88 103 1
88 109 1
88 134 1
88 163 1
88 181 1
88 199 1
88 225 1
88 286 1
88 300 1
88 337 1
88 351 1
88 352 1
88 373 1
88 412 1
88 471 1
88 522 1
88 536 1
88 590 1
88 759 1
88 761 1
88 781 1
88 884 1
88 891 1
88 917 1
88 949 1
89 4 1
89 43 1
89 47 1
89 71 1
89 76 1
89 81 1
89 106 1
89 113 1
89 128 1
89 145 1
89 197 1
89 226 1
89 288 1
89 303 1
89 330 1
89 388 1
89 420 1
89 511 1
89 564 1
89 617 1
89 653 1
89 675 1
89 700 1
89 831 1
90 4 1
90 5 1
90 16 1
90 36 1
90 39 1
90 53 1
90 114 1
90 166 1
90 253 1
90 276 1
90 407 1
90 427 1
90 440 1
90 481 1
90 742 1
91 21 1
91 24 1
91 52 1
91 65 1
91 86 1
91 88 1
91 95 1
91 98 1
91 100 1
91 163 1
91 177 1
91 199 1
91 258 1
91 266 1
91 314 1
91 761 1
91 817 1
91 884 1
92 7 1
92 9 1
92 13 1
92 37 1
92 39 1
92 58 1
92 114 1
92 220 1
92 322 1
92 378 1
92 387 1
92 466 1
92 475 1
92 496 1
92 514 1
92 540 1
92 609 1
92 612 1
92 776 1
92 779 1
92 847 1
92 952 1
93 1 1
93 6 1
93 21 1
93 32 1
93 33 1
93 50 1
93 138 1
93 144 1
93 151 1
93 178 1
93 205 1
93 214 1
93 247 1
93 249 1
93 275 1
93 312 1
93 367 1
93 423 1
93 444 1
93 520 1
93 544 1
93 547 1
93 602 1
93 659 1
93 859 1
94 6 1
94 15 1
94 26 1
94 35 1
94 46 1
94 83 1
94 99 1
94 101 1
94 120 1
94 233 1
94 234 1
94 251 1
94 280 1
94 324 1
94 390 1
94 495 1
95 4 1
95 10 1
95 20 1
95 65 1
95 86 1
95 91 1
95 693 1
95 732 1
95 987 1
96 3 1
96 7 1
96 17 1
96 21 1
96 56 1
96 99 1
96 145 1
96 151 1
96 200 1
96 214 1
96 262 1
96 349 1
96 563 1
96 730 1
96 789 1
96 900 1
97 2 1
97 3 1
97 25 1
97 41 1
97 47 1
97 57 1
97 143 1
97 165 1
97 201 1
97 296 1
97 430 1
97 529 1
97 543 1
97 545 1
98 9 1
98 11 1
98 40 1
98 52 1
98 65 1
98 91 1
98 100 1
98 129 1
98 164 1
98 174 1
98 199 1
98 237 1
98 386 1
98 458 1
98 468 1
98 473 1
98 561 1
98 841 1
98 886 1
98 943 1
99 15 1
99 17 1
99 46 1
99 56 1
99 94 1
99 96 1
99 101 1
99 120 1
99 130 1
99 145 1
99 167 1
99 216 1
99 233 1
99 246 1
99 249 1
99 306 1
99 323 1
99 324 1
99 349 1
99 426 1
99 460 1
99 697 1
99 904 1
99 916 1
99 934 1
100 9 1
100 15 1
100 40 1
100 52 1
100 91 1
100 98 1
100 129 1
100 163 1
100 169 1
100 177 1
100 199 1
100 237 1
100 258 1
100 266 1
100 386 1
100 537 1
100 582 1
100 629 1
100 646 1
100 659 1
100 703 1
100 802 1
100 893 1
101 21 1
101 23 1
101 44 1
101 46 1
101 94 1
101 99 1
101 120 1
101 130 1
101 234 1
101 251 1
101 253 1
101 280 1
101 337 1
101 363 1
101 425 1
101 684 1
101 743 1
101 787 1
101 813 1
101 837 1
101 905 1
102 13 1
102 16 1
102 17 1
102 36 1
102 41 1
102 85 1
102 116 1
102 559 1
102 677 1
102 734 1
103 19 1
103 34 1
103 63 1
103 83 1
103 88 1
103 133 1
103 158 1
103 193 1
103 217 1
103 272 1
103 287 1
103 300 1
103 565 1
103 606 1
103 757 1
103 758 1
103 771 1
103 781 1
103 784 1
104 3 1
104 9 1
104 21 1
104 49 1
104 53 1
104 86 1
104 148 1
104 150 1
104 205 1
104 246 1
104 284 1
104 321 1
104 331 1
104 345 1
104 359 1
104 549 1
104 630 1
104 666 1
104 690 1
104 713 1
104 776 1
104 788 1
104 881 1
104 903 1
104 946 1
104 952 1
104 1000 1
105 6 1
105 10 1
105 11 1
105 13 1
105 16 1
105 126 1
105 144 1
105 194 1
105 257 1
105 330 1
105 370 1
105 413 1
105 571 1
105 608 1
105 622 1
105 746 1
105 882 1
105 991 1
106 46 1
106 60 1
106 71 1
106 73 1
106 76 1
106 89 1
106 172 1
106 397 1
106 511 1
106 564 1
106 586 1
106 617 1
106 793 1
106 898 1
106 972 1
107 5 1
107 7 1
107 13 1
107 22 1
107 41 1
107 50 1
107 127 1
107 161 1
107 183 1
107 189 1
107 197 1
107 456 1
107 491 1
107 625 1
107 630 1
107 701 1
107 716 1
108 12 1
108 41 1
108 59 1
108 67 1
108 84 1
108 85 1
108 294 1
108 421 1
108 601 1
108 756 1
109 3 1
109 24 1
109 29 1
109 52 1
109 55 1
109 88 1
109 163 1
109 182 1
109 223 1
109 225 1
109 291 1
109 354 1
109 380 1
109 399 1
109 498 1
109 542 1
109 615 1
109 723 1
109 747 1
109 763 1
109 862 1
109 885 1
109 925 1
110 3 1
110 8 1
110 28 1
110 37 1
110 38 1
110 71 1
110 224 1
110 231 1
110 362 1
110 552 1
110 593 1
110 783 1
110 801 1
110 999 1
111 4 1
111 11 1
111 16 1
111 40 1
111 43 1
111 48 1
111 149 1
111 312 1
111 523 1
111 953 1
112 1 1
112 4 1
112 6 1
112 8 1
112 23 1
112 32 1
112 248 1
112 264 1
112 278 1
112 323 1
112 354 1
112 423 1
112 506 1
112 524 1
112 714 1
112 804 1
112 821 1
112 854 1
113 5 1
113 39 1
113 43 1
113 59 1
113 71 1
113 89 1
113 142 1
113 204 1
113 226 1
113 261 1
113 263 1
113 324 1
113 358 1
113 517 1
113 550 1
113 650 1
113 686 1
113 720 1
113 806 1
113 843 1
113 849 1
114 13 1
114 16 1
114 53 1
114 58 1
114 90 1
114 92 1
114 319 1
114 387 1
114 427 1
114 516 1
115 18 1
115 26 1
115 58 1
115 59 1
115 69 1
115 85 1
115 118 1
115 131 1
115 146 1
115 184 1
115 275 1
115 349 1
115 363 1
115 438 1
115 565 1
115 609 1
115 648 1
115 653 1
115 672 1
115 747 1
115 761 1
116 13 1
116 16 1
116 54 1
116 56 1
116 70 1
116 102 1
116 160 1
116 187 1
116 274 1
116 379 1
116 446 1
116 507 1
116 538 1
116 559 1
116 677 1
116 706 1
116 734 1
116 814 1
116 820 1
116 843 1
116 921 1
116 970 1
117 1 1
117 8 1
117 9 1
117 19 1
117 51 1
117 83 1
117 137 1
117 318 1
117 439 1
117 462 1
117 469 1
117 712 1
117 962 1
117 969 1
118 11 1
118 18 1
118 49 1
118 59 1
118 85 1
118 115 1
118 184 1
118 277 1
118 289 1
118 333 1
118 346 1
118 355 1
118 357 1
118 415 1
118 428 1
118 493 1
118 500 1
118 601 1
118 635 1
118 672 1
118 682 1
118 848 1
118 852 1
118 936 1
118 950 1
119 10 1
119 18 1
119 38 1
119 46 1
119 62 1
119 82 1
119 138 1
119 153 1
119 374 1
119 468 1
119 628 1
119 735 1
119 869 1
120 1 1
120 3 1
120 28 1
120 94 1
120 99 1
120 101 1
120 198 1
120 234 1
120 241 1
120 250 1
120 280 1
120 284 1
120 285 1
120 344 1
120 427 1
120 572 1
120 710 1
120 717 1
120 756 1
120 764 1
120 777 1
120 835 1
120 974 1
120 983 1
121 13 1
121 19 1
121 24 1
121 65 1
121 71 1
121 76 1
121 219 1
121 307 1
121 401 1
121 419 1
121 569 1
121 610 1
121 618 1
122 9 1
122 10 1
122 11 1
122 15 1
122 68 1
122 75 1
122 356 1
122 418 1
122 528 1
122 536 1
122 678 1
122 751 1
122 955 1
123 3 1
123 4 1
123 5 1
123 46 1
123 47 1
123 76 1
123 134 1
123 148 1
123 231 1
123 271 1
123 299 1
123 328 1
123 548 1
123 628 1
123 792 1
123 910 1
123 922 1
124 3 1
124 4 1
124 9 1
124 14 1
124 17 1
124 42 1
124 155 1
124 187 1
124 238 1
124 244 1
124 261 1
124 272 1
124 295 1
124 296 1
124 389 1
124 411 1
124 688 1
124 778 1
125 27 1
125 46 1
125 59 1
125 76 1
125 80 1
125 84 1
125 159 1
125 195 1
125 336 1
125 366 1
125 377 1
125 387 1
125 401 1
125 406 1
125 416 1
125 429 1
125 457 1
125 475 1
125 476 1
125 590 1
125 603 1
125 705 1
125 718 1
125 966 1
125 974 1
126 6 1
126 9 1
126 13 1
126 63 1
126 83 1
126 105 1
126 353 1
126 417 1
126 508 1
126 826 1
126 939 1
127 13 1
127 22 1
127 25 1
127 54 1
127 78 1
127 107 1
127 143 1
127 173 1
127 183 1
127 315 1
127 366 1
127 403 1
127 456 1
127 469 1
127 491 1
127 543 1
127 625 1
127 701 1
127 813 1
127 860 1
127 911 1
128 21 1
128 42 1
128 47 1
128 56 1
128 81 1
128 89 1
128 156 1
128 388 1
128 432 1
128 694 1
128 840 1
128 855 1
128 915 1
129 1 1
129 5 1
129 52 1
129 66 1
129 98 1
129 100 1
129 130 1
129 265 1
129 268 1
129 325 1
129 452 1
129 494 1
129 558 1
129 888 1
129 982 1
130 1 1
130 5 1
130 46 1
130 99 1
130 101 1
130 129 1
130 136 1
130 157 1
130 265 1
130 268 1
130 290 1
130 292 1
130 339 1
130 499 1
130 555 1
130 697 1
130 904 1
130 989 1
130 995 1
131 53 1
131 58 1
131 60 1
131 69 1
131 81 1
131 115 1
131 146 1
131 192 1
131 259 1
131 339 1
131 501 1
131 555 1
131 577 1
131 634 1
131 746 1
132 1 1
132 2 1
132 8 1
132 26 1
132 48 1
132 59 1
132 212 1
132 248 1
132 273 1
132 416 1
132 428 1
132 488 1
132 631 1
132 647 1
132 669 1
132 793 1
132 826 1
132 827 1
132 913 1
132 987 1
133 8 1
133 19 1
133 27 1
133 30 1
133 63 1
133 103 1
133 287 1
133 565 1
133 748 1
133 771 1
133 773 1
134 2 1
134 4 1
134 5 1
134 34 1
134 88 1
134 123 1
134 146 1
134 173 1
134 286 1
134 291 1
134 299 1
134 384 1
134 628 1
134 929 1
135 1 1
135 5 1
135 7 1
135 14 1
135 53 1
135 72 1
135 180 1
135 215 1
135 228 1
135 382 1
135 391 1
135 585 1
135 616 1
135 660 1
135 728 1
135 796 1
135 926 1
135 938 1
135 942 1
136 1 1
136 4 1
136 5 1
136 20 1
136 29 1
136 130 1
136 139 1
136 157 1
136 161 1
136 198 1
136 255 1
136 331 1
136 338 1
136 340 1
136 371 1
136 441 1
136 486 1
136 494 1
136 555 1
136 611 1
136 677 1
136 690 1
136 724 1
136 749 1
136 750 1
136 752 1
136 760 1
136 995 1
137 5 1
137 8 1
137 51 1
137 61 1
137 117 1
137 176 1
137 439 1
137 459 1
137 474 1
137 485 1
137 568 1
137 969 1
138 1 1
138 18 1
138 32 1
138 62 1
138 93 1
138 119 1
138 141 1
138 153 1
138 175 1
138 190 1
138 423 1
138 661 1
138 703 1
138 714 1
138 735 1
138 762 1
138 864 1
138 922 1
139 4 1
139 10 1
139 11 1
139 20 1
139 37 1
139 136 1
139 161 1
139 486 1
139 749 1
139 752 1
140 1 1
140 2 1
140 16 1
140 63 1
140 68 1
140 798 1
141 4 1
141 18 1
141 44 1
141 62 1
141 66 1
141 138 1
141 170 1
141 175 1
141 190 1
141 207 1
141 229 1
141 237 1
141 241 1
141 260 1
141 274 1
141 556 1
141 585 1
141 655 1
141 703 1
141 945 1
142 5 1
142 6 1
142 9 1
142 21 1
142 39 1
142 113 1
142 162 1
142 310 1
142 396 1
142 397 1
142 527 1
142 686 1
142 806 1
142 848 1
143 2 1
143 3 1
143 54 1
143 78 1
143 97 1
143 127 1
143 173 1
143 561 1
143 698 1
143 708 1
144 1 1
144 11 1
144 13 1
144 33 1
144 93 1
144 105 1
144 257 1
144 330 1
144 413 1
145 4 1
145 47 1
145 56 1
145 89 1
145 96 1
145 99 1
145 167 1
145 184 1
145 307 1
145 563 1
145 934 1
146 4 1
146 5 1
146 58 1
146 115 1
146 131 1
146 134 1
146 339 1
146 384 1
146 501 1
146 617 1
146 633 1
146 866 1
146 940 1
147 1 1
147 5 1
147 28 1
147 49 1
147 53 1
147 81 1
147 235 1
147 238 1
147 380 1
147 408 1
147 429 1
147 452 1
147 509 1
147 519 1
147 535 1
147 560 1
147 591 1
147 670 1
147 676 1
147 939 1
147 970 1
148 3 1
148 46 1
148 49 1
148 53 1
148 104 1
148 123 1
148 246 1
148 331 1
148 603 1
149 4 1
149 15 1
149 16 1
149 38 1
149 82 1
149 111 1
149 316 1
149 624 1
149 873 1
150 5 1
150 9 1
150 12 1
150 21 1
150 34 1
150 104 1
150 195 1
150 233 1
150 284 1
150 343 1
150 345 1
150 438 1
150 502 1
150 513 1
150 597 1
150 623 1
150 713 1
150 781 1
150 870 1
150 996 1
151 3 1
151 21 1
151 50 1
151 93 1
151 96 1
151 178 1
151 209 1
151 262 1
151 398 1
151 505 1
151 544 1
151 602 1
151 680 1
151 883 1
152 3 1
152 4 1
152 10 1
152 51 1
152 74 1
152 79 1
152 169 1
152 185 1
152 273 1
152 277 1
152 289 1
152 309 1
152 357 1
152 372 1
152 526 1
152 539 1
152 541 1
152 562 1
152 574 1
152 702 1
152 774 1
152 817 1
152 853 1
152 990 1
153 2 1
153 10 1
153 34 1
153 62 1
153 119 1
153 138 1
153 515 1
153 607 1
153 735 1
153 861 1
153 864 1
154 1 1
154 4 1
154 36 1
154 44 1
154 48 1
154 63 1
154 156 1
154 326 1
154 450 1
154 518 1
154 740 1
155 9 1
155 17 1
155 18 1
155 43 1
155 58 1
155 124 1
155 244 1
155 293 1
155 743 1
156 1 1
156 21 1
156 56 1
156 63 1
156 128 1
156 154 1
156 236 1
156 326 1
156 381 1
156 415 1
156 432 1
156 518 1
156 570 1
157 1 1
157 38 1
157 46 1
157 73 1
157 130 1
157 136 1
157 168 1
157 174 1
157 228 1
157 265 1
157 383 1
157 398 1
157 411 1
157 527 1
157 547 1
157 555 1
157 588 1
157 596 1
157 616 1
157 732 1
157 767 1
157 795 1
157 881 1
157 895 1
157 980 1
158 2 1
158 19 1
158 27 1
158 31 1
158 34 1
158 103 1
158 162 1
158 251 1
158 256 1
158 383 1
158 385 1
158 477 1
158 780 1
158 971 1
159 10 1
159 13 1
159 18 1
159 76 1
159 80 1
159 125 1
159 171 1
159 195 1
159 211 1
159 243 1
159 247 1
159 305 1
159 406 1
159 410 1
159 457 1
159 523 1
159 590 1
159 646 1
159 900 1
159 901 1
159 946 1
159 974 1
160 7 1
160 9 1
160 13 1
160 16 1
160 21 1
160 116 1
160 187 1
160 217 1
160 274 1
160 596 1
160 619 1
160 836 1
160 864 1
161 4 1
161 7 1
161 41 1
161 107 1
161 136 1
161 139 1
161 200 1
161 255 1
161 494 1
161 505 1
161 534 1
161 643 1
161 749 1
161 803 1
162 9 1
162 19 1
162 21 1
162 34 1
162 142 1
162 158 1
162 226 1
162 232 1
162 310 1
162 396 1
162 400 1
162 636 1
162 638 1
162 971 1
163 29 1
163 52 1
163 88 1
163 91 1
163 100 1
163 109 1
163 177 1
163 181 1
163 223 1
163 314 1
163 352 1
163 412 1
163 473 1
163 537 1
163 590 1
163 615 1
163 646 1
163 731 1
163 747 1
163 782 1
163 817 1
163 871 1
164 9 1
164 11 1
164 38 1
164 60 1
164 64 1
164 98 1
164 208 1
164 220 1
164 293 1
164 310 1
164 561 1
164 706 1
164 773 1
164 930 1
165 3 1
165 10 1
165 25 1
165 74 1
165 77 1
165 97 1
165 949 1
166 3 1
166 15 1
166 25 1
166 36 1
166 39 1
166 90 1
166 283 1
166 360 1
166 407 1
166 440 1
166 454 1
166 464 1
166 481 1
166 730 1
166 753 1
166 846 1
166 935 1
166 947 1
167 8 1
167 12 1
167 30 1
167 56 1
167 99 1
167 145 1
167 191 1
167 934 1
168 38 1
168 46 1
168 54 1
168 64 1
168 78 1
168 157 1
168 174 1
168 235 1
168 242 1
168 255 1
168 262 1
168 265 1
168 269 1
168 302 1
168 383 1
168 398 1
168 478 1
168 531 1
168 567 1
168 592 1
168 658 1
168 704 1
168 980 1
169 9 1
169 10 1
169 40 1
169 74 1
169 100 1
169 152 1
169 289 1
169 357 1
169 372 1
169 605 1
169 633 1
169 774 1
169 809 1
169 951 1
170 2 1
170 4 1
170 10 1
170 66 1
170 77 1
170 141 1
170 229 1
170 260 1
170 315 1
170 394 1
170 463 1
170 534 1
170 585 1
170 715 1
170 812 1
171 1 1
171 26 1
171 52 1
171 76 1
171 80 1
171 159 1
171 196 1
171 222 1
171 431 1
171 443 1
171 461 1
171 483 1
171 946 1
172 23 1
172 29 1
172 60 1
172 73 1
172 82 1
172 106 1
172 212 1
172 269 1
172 352 1
172 381 1
172 538 1
172 598 1
172 886 1
172 985 1
172 992 1
173 2 1
173 34 1
173 54 1
173 127 1
173 134 1
173 143 1
173 291 1
173 315 1
173 543 1
173 911 1
173 929 1
174 9 1
174 40 1
174 46 1
174 98 1
174 157 1
174 168 1
174 228 1
174 398 1
174 409 1
174 521 1
174 527 1
174 577 1
174 616 1
174 658 1
174 795 1
174 886 1
175 2 1
175 10 1
175 18 1
175 79 1
175 138 1
175 141 1
175 190 1
175 209 1
175 237 1
175 304 1
175 540 1
175 661 1
175 779 1
175 924 1
175 951 1
176 5 1
176 7 1
176 11 1
176 18 1
176 61 1
176 137 1
176 179 1
176 185 1
176 206 1
176 230 1
176 267 1
176 278 1
176 408 1
176 459 1
176 490 1
176 496 1
176 768 1
176 992 1
177 4 1
177 18 1
177 49 1
177 91 1
177 100 1
177 163 1
177 258 1
177 443 1
177 537 1
177 562 1
177 652 1
177 664 1
177 782 1
177 802 1
177 817 1
177 871 1
177 893 1
177 925 1
177 930 1
178 23 1
178 27 1
178 42 1
178 50 1
178 93 1
178 151 1
178 209 1
178 219 1
178 239 1
178 924 1
178 944 1
179 4 1
179 7 1
179 9 1
179 11 1
179 73 1
179 176 1
179 206 1
179 268 1
179 295 1
179 318 1
179 320 1
179 328 1
179 400 1
179 512 1
179 553 1
179 651 1
179 904 1
179 977 1
180 1 1
180 12 1
180 14 1
180 27 1
180 30 1
180 135 1
180 288 1
180 294 1
180 353 1
180 382 1
180 422 1
180 576 1
180 585 1
180 660 1
180 674 1
180 810 1
180 979 1
180 996 1
181 3 1
181 26 1
181 29 1
181 65 1
181 88 1
181 163 1
181 213 1
181 225 1
181 281 1
181 334 1
181 342 1
181 352 1
181 409 1
181 558 1
181 614 1
181 667 1
181 780 1
181 997 1
182 13 1
182 32 1
182 52 1
182 54 1
182 55 1
182 109 1
182 225 1
182 354 1
182 375 1
182 399 1
182 481 1
182 504 1
182 554 1
182 587 1
182 644 1
182 876 1
182 986 1
183 16 1
183 22 1
183 36 1
183 48 1
183 107 1
183 127 1
183 491 1
183 492 1
183 509 1
183 979 1
184 4 1
184 47 1
184 85 1
184 115 1
184 118 1
184 145 1
184 222 1
184 307 1
184 358 1
184 415 1
184 447 1
184 745 1
184 827 1
184 849 1
184 856 1
184 912 1
185 5 1
185 10 1
185 61 1
185 79 1
185 152 1
185 176 1
185 223 1
185 267 1
185 344 1
185 384 1
185 480 1
185 548 1
185 796 1
185 800 1
185 992 1
186 4 1
186 5 1
186 35 1
186 41 1
186 57 1
186 208 1
186 240 1
186 541 1
186 613 1
186 712 1
186 811 1
186 816 1
186 830 1
186 897 1
187 4 1
187 14 1
187 16 1
187 116 1
187 124 1
187 160 1
187 272 1
187 274 1
187 295 1
187 343 1
187 836 1
188 2 1
188 9 1
188 11 1
188 22 1
188 73 1
188 77 1
188 250 1
188 252 1
188 263 1
188 335 1
188 348 1
188 392 1
188 578 1
188 598 1
188 662 1
188 729 1
188 868 1
189 3 1
189 12 1
189 22 1
189 34 1
189 50 1
189 107 1
189 197 1
189 857 1
190 16 1
190 44 1
190 63 1
190 138 1
190 141 1
190 175 1
190 303 1
190 393 1
190 535 1
190 576 1
190 661 1
190 703 1
190 762 1
190 922 1
190 951 1
191 2 1
191 12 1
191 30 1
191 74 1
191 77 1
191 167 1
191 206 1
191 436 1
191 506 1
191 673 1
192 2 1
192 8 1
192 53 1
192 60 1
192 84 1
192 131 1
192 202 1
192 218 1
192 259 1
192 385 1
192 875 1
193 5 1
193 11 1
193 19 1
193 40 1
193 83 1
193 103 1
193 591 1
194 2 1
194 13 1
194 15 1
194 16 1
194 25 1
194 105 1
194 608 1
194 984 1
195 5 1
195 34 1
195 80 1
195 125 1
195 150 1
195 159 1
195 233 1
195 406 1
195 603 1
195 781 1
195 900 1
196 1 1
196 2 1
196 17 1
196 41 1
196 52 1
196 171 1
196 317 1
196 426 1
196 483 1
196 621 1
196 657 1
196 681 1
196 709 1
196 799 1
196 967 1
197 22 1
197 43 1
197 76 1
197 89 1
197 107 1
197 189 1
197 288 1
197 308 1
197 420 1
197 456 1
197 560 1
197 629 1
197 653 1
197 857 1
197 999 1
198 3 1
198 4 1
198 28 1
198 29 1
198 120 1
198 136 1
198 207 1
198 250 1
198 340 1
198 378 1
198 470 1
198 563 1
198 568 1
198 574 1
198 777 1
198 800 1
199 24 1
199 88 1
199 91 1
199 98 1
199 100 1
199 237 1
199 943 1
200 7 1
200 21 1
200 41 1
200 96 1
200 161 1
200 214 1
200 266 1
200 505 1
200 537 1
200 604 1
200 642 1
200 789 1
200 919 1
201 18 1
201 40 1
201 41 1
201 57 1
201 69 1
201 97 1
201 430 1
201 518 1
201 529 1
201 971 1
201 997 1
202 1 1
202 2 1
202 6 1
202 8 1
202 35 1
202 192 1
202 364 1
202 750 1
203 5 1
203 34 1
203 54 1
203 62 1
203 70 1
203 75 1
203 280 1
204 43 1
204 46 1
204 60 1
204 71 1
204 80 1
204 113 1
204 263 1
204 302 1
204 324 1
204 358 1
204 573 1
204 727 1
204 843 1
204 880 1
205 3 1
205 6 1
205 9 1
205 50 1
205 93 1
205 104 1
205 214 1
205 312 1
205 520 1
205 630 1
205 659 1
205 687 1
205 767 1
205 805 1
205 809 1
205 903 1
205 952 1
206 2 1
206 11 1
206 77 1
206 176 1
206 179 1
206 191 1
206 268 1
206 278 1
206 322 1
206 436 1
206 550 1
206 552 1
206 594 1
206 607 1
206 665 1
207 3 1
207 4 1
207 28 1
207 44 1
207 141 1
207 198 1
207 378 1
207 454 1
207 470 1
207 480 1
207 857 1
207 945 1
208 4 1
208 57 1
208 60 1
208 64 1
208 164 1
208 186 1
208 244 1
208 310 1
208 541 1
208 613 1
208 638 1
208 664 1
208 752 1
209 2 1
209 50 1
209 79 1
209 151 1
209 175 1
209 178 1
209 243 1
209 779 1
210 10 1
210 13 1
210 19 1
210 24 1
210 32 1
210 43 1
210 533 1
210 685 1
210 707 1
211 3 1
211 10 1
211 13 1
211 38 1
211 67 1
211 159 1
211 243 1
211 355 1
211 523 1
211 622 1
211 646 1
211 652 1
211 665 1
211 828 1
211 954 1
212 1 1
212 8 1
212 23 1
212 29 1
212 132 1
212 172 1
212 338 1
212 428 1
212 451 1
212 845 1
213 3 1
213 18 1
213 26 1
213 49 1
213 62 1
213 181 1
213 257 1
213 332 1
213 409 1
213 442 1
213 532 1
213 914 1
214 6 1
214 7 1
214 93 1
214 96 1
214 200 1
214 205 1
214 312 1
214 547 1
214 767 1
214 807 1
215 1 1
215 3 1
215 7 1
215 52 1
215 65 1
215 135 1
215 227 1
215 228 1
215 229 1
215 298 1
215 391 1
215 448 1
215 462 1
215 484 1
215 495 1
215 616 1
215 796 1
216 2 1
216 15 1
216 27 1
216 46 1
216 59 1
216 99 1
216 224 1
216 245 1
216 246 1
216 544 1
216 588 1
216 648 1
216 679 1
216 988 1
217 7 1
217 21 1
217 63 1
217 83 1
217 103 1
217 160 1
217 272 1
217 311 1
217 619 1
217 722 1
217 736 1
217 864 1
218 6 1
218 8 1
218 36 1
218 53 1
218 60 1
218 192 1
218 382 1
218 759 1
219 23 1
219 27 1
219 71 1
219 76 1
219 121 1
219 178 1
219 256 1
219 569 1
219 944 1
220 7 1
220 9 1
220 11 1
220 92 1
220 164 1
220 378 1
220 706 1
220 776 1
220 790 1
221 7 1
221 8 1
221 23 1
221 41 1
221 42 1
221 45 1
221 340 1
221 395 1
221 402 1
221 580 1
221 689 1
221 724 1
221 874 1
222 4 1
222 26 1
222 47 1
222 52 1
222 171 1
222 184 1
222 282 1
222 326 1
222 341 1
222 358 1
222 368 1
222 374 1
222 447 1
222 691 1
222 856 1
222 918 1
222 927 1
222 959 1
223 10 1
223 29 1
223 79 1
223 109 1
223 163 1
223 185 1
223 344 1
223 356 1
223 369 1
223 380 1
223 433 1
223 445 1
223 473 1
223 480 1
223 747 1
223 763 1
223 771 1
223 832 1
223 851 1
223 902 1
223 963 1
224 2 1
224 27 1
224 28 1
224 37 1
224 110 1
224 216 1
224 362 1
224 482 1
224 593 1
224 932 1
224 988 1
224 999 1
225 29 1
225 52 1
225 88 1
225 109 1
225 181 1
225 182 1
225 399 1
225 504 1
225 587 1
226 19 1
226 34 1
226 71 1
226 89 1
226 113 1
226 162 1
226 261 1
226 388 1
226 488 1
226 517 1
226 589 1
226 636 1
227 3 1
227 5 1
227 52 1
227 75 1
227 215 1
227 393 1
227 686 1
227 875 1
227 964 1
228 1 1
228 46 1
228 135 1
228 157 1
228 174 1
228 215 1
228 229 1
228 279 1
228 527 1
228 547 1
228 596 1
228 695 1
228 839 1
228 926 1
228 935 1
228 948 1
229 1 1
229 66 1
229 141 1
229 170 1
229 215 1
229 228 1
229 279 1
229 315 1
229 367 1
229 585 1
229 733 1
230 2 1
230 9 1
230 11 1
230 18 1
230 74 1
230 176 1
230 376 1
230 408 1
230 508 1
231 4 1
231 37 1
231 47 1
231 71 1
231 110 1
231 123 1
231 440 1
231 490 1
231 548 1
231 552 1
231 572 1
231 683 1
231 762 1
231 783 1
231 833 1
232 9 1
232 13 1
232 21 1
232 22 1
232 77 1
232 162 1
232 696 1
233 5 1
233 15 1
233 94 1
233 99 1
233 150 1
233 195 1
233 323 1
233 324 1
233 376 1
233 390 1
233 482 1
233 595 1
233 623 1
233 781 1
234 1 1
234 3 1
234 46 1
234 94 1
234 101 1
234 120 1
234 241 1
234 251 1
234 284 1
234 425 1
234 600 1
234 743 1
234 787 1
235 38 1
235 46 1
235 49 1
235 53 1
235 147 1
235 168 1
235 408 1
235 429 1
235 591 1
235 676 1
235 774 1
235 791 1
235 931 1
236 1 1
236 17 1
236 23 1
236 44 1
236 63 1
236 156 1
236 267 1
236 305 1
236 415 1
236 446 1
236 489 1
236 570 1
236 869 1
237 18 1
237 98 1
237 100 1
237 141 1
237 175 1
237 199 1
237 386 1
237 458 1
237 582 1
237 629 1
237 659 1
237 924 1
237 943 1
237 989 1
238 3 1
238 4 1
238 53 1
238 81 1
238 124 1
238 147 1
238 261 1
238 296 1
238 402 1
238 637 1
238 878 1
238 903 1
238 973 1
239 1 1
239 23 1
239 35 1
239 42 1
239 52 1
239 178 1
239 924 1
240 4 1
240 18 1
240 41 1
240 43 1
240 49 1
240 186 1
240 290 1
240 581 1
240 783 1
240 811 1
240 816 1
240 905 1
240 975 1
241 3 1
241 44 1
241 66 1
241 120 1
241 141 1
241 234 1
241 274 1
241 344 1
241 551 1
241 556 1
241 600 1
241 640 1
241 756 1
242 2 1
242 54 1
242 64 1
242 74 1
242 79 1
242 168 1
242 255 1
242 389 1
242 403 1
242 442 1
242 474 1
242 486 1
242 575 1
242 785 1
242 808 1
242 833 1
242 965 1
243 2 1
243 10 1
243 79 1
243 159 1
243 209 1
243 211 1
243 319 1
243 348 1
243 976 1
244 9 1
244 60 1
244 64 1
244 124 1
244 155 1
244 208 1
244 293 1
244 411 1
244 638 1
244 664 1
244 743 1
244 940 1
245 2 1
245 3 1
245 14 1
245 55 1
245 59 1
245 216 1
245 252 1
245 287 1
245 674 1
245 699 1
245 822 1
245 844 1
245 852 1
245 928 1
245 955 1
245 977 1
246 15 1
246 53 1
246 99 1
246 104 1
246 148 1
246 216 1
246 249 1
246 321 1
246 410 1
246 497 1
246 544 1
246 549 1
246 603 1
246 671 1
246 690 1
247 10 1
247 18 1
247 32 1
247 33 1
247 93 1
247 159 1
247 275 1
247 404 1
247 410 1
247 421 1
247 437 1
247 542 1
248 1 1
248 6 1
248 8 1
248 48 1
248 112 1
248 132 1
248 264 1
248 282 1
248 345 1
248 360 1
248 479 1
248 821 1
248 919 1
248 987 1
249 6 1
249 15 1
249 21 1
249 93 1
249 99 1
249 246 1
249 367 1
249 410 1
249 444 1
249 699 1
250 2 1
250 3 1
250 22 1
250 120 1
250 188 1
250 198 1
250 259 1
250 263 1
250 444 1
250 572 1
250 598 1
250 662 1
250 764 1
250 769 1
251 27 1
251 31 1
251 94 1
251 101 1
251 158 1
251 234 1
251 256 1
251 383 1
251 455 1
251 491 1
251 498 1
251 743 1
251 753 1
251 780 1
251 975 1
252 3 1
252 9 1
252 55 1
252 73 1
252 188 1
252 245 1
252 287 1
252 545 1
252 626 1
252 674 1
252 844 1
252 852 1
253 5 1
253 16 1
253 21 1
253 44 1
253 90 1
253 101 1
253 281 1
253 337 1
253 487 1
253 691 1
253 754 1
253 813 1
253 956 1
254 4 1
254 10 1
254 13 1
254 24 1
254 25 1
254 264 1
254 526 1
254 570 1
255 4 1
255 64 1
255 136 1
255 161 1
255 168 1
255 242 1
255 262 1
255 331 1
255 486 1
255 494 1
255 534 1
255 690 1
255 754 1
255 808 1
255 833 1
255 933 1
256 23 1
256 27 1
256 31 1
256 158 1
256 219 1
256 251 1
256 383 1
256 385 1
256 455 1
256 477 1
256 520 1
256 768 1
256 814 1
256 944 1
257 3 1
257 13 1
257 26 1
257 105 1
257 144 1
257 213 1
257 370 1
257 418 1
257 579 1
257 622 1
257 877 1
258 1 1
258 2 1
258 31 1
258 91 1
258 100 1
258 177 1
258 266 1
258 703 1
258 802 1
259 2 1
259 22 1
259 53 1
259 131 1
259 192 1
259 250 1
259 444 1
260 4 1
260 18 1
260 62 1
260 141 1
260 170 1
260 394 1
260 396 1
260 728 1
261 3 1
261 71 1
261 113 1
261 124 1
261 226 1
261 238 1
261 517 1
261 637 1
262 21 1
262 64 1
262 96 1
262 151 1
262 168 1
262 255 1
262 269 1
262 478 1
262 505 1
262 680 1
263 22 1
263 43 1
263 113 1
263 188 1
263 204 1
263 250 1
263 324 1
263 729 1
264 1 1
264 10 1
264 13 1
264 112 1
264 248 1
264 254 1
264 282 1
264 323 1
264 526 1
264 714 1
265 5 1
265 38 1
265 129 1
265 130 1
265 157 1
265 168 1
265 290 1
265 383 1
265 557 1
265 760 1
265 767 1
265 807 1
265 861 1
265 881 1
265 902 1
266 7 1
266 41 1
266 91 1
266 100 1
266 200 1
266 258 1
266 350 1
266 537 1
266 703 1
266 920 1
266 994 1
267 1 1
267 5 1
267 63 1
267 176 1
267 185 1
267 236 1
267 305 1
267 489 1
267 992 1
268 1 1
268 11 1
268 129 1
268 130 1
268 179 1
268 206 1
268 292 1
268 322 1
268 494 1
268 499 1
268 550 1
269 60 1
269 64 1
269 73 1
269 168 1
269 172 1
269 262 1
269 352 1
269 381 1
269 478 1
269 531 1
269 567 1
269 592 1
269 676 1
269 886 1
269 937 1
270 8 1
270 17 1
270 21 1
270 23 1
270 33 1
270 54 1
270 286 1
270 316 1
270 556 1
270 625 1
270 967 1
271 23 1
271 33 1
271 46 1
271 76 1
271 82 1
271 123 1
271 445 1
271 830 1
272 4 1
272 83 1
272 103 1
272 124 1
272 187 1
272 217 1
272 688 1
272 722 1
272 757 1
273 1 1
273 3 1
273 4 1
273 48 1
273 132 1
273 152 1
273 647 1
273 817 1
274 66 1
274 116 1
274 141 1
274 160 1
274 187 1
274 241 1
274 556 1
274 655 1
274 836 1
274 956 1
275 26 1
275 32 1
275 59 1
275 93 1
275 115 1
275 247 1
275 404 1
275 609 1
276 4 1
276 39 1
276 40 1
276 43 1
276 58 1
276 90 1
276 347 1
276 417 1
276 434 1
276 511 1
277 4 1
277 18 1
277 49 1
277 51 1
277 118 1
277 152 1
277 309 1
277 526 1
277 601 1
277 895 1
277 990 1
278 1 1
278 4 1
278 11 1
278 112 1
278 176 1
278 206 1
278 304 1
278 354 1
278 423 1
278 496 1
278 694 1
278 768 1
278 804 1
278 888 1
278 918 1
279 1 1
279 11 1
279 43 1
279 49 1
279 228 1
279 229 1
279 788 1
279 935 1
280 34 1
280 75 1
280 94 1
280 101 1
280 120 1
280 203 1
281 21 1
281 26 1
281 44 1
281 65 1
281 181 1
281 253 1
281 309 1
281 332 1
281 333 1
281 334 1
281 342 1
281 413 1
281 487 1
281 599 1
281 643 1
281 672 1
281 775 1
281 858 1
281 956 1
282 1 1
282 4 1
282 47 1
282 222 1
282 248 1
282 264 1
282 341 1
282 345 1
282 368 1
282 374 1
282 516 1
282 691 1
282 755 1
282 770 1
282 818 1
282 825 1
282 837 1
282 920 1
283 1 1
283 36 1
283 39 1
283 44 1
283 47 1
283 166 1
283 325 1
283 668 1
284 1 1
284 21 1
284 104 1
284 120 1
284 150 1
284 234 1
284 285 1
284 345 1
284 359 1
284 427 1
284 437 1
284 438 1
284 502 1
284 717 1
284 832 1
285 1 1
285 8 1
285 36 1
285 51 1
285 120 1
285 284 1
285 329 1
285 391 1
285 392 1
285 419 1
285 427 1
285 437 1
285 710 1
285 832 1
285 859 1
285 879 1
285 908 1
286 2 1
286 23 1
286 33 1
286 88 1
286 134 1
286 270 1
286 507 1
287 19 1
287 55 1
287 103 1
287 133 1
287 245 1
287 252 1
287 565 1
287 748 1
287 773 1
287 815 1
287 852 1
288 27 1
288 30 1
288 43 1
288 89 1
288 180 1
288 197 1
288 294 1
288 303 1
288 653 1
288 726 1
288 979 1
288 999 1
289 59 1
289 74 1
289 85 1
289 118 1
289 152 1
289 169 1
289 333 1
289 336 1
289 355 1
289 369 1
289 372 1
289 399 1
289 466 1
289 493 1
289 539 1
289 562 1
289 633 1
289 701 1
289 702 1
289 737 1
289 742 1
289 853 1
290 5 1
290 18 1
290 43 1
290 130 1
290 240 1
290 265 1
290 557 1
290 581 1
290 760 1
290 975 1
291 24 1
291 29 1
291 34 1
291 109 1
291 134 1
291 173 1
291 515 1
291 862 1
291 885 1
291 929 1
292 1 1
292 14 1
292 26 1
292 52 1
292 130 1
292 268 1
292 339 1
292 368 1
292 461 1
292 499 1
292 519 1
292 579 1
292 602 1
292 649 1
292 801 1
292 989 1
293 9 1
293 38 1
293 60 1
293 155 1
293 164 1
293 244 1
293 743 1
293 773 1
293 873 1
293 940 1
294 30 1
294 59 1
294 67 1
294 108 1
294 180 1
294 288 1
294 422 1
294 601 1
294 733 1
295 4 1
295 14 1
295 73 1
295 124 1
295 179 1
295 187 1
295 318 1
295 503 1
295 553 1
295 778 1
295 825 1
295 943 1
295 977 1
296 4 1
296 41 1
296 47 1
296 97 1
296 124 1
296 238 1
296 878 1
296 973 1
297 6 1
297 15 1
297 26 1
297 38 1
297 46 1
297 50 1
297 372 1
297 463 1
297 485 1
297 649 1
297 937 1
298 4 1
298 5 1
298 51 1
298 52 1
298 65 1
298 215 1
298 347 1
298 441 1
298 484 1
298 495 1
298 514 1
298 532 1
298 583 1
298 680 1
299 4 1
299 16 1
299 44 1
299 78 1
299 123 1
299 134 1
299 449 1
299 628 1
299 744 1
299 748 1
300 3 1
300 8 1
300 12 1
300 34 1
300 88 1
300 103 1
300 337 1
300 606 1
300 613 1
300 707 1
300 736 1
300 781 1
300 784 1
300 842 1
301 3 1
301 4 1
301 13 1
301 57 1
301 65 1
301 71 1
301 386 1
301 414 1
301 823 1
302 54 1
302 60 1
302 78 1
302 80 1
302 168 1
302 204 1
302 573 1
303 43 1
303 44 1
303 63 1
303 89 1
303 190 1
303 288 1
304 1 1
304 2 1
304 4 1
304 10 1
304 175 1
304 278 1
304 581 1
305 1 1
305 13 1
305 18 1
305 159 1
305 236 1
305 267 1
305 422 1
305 489 1
306 5 1
306 17 1
306 28 1
306 56 1
306 72 1
306 99 1
306 583 1
306 916 1
307 47 1
307 65 1
307 76 1
307 121 1
307 145 1
307 184 1
307 419 1
307 657 1
307 745 1
307 777 1
307 884 1
308 16 1
308 28 1
308 43 1
308 71 1
308 76 1
308 197 1
308 456 1
308 868 1
309 4 1
309 26 1
309 65 1
309 152 1
309 277 1
309 281 1
309 332 1
309 350 1
309 526 1
309 620 1
309 895 1
310 21 1
310 60 1
310 142 1
310 162 1
310 164 1
310 208 1
310 397 1
310 400 1
310 930 1
310 950 1
311 12 1
311 23 1
311 27 1
311 63 1
311 83 1
311 217 1
311 375 1
311 435 1
311 688 1
311 729 1
311 749 1
311 978 1
311 988 1
312 11 1
312 40 1
312 93 1
312 111 1
312 205 1
312 214 1
312 659 1
312 767 1
312 807 1
313 4 1
313 5 1
313 11 1
313 45 1
313 69 1
313 342 1
313 711 1
314 25 1
314 32 1
314 52 1
314 64 1
314 91 1
314 163 1
315 54 1
315 66 1
315 127 1
315 170 1
315 173 1
315 229 1
315 367 1
315 543 1
315 715 1
315 911 1
316 4 1
316 8 1
316 16 1
316 54 1
316 149 1
316 270 1
316 624 1
316 873 1
317 1 1
317 2 1
317 12 1
317 52 1
317 196 1
317 407 1
317 479 1
317 497 1
317 604 1
317 639 1
317 928 1
318 1 1
318 51 1
318 73 1
318 117 1
318 179 1
318 295 1
318 462 1
318 943 1
318 977 1
319 2 1
319 13 1
319 58 1
319 79 1
319 114 1
319 243 1
319 348 1
319 364 1
319 453 1
319 516 1
319 806 1
319 835 1
319 976 1
320 4 1
320 9 1
320 59 1
320 68 1
320 75 1
320 179 1
320 458 1
320 651 1
320 660 1
320 745 1
320 802 1
321 2 1
321 6 1
321 13 1
321 53 1
321 104 1
321 246 1
321 497 1
321 549 1
321 776 1
321 946 1
321 968 1
322 11 1
322 13 1
322 37 1
322 92 1
322 206 1
322 268 1
322 335 1
322 475 1
322 550 1
322 594 1
322 695 1
322 798 1
322 952 1
323 1 1
323 15 1
323 99 1
323 112 1
323 233 1
323 264 1
323 376 1
323 595 1
323 714 1
323 923 1
324 94 1
324 99 1
324 113 1
324 204 1
324 233 1
324 263 1
324 358 1
324 390 1
324 482 1
324 550 1
325 1 1
325 5 1
325 44 1
325 66 1
325 129 1
325 283 1
325 452 1
325 558 1
325 668 1
325 775 1
326 26 1
326 52 1
326 63 1
326 154 1
326 156 1
326 222 1
326 471 1
326 584 1
326 636 1
326 883 1
326 929 1
327 1 1
327 4 1
327 6 1
327 36 1
327 51 1
327 79 1
327 329 1
327 460 1
327 551 1
327 763 1
327 791 1
327 985 1
328 5 1
328 7 1
328 11 1
328 47 1
328 123 1
328 179 1
328 400 1
328 531 1
328 737 1
328 740 1
329 4 1
329 36 1
329 51 1
329 79 1
329 285 1
329 327 1
329 392 1
329 406 1
329 419 1
329 436 1
329 499 1
329 521 1
329 887 1
330 4 1
330 11 1
330 81 1
330 89 1
330 105 1
330 144 1
330 413 1
331 4 1
331 49 1
331 104 1
331 136 1
331 148 1
331 255 1
331 371 1
331 739 1
331 760 1
332 26 1
332 49 1
332 62 1
332 213 1
332 281 1
332 309 1
332 333 1
332 350 1
332 503 1
332 532 1
332 914 1
333 26 1
333 59 1
333 118 1
333 281 1
333 289 1
333 332 1
333 346 1
333 413 1
333 493 1
333 701 1
333 789 1
333 848 1
333 858 1
334 26 1
334 27 1
334 65 1
334 67 1
334 181 1
334 281 1
334 342 1
334 580 1
334 599 1
334 672 1
334 764 1
334 775 1
334 780 1
334 964 1
335 2 1
335 13 1
335 37 1
335 77 1
335 188 1
335 322 1
335 695 1
335 868 1
336 46 1
336 59 1
336 76 1
336 85 1
336 125 1
336 289 1
336 366 1
336 369 1
336 377 1
336 387 1
336 447 1
336 466 1
336 530 1
336 592 1
336 627 1
336 668 1
336 742 1
336 913 1
336 923 1
336 958 1
336 960 1
337 34 1
337 44 1
337 88 1
337 101 1
337 253 1
337 300 1
337 351 1
337 430 1
337 470 1
337 483 1
337 613 1
337 813 1
338 20 1
338 23 1
338 29 1
338 136 1
338 212 1
338 420 1
338 724 1
338 845 1
339 1 1
339 58 1
339 130 1
339 131 1
339 146 1
339 292 1
339 368 1
339 501 1
339 555 1
339 577 1
339 617 1
339 661 1
339 989 1
340 7 1
340 29 1
340 41 1
340 136 1
340 198 1
340 221 1
340 402 1
340 611 1
340 677 1
341 27 1
341 47 1
341 67 1
341 84 1
341 222 1
341 282 1
341 368 1
341 587 1
341 675 1
341 976 1
342 4 1
342 69 1
342 181 1
342 281 1
342 313 1
342 334 1
342 775 1
343 4 1
343 5 1
343 12 1
343 14 1
343 150 1
343 187 1
343 502 1
343 639 1
343 683 1
343 718 1
343 741 1
343 765 1
343 870 1
344 3 1
344 10 1
344 120 1
344 185 1
344 223 1
344 241 1
344 369 1
344 384 1
344 480 1
344 548 1
344 551 1
344 756 1
344 796 1
344 816 1
344 832 1
345 1 1
345 104 1
345 150 1
345 248 1
345 282 1
345 284 1
345 359 1
345 360 1
345 362 1
345 479 1
345 502 1
345 713 1
345 818 1
346 1 1
346 3 1
346 5 1
346 59 1
346 118 1
346 333 1
346 528 1
346 789 1
346 829 1
346 848 1
346 851 1
346 852 1
346 855 1
346 896 1
347 4 1
347 40 1
347 51 1
347 58 1
347 276 1
347 298 1
347 371 1
347 424 1
347 441 1
347 993 1
348 2 1
348 11 1
348 73 1
348 188 1
348 243 1
348 319 1
348 392 1
348 453 1
348 578 1
349 17 1
349 18 1
349 58 1
349 96 1
349 99 1
349 115 1
349 363 1
349 426 1
349 460 1
349 557 1
349 565 1
349 899 1
350 7 1
350 26 1
350 41 1
350 266 1
350 309 1
350 332 1
350 503 1
350 620 1
350 766 1
350 876 1
350 926 1
351 4 1
351 34 1
351 41 1
351 55 1
351 88 1
351 337 1
351 430 1
351 471 1
351 536 1
352 73 1
352 88 1
352 163 1
352 172 1
352 181 1
352 269 1
352 381 1
352 412 1
352 676 1
352 937 1
353 12 1
353 30 1
353 63 1
353 83 1
353 126 1
353 180 1
353 417 1
353 431 1
353 549 1
353 554 1
353 624 1
353 637 1
354 1 1
354 55 1
354 109 1
354 112 1
354 182 1
354 278 1
354 524 1
354 804 1
354 862 1
355 3 1
355 38 1
355 85 1
355 118 1
355 211 1
355 289 1
355 357 1
355 622 1
355 665 1
355 765 1
355 828 1
355 909 1
355 950 1
356 10 1
356 11 1
356 15 1
356 79 1
356 122 1
356 223 1
356 359 1
356 751 1
356 834 1
356 963 1
357 10 1
357 85 1
357 118 1
357 152 1
357 169 1
357 355 1
357 950 1
358 47 1
358 113 1
358 184 1
358 204 1
358 222 1
358 324 1
358 447 1
358 550 1
358 650 1
358 720 1
358 849 1
358 912 1
358 918 1
359 11 1
359 15 1
359 104 1
359 284 1
359 345 1
359 356 1
359 834 1
360 1 1
360 15 1
360 25 1
360 166 1
360 248 1
360 345 1
360 362 1
360 479 1
360 730 1
360 838 1
360 935 1
361 3 1
361 23 1
361 29 1
361 30 1
361 64 1
361 67 1
361 373 1
361 567 1
361 573 1
361 656 1
361 982 1
362 1 1
362 28 1
362 110 1
362 224 1
362 345 1
362 360 1
362 593 1
362 838 1
362 932 1
362 941 1
363 18 1
363 21 1
363 23 1
363 101 1
363 115 1
363 349 1
363 684 1
363 744 1
363 747 1
363 761 1
363 837 1
364 2 1
364 6 1
364 35 1
364 79 1
364 202 1
364 319 1
364 500 1
364 835 1
365 18 1
365 43 1
365 60 1
365 65 1
365 76 1
365 80 1
365 457 1
365 845 1
365 910 1
365 931 1
366 25 1
366 46 1
366 54 1
366 125 1
366 127 1
366 336 1
366 377 1
366 403 1
366 429 1
366 530 1
366 708 1
366 720 1
366 913 1
367 6 1
367 66 1
367 93 1
367 229 1
367 249 1
367 315 1
367 733 1
367 911 1
368 1 1
368 222 1
368 282 1
368 292 1
368 339 1
368 341 1
368 374 1
368 461 1
368 516 1
368 519 1
368 579 1
369 10 1
369 85 1
369 223 1
369 289 1
369 336 1
369 344 1
369 399 1
369 433 1
369 466 1
369 902 1
369 958 1
370 13 1
370 14 1
370 52 1
370 55 1
370 105 1
370 257 1
370 493 1
370 622 1
370 717 1
370 824 1
371 4 1
371 51 1
371 136 1
371 331 1
371 347 1
371 424 1
371 441 1
371 739 1
371 760 1
371 993 1
372 6 1
372 50 1
372 152 1
372 169 1
372 289 1
372 297 1
372 463 1
372 484 1
372 562 1
372 633 1
372 644 1
372 774 1
372 951 1
373 2 1
373 19 1
373 23 1
373 30 1
373 88 1
373 361 1
373 425 1
373 472 1
373 656 1
373 689 1
373 891 1
373 909 1
373 973 1
373 980 1
374 10 1
374 62 1
374 119 1
374 222 1
374 282 1
374 368 1
374 468 1
374 516 1
374 691 1
374 755 1
374 869 1
374 906 1
375 12 1
375 13 1
375 23 1
375 54 1
375 182 1
375 311 1
375 379 1
375 739 1
375 876 1
375 988 1
376 9 1
376 15 1
376 74 1
376 230 1
376 233 1
376 323 1
376 595 1
376 923 1
377 21 1
377 24 1
377 70 1
377 125 1
377 336 1
377 366 1
377 394 1
377 429 1
377 475 1
377 697 1
377 720 1
377 863 1
377 897 1
377 965 1
378 3 1
378 7 1
378 92 1
378 198 1
378 207 1
378 220 1
378 466 1
378 470 1
378 480 1
378 564 1
378 568 1
378 656 1
378 711 1
378 776 1
379 13 1
379 54 1
379 56 1
379 116 1
379 375 1
379 538 1
379 739 1
380 1 1
380 5 1
380 29 1
380 109 1
380 147 1
380 223 1
380 509 1
380 670 1
380 723 1
380 851 1
381 21 1
381 56 1
381 156 1
381 172 1
381 269 1
381 352 1
381 787 1
381 886 1
381 992 1
382 1 1
382 8 1
382 36 1
382 135 1
382 180 1
382 218 1
382 576 1
382 585 1
382 674 1
382 942 1
383 157 1
383 158 1
383 168 1
383 251 1
383 256 1
383 265 1
383 385 1
383 455 1
383 491 1
383 780 1
383 881 1
383 980 1
384 4 1
384 10 1
384 134 1
384 146 1
384 185 1
384 344 1
384 548 1
384 800 1
384 816 1
385 2 1
385 84 1
385 158 1
385 192 1
385 256 1
385 383 1
386 13 1
386 65 1
386 98 1
386 100 1
386 237 1
386 301 1
386 458 1
386 468 1
386 473 1
386 582 1
387 58 1
387 76 1
387 92 1
387 114 1
387 125 1
387 336 1
387 416 1
387 592 1
387 632 1
387 650 1
387 960 1
388 47 1
388 71 1
388 89 1
388 128 1
388 226 1
388 488 1
388 539 1
388 589 1
388 675 1
388 684 1
389 2 1
389 9 1
389 42 1
389 79 1
389 124 1
389 242 1
389 403 1
389 442 1
389 474 1
389 612 1
389 640 1
389 685 1
389 696 1
389 829 1
389 838 1
389 842 1
389 854 1
389 870 1
389 934 1
390 6 1
390 17 1
390 23 1
390 94 1
390 233 1
390 324 1
390 482 1
390 635 1
391 7 1
391 8 1
391 36 1
391 135 1
391 215 1
391 285 1
391 616 1
392 11 1
392 51 1
392 188 1
392 285 1
392 329 1
392 348 1
392 419 1
392 436 1
392 499 1
392 578 1
392 618 1
392 797 1
392 859 1
392 887 1
393 5 1
393 16 1
393 44 1
393 75 1
393 190 1
393 227 1
393 686 1
393 705 1
393 875 1
393 893 1
393 964 1
394 4 1
394 21 1
394 70 1
394 170 1
394 260 1
394 377 1
394 396 1
394 463 1
394 589 1
394 697 1
394 702 1
394 860 1
394 897 1
395 2 1
395 7 1
395 13 1
395 45 1
395 77 1
395 221 1
395 533 1
395 553 1
395 724 1
395 803 1
395 874 1
396 4 1
396 9 1
396 142 1
396 162 1
396 260 1
396 394 1
396 638 1
396 728 1
397 21 1
397 46 1
397 60 1
397 106 1
397 142 1
397 310 1
397 793 1
397 972 1
398 21 1
398 50 1
398 151 1
398 157 1
398 168 1
398 174 1
398 616 1
398 658 1
399 85 1
399 109 1
399 182 1
399 225 1
399 289 1
399 369 1
399 587 1
399 644 1
400 11 1
400 21 1
400 162 1
400 179 1
400 310 1
400 328 1
400 512 1
401 46 1
401 65 1
401 71 1
401 80 1
401 121 1
401 125 1
401 476 1
401 618 1
402 3 1
402 4 1
402 41 1
402 221 1
402 238 1
402 340 1
402 678 1
402 866 1
403 25 1
403 79 1
403 127 1
403 242 1
403 366 1
403 389 1
403 469 1
403 612 1
403 696 1
404 4 1
404 11 1
404 32 1
404 73 1
404 247 1
404 275 1
404 421 1
404 586 1
404 786 1
404 962 1
405 3 1
405 18 1
405 32 1
405 43 1
405 46 1
405 83 1
405 432 1
405 449 1
405 464 1
405 593 1
405 610 1
405 670 1
405 715 1
405 824 1
405 841 1
406 4 1
406 79 1
406 125 1
406 159 1
406 195 1
406 329 1
406 590 1
406 603 1
406 705 1
406 846 1
407 1 1
407 12 1
407 36 1
407 90 1
407 166 1
407 317 1
407 454 1
407 478 1
407 481 1
407 497 1
407 704 1
407 822 1
407 889 1
408 18 1
408 49 1
408 147 1
408 176 1
408 230 1
408 235 1
408 429 1
408 535 1
408 774 1
408 939 1
409 3 1
409 9 1
409 40 1
409 174 1
409 181 1
409 213 1
409 521 1
409 577 1
409 682 1
409 769 1
409 784 1
409 799 1
410 15 1
410 18 1
410 159 1
410 246 1
410 247 1
410 249 1
411 9 1
411 46 1
411 73 1
411 124 1
411 157 1
411 244 1
411 588 1
411 732 1
411 805 1
411 895 1
411 906 1
412 4 1
412 6 1
412 10 1
412 88 1
412 163 1
412 352 1
412 590 1
412 615 1
412 663 1
412 751 1
412 794 1
413 26 1
413 105 1
413 144 1
413 281 1
413 330 1
413 333 1
413 858 1
414 4 1
414 16 1
414 65 1
414 71 1
414 78 1
414 301 1
414 448 1
414 681 1
414 834 1
415 1 1
415 85 1
415 118 1
415 156 1
415 184 1
415 236 1
415 428 1
415 500 1
415 525 1
415 667 1
415 957 1
416 2 1
416 59 1
416 76 1
416 125 1
416 132 1
416 387 1
416 571 1
416 632 1
416 650 1
416 793 1
416 826 1
416 898 1
417 40 1
417 43 1
417 63 1
417 126 1
417 276 1
417 353 1
417 434 1
417 511 1
417 554 1
417 916 1
418 3 1
418 10 1
418 11 1
418 26 1
418 122 1
418 257 1
418 528 1
418 536 1
418 579 1
418 678 1
418 823 1
418 877 1
419 76 1
419 121 1
419 285 1
419 307 1
419 329 1
419 392 1
419 657 1
419 859 1
419 879 1
420 20 1
420 29 1
420 76 1
420 89 1
420 197 1
420 338 1
421 32 1
421 67 1
421 84 1
421 108 1
421 247 1
421 404 1
421 586 1
422 13 1
422 18 1
422 30 1
422 180 1
422 294 1
422 305 1
423 1 1
423 4 1
423 93 1
423 112 1
423 138 1
423 278 1
423 854 1
423 887 1
423 918 1
424 32 1
424 33 1
424 51 1
424 87 1
424 347 1
424 371 1
425 23 1
425 30 1
425 46 1
425 101 1
425 234 1
425 373 1
425 434 1
425 472 1
425 787 1
425 909 1
425 973 1
425 986 1
426 2 1
426 17 1
426 99 1
426 196 1
426 349 1
426 460 1
426 799 1
426 899 1
426 967 1
427 53 1
427 90 1
427 114 1
427 120 1
427 284 1
427 285 1
427 710 1
427 717 1
427 832 1
428 8 1
428 85 1
428 118 1
428 132 1
428 212 1
428 415 1
428 451 1
428 488 1
428 500 1
428 525 1
428 651 1
428 667 1
428 758 1
428 840 1
428 879 1
428 936 1
428 957 1
429 125 1
429 147 1
429 235 1
429 366 1
429 377 1
429 408 1
429 475 1
429 535 1
429 676 1
429 720 1
429 863 1
429 965 1
429 970 1
430 34 1
430 57 1
430 97 1
430 201 1
430 337 1
430 351 1
430 470 1
430 483 1
430 518 1
430 529 1
430 545 1
430 863 1
430 948 1
430 971 1
430 997 1
431 63 1
431 76 1
431 80 1
431 83 1
431 171 1
431 353 1
431 443 1
431 476 1
431 637 1
432 21 1
432 46 1
432 83 1
432 128 1
432 156 1
432 405 1
433 10 1
433 17 1
433 21 1
433 44 1
433 223 1
433 369 1
433 445 1
433 792 1
433 892 1
433 902 1
434 23 1
434 30 1
434 40 1
434 276 1
434 417 1
434 425 1
434 511 1
435 4 1
435 12 1
435 13 1
435 27 1
435 39 1
435 311 1
435 453 1
435 620 1
435 794 1
436 2 1
436 51 1
436 191 1
436 206 1
436 329 1
436 392 1
436 499 1
436 552 1
436 618 1
436 665 1
436 797 1
437 1 1
437 32 1
437 33 1
437 247 1
437 284 1
437 285 1
438 21 1
438 26 1
438 85 1
438 115 1
438 150 1
438 284 1
438 513 1
438 648 1
438 991 1
439 1 1
439 8 1
439 61 1
439 117 1
439 137 1
439 568 1
439 969 1
440 37 1
440 39 1
440 71 1
440 90 1
440 166 1
440 231 1
440 572 1
441 4 1
441 51 1
441 136 1
441 298 1
441 347 1
441 371 1
442 2 1
442 18 1
442 49 1
442 213 1
442 242 1
442 389 1
442 474 1
442 510 1
442 575 1
442 640 1
442 685 1
442 953 1
443 4 1
443 49 1
443 80 1
443 171 1
443 177 1
443 431 1
443 461 1
443 562 1
443 597 1
443 652 1
443 664 1
443 669 1
443 716 1
443 719 1
443 930 1
444 21 1
444 22 1
444 93 1
444 249 1
444 250 1
444 259 1
444 859 1
445 10 1
445 33 1
445 82 1
445 223 1
445 271 1
445 433 1
445 467 1
445 713 1
445 771 1
446 23 1
446 44 1
446 54 1
446 70 1
446 116 1
446 236 1
446 814 1
446 957 1
446 958 1
447 59 1
447 85 1
447 184 1
447 222 1
447 336 1
447 358 1
447 627 1
447 668 1
447 912 1
447 918 1
447 927 1
448 1 1
448 4 1
448 7 1
448 16 1
448 215 1
448 414 1
448 462 1
448 901 1
449 16 1
449 32 1
449 43 1
449 44 1
449 299 1
449 405 1
449 464 1
449 593 1
449 666 1
450 1 1
450 10 1
450 13 1
450 44 1
450 58 1
450 154 1
451 2 1
451 6 1
451 8 1
451 22 1
451 212 1
451 428 1
451 626 1
452 5 1
452 28 1
452 129 1
452 147 1
452 325 1
452 560 1
453 2 1
453 4 1
453 39 1
453 319 1
453 348 1
453 435 1
454 4 1
454 36 1
454 44 1
454 166 1
454 207 1
454 407 1
454 822 1
454 889 1
455 56 1
455 62 1
455 70 1
455 251 1
455 256 1
455 383 1
455 477 1
455 487 1
455 491 1
455 975 1
456 13 1
456 43 1
456 107 1
456 127 1
456 197 1
456 308 1
456 560 1
456 629 1
456 813 1
457 18 1
457 43 1
457 76 1
457 125 1
457 159 1
457 365 1
457 901 1
458 4 1
458 9 1
458 98 1
458 237 1
458 320 1
458 386 1
458 468 1
458 513 1
458 745 1
458 802 1
458 850 1
459 1 1
459 32 1
459 48 1
459 61 1
459 137 1
459 176 1
460 1 1
460 51 1
460 99 1
460 327 1
460 349 1
460 426 1
460 899 1
460 907 1
460 985 1
461 1 1
461 80 1
461 171 1
461 292 1
461 368 1
461 443 1
461 519 1
461 669 1
461 801 1
462 1 1
462 51 1
462 117 1
462 215 1
462 318 1
462 448 1
462 469 1
462 492 1
462 734 1
462 882 1
462 901 1
462 962 1
463 4 1
463 50 1
463 170 1
463 297 1
463 372 1
463 394 1
463 484 1
463 589 1
463 644 1
463 812 1
464 3 1
464 25 1
464 32 1
464 166 1
464 405 1
464 449 1
464 593 1
464 666 1
465 16 1
465 19 1
465 22 1
465 37 1
465 71 1
465 80 1
466 7 1
466 92 1
466 289 1
466 336 1
466 369 1
466 378 1
466 564 1
466 569 1
466 656 1
466 719 1
466 831 1
466 958 1
467 19 1
467 22 1
467 33 1
467 50 1
467 82 1
467 445 1
467 600 1
467 713 1
467 786 1
467 790 1
468 10 1
468 98 1
468 119 1
468 374 1
468 386 1
468 458 1
468 473 1
468 841 1
468 869 1
468 906 1
469 25 1
469 51 1
469 117 1
469 127 1
469 403 1
469 462 1
469 492 1
469 734 1
469 882 1
469 962 1
470 34 1
470 198 1
470 207 1
470 337 1
470 378 1
470 430 1
470 483 1
471 26 1
471 34 1
471 52 1
471 88 1
471 326 1
471 351 1
471 522 1
471 536 1
471 584 1
471 636 1
471 759 1
471 872 1
471 894 1
471 945 1
472 1 1
472 6 1
472 23 1
472 31 1
472 373 1
472 425 1
472 608 1
472 973 1
472 986 1
473 29 1
473 98 1
473 163 1
473 223 1
473 386 1
473 468 1
473 731 1
473 841 1
473 908 1
474 5 1
474 8 1
474 137 1
474 242 1
474 389 1
474 442 1
474 485 1
474 640 1
474 829 1
474 838 1
474 953 1
474 978 1
474 995 1
475 37 1
475 92 1
475 125 1
475 322 1
475 377 1
475 429 1
475 496 1
475 514 1
475 540 1
475 612 1
475 952 1
475 972 1
476 63 1
476 80 1
476 83 1
476 125 1
476 401 1
476 431 1
477 31 1
477 56 1
477 62 1
477 158 1
477 256 1
477 455 1
477 768 1
477 814 1
477 944 1
478 1 1
478 12 1
478 168 1
478 262 1
478 269 1
478 407 1
478 531 1
478 704 1
479 1 1
479 2 1
479 248 1
479 317 1
479 345 1
479 360 1
479 604 1
480 3 1
480 185 1
480 207 1
480 223 1
480 344 1
480 378 1
480 832 1
481 52 1
481 55 1
481 90 1
481 166 1
481 182 1
481 407 1
481 554 1
482 2 1
482 27 1
482 224 1
482 233 1
482 324 1
482 390 1
482 738 1
482 961 1
483 52 1
483 171 1
483 196 1
483 337 1
483 430 1
483 470 1
484 50 1
484 65 1
484 215 1
484 298 1
484 372 1
484 463 1
484 514 1
484 644 1
484 812 1
485 5 1
485 15 1
485 38 1
485 137 1
485 297 1
485 474 1
486 20 1
486 64 1
486 136 1
486 139 1
486 242 1
486 255 1
486 754 1
486 808 1
487 44 1
487 62 1
487 70 1
487 253 1
487 281 1
487 455 1
487 642 1
487 691 1
487 956 1
488 8 1
488 71 1
488 132 1
488 226 1
488 388 1
488 428 1
488 539 1
488 589 1
488 651 1
488 840 1
489 4 1
489 11 1
489 16 1
489 236 1
489 267 1
489 305 1
489 632 1
489 867 1
490 4 1
490 7 1
490 18 1
490 47 1
490 176 1
490 231 1
490 683 1
491 107 1
491 127 1
491 183 1
491 251 1
491 383 1
491 455 1
491 625 1
491 975 1
492 16 1
492 48 1
492 51 1
492 183 1
492 462 1
492 469 1
492 734 1
493 14 1
493 55 1
493 118 1
493 289 1
493 333 1
493 370 1
493 566 1
493 701 1
493 717 1
493 722 1
493 737 1
493 914 1
493 936 1
493 990 1
494 1 1
494 129 1
494 136 1
494 161 1
494 255 1
494 268 1
494 534 1
494 643 1
494 690 1
494 803 1
494 888 1
495 6 1
495 35 1
495 52 1
495 94 1
495 215 1
495 298 1
495 582 1
495 606 1
495 671 1
495 766 1
496 11 1
496 37 1
496 92 1
496 176 1
496 278 1
496 475 1
496 514 1
496 694 1
496 768 1
496 779 1
497 12 1
497 53 1
497 246 1
497 317 1
497 321 1
497 407 1
497 928 1
497 968 1
498 3 1
498 27 1
498 31 1
498 52 1
498 109 1
498 251 1
498 542 1
498 615 1
498 727 1
498 753 1
498 820 1
498 925 1
499 130 1
499 268 1
499 292 1
499 329 1
499 392 1
499 436 1
499 887 1
500 2 1
500 79 1
500 118 1
500 364 1
500 415 1
500 428 1
500 525 1
500 679 1
500 721 1
500 758 1
500 936 1
501 7 1
501 45 1
501 69 1
501 131 1
501 146 1
501 339 1
501 555 1
501 966 1
502 5 1
502 12 1
502 150 1
502 284 1
502 343 1
502 345 1
502 639 1
502 718 1
503 4 1
503 26 1
503 73 1
503 295 1
503 332 1
503 350 1
503 825 1
503 876 1
504 9 1
504 52 1
504 63 1
504 68 1
504 182 1
504 225 1
505 7 1
505 21 1
505 151 1
505 161 1
505 200 1
505 262 1
505 680 1
505 883 1
506 8 1
506 32 1
506 74 1
506 77 1
506 112 1
506 191 1
506 673 1
507 23 1
507 33 1
507 56 1
507 70 1
507 116 1
507 286 1
507 706 1
507 970 1
508 2 1
508 6 1
508 13 1
508 74 1
508 126 1
508 230 1
508 654 1
508 692 1
508 826 1
508 939 1
509 5 1
509 16 1
509 36 1
509 147 1
509 183 1
509 380 1
509 670 1
509 947 1
509 979 1
510 2 1
510 14 1
510 15 1
510 18 1
510 49 1
510 442 1
510 808 1
510 912 1
511 71 1
511 89 1
511 106 1
511 276 1
511 417 1
511 434 1
511 617 1
512 11 1
512 49 1
512 60 1
512 81 1
512 179 1
512 400 1
512 709 1
512 778 1
513 4 1
513 9 1
513 21 1
513 150 1
513 438 1
513 458 1
513 597 1
513 996 1
514 65 1
514 92 1
514 298 1
514 475 1
514 484 1
514 496 1
514 540 1
514 847 1
514 856 1
514 972 1
515 2 1
515 10 1
515 24 1
515 29 1
515 153 1
515 291 1
515 594 1
515 607 1
515 862 1
516 58 1
516 114 1
516 282 1
516 319 1
516 368 1
516 374 1
517 2 1
517 12 1
517 41 1
517 113 1
517 226 1
517 261 1
518 1 1
518 57 1
518 154 1
518 156 1
518 201 1
518 430 1
518 971 1
519 1 1
519 28 1
519 147 1
519 292 1
519 368 1
519 461 1
519 579 1
520 23 1
520 27 1
520 50 1
520 93 1
520 205 1
520 256 1
520 847 1
521 36 1
521 40 1
521 51 1
521 174 1
521 329 1
521 409 1
521 577 1
521 682 1
521 769 1
521 784 1
522 11 1
522 15 1
522 34 1
522 72 1
522 88 1
522 471 1
522 759 1
522 891 1
523 13 1
523 40 1
523 43 1
523 111 1
523 159 1
523 211 1
523 646 1
524 1 1
524 6 1
524 8 1
524 84 1
524 112 1
524 354 1
525 4 1
525 44 1
525 78 1
525 415 1
525 428 1
525 500 1
525 578 1
525 667 1
525 758 1
525 872 1
525 879 1
526 13 1
526 152 1
526 254 1
526 264 1
526 277 1
526 309 1
526 895 1
527 6 1
527 21 1
527 142 1
527 157 1
527 174 1
527 228 1
527 596 1
527 695 1
527 795 1
528 3 1
528 5 1
528 11 1
528 122 1
528 346 1
528 418 1
528 536 1
528 735 1
528 823 1
528 851 1
529 1 1
529 12 1
529 23 1
529 97 1
529 201 1
529 430 1
529 627 1
530 1 1
530 8 1
530 28 1
530 46 1
530 336 1
530 366 1
530 614 1
530 708 1
530 913 1
531 7 1
531 11 1
531 168 1
531 269 1
531 328 1
531 478 1
531 592 1
531 704 1
531 725 1
531 737 1
531 740 1
532 52 1
532 62 1
532 65 1
532 213 1
532 298 1
532 332 1
532 811 1
532 914 1
533 7 1
533 19 1
533 24 1
533 45 1
533 210 1
533 395 1
534 2 1
534 10 1
534 161 1
534 170 1
534 255 1
534 494 1
534 643 1
534 721 1
534 782 1
535 16 1
535 63 1
535 147 1
535 190 1
535 408 1
535 429 1
535 576 1
535 970 1
536 88 1
536 122 1
536 351 1
536 418 1
536 471 1
536 528 1
536 678 1
536 823 1
536 955 1
537 7 1
537 100 1
537 163 1
537 177 1
537 200 1
537 266 1
537 604 1
537 782 1
537 893 1
537 920 1
537 994 1
538 23 1
538 56 1
538 82 1
538 116 1
538 172 1
538 379 1
538 598 1
538 843 1
538 921 1
538 985 1
539 71 1
539 74 1
539 152 1
539 289 1
539 388 1
539 488 1
539 541 1
539 574 1
539 853 1
540 10 1
540 79 1
540 92 1
540 175 1
540 475 1
540 514 1
540 612 1
540 847 1
540 856 1
540 972 1
541 4 1
541 74 1
541 152 1
541 186 1
541 208 1
541 539 1
541 574 1
542 3 1
542 10 1
542 18 1
542 109 1
542 247 1
542 498 1
542 727 1
542 925 1
543 2 1
543 25 1
543 97 1
543 127 1
543 173 1
543 315 1
543 741 1
543 911 1
544 15 1
544 21 1
544 93 1
544 151 1
544 216 1
544 246 1
544 602 1
544 648 1
544 671 1
544 815 1
545 3 1
545 55 1
545 57 1
545 97 1
545 252 1
545 430 1
545 626 1
545 863 1
546 1 1
546 2 1
546 3 1
546 4 1
546 47 1
546 81 1
546 621 1
546 933 1
546 959 1
547 6 1
547 46 1
547 93 1
547 157 1
547 214 1
547 228 1
548 47 1
548 123 1
548 185 1
548 231 1
548 344 1
548 384 1
548 796 1
548 816 1
548 910 1
549 12 1
549 30 1
549 104 1
549 246 1
549 321 1
549 353 1
549 624 1
549 690 1
549 788 1
549 946 1
550 113 1
550 206 1
550 268 1
550 322 1
550 324 1
550 358 1
550 594 1
550 650 1
550 798 1
551 1 1
551 3 1
551 36 1
551 241 1
551 327 1
551 344 1
552 2 1
552 37 1
552 110 1
552 206 1
552 231 1
552 436 1
552 665 1
552 762 1
552 783 1
552 801 1
553 2 1
553 4 1
553 77 1
553 179 1
553 295 1
553 395 1
553 968 1
554 55 1
554 63 1
554 182 1
554 353 1
554 417 1
554 481 1
554 986 1
555 130 1
555 131 1
555 136 1
555 157 1
555 339 1
555 501 1
556 21 1
556 33 1
556 141 1
556 241 1
556 270 1
556 274 1
556 625 1
556 647 1
556 655 1
556 956 1
556 967 1
557 5 1
557 18 1
557 58 1
557 265 1
557 290 1
557 349 1
557 760 1
557 861 1
557 902 1
557 938 1
558 3 1
558 65 1
558 66 1
558 129 1
558 181 1
558 325 1
558 614 1
558 710 1
558 982 1
558 997 1
559 8 1
559 16 1
559 56 1
559 62 1
559 102 1
559 116 1
559 677 1
560 28 1
560 43 1
560 147 1
560 197 1
560 452 1
560 456 1
560 629 1
561 2 1
561 3 1
561 9 1
561 98 1
561 143 1
561 164 1
561 698 1
562 4 1
562 152 1
562 177 1
562 289 1
562 372 1
562 443 1
562 597 1
562 664 1
562 702 1
562 719 1
562 755 1
563 4 1
563 29 1
563 56 1
563 96 1
563 145 1
563 198 1
563 730 1
564 7 1
564 76 1
564 89 1
564 106 1
564 378 1
564 466 1
564 569 1
564 656 1
564 700 1
564 711 1
564 719 1
564 885 1
564 915 1
565 58 1
565 103 1
565 115 1
565 133 1
565 287 1
565 349 1
565 773 1
566 3 1
566 14 1
566 28 1
566 38 1
566 55 1
566 493 1
566 645 1
567 3 1
567 64 1
567 67 1
567 168 1
567 269 1
567 361 1
567 584 1
568 3 1
568 8 1
568 137 1
568 198 1
568 378 1
568 439 1
568 574 1
569 7 1
569 71 1
569 121 1
569 219 1
569 466 1
569 564 1
569 915 1
570 13 1
570 25 1
570 63 1
570 156 1
570 236 1
570 254 1
570 869 1
571 2 1
571 6 1
571 10 1
571 59 1
571 105 1
571 416 1
572 3 1
572 37 1
572 120 1
572 231 1
572 250 1
572 440 1
572 764 1
572 833 1
572 899 1
573 23 1
573 29 1
573 80 1
573 204 1
573 302 1
573 361 1
574 3 1
574 152 1
574 198 1
574 539 1
574 541 1
574 568 1
574 800 1
575 2 1
575 11 1
575 40 1
575 72 1
575 242 1
575 442 1
575 654 1
576 1 1
576 16 1
576 180 1
576 190 1
576 382 1
576 535 1
577 58 1
577 131 1
577 174 1
577 339 1
577 409 1
577 521 1
577 661 1
577 682 1
577 799 1
578 4 1
578 78 1
578 188 1
578 348 1
578 392 1
578 525 1
579 3 1
579 257 1
579 292 1
579 368 1
579 418 1
579 519 1
580 8 1
580 26 1
580 27 1
580 42 1
580 221 1
580 334 1
580 818 1
581 1 1
581 4 1
581 18 1
581 240 1
581 290 1
581 304 1
581 853 1
581 975 1
582 6 1
582 35 1
582 100 1
582 237 1
582 386 1
582 495 1
582 606 1
582 629 1
582 766 1
583 4 1
583 5 1
583 28 1
583 298 1
583 306 1
583 680 1
583 731 1
583 865 1
584 3 1
584 26 1
584 67 1
584 326 1
584 471 1
584 567 1
584 883 1
584 945 1
585 135 1
585 141 1
585 170 1
585 180 1
585 229 1
585 382 1
585 674 1
585 996 1
586 32 1
586 71 1
586 76 1
586 106 1
586 404 1
586 421 1
586 898 1
587 67 1
587 84 1
587 182 1
587 225 1
587 341 1
587 399 1
587 644 1
587 976 1
588 27 1
588 46 1
588 59 1
588 157 1
588 216 1
588 411 1
588 679 1
588 772 1
588 895 1
588 906 1
588 981 1
589 4 1
589 226 1
589 388 1
589 394 1
589 463 1
589 488 1
590 88 1
590 125 1
590 159 1
590 163 1
590 406 1
590 412 1
590 615 1
590 794 1
590 974 1
591 11 1
591 40 1
591 53 1
591 147 1
591 193 1
591 235 1
591 931 1
592 76 1
592 168 1
592 269 1
592 336 1
592 387 1
592 531 1
592 704 1
592 960 1
593 110 1
593 224 1
593 362 1
593 405 1
593 449 1
593 464 1
593 999 1
594 24 1
594 29 1
594 206 1
594 322 1
594 515 1
594 550 1
594 698 1
594 798 1
595 29 1
595 33 1
595 82 1
595 233 1
595 323 1
595 376 1
595 844 1
596 13 1
596 16 1
596 157 1
596 160 1
596 228 1
596 527 1
596 695 1
596 839 1
597 4 1
597 21 1
597 150 1
597 443 1
597 513 1
597 562 1
597 719 1
597 755 1
597 932 1
597 960 1
597 996 1
598 2 1
598 82 1
598 172 1
598 188 1
598 250 1
598 538 1
598 662 1
598 769 1
598 961 1
599 4 1
599 9 1
599 17 1
599 65 1
599 281 1
599 334 1
599 672 1
599 764 1
600 3 1
600 19 1
600 22 1
600 234 1
600 241 1
600 467 1
600 640 1
601 49 1
601 59 1
601 108 1
601 118 1
601 277 1
601 294 1
601 682 1
602 14 1
602 26 1
602 93 1
602 151 1
602 292 1
602 544 1
603 53 1
603 125 1
603 148 1
603 195 1
603 246 1
603 406 1
603 705 1
603 718 1
604 2 1
604 7 1
604 200 1
604 317 1
604 479 1
604 537 1
604 639 1
604 642 1
604 919 1
605 5 1
605 9 1
605 40 1
605 45 1
605 169 1
605 687 1
605 757 1
605 871 1
606 6 1
606 34 1
606 103 1
606 300 1
606 495 1
606 582 1
606 671 1
606 707 1
606 758 1
606 766 1
607 2 1
607 10 1
607 77 1
607 153 1
607 206 1
607 515 1
608 1 1
608 13 1
608 31 1
608 105 1
608 194 1
608 472 1
609 9 1
609 26 1
609 39 1
609 92 1
609 115 1
609 275 1
609 819 1
610 18 1
610 19 1
610 24 1
610 32 1
610 121 1
610 405 1
610 670 1
610 890 1
611 6 1
611 17 1
611 29 1
611 79 1
611 136 1
611 340 1
611 658 1
611 677 1
612 79 1
612 92 1
612 389 1
612 403 1
612 475 1
612 540 1
612 696 1
613 34 1
613 57 1
613 186 1
613 208 1
613 300 1
613 337 1
613 752 1
613 981 1
614 1 1
614 3 1
614 28 1
614 181 1
614 530 1
614 558 1
614 667 1
614 710 1
615 52 1
615 109 1
615 163 1
615 412 1
615 498 1
615 590 1
615 794 1
616 135 1
616 157 1
616 174 1
616 215 1
616 391 1
616 398 1
616 796 1
617 58 1
617 89 1
617 106 1
617 146 1
617 339 1
617 511 1
617 940 1
618 51 1
618 65 1
618 121 1
618 392 1
618 401 1
618 436 1
618 797 1
619 2 1
619 19 1
619 21 1
619 22 1
619 160 1
619 217 1
619 736 1
620 13 1
620 26 1
620 39 1
620 309 1
620 350 1
620 435 1
620 766 1
620 819 1
620 926 1
621 2 1
621 3 1
621 4 1
621 41 1
621 196 1
621 546 1
621 657 1
621 663 1
622 38 1
622 105 1
622 211 1
622 257 1
622 355 1
622 370 1
622 652 1
622 665 1
622 765 1
622 909 1
623 2 1
623 4 1
623 5 1
623 14 1
623 150 1
623 233 1
623 772 1
624 4 1
624 30 1
624 149 1
624 316 1
624 353 1
624 549 1
625 21 1
625 107 1
625 127 1
625 270 1
625 491 1
625 556 1
625 701 1
626 3 1
626 6 1
626 22 1
626 252 1
626 451 1
626 545 1
627 1 1
627 12 1
627 59 1
627 336 1
627 447 1
627 529 1
627 668 1
627 923 1
628 46 1
628 82 1
628 119 1
628 123 1
628 134 1
628 299 1
629 100 1
629 197 1
629 237 1
629 456 1
629 560 1
629 582 1
629 659 1
629 989 1
630 3 1
630 5 1
630 7 1
630 104 1
630 107 1
630 205 1
630 903 1
631 1 1
631 2 1
631 23 1
631 26 1
631 33 1
631 132 1
631 669 1
631 797 1
631 907 1
631 913 1
632 4 1
632 16 1
632 76 1
632 387 1
632 416 1
632 489 1
632 650 1
632 867 1
632 898 1
633 4 1
633 5 1
633 146 1
633 169 1
633 289 1
633 372 1
633 866 1
634 39 1
634 59 1
634 60 1
634 68 1
634 81 1
634 131 1
634 746 1
634 821 1
634 890 1
634 921 1
635 6 1
635 11 1
635 18 1
635 23 1
635 118 1
635 390 1
636 19 1
636 52 1
636 162 1
636 226 1
636 326 1
636 471 1
636 872 1
637 3 1
637 63 1
637 238 1
637 261 1
637 353 1
637 431 1
638 9 1
638 64 1
638 162 1
638 208 1
638 244 1
638 396 1
639 2 1
639 12 1
639 317 1
639 343 1
639 502 1
639 604 1
640 3 1
640 241 1
640 389 1
640 442 1
640 474 1
640 600 1
640 685 1
640 829 1
640 842 1
640 854 1
640 870 1
640 953 1
640 978 1
640 995 1
641 2 1
641 6 1
641 9 1
641 19 1
641 54 1
641 56 1
641 917 1
642 7 1
642 62 1
642 70 1
642 200 1
642 487 1
642 604 1
642 919 1
643 21 1
643 44 1
643 161 1
643 281 1
643 494 1
643 534 1
643 803 1
644 182 1
644 372 1
644 399 1
644 463 1
644 484 1
644 587 1
644 812 1
645 3 1
645 38 1
645 64 1
645 67 1
645 566 1
645 700 1
646 52 1
646 100 1
646 159 1
646 163 1
646 211 1
646 523 1
647 21 1
647 33 1
647 48 1
647 132 1
647 273 1
647 556 1
648 15 1
648 85 1
648 115 1
648 216 1
648 438 1
648 544 1
648 815 1
648 991 1
649 6 1
649 14 1
649 46 1
649 52 1
649 292 1
649 297 1
649 937 1
650 113 1
650 358 1
650 387 1
650 416 1
650 550 1
650 632 1
650 720 1
651 4 1
651 8 1
651 179 1
651 320 1
651 428 1
651 488 1
651 840 1
652 38 1
652 49 1
652 177 1
652 211 1
652 443 1
652 622 1
652 925 1
652 954 1
653 18 1
653 69 1
653 89 1
653 115 1
653 197 1
653 288 1
653 693 1
654 6 1
654 13 1
654 40 1
654 72 1
654 508 1
654 575 1
654 692 1
655 23 1
655 24 1
655 30 1
655 141 1
655 274 1
655 556 1
655 956 1
656 23 1
656 361 1
656 373 1
656 378 1
656 466 1
656 564 1
656 689 1
656 711 1
656 719 1
656 831 1
656 885 1
656 993 1
657 41 1
657 76 1
657 196 1
657 307 1
657 419 1
657 621 1
658 17 1
658 79 1
658 168 1
658 174 1
658 398 1
658 611 1
659 93 1
659 100 1
659 205 1
659 237 1
659 312 1
659 629 1
659 989 1
660 14 1
660 59 1
660 75 1
660 135 1
660 180 1
660 320 1
660 810 1
661 58 1
661 138 1
661 175 1
661 190 1
661 339 1
661 577 1
661 762 1
661 951 1
662 5 1
662 8 1
662 12 1
662 188 1
662 250 1
662 598 1
662 769 1
662 961 1
663 3 1
663 4 1
663 6 1
663 10 1
663 412 1
663 621 1
663 751 1
663 804 1
663 984 1
664 60 1
664 177 1
664 208 1
664 244 1
664 443 1
664 562 1
664 930 1
665 206 1
665 211 1
665 355 1
665 436 1
665 552 1
665 622 1
666 3 1
666 21 1
666 32 1
666 104 1
666 449 1
666 464 1
667 3 1
667 181 1
667 415 1
667 428 1
667 525 1
667 614 1
667 879 1
668 44 1
668 283 1
668 325 1
668 336 1
668 447 1
668 627 1
668 923 1
669 26 1
669 80 1
669 132 1
669 443 1
669 461 1
669 631 1
669 716 1
669 797 1
669 907 1
669 913 1
669 954 1
670 18 1
670 147 1
670 380 1
670 405 1
670 509 1
670 610 1
670 890 1
671 6 1
671 15 1
671 246 1
671 495 1
671 544 1
671 606 1
672 59 1
672 115 1
672 118 1
672 281 1
672 334 1
672 599 1
672 764 1
673 3 1
673 26 1
673 38 1
673 74 1
673 191 1
673 506 1
673 994 1
674 3 1
674 180 1
674 245 1
674 252 1
674 382 1
674 585 1
674 699 1
674 844 1
674 996 1
675 27 1
675 47 1
675 67 1
675 89 1
675 341 1
675 388 1
675 684 1
676 73 1
676 147 1
676 235 1
676 269 1
676 352 1
676 429 1
676 937 1
677 102 1
677 116 1
677 136 1
677 340 1
677 559 1
677 611 1
677 734 1
678 3 1
678 4 1
678 122 1
678 402 1
678 418 1
678 536 1
678 866 1
678 955 1
679 2 1
679 27 1
679 79 1
679 216 1
679 500 1
679 588 1
679 721 1
679 894 1
679 998 1
680 5 1
680 151 1
680 262 1
680 298 1
680 505 1
680 583 1
681 17 1
681 41 1
681 65 1
681 71 1
681 196 1
681 414 1
681 709 1
682 49 1
682 118 1
682 409 1
682 521 1
682 577 1
682 601 1
682 769 1
682 799 1
683 4 1
683 14 1
683 231 1
683 343 1
683 490 1
683 850 1
684 23 1
684 47 1
684 101 1
684 363 1
684 388 1
684 675 1
684 905 1
685 32 1
685 43 1
685 210 1
685 389 1
685 442 1
685 640 1
685 842 1
686 5 1
686 75 1
686 113 1
686 142 1
686 227 1
686 393 1
686 806 1
686 848 1
686 875 1
687 6 1
687 9 1
687 45 1
687 50 1
687 205 1
687 605 1
687 805 1
688 4 1
688 63 1
688 83 1
688 124 1
688 272 1
688 311 1
688 729 1
688 749 1
689 23 1
689 42 1
689 221 1
689 373 1
689 656 1
690 104 1
690 136 1
690 246 1
690 255 1
690 494 1
690 549 1
690 788 1
691 44 1
691 222 1
691 253 1
691 282 1
691 374 1
691 487 1
691 755 1
691 837 1
692 13 1
692 41 1
692 45 1
692 55 1
692 508 1
692 654 1
693 4 1
693 18 1
693 20 1
693 69 1
693 95 1
693 653 1
693 723 1
693 987 1
694 11 1
694 21 1
694 42 1
694 128 1
694 278 1
694 496 1
694 888 1
694 915 1
695 13 1
695 228 1
695 322 1
695 335 1
695 527 1
695 596 1
695 839 1
695 948 1
696 9 1
696 21 1
696 232 1
696 389 1
696 403 1
696 612 1
696 969 1
696 1000 1
697 46 1
697 70 1
697 99 1
697 130 1
697 377 1
697 394 1
697 702 1
697 860 1
697 904 1
698 2 1
698 24 1
698 29 1
698 143 1
698 561 1
698 594 1
699 3 1
699 6 1
699 21 1
699 245 1
699 249 1
699 674 1
699 955 1
700 38 1
700 64 1
700 76 1
700 89 1
700 564 1
700 645 1
700 831 1
701 107 1
701 127 1
701 289 1
701 333 1
701 493 1
701 625 1
701 737 1
702 70 1
702 152 1
702 289 1
702 394 1
702 562 1
702 697 1
702 860 1
703 100 1
703 138 1
703 141 1
703 190 1
703 258 1
703 266 1
703 922 1
704 1 1
704 168 1
704 407 1
704 478 1
704 531 1
704 592 1
705 5 1
705 75 1
705 125 1
705 393 1
705 406 1
705 603 1
705 718 1
705 893 1
705 966 1
706 9 1
706 56 1
706 116 1
706 164 1
706 220 1
706 507 1
706 820 1
707 13 1
707 34 1
707 43 1
707 210 1
707 300 1
707 606 1
708 46 1
708 54 1
708 78 1
708 143 1
708 366 1
708 530 1
709 17 1
709 49 1
709 60 1
709 196 1
709 512 1
709 681 1
709 778 1
710 3 1
710 120 1
710 285 1
710 427 1
710 558 1
710 614 1
711 4 1
711 45 1
711 313 1
711 378 1
711 564 1
711 656 1
712 5 1
712 19 1
712 35 1
712 83 1
712 117 1
712 186 1
712 897 1
713 82 1
713 104 1
713 150 1
713 345 1
713 445 1
713 467 1
714 1 1
714 32 1
714 112 1
714 138 1
714 264 1
714 323 1
715 18 1
715 43 1
715 66 1
715 170 1
715 315 1
715 405 1
715 824 1
715 841 1
716 5 1
716 41 1
716 80 1
716 107 1
716 443 1
716 669 1
717 55 1
717 120 1
717 284 1
717 370 1
717 427 1
717 493 1
717 722 1
718 5 1
718 125 1
718 343 1
718 502 1
718 603 1
718 705 1
718 741 1
718 765 1
718 877 1
718 966 1
719 443 1
719 466 1
719 562 1
719 564 1
719 597 1
719 656 1
719 755 1
719 831 1
719 885 1
719 932 1
719 993 1
720 113 1
720 358 1
720 366 1
720 377 1
720 429 1
720 650 1
720 863 1
721 2 1
721 10 1
721 79 1
721 500 1
721 534 1
721 679 1
721 725 1
721 782 1
722 55 1
722 83 1
722 217 1
722 272 1
722 493 1
722 717 1
722 914 1
723 18 1
723 29 1
723 69 1
723 109 1
723 380 1
723 693 1
723 983 1
724 7 1
724 29 1
724 136 1
724 221 1
724 338 1
724 395 1
724 803 1
724 858 1
724 874 1
725 2 1
725 7 1
725 10 1
725 11 1
725 531 1
725 721 1
726 9 1
726 10 1
726 27 1
726 30 1
726 74 1
726 288 1
727 3 1
727 43 1
727 71 1
727 204 1
727 498 1
727 542 1
727 880 1
728 4 1
728 7 1
728 14 1
728 135 1
728 260 1
728 396 1
729 22 1
729 63 1
729 188 1
729 263 1
729 311 1
729 688 1
729 749 1
729 978 1
730 25 1
730 56 1
730 96 1
730 166 1
730 360 1
730 563 1
730 753 1
730 947 1
731 5 1
731 28 1
731 29 1
731 163 1
731 473 1
731 583 1
731 880 1
731 908 1
732 4 1
732 10 1
732 73 1
732 95 1
732 157 1
732 411 1
733 59 1
733 66 1
733 67 1
733 229 1
733 294 1
733 367 1
734 102 1
734 116 1
734 462 1
734 469 1
734 492 1
734 677 1
734 882 1
735 3 1
735 5 1
735 119 1
735 138 1
735 153 1
735 528 1
735 864 1
736 8 1
736 12 1
736 21 1
736 217 1
736 300 1
736 619 1
736 842 1
737 11 1
737 289 1
737 328 1
737 493 1
737 531 1
737 701 1
738 2 1
738 9 1
738 27 1
738 39 1
738 68 1
738 482 1
738 867 1
738 961 1
739 4 1
739 13 1
739 331 1
739 371 1
739 375 1
739 379 1
740 4 1
740 7 1
740 48 1
740 154 1
740 328 1
740 531 1
741 2 1
741 5 1
741 25 1
741 343 1
741 543 1
741 718 1
741 765 1
741 877 1
742 5 1
742 53 1
742 59 1
742 90 1
742 289 1
742 336 1
743 101 1
743 155 1
743 234 1
743 244 1
743 251 1
743 293 1
744 21 1
744 23 1
744 44 1
744 78 1
744 299 1
744 363 1
744 748 1
745 4 1
745 47 1
745 184 1
745 307 1
745 320 1
745 458 1
745 777 1
745 827 1
745 884 1
746 10 1
746 13 1
746 60 1
746 105 1
746 131 1
746 634 1
746 810 1
746 921 1
746 991 1
747 18 1
747 109 1
747 115 1
747 163 1
747 223 1
747 363 1
747 761 1
747 763 1
748 19 1
748 44 1
748 133 1
748 287 1
748 299 1
748 744 1
748 815 1
749 136 1
749 139 1
749 161 1
749 311 1
749 688 1
749 729 1
749 752 1
749 978 1
750 1 1
750 2 1
750 5 1
750 8 1
750 136 1
750 202 1
751 10 1
751 11 1
751 122 1
751 356 1
751 412 1
751 663 1
752 57 1
752 136 1
752 139 1
752 208 1
752 613 1
752 749 1
752 981 1
753 25 1
753 27 1
753 166 1
753 251 1
753 498 1
753 730 1
753 947 1
754 5 1
754 16 1
754 64 1
754 253 1
754 255 1
754 486 1
755 282 1
755 374 1
755 562 1
755 597 1
755 691 1
755 719 1
755 837 1
755 932 1
755 960 1
756 41 1
756 85 1
756 108 1
756 120 1
756 241 1
756 344 1
757 5 1
757 9 1
757 83 1
757 103 1
757 272 1
757 605 1
758 34 1
758 103 1
758 428 1
758 500 1
758 525 1
758 606 1
759 53 1
759 60 1
759 88 1
759 218 1
759 471 1
759 522 1
760 136 1
760 265 1
760 290 1
760 331 1
760 371 1
760 557 1
761 21 1
761 88 1
761 91 1
761 115 1
761 363 1
761 747 1
761 884 1
761 917 1
762 37 1
762 138 1
762 190 1
762 231 1
762 552 1
762 661 1
763 36 1
763 51 1
763 109 1
763 223 1
763 327 1
763 747 1
763 791 1
764 120 1
764 250 1
764 334 1
764 572 1
764 599 1
764 672 1
765 38 1
765 343 1
765 355 1
765 622 1
765 718 1
765 741 1
765 909 1
766 26 1
766 350 1
766 495 1
766 582 1
766 606 1
766 620 1
766 926 1
767 38 1
767 157 1
767 205 1
767 214 1
767 265 1
767 312 1
767 807 1
768 31 1
768 176 1
768 256 1
768 278 1
768 477 1
768 496 1
768 814 1
769 250 1
769 409 1
769 521 1
769 598 1
769 662 1
769 682 1
769 961 1
770 4 1
770 10 1
770 47 1
770 53 1
770 282 1
770 825 1
770 865 1
770 920 1
770 927 1
770 941 1
771 10 1
771 63 1
771 103 1
771 133 1
771 223 1
771 445 1
772 4 1
772 14 1
772 27 1
772 59 1
772 588 1
772 623 1
772 836 1
773 38 1
773 133 1
773 164 1
773 287 1
773 293 1
773 565 1
774 49 1
774 152 1
774 169 1
774 235 1
774 372 1
774 408 1
774 791 1
774 951 1
775 5 1
775 66 1
775 281 1
775 325 1
775 334 1
775 342 1
776 53 1
776 92 1
776 104 1
776 220 1
776 321 1
776 378 1
777 28 1
777 47 1
777 120 1
777 198 1
777 307 1
777 745 1
777 835 1
777 884 1
778 14 1
778 49 1
778 124 1
778 295 1
778 512 1
778 709 1
779 37 1
779 79 1
779 92 1
779 175 1
779 209 1
779 496 1
780 65 1
780 158 1
780 181 1
780 251 1
780 334 1
780 383 1
780 964 1
781 88 1
781 103 1
781 150 1
781 195 1
781 233 1
781 300 1
781 784 1
782 2 1
782 163 1
782 177 1
782 534 1
782 537 1
782 721 1
782 871 1
783 4 1
783 41 1
783 110 1
783 231 1
783 240 1
783 552 1
783 801 1
784 40 1
784 103 1
784 300 1
784 409 1
784 521 1
784 781 1
785 2 1
785 32 1
785 54 1
785 64 1
785 74 1
785 242 1
785 889 1
786 4 1
786 22 1
786 50 1
786 73 1
786 404 1
786 467 1
786 962 1
787 21 1
787 56 1
787 101 1
787 234 1
787 381 1
787 425 1
788 43 1
788 49 1
788 104 1
788 279 1
788 549 1
788 690 1
789 21 1
789 59 1
789 96 1
789 200 1
789 333 1
789 346 1
789 829 1
790 7 1
790 9 1
790 33 1
790 82 1
790 220 1
790 467 1
791 36 1
791 49 1
791 235 1
791 327 1
791 763 1
791 774 1
792 3 1
792 21 1
792 44 1
792 76 1
792 123 1
792 433 1
792 922 1
793 2 1
793 60 1
793 106 1
793 132 1
793 397 1
793 416 1
793 826 1
794 12 1
794 27 1
794 412 1
794 435 1
794 590 1
794 615 1
795 5 1
795 61 1
795 66 1
795 157 1
795 174 1
795 527 1
796 135 1
796 185 1
796 215 1
796 344 1
796 548 1
796 616 1
797 26 1
797 392 1
797 436 1
797 618 1
797 631 1
797 669 1
797 907 1
797 954 1
798 2 1
798 68 1
798 140 1
798 322 1
798 550 1
798 594 1
799 17 1
799 196 1
799 409 1
799 426 1
799 577 1
799 682 1
800 3 1
800 10 1
800 185 1
800 198 1
800 384 1
800 574 1
801 1 1
801 110 1
801 292 1
801 461 1
801 552 1
801 783 1
802 9 1
802 100 1
802 177 1
802 258 1
802 320 1
802 458 1
802 850 1
803 7 1
803 161 1
803 395 1
803 494 1
803 643 1
803 724 1
803 858 1
804 6 1
804 10 1
804 112 1
804 278 1
804 354 1
804 663 1
805 46 1
805 50 1
805 73 1
805 205 1
805 411 1
805 687 1
805 809 1
806 13 1
806 58 1
806 113 1
806 142 1
806 319 1
806 686 1
806 848 1
807 38 1
807 214 1
807 265 1
807 312 1
807 767 1
808 2 1
808 15 1
808 242 1
808 255 1
808 486 1
808 510 1
808 833 1
808 933 1
809 10 1
809 50 1
809 74 1
809 169 1
809 205 1
809 805 1
810 10 1
810 13 1
810 14 1
810 180 1
810 660 1
810 746 1
811 41 1
811 52 1
811 65 1
811 186 1
811 240 1
811 532 1
811 816 1
812 4 1
812 170 1
812 463 1
812 484 1
812 644 1
813 13 1
813 101 1
813 127 1
813 253 1
813 337 1
813 456 1
813 860 1
814 54 1
814 116 1
814 256 1
814 446 1
814 477 1
814 768 1
814 944 1
814 958 1
815 15 1
815 19 1
815 287 1
815 544 1
815 648 1
815 748 1
816 186 1
816 240 1
816 344 1
816 384 1
816 548 1
816 811 1
817 3 1
817 91 1
817 152 1
817 163 1
817 177 1
817 273 1
818 1 1
818 8 1
818 42 1
818 282 1
818 345 1
818 580 1
819 9 1
819 13 1
819 39 1
819 609 1
819 620 1
820 27 1
820 31 1
820 56 1
820 116 1
820 498 1
820 706 1
821 6 1
821 59 1
821 68 1
821 112 1
821 248 1
821 634 1
822 14 1
822 36 1
822 55 1
822 245 1
822 407 1
822 454 1
822 889 1
822 977 1
823 4 1
823 57 1
823 301 1
823 418 1
823 528 1
823 536 1
824 14 1
824 18 1
824 52 1
824 370 1
824 405 1
824 715 1
825 47 1
825 73 1
825 282 1
825 295 1
825 503 1
825 770 1
825 865 1
825 920 1
825 941 1
826 6 1
826 126 1
826 132 1
826 416 1
826 508 1
826 793 1
827 26 1
827 47 1
827 59 1
827 132 1
827 184 1
827 745 1
828 2 1
828 3 1
828 6 1
828 26 1
828 211 1
828 355 1
829 59 1
829 346 1
829 389 1
829 474 1
829 640 1
829 789 1
829 838 1
829 855 1
829 870 1
829 934 1
829 978 1
830 4 1
830 23 1
830 33 1
830 35 1
830 186 1
830 271 1
830 942 1
831 76 1
831 89 1
831 466 1
831 656 1
831 700 1
831 719 1
832 223 1
832 284 1
832 285 1
832 344 1
832 427 1
832 480 1
833 37 1
833 231 1
833 242 1
833 255 1
833 572 1
833 808 1
833 899 1
833 933 1
834 15 1
834 16 1
834 78 1
834 356 1
834 359 1
834 414 1
835 2 1
835 28 1
835 120 1
835 319 1
835 364 1
835 777 1
835 974 1
835 983 1
836 4 1
836 14 1
836 160 1
836 187 1
836 274 1
836 772 1
837 21 1
837 101 1
837 282 1
837 363 1
837 691 1
837 755 1
838 1 1
838 360 1
838 362 1
838 389 1
838 474 1
838 829 1
838 941 1
839 10 1
839 37 1
839 58 1
839 228 1
839 596 1
839 695 1
839 948 1
840 42 1
840 56 1
840 128 1
840 428 1
840 488 1
840 651 1
841 43 1
841 98 1
841 405 1
841 468 1
841 473 1
841 715 1
842 8 1
842 300 1
842 389 1
842 640 1
842 685 1
842 736 1
842 854 1
843 56 1
843 71 1
843 113 1
843 116 1
843 204 1
843 538 1
843 849 1
843 921 1
844 33 1
844 82 1
844 245 1
844 252 1
844 595 1
844 674 1
845 23 1
845 60 1
845 76 1
845 212 1
845 338 1
845 365 1
846 3 1
846 4 1
846 15 1
846 79 1
846 166 1
846 406 1
846 874 1
847 23 1
847 27 1
847 92 1
847 514 1
847 520 1
847 540 1
847 856 1
848 118 1
848 142 1
848 333 1
848 346 1
848 686 1
848 806 1
848 852 1
849 47 1
849 71 1
849 113 1
849 184 1
849 358 1
849 843 1
850 4 1
850 9 1
850 14 1
850 458 1
850 683 1
850 802 1
851 3 1
851 29 1
851 223 1
851 346 1
851 380 1
851 528 1
852 118 1
852 245 1
852 252 1
852 287 1
852 346 1
852 848 1
853 1 1
853 4 1
853 152 1
853 289 1
853 539 1
853 581 1
854 4 1
854 112 1
854 389 1
854 423 1
854 640 1
854 842 1
854 887 1
855 47 1
855 59 1
855 81 1
855 128 1
855 346 1
855 829 1
855 896 1
856 4 1
856 184 1
856 222 1
856 514 1
856 540 1
856 847 1
857 3 1
857 22 1
857 28 1
857 189 1
857 197 1
857 207 1
858 7 1
858 281 1
858 333 1
858 413 1
858 724 1
858 803 1
859 21 1
859 93 1
859 285 1
859 392 1
859 419 1
859 444 1
859 879 1
859 908 1
860 13 1
860 127 1
860 394 1
860 697 1
860 702 1
860 813 1
861 2 1
861 5 1
861 34 1
861 153 1
861 265 1
861 557 1
861 902 1
862 24 1
862 55 1
862 109 1
862 291 1
862 354 1
862 515 1
863 57 1
863 377 1
863 429 1
863 430 1
863 545 1
863 720 1
863 948 1
863 965 1
864 7 1
864 138 1
864 153 1
864 160 1
864 217 1
864 735 1
865 4 1
865 5 1
865 47 1
865 583 1
865 770 1
865 825 1
865 941 1
866 3 1
866 5 1
866 146 1
866 402 1
866 633 1
866 678 1
867 9 1
867 16 1
867 68 1
867 489 1
867 632 1
867 738 1
868 2 1
868 43 1
868 76 1
868 188 1
868 308 1
868 335 1
869 63 1
869 119 1
869 236 1
869 374 1
869 468 1
869 570 1
870 5 1
870 150 1
870 343 1
870 389 1
870 640 1
870 829 1
870 934 1
871 9 1
871 40 1
871 163 1
871 177 1
871 605 1
871 782 1
872 4 1
872 44 1
872 52 1
872 471 1
872 525 1
872 636 1
872 894 1
873 16 1
873 38 1
873 60 1
873 149 1
873 293 1
873 316 1
874 3 1
874 15 1
874 221 1
874 395 1
874 724 1
874 846 1
875 8 1
875 84 1
875 192 1
875 227 1
875 393 1
875 686 1
875 964 1
876 26 1
876 54 1
876 182 1
876 350 1
876 375 1
876 503 1
877 5 1
877 26 1
877 257 1
877 418 1
877 718 1
877 741 1
878 2 1
878 4 1
878 10 1
878 20 1
878 238 1
878 296 1
878 973 1
879 285 1
879 419 1
879 428 1
879 525 1
879 667 1
879 859 1
879 908 1
880 5 1
880 28 1
880 71 1
880 204 1
880 727 1
880 731 1
881 49 1
881 86 1
881 104 1
881 157 1
881 265 1
881 383 1
882 11 1
882 16 1
882 105 1
882 462 1
882 469 1
882 734 1
883 21 1
883 26 1
883 151 1
883 326 1
883 505 1
883 584 1
883 929 1
884 88 1
884 91 1
884 307 1
884 745 1
884 761 1
884 777 1
884 917 1
885 24 1
885 109 1
885 291 1
885 564 1
885 656 1
885 719 1
885 993 1
886 40 1
886 98 1
886 172 1
886 174 1
886 269 1
886 381 1
886 992 1
887 4 1
887 329 1
887 392 1
887 423 1
887 499 1
887 854 1
888 1 1
888 11 1
888 129 1
888 278 1
888 494 1
888 694 1
889 2 1
889 74 1
889 407 1
889 454 1
889 785 1
889 822 1
890 18 1
890 39 1
890 68 1
890 610 1
890 634 1
890 670 1
891 11 1
891 19 1
891 72 1
891 88 1
891 373 1
891 522 1
891 949 1
892 7 1
892 11 1
892 17 1
892 20 1
892 44 1
892 433 1
893 75 1
893 100 1
893 177 1
893 393 1
893 537 1
893 705 1
894 2 1
894 52 1
894 79 1
894 471 1
894 679 1
894 872 1
894 998 1
895 157 1
895 277 1
895 309 1
895 411 1
895 526 1
895 588 1
895 906 1
895 981 1
896 38 1
896 59 1
896 60 1
896 73 1
896 346 1
896 855 1
897 21 1
897 35 1
897 186 1
897 377 1
897 394 1
897 712 1
898 71 1
898 76 1
898 106 1
898 416 1
898 586 1
898 632 1
899 37 1
899 349 1
899 426 1
899 460 1
899 572 1
899 833 1
900 21 1
900 56 1
900 80 1
900 96 1
900 159 1
900 195 1
901 1 1
901 76 1
901 159 1
901 448 1
901 457 1
901 462 1
902 223 1
902 265 1
902 369 1
902 433 1
902 557 1
902 861 1
903 53 1
903 81 1
903 104 1
903 205 1
903 238 1
903 630 1
904 9 1
904 73 1
904 99 1
904 130 1
904 179 1
904 697 1
905 23 1
905 43 1
905 49 1
905 101 1
905 240 1
905 684 1
906 10 1
906 374 1
906 411 1
906 468 1
906 588 1
906 895 1
906 981 1
907 1 1
907 51 1
907 460 1
907 631 1
907 669 1
907 797 1
907 954 1
908 29 1
908 285 1
908 473 1
908 731 1
908 859 1
908 879 1
909 30 1
909 355 1
909 373 1
909 425 1
909 622 1
909 765 1
909 980 1
910 47 1
910 76 1
910 80 1
910 123 1
910 365 1
910 548 1
910 931 1
911 66 1
911 127 1
911 173 1
911 315 1
911 367 1
911 543 1
912 18 1
912 49 1
912 184 1
912 358 1
912 447 1
912 510 1
913 132 1
913 336 1
913 366 1
913 530 1
913 631 1
913 669 1
914 55 1
914 213 1
914 332 1
914 493 1
914 532 1
914 722 1
914 936 1
915 7 1
915 42 1
915 128 1
915 564 1
915 569 1
915 694 1
916 17 1
916 40 1
916 43 1
916 99 1
916 306 1
916 417 1
917 2 1
917 54 1
917 88 1
917 641 1
917 761 1
917 884 1
918 4 1
918 222 1
918 278 1
918 358 1
918 423 1
918 447 1
918 927 1
918 959 1
919 8 1
919 48 1
919 200 1
919 248 1
919 604 1
919 642 1
920 7 1
920 266 1
920 282 1
920 537 1
920 770 1
920 825 1
920 994 1
921 60 1
921 116 1
921 538 1
921 634 1
921 746 1
921 843 1
922 3 1
922 123 1
922 138 1
922 190 1
922 703 1
922 792 1
923 15 1
923 323 1
923 336 1
923 376 1
923 627 1
923 668 1
924 18 1
924 42 1
924 175 1
924 178 1
924 237 1
924 239 1
925 49 1
925 109 1
925 177 1
925 498 1
925 542 1
925 652 1
926 1 1
926 135 1
926 228 1
926 350 1
926 620 1
926 766 1
926 938 1
927 10 1
927 53 1
927 222 1
927 447 1
927 770 1
927 918 1
927 959 1
928 2 1
928 12 1
928 59 1
928 245 1
928 317 1
928 497 1
929 26 1
929 134 1
929 173 1
929 291 1
929 326 1
929 883 1
930 60 1
930 164 1
930 177 1
930 310 1
930 443 1
930 664 1
930 950 1
931 53 1
931 76 1
931 235 1
931 365 1
931 591 1
931 910 1
932 28 1
932 224 1
932 362 1
932 597 1
932 719 1
932 755 1
932 960 1
933 1 1
933 81 1
933 255 1
933 546 1
933 808 1
933 833 1
934 99 1
934 145 1
934 167 1
934 389 1
934 829 1
934 870 1
935 1 1
935 15 1
935 166 1
935 228 1
935 279 1
935 360 1
936 55 1
936 118 1
936 428 1
936 493 1
936 500 1
936 914 1
936 990 1
937 6 1
937 269 1
937 297 1
937 352 1
937 649 1
937 676 1
938 1 1
938 18 1
938 58 1
938 135 1
938 557 1
938 926 1
939 13 1
939 49 1
939 126 1
939 147 1
939 408 1
939 508 1
940 9 1
940 58 1
940 146 1
940 244 1
940 293 1
940 617 1
941 1 1
941 362 1
941 770 1
941 825 1
941 838 1
941 865 1
942 1 1
942 4 1
942 35 1
942 135 1
942 382 1
942 830 1
943 73 1
943 98 1
943 199 1
943 237 1
943 295 1
943 318 1
944 27 1
944 178 1
944 219 1
944 256 1
944 477 1
944 814 1
945 26 1
945 44 1
945 141 1
945 207 1
945 471 1
945 584 1
946 76 1
946 104 1
946 159 1
946 171 1
946 321 1
946 549 1
947 16 1
947 36 1
947 166 1
947 509 1
947 730 1
947 753 1
948 57 1
948 228 1
948 430 1
948 695 1
948 839 1
948 863 1
949 19 1
949 74 1
949 77 1
949 88 1
949 165 1
949 891 1
950 60 1
950 118 1
950 310 1
950 355 1
950 357 1
950 930 1
951 169 1
951 175 1
951 190 1
951 372 1
951 661 1
951 774 1
952 9 1
952 92 1
952 104 1
952 205 1
952 322 1
952 475 1
952 1000 1
953 4 1
953 48 1
953 111 1
953 442 1
953 474 1
953 640 1
954 38 1
954 211 1
954 652 1
954 669 1
954 797 1
954 907 1
955 3 1
955 122 1
955 245 1
955 536 1
955 678 1
955 699 1
956 253 1
956 274 1
956 281 1
956 487 1
956 556 1
956 655 1
957 54 1
957 70 1
957 85 1
957 415 1
957 428 1
957 446 1
958 54 1
958 336 1
958 369 1
958 446 1
958 466 1
958 814 1
959 2 1
959 4 1
959 222 1
959 546 1
959 918 1
959 927 1
960 336 1
960 387 1
960 592 1
960 597 1
960 755 1
960 932 1
961 2 1
961 482 1
961 598 1
961 662 1
961 738 1
961 769 1
962 73 1
962 117 1
962 404 1
962 462 1
962 469 1
962 786 1
963 17 1
963 42 1
963 56 1
963 79 1
963 223 1
963 356 1
964 65 1
964 227 1
964 334 1
964 393 1
964 780 1
964 875 1
965 54 1
965 64 1
965 242 1
965 377 1
965 429 1
965 863 1
966 7 1
966 69 1
966 125 1
966 501 1
966 705 1
966 718 1
967 2 1
967 33 1
967 196 1
967 270 1
967 426 1
967 556 1
968 2 1
968 53 1
968 77 1
968 321 1
968 497 1
968 553 1
969 9 1
969 21 1
969 117 1
969 137 1
969 439 1
969 696 1
969 1000 1
970 70 1
970 116 1
970 147 1
970 429 1
970 507 1
970 535 1
971 19 1
971 158 1
971 162 1
971 201 1
971 430 1
971 518 1
971 997 1
972 46 1
972 106 1
972 397 1
972 475 1
972 514 1
972 540 1
973 238 1
973 296 1
973 373 1
973 425 1
973 472 1
973 878 1
974 28 1
974 120 1
974 125 1
974 159 1
974 590 1
974 835 1
974 983 1
975 240 1
975 251 1
975 290 1
975 455 1
975 491 1
975 581 1
976 67 1
976 79 1
976 243 1
976 319 1
976 341 1
976 587 1
977 55 1
977 179 1
977 245 1
977 295 1
977 318 1
977 822 1
978 311 1
978 474 1
978 640 1
978 729 1
978 749 1
978 829 1
978 995 1
979 16 1
979 27 1
979 180 1
979 183 1
979 288 1
979 509 1
980 30 1
980 157 1
980 168 1
980 373 1
980 383 1
980 909 1
981 57 1
981 588 1
981 613 1
981 752 1
981 895 1
981 906 1
982 64 1
982 66 1
982 67 1
982 129 1
982 361 1
982 558 1
983 18 1
983 69 1
983 120 1
983 723 1
983 835 1
983 974 1
984 2 1
984 3 1
984 4 1
984 25 1
984 194 1
984 663 1
985 1 1
985 23 1
985 172 1
985 327 1
985 460 1
985 538 1
986 23 1
986 55 1
986 182 1
986 425 1
986 472 1
986 554 1
987 4 1
987 48 1
987 95 1
987 132 1
987 248 1
987 693 1
988 23 1
988 27 1
988 216 1
988 224 1
988 311 1
988 375 1
989 130 1
989 237 1
989 292 1
989 339 1
989 629 1
989 659 1
990 51 1
990 55 1
990 152 1
990 277 1
990 493 1
990 936 1
991 13 1
991 85 1
991 105 1
991 438 1
991 648 1
991 746 1
992 172 1
992 176 1
992 185 1
992 267 1
992 381 1
992 886 1
993 4 1
993 347 1
993 371 1
993 656 1
993 719 1
993 885 1
994 3 1
994 26 1
994 266 1
994 537 1
994 673 1
994 920 1
995 5 1
995 130 1
995 136 1
995 474 1
995 640 1
995 978 1
996 150 1
996 180 1
996 513 1
996 585 1
996 597 1
996 674 1
997 65 1
997 181 1
997 201 1
997 430 1
997 558 1
997 971 1
998 15 1
998 40 1
998 72 1
998 79 1
998 679 1
998 894 1
999 43 1
999 110 1
999 197 1
999 224 1
999 288 1
999 593 1
1000 9 1
1000 21 1
1000 104 1
1000 696 1
1000 952 1
1000 969 1
