%%MatrixMarket matrix coordinate real general
%
101 101 380
1 2 1
1 3 1
1 4 1
1 5 1
1 6 1
1 7 1
1 8 1
1 9 1
1 10 1
1 11 1
1 21 1
1 31 1
1 41 1
1 51 1
1 61 1
1 71 1
1 81 1
1 91 1
1 101 1
2 1 1
2 12 1
3 1 1
3 23 1
4 1 1
4 34 1
5 1 1
5 45 1
6 1 1
6 56 1
7 1 1
7 67 1
8 1 1
8 78 1
9 1 1
9 89 1
10 1 1
10 100 1
11 1 1
11 12 1
12 2 1
12 11 1
12 13 1
12 14 1
12 15 1
12 16 1
12 17 1
12 18 1
12 19 1
12 20 1
12 22 1
12 32 1
12 42 1
12 52 1
12 62 1
12 72 1
12 82 1
12 92 1
12 101 1
13 12 1
13 23 1
14 12 1
14 34 1
15 12 1
15 45 1
16 12 1
16 56 1
17 12 1
17 67 1
18 12 1
18 78 1
19 12 1
19 89 1
20 12 1
20 100 1
21 1 1
21 23 1
22 12 1
22 23 1
23 3 1
23 13 1
23 21 1
23 22 1
23 24 1
23 25 1
23 26 1
23 27 1
23 28 1
23 29 1
23 30 1
23 33 1
23 43 1
23 53 1
23 63 1
23 73 1
23 83 1
23 93 1
23 101 1
24 23 1
24 34 1
25 23 1
25 45 1
26 23 1
26 56 1
27 23 1
27 67 1
28 23 1
28 78 1
29 23 1
29 89 1
30 23 1
30 100 1
31 1 1
31 34 1
32 12 1
32 34 1
33 23 1
33 34 1
34 4 1
34 14 1
34 24 1
34 31 1
34 32 1
34 33 1
34 35 1
34 36 1
34 37 1
34 38 1
34 39 1
34 40 1
34 44 1
34 54 1
34 64 1
34 74 1
34 84 1
34 94 1
34 101 1
35 34 1
35 45 1
36 34 1
36 56 1
37 34 1
37 67 1
38 34 1
38 78 1
39 34 1
39 89 1
40 34 1
40 100 1
41 1 1
41 45 1
42 12 1
42 45 1
43 23 1
43 45 1
44 34 1
44 45 1
45 5 1
45 15 1
45 25 1
45 35 1
45 41 1
45 42 1
45 43 1
45 44 1
45 46 1
45 47 1
45 48 1
45 49 1
45 50 1
45 55 1
45 65 1
45 75 1
45 85 1
45 95 1
45 101 1
46 45 1
46 56 1
47 45 1
47 67 1
48 45 1
48 78 1
49 45 1
49 89 1
50 45 1
50 100 1
51 1 1
51 56 1
52 12 1
52 56 1
53 23 1
53 56 1
54 34 1
54 56 1
55 45 1
55 56 1
56 6 1
56 16 1
56 26 1
56 36 1
56 46 1
56 51 1
56 52 1
56 53 1
56 54 1
56 55 1
56 57 1
56 58 1
56 59 1
56 60 1
56 66 1
56 76 1
56 86 1
56 96 1
56 101 1
57 56 1
57 67 1
58 56 1
58 78 1
59 56 1
59 89 1
60 56 1
60 100 1
61 1 1
61 67 1
62 12 1
62 67 1
63 23 1
63 67 1
64 34 1
64 67 1
65 45 1
65 67 1
66 56 1
66 67 1
67 7 1
67 17 1
67 27 1
67 37 1
67 47 1
67 57 1
67 61 1
67 62 1
67 63 1
67 64 1
67 65 1
67 66 1
67 68 1
67 69 1
67 70 1
67 77 1
67 87 1
67 97 1
67 101 1
68 67 1
68 78 1
69 67 1
69 89 1
70 67 1
70 100 1
71 1 1
71 78 1
72 12 1
72 78 1
73 23 1
73 78 1
74 34 1
74 78 1
75 45 1
75 78 1
76 56 1
76 78 1
77 67 1
77 78 1
78 8 1
78 18 1
78 28 1
78 38 1
78 48 1
78 58 1
78 68 1
78 71 1
78 72 1
78 73 1
78 74 1
78 75 1
78 76 1
78 77 1
78 79 1
78 80 1
78 88 1
78 98 1
78 101 1
79 78 1
79 89 1
80 78 1
80 100 1
81 1 1
81 89 1
82 12 1
82 89 1
83 23 1
83 89 1
84 34 1
84 89 1
85 45 1
85 89 1
86 56 1
86 89 1
87 67 1
87 89 1
88 78 1
88 89 1
89 9 1
89 19 1
89 29 1
89 39 1
89 49 1
89 59 1
89 69 1
89 79 1
89 81 1
89 82 1
89 83 1
89 84 1
89 85 1
89 86 1
89 87 1
89 88 1
89 90 1
89 99 1
89 101 1
90 89 1
90 100 1
91 1 1
91 100 1
92 12 1
92 100 1
93 23 1
93 100 1
94 34 1
94 100 1
95 45 1
95 100 1
96 56 1
96 100 1
97 67 1
97 100 1
98 78 1
98 100 1
99 89 1
99 100 1
100 10 1
100 20 1
100 30 1
100 40 1
100 50 1
100 60 1
100 70 1
100 80 1
100 90 1
100 91 1
100 92 1
100 93 1
100 94 1
100 95 1
100 96 1
100 97 1
100 98 1
100 99 1
100 101 1
101 1 1
101 12 1
101 23 1
101 34 1
101 45 1
101 56 1
101 67 1
101 78 1
101 89 1
101 100 1
