%%MatrixMarket matrix coordinate real symmetric
%
65 65 125
7 6 1
9 8 1
10 2 1
12 4 1
13 8 1
15 6 1
16 3 1
16 5 1
16 8 1
18 6 1
18 17 1
19 14 1
21 13 1
21 16 1
22 4 1
22 11 1
22 12 1
23 17 1
24 3 1
24 7 1
25 2 1
25 11 1
27 5 1
27 8 1
28 12 1
30 2 1
30 4 1
30 25 1
31 17 1
31 29 1
32 28 1
33 4 1
33 14 1
34 9 1
34 13 1
34 20 1
35 15 1
35 18 1
36 1 1
36 26 1
36 32 1
37 18 1
37 23 1
39 1 1
40 23 1
41 6 1
41 17 1
42 11 1
42 14 1
42 22 1
43 26 1
43 36 1
43 38 1
44 28 1
44 33 1
45 13 1
45 20 1
45 29 1
46 10 1
46 19 1
47 21 1
47 31 1
47 45 1
48 32 1
48 35 1
48 37 1
49 1 1
49 38 1
49 39 1
50 39 1
50 44 1
51 17 1
51 29 1
51 40 1
52 14 1
52 19 1
52 38 1
52 43 1
53 9 1
53 27 1
53 33 1
54 41 1
54 51 1
55 11 1
55 19 1
55 25 1
55 46 1
56 2 1
56 10 1
56 39 1
56 50 1
57 4 1
57 30 1
57 44 1
57 50 1
58 13 1
58 29 1
58 54 1
59 3 1
59 8 1
59 58 1
60 14 1
60 26 1
60 42 1
61 3 1
61 7 1
61 21 1
61 31 1
61 41 1
61 58 1
62 12 1
62 26 1
62 28 1
62 60 1
63 10 1
63 38 1
63 46 1
63 49 1
64 1 1
64 28 1
64 36 1
64 44 1
65 7 1
65 18 1
65 31 1
