%%MatrixMarket matrix coordinate real symmetric
%
84 84 166
8 7 1
10 4 1
10 9 1
11 7 1
13 2 1
13 3 1
14 2 1
14 3 1
16 14 1
16 15 1
17 15 1
20 8 1
22 1 1
24 6 1
24 18 1
25 17 1
27 8 1
27 12 1
28 18 1
29 6 1
29 13 1
30 16 1
31 15 1
31 21 1
33 7 1
33 9 1
34 8 1
34 28 1
37 22 1
38 1 1
38 21 1
39 32 1
40 12 1
40 30 1
41 40 1
42 4 1
42 9 1
42 11 1
43 21 1
43 26 1
43 33 1
44 28 1
46 5 1
46 35 1
47 19 1
47 25 1
47 45 1
48 14 1
48 15 1
48 41 1
49 22 1
49 30 1
50 21 1
50 33 1
51 10 1
51 20 1
51 26 1
52 16 1
52 31 1
52 39 1
52 49 1
53 4 1
53 27 1
54 11 1
54 23 1
55 11 1
56 5 1
56 19 1
56 44 1
56 45 1
57 7 1
57 22 1
57 50 1
57 55 1
58 35 1
58 54 1
58 55 1
59 24 1
59 29 1
59 40 1
60 2 1
60 23 1
60 30 1
61 4 1
61 34 1
62 9 1
62 20 1
62 43 1
62 51 1
63 5 1
63 6 1
63 19 1
63 36 1
64 6 1
64 36 1
65 3 1
65 17 1
65 41 1
65 48 1
66 12 1
66 13 1
66 53 1
67 32 1
67 49 1
67 60 1
68 32 1
68 55 1
69 38 1
69 39 1
69 50 1
69 68 1
70 27 1
70 42 1
70 54 1
71 35 1
71 53 1
71 61 1
72 19 1
72 24 1
72 25 1
73 5 1
73 28 1
73 35 1
73 61 1
74 2 1
74 12 1
74 23 1
74 70 1
75 18 1
75 45 1
75 47 1
76 3 1
76 17 1
76 59 1
76 72 1
77 10 1
77 26 1
77 34 1
77 44 1
78 1 1
78 31 1
78 38 1
78 39 1
79 23 1
79 64 1
79 67 1
80 29 1
80 64 1
80 66 1
80 71 1
81 18 1
81 36 1
81 37 1
81 46 1
82 25 1
82 26 1
82 44 1
82 45 1
83 37 1
83 46 1
83 58 1
83 68 1
84 32 1
84 36 1
84 37 1
84 79 1
