%%MatrixMarket matrix coordinate real general
%
214 214 2986
1 41 7.896600486389715E-2
1 46 8.284592092865342E-2
1 81 3.0816725871665916E-2
1 89 2.12289368806413E-2
1 92 8.083124104954506E-2
1 111 1.831563888873418E-2
1 121 3.364308940157179E-2
1 134 4.343349893735162E-2
1 141 1.323726193328038E-1
1 156 3.4679031649610115E-2
1 167 1.831563888873418E-2
1 185 7.286273799184036E-2
1 187 3.0981453210932913E-2
2 41 3.5470421503423416E-2
2 46 1.831563888873418E-2
2 51 2.1388425701914585E-2
2 77 1.2112661803643107E-1
2 130 3.556680235043097E-2
2 134 5.236536882481875E-2
2 141 2.527104780540978E-2
2 156 1.7603201720767476E-2
2 185 4.947334866686839E-2
2 187 1.938629873110374E-2
3 11 3.405935423897351E-2
3 15 6.815263075547577E-2
3 30 3.210399790555657E-1
3 48 3.7329896590653264E-2
3 49 5.459489858451654E-2
3 50 1.4950644830725847E-2
3 56 7.091890346370348E-2
3 63 7.202582675674973E-2
3 84 1.583822902014947E-1
3 146 3.429129531231575E-2
3 155 2.965077686221604E-2
3 160 1.831563888873418E-2
3 189 4.3672997315205697E-1
3 205 4.3925258380097754E-2
3 210 4.886575650294083E-2
4 26 2.2295611229598982E-2
4 33 5.195979457170744E-2
4 44 2.075816338013198E-2
4 95 3.563193695961932E-2
4 157 2.6380440475209502E-2
4 172 1.831563888873418E-2
4 176 8.468182603416002E-2
4 198 2.0200710660602285E-2
4 208 1.965124879285653E-2
4 212 2.08958855861818E-2
4 214 1.7612211757950552E-2
5 22 1.6320619580009588E-1
5 69 6.532683788060782E-2
5 87 4.270681356421908E-1
5 90 1.7643442639197045E-2
5 135 7.121934936914265E-2
5 153 2.6513836093500665E-1
5 161 2.073159989497187E-1
5 165 2.354729290853801E-1
5 184 1.831563888873418E-2
5 190 9.286133520912833E-2
6 8 3.535323114321907E-2
6 12 2.4630471741579226E-2
6 20 1.7816195316213684E-1
6 38 1.0145376758045394E-1
6 41 1.2786960492811052E-2
6 46 2.847952602569139E-2
6 51 1.831563888873418E-2
6 92 1.9365504503965517E-2
6 111 7.998688015694619E-2
6 120 2.3504575822149265E-1
6 121 9.420038948533499E-2
6 127 1.7919136555590694E-2
6 176 1.379675427377651E-2
6 192 7.853117675829993E-2
6 213 2.2018930314127982E-1
7 24 1.0292579261363234E-2
7 45 3.761874698520453E-1
7 50 2.3601539446963134E-2
7 52 1.831563888873418E-2
7 59 2.1096554768651862E-1
7 62 2.084480758053426E-1
7 63 2.1926893742335897E-2
7 155 2.071885872276113E-2
7 202 2.0813429746105346E-2
7 206 3.5595374575499536E-2
8 6 3.535323114321907E-2
8 20 3.0629803784696563E-1
8 25 2.0925235517386842E-2
8 38 5.63495913192393E-2
8 67 3.308348092104443E-2
8 71 1.681036175032347E-2
8 79 1.831563888873418E-2
8 84 2.411298788796314E-2
8 94 7.013393867348804E-2
8 111 2.9231860066390083E-2
8 117 1.831563888873418E-2
8 121 1.489959617813027E-1
8 148 1.8037480841328588E-2
8 155 1.7562511757661173E-2
8 158 3.168585981073281E-2
8 176 2.1474963325643363E-2
8 188 5.262096735362478E-1
8 192 8.027492340403151E-1
8 193 2.403275185204896E-2
8 202 6.940615844108568E-2
8 214 1.831563888873418E-2
9 55 2.1669522485898424E-1
9 66 5.297534208824173E-1
9 95 3.990701131519158E-2
9 108 1.469738995158044E-1
9 112 2.442856921545316E-2
9 128 1.5915550098528547E-1
9 144 2.1787355259009725E-2
9 163 5.39585019436952E-2
9 170 1.8741573145144432E-2
9 194 5.46473724072457E-1
9 207 7.759328615599184E-1
10 23 2.4183144451412432E-2
10 48 3.0664083720862573E-2
10 60 1.1151601970802788E-1
10 61 6.746840865606679E-2
10 72 6.1098643334052904E-2
10 74 4.1066807873900296E-1
10 86 1.831563888873418E-2
10 100 1.9277412303425046E-1
10 129 1.881713275854685E-2
10 146 2.53725807422112E-2
10 150 2.4132002314757574E-2
10 160 2.2158243958327692E-1
10 168 1.7270674401302005E-2
10 189 1.831563888873418E-2
11 3 3.405935423897351E-2
11 15 1.831563888873418E-2
11 16 8.062969847149193E-2
11 24 1.9324973329350535E-2
11 29 1.815543327903279E-1
11 30 1.9444925976066357E-1
11 34 2.620599907604487E-2
11 44 1.963417791812524E-2
11 48 4.8864646806398494E-2
11 72 1.831563888873418E-2
11 76 2.9465871189080783E-2
11 101 1.5073708666349925E-2
11 102 2.1812650514714378E-2
11 145 1.9690180453677774E-2
11 154 2.7415457346168928E-2
11 169 1.831563888873418E-2
11 182 6.664156148160039E-2
11 189 4.7714944295658604E-2
11 201 6.565736666017413E-2
11 208 1.831563888873418E-2
11 210 1.4689217222634018E-2
11 212 2.0504401378687056E-2
12 6 2.4630471741579226E-2
12 38 1.6243029585934394E-2
12 46 4.55234336934562E-2
12 51 9.295959200470824E-2
12 77 2.782775675409304E-2
12 92 1.8389246574032066E-2
12 111 1.2665158480041877E-1
12 120 2.1857218263524691E-1
12 130 3.344699194571323E-2
12 134 3.338954328613713E-2
12 141 1.831563888873418E-2
12 167 1.485917012560276E-2
13 21 4.4079787723082264E-1
13 58 1.831563888873418E-2
13 65 1.0501779234699399E-1
13 70 3.7176266012699843E-1
13 75 7.037645858184163E-1
13 93 3.953332943002524E-1
13 96 2.514688329487664E-1
13 123 2.6093786702306967E-2
13 124 3.3574782232976885E-2
13 139 1.1324306909399733E-1
13 162 1.2217622499973854E-1
13 173 1.0831759839669226E-2
14 58 3.9333779589132825E-2
14 64 7.265681254616635E-1
14 65 9.99973738378914E-2
14 68 3.6321294124976464E-2
14 83 2.3901389943497436E-1
14 96 1.831563888873418E-2
14 123 1.831563888873418E-2
14 124 2.469439337227676E-2
14 139 3.308782143662394E-1
14 152 1.7294737609799754E-1
14 159 6.969934311763719E-2
14 162 4.8876826951416076E-2
14 166 7.265681254616635E-1
14 173 4.3323514196696145E-1
14 177 6.74010971761856E-2
15 3 6.815263075547577E-2
15 11 1.831563888873418E-2
15 16 1.831563888873418E-2
15 56 2.1190484813989796E-1
15 88 1.6863784638906313E-2
15 102 2.4330055269309654E-2
15 107 1.1218401995427321E-1
15 146 9.718876067812225E-2
15 182 2.4685090497515265E-2
15 183 1.831563888873418E-2
15 189 3.71419616407135E-2
15 201 7.531929276294115E-2
15 211 2.0611430298280907E-2
16 11 8.062969847149193E-2
16 15 1.831563888873418E-2
16 29 4.3265659296680095E-2
16 30 1.793139545549985E-2
16 34 4.089982898379249E-1
16 40 4.4230071699658494E-2
16 47 1.831563888873418E-2
16 76 3.544849126033873E-1
16 101 2.4026543096589588E-2
16 102 9.578056116116382E-2
16 118 1.9342295958447307E-2
16 145 9.229293212020882E-2
16 147 1.2982876730315618E-1
16 149 1.831563888873418E-2
16 182 3.461331940798586E-1
16 201 4.858505241930034E-1
17 28 6.671953227264609E-1
17 91 6.141553502288093E-1
17 97 7.074384829633229E-1
17 104 8.189428813949552E-1
17 105 7.64982208116697E-1
17 112 1.831563888873418E-2
17 114 2.3932650262797212E-1
17 133 4.000916436198122E-1
17 157 1.831563888873418E-2
17 163 1.258447773161831E-2
17 174 3.252167954784857E-2
17 186 3.1316139362444817E-1
18 31 1.831563888873418E-2
18 36 9.414232889801007E-2
18 51 3.776098077725922E-2
18 77 2.0158585504357167E-2
18 80 1.998405303592908E-2
18 99 3.6394082079055985E-2
18 122 4.615502627235145E-2
18 130 1.7419397211641065E-2
18 132 5.2970306853145785E-2
18 199 7.838235805732251E-2
18 209 3.49162594419796E-2
18 213 1.0172011512179263E-1
19 22 1.5894779136350574E-2
19 85 2.8502971486128223E-2
19 87 1.831563888873418E-2
19 90 8.61585926094347E-2
19 110 4.5126779007279083E-1
19 119 1.2784640361172686E-1
19 125 5.146271047078446E-1
19 135 2.8289392196468505E-1
19 144 1.4998907962914773E-1
19 153 3.906810521494151E-2
19 179 2.8019907019010675E-2
19 180 6.53825040638616E-2
19 184 1.1667804712480137E-1
19 190 1.660224302984356E-1
19 195 2.095960654333884E-1
20 6 1.7816195316213684E-1
20 8 3.0629803784696563E-1
20 38 8.45190732223425E-2
20 41 2.064288387211625E-2
20 79 3.6541978636682806E-2
20 84 2.4900044513928972E-2
20 120 1.8959295925783787E-2
20 121 1.6045138313256985E-1
20 176 1.831563888873418E-2
20 188 6.32449296991087E-2
20 192 2.905352429719013E-1
20 202 1.831563888873418E-2
20 213 1.0105917631389141E-1
21 13 4.4079787723082264E-1
21 58 1.831563888873418E-2
21 65 1.2572950672127199E-2
21 70 9.553647417136675E-1
21 75 2.8091466950428656E-1
21 93 9.325471358017993E-1
21 96 2.104931470285949E-1
21 139 1.934237169408041E-2
21 162 6.311236836451757E-2
21 196 1.9380928596302204E-2
22 5 1.6320619580009588E-1
22 19 1.5894779136350574E-2
22 69 9.378405156697733E-2
22 85 1.831563888873418E-2
22 87 1.9999881273655074E-1
22 110 2.4401577350293753E-2
22 135 5.979955939480993E-2
22 153 6.866858374038878E-2
22 161 2.1246973004133518E-1
22 165 2.1966697186761303E-1
22 179 3.7840842364581635E-2
22 190 7.981517024103513E-2
23 10 2.4183144451412432E-2
23 67 5.506354822133274E-2
23 100 1.8332615614464844E-2
23 115 9.861317287244623E-2
23 146 1.8531504119348723E-2
23 168 1.540480258627452E-1
23 171 1.831563888873418E-2
23 187 1.781240425444639E-2
23 196 6.211679247068853E-1
23 202 2.1226763419148774E-2
24 7 1.0292579261363234E-2
24 11 1.9324973329350535E-2
24 30 5.971601637542708E-2
24 48 5.7407444835652514E-2
24 50 2.4398409621674867E-2
24 52 1.253850255289946E-1
24 53 7.174037910607575E-2
24 59 2.636992133479437E-2
24 72 1.1751100032788087E-1
24 82 1.831563888873418E-2
24 137 1.4150565193586742E-1
24 150 3.683062466051391E-2
24 154 1.4138802534129294E-1
24 169 1.0457031876843106E-1
24 189 1.831563888873418E-2
24 206 8.752885374006109E-2
24 210 5.985615701945383E-2
24 212 2.7412786426184863E-2
25 8 2.0925235517386842E-2
25 38 4.970365620938956E-2
25 85 4.0341201869865805E-2
25 94 1.831563888873418E-2
25 98 4.6424223215385065E-2
25 106 2.363400960780654E-2
25 117 2.883551532417047E-1
25 148 9.741614539153418E-2
25 158 3.704784751277933E-1
25 164 2.5514801034410818E-2
25 179 1.7651248059798844E-2
25 192 1.78816278017909E-2
25 193 3.033482571162294E-2
25 214 2.5469557735245785E-2
26 4 2.2295611229598982E-2
26 29 2.112498644440903E-2
26 44 2.3517717487074424E-1
26 53 2.0469082621982812E-2
26 54 3.452475246082979E-2
26 82 8.967653399875766E-2
26 99 1.831563888873418E-2
26 131 2.028136563084257E-2
26 172 1.2038557377045533E-1
26 197 3.830102016347762E-2
26 198 1.8341299279344064E-1
26 208 4.810389867983692E-2
27 31 7.601052727527674E-2
27 37 4.770231628796537E-2
27 43 4.917932041094891E-2
27 107 1.509591122183709E-1
27 131 1.7290492842273623E-2
27 138 6.671340700769723E-2
27 140 2.8452907101411334E-2
27 199 7.351375031636959E-2
27 200 7.730949097854191E-2
27 211 4.6038532414027206E-1
28 17 6.671953227264609E-1
28 91 3.9513067696376575E-1
28 97 3.5148861031953915E-1
28 104 4.7510068594173255E-1
28 105 6.121529026907573E-1
28 112 1.831563888873418E-2
28 114 6.633871092653545E-1
28 133 8.124420164493491E-1
28 157 1.9990711649070538E-2
28 163 1.3656059655381053E-2
28 174 3.168963684652516E-2
28 186 6.585425280716255E-1
29 11 1.815543327903279E-1
29 16 4.3265659296680095E-2
29 26 2.112498644440903E-2
29 30 2.7570948933866357E-2
29 43 1.3301908017705755E-1
29 44 6.764908827014474E-2
29 48 1.831563888873418E-2
29 53 1.831563888873418E-2
29 82 4.063594409133023E-2
29 102 1.831563888873418E-2
29 137 2.8739653489282396E-2
29 140 1.947390690961751E-1
29 145 1.8054089205803572E-1
29 154 1.831563888873418E-2
29 169 3.9040577909341324E-2
29 181 1.770147395357799E-1
29 182 5.233557068458547E-2
29 198 2.1581346676584158E-2
29 201 4.1200137982472504E-2
29 208 3.436237906849403E-2
30 3 3.210399790555657E-1
30 11 1.9444925976066357E-1
30 16 1.793139545549985E-2
30 24 5.971601637542708E-2
30 29 2.7570948933866357E-2
30 34 1.2037262607103366E-2
30 48 1.5802459210878061E-1
30 50 2.1997505173797723E-2
30 59 1.6780486496245115E-2
30 60 1.3294473885142061E-2
30 63 3.225160179054258E-2
30 72 3.215757274821334E-2
30 84 2.1411276527321887E-2
30 154 1.6739653401867772E-2
30 155 1.831563888873418E-2
30 160 2.08887145724589E-2
30 169 3.679308060795324E-2
30 182 1.2307827069480925E-2
30 189 2.670003331130328E-1
30 201 2.4567806182568694E-2
30 205 1.831563888873418E-2
30 206 5.880655794849972E-2
30 210 2.961242001304442E-1
31 18 1.831563888873418E-2
31 27 7.601052727527674E-2
31 36 7.861845692973676E-2
31 37 7.185723336655438E-2
31 43 1.831563888873418E-2
31 54 8.057115247149788E-2
31 122 2.786587221286962E-2
31 131 2.3323637854237766E-1
31 132 2.693758770246168E-1
31 138 1.65688089139578E-1
31 181 1.6566132290758817E-2
31 197 2.619431827065429E-1
31 199 1.2735117229976356E-1
31 200 7.491744995027275E-2
31 211 1.825282003593548E-2
32 67 2.5367187774535443E-1
32 109 2.5285151999772887E-1
32 116 2.0912094143893387E-1
32 142 1.6339262353836828E-2
32 155 2.740288950165874E-2
32 183 4.774254793168486E-1
32 191 3.854328036473028E-1
32 193 1.429459540849407E-2
32 196 2.3168243284533027E-2
32 202 1.2778995963843045E-2
32 203 4.6031528036454844E-1
32 205 2.1413605411946027E-1
33 4 5.195979457170744E-2
33 91 2.095119172172652E-2
33 95 3.532566058050829E-2
33 97 1.872865858935601E-2
33 104 1.9675995285129647E-2
33 105 1.831563888873418E-2
33 112 2.4513253497135012E-2
33 114 1.7045286201552132E-2
33 157 4.660219877792888E-2
33 163 1.9359892419786768E-2
34 11 2.620599907604487E-2
34 16 4.089982898379249E-1
34 30 1.2037262607103366E-2
34 40 2.649676779084521E-2
34 48 1.831563888873418E-2
34 60 2.0445873858065847E-2
34 61 1.393733450331869E-2
34 72 1.8833809938501537E-2
34 74 1.984014257148687E-2
34 76 6.093100137126809E-1
34 86 3.1029477322799245E-2
34 101 1.831563888873418E-2
34 102 9.818703133076886E-2
34 118 1.8354358395717675E-2
34 147 1.6989449612116195E-1
34 149 1.6971832578052164E-2
34 150 1.1692505998065341E-2
34 175 2.4496902108157702E-2
34 182 1.6493125984580137E-1
34 201 3.847270583180021E-1
35 39 4.905296361315676E-2
35 42 7.425047639634681E-2
35 44 1.7704850898068305E-2
35 49 7.875708475482796E-2
35 52 1.831563888873418E-2
35 56 2.589686747414397E-2
35 78 5.4529882436700705E-2
35 79 4.0707996592605725E-2
35 80 1.4496040765034685E-1
35 81 2.561434470734754E-2
35 88 2.8025602480510226E-2
35 89 8.167390163801136E-2
35 99 6.118511217535273E-2
35 126 6.651198849915636E-2
35 136 2.16416836064107E-2
35 156 2.7770098259983146E-2
35 172 4.6153496957334283E-2
35 178 1.238253645366308E-1
35 181 1.831563888873418E-2
35 204 1.6489971725928462E-2
35 209 8.931839219014899E-3
36 18 9.414232889801007E-2
36 31 7.861845692973676E-2
36 37 1.3944852060083474E-1
36 39 1.1680018961007256E-1
36 122 2.5165796685200237E-1
36 132 1.0478533275268413E-1
36 138 1.831563888873418E-2
36 197 1.3149554429742336E-2
36 199 1.893975988136551E-1
36 200 6.753962132922915E-2
36 213 1.7060601466770228E-2
37 27 4.770231628796537E-2
37 31 7.185723336655438E-2
37 36 1.3944852060083474E-1
37 39 1.5872646656043798E-1
37 43 3.7182647690789286E-2
37 122 1.3648537038997799E-2
37 138 1.435008500493982E-1
37 140 3.425323908720678E-2
37 181 2.449558242698861E-2
37 197 1.831563888873418E-2
37 199 7.549051875854937E-2
37 200 5.102116598575357E-1
37 211 2.2700361844756017E-2
38 6 1.0145376758045394E-1
38 8 5.63495913192393E-2
38 12 1.6243029585934394E-2
38 20 8.45190732223425E-2
38 25 4.970365620938956E-2
38 41 1.8544815837551624E-2
38 85 3.535001127837344E-2
38 111 1.9094355750686035E-2
38 120 3.7958057263132075E-2
38 121 2.4879036860706333E-2
38 158 9.561647966169434E-2
38 179 2.191824881757103E-2
38 185 1.831563888873418E-2
38 192 3.258008814501301E-2
38 213 7.554309395971158E-2
39 35 4.905296361315676E-2
39 36 1.1680018961007256E-1
39 37 1.5872646656043798E-1
39 78 2.6313316638970713E-2
39 80 1.831563888873418E-2
39 99 1.831563888873418E-2
39 122 6.781543973636221E-2
39 126 2.5535943717673374E-2
39 138 2.970860575566123E-2
39 181 2.357023604408649E-2
39 199 1.5244685355681256E-2
39 200 7.129402627434725E-2
40 16 4.4230071699658494E-2
40 34 2.649676779084521E-2
40 47 6.618473794410476E-2
40 76 3.8105549934864376E-2
40 101 4.0307439720027025E-2
40 106 2.9133985615402584E-2
40 118 1.3167212193174244E-1
40 145 1.831563888873418E-2
40 147 8.207303893739967E-2
40 149 7.161847229314361E-2
40 151 1.0862676653956845E-1
40 164 3.180286738031517E-2
40 182 1.9343951615728223E-2
40 201 1.7981330860079248E-2
40 208 1.9590085033099454E-2
41 1 7.896600486389715E-2
41 2 3.5470421503423416E-2
41 6 1.2786960492811052E-2
41 20 2.064288387211625E-2
41 38 1.8544815837551624E-2
41 46 2.7069012317090732E-2
41 77 4.6859407631722215E-2
41 79 1.4277624236966758E-2
41 80 1.831563888873418E-2
41 81 7.203104077383113E-2
41 88 1.831563888873418E-2
41 92 5.767647371778425E-2
41 115 4.6677560216997045E-2
41 121 2.3201452991972345E-2
41 134 1.0579945357287972E-1
41 141 2.4236705114257292E-2
41 156 3.381601636706165E-1
41 171 1.3777155157720669E-2
41 178 2.5765274902883134E-2
41 185 5.553657079383117E-1
41 187 1.62982409385129E-1
41 204 1.831563888873418E-2
41 213 2.220878702209759E-2
42 35 7.425047639634681E-2
42 50 1.713499061081228E-2
42 52 5.694144366006387E-2
42 53 1.831563888873418E-2
42 78 3.673653861811812E-2
42 81 4.6760131325745524E-2
42 89 6.110090531176901E-2
42 126 5.9846758799101604E-2
42 136 1.1705767496466529E-1
42 209 2.9447698926702664E-2
43 27 4.917932041094891E-2
43 29 1.3301908017705755E-1
43 31 1.831563888873418E-2
43 37 3.7182647690789286E-2
43 54 2.832226895943766E-2
43 56 1.7534917814518103E-2
43 107 8.864114932526734E-2
43 131 3.083167608194874E-2
43 138 3.1918610589673E-1
43 140 4.3545033736515043E-1
43 145 2.986952414661084E-2
43 181 5.306117746348047E-1
43 197 4.592327218986552E-2
43 200 9.538786438723568E-2
43 211 3.1879408922152186E-2
44 4 2.075816338013198E-2
44 11 1.963417791812524E-2
44 26 2.3517717487074424E-1
44 29 6.764908827014474E-2
44 35 1.7704850898068305E-2
44 53 2.023745925261502E-2
44 82 3.99121278172558E-2
44 99 9.407746310484115E-2
44 172 1.9959002961891756E-1
44 181 4.2787189009770535E-2
44 198 3.0009572377264093E-2
45 7 3.761874698520453E-1
45 52 1.3668714150427155E-2
45 59 1.5296022345765004E-1
45 62 2.5733812510299636E-1
45 63 1.831563888873418E-2
45 113 2.218718617164149E-2
45 116 2.205761422912451E-2
45 155 2.7296024896416277E-2
45 202 2.7598277177683338E-2
45 206 2.0124050192627307E-2
46 1 8.284592092865342E-2
46 2 1.831563888873418E-2
46 6 2.847952602569139E-2
46 12 4.55234336934562E-2
46 41 2.7069012317090732E-2
46 51 1.3573189899091048E-1
46 77 5.085466572835383E-2
46 92 2.148577072468597E-2
46 111 2.5878832265546048E-2
46 120 2.1705349340480195E-2
46 130 7.96833249984657E-2
46 134 5.770031953716472E-2
46 141 5.6159817100949166E-2
46 156 2.4852144546741912E-2
46 167 2.4281981511793665E-1
46 185 1.8382630133324238E-2
46 209 4.0209796157329766E-2
46 213 2.245609993086886E-2
47 16 1.831563888873418E-2
47 40 6.618473794410476E-2
47 86 2.079230414263706E-2
47 103 3.121905380712015E-2
47 106 4.899113323660472E-2
47 118 4.493097580218402E-1
47 143 1.829820819575689E-2
47 147 3.135157971510085E-2
47 149 3.44419401428405E-2
47 151 8.945304341705938E-2
47 164 4.882956734924254E-2
47 174 2.482493241281524E-2
48 3 3.7329896590653264E-2
48 10 3.0664083720862573E-2
48 11 4.8864646806398494E-2
48 24 5.7407444835652514E-2
48 29 1.831563888873418E-2
48 30 1.5802459210878061E-1
48 34 1.831563888873418E-2
48 50 1.6180767720707225E-2
48 60 6.597860005423091E-2
48 72 1.0455447877335591E-1
48 74 8.210288659184863E-2
48 100 8.775669725346869E-2
48 102 2.1895403285625684E-2
48 150 8.60130432360902E-2
48 154 1.3305442619213823E-1
48 160 8.116092890396591E-2
48 169 1.757698581319246E-2
48 189 5.795338098224691E-2
48 201 1.6783080274431993E-2
49 3 5.459489858451654E-2
49 35 7.875708475482796E-2
49 50 6.66936076743141E-2
49 52 4.798150594170689E-2
49 56 1.831563888873418E-2
49 63 3.5395536999565276E-2
49 78 1.831563888873418E-2
49 79 2.1803478815922708E-1
49 80 1.806883499221906E-2
49 84 1.7929103613838568E-1
49 89 1.4290969378153986E-1
49 115 1.8596586928542765E-2
49 171 1.2050930892793509E-1
49 178 7.103139056182632E-2
49 189 4.305139165413912E-2
49 202 2.326349494146577E-2
49 206 1.831563888873418E-2
50 3 1.4950644830725847E-2
50 7 2.3601539446963134E-2
50 24 2.4398409621674867E-2
50 30 2.1997505173797723E-2
50 42 1.713499061081228E-2
50 48 1.6180767720707225E-2
50 49 6.66936076743141E-2
50 52 2.001622444548036E-1
50 59 2.9036295563615106E-2
50 62 1.9754347675702947E-2
50 63 1.1306311083284018E-1
50 84 1.831563888873418E-2
50 100 5.8465140443264285E-2
50 160 8.976792802037932E-3
50 171 5.252460550185343E-2
50 189 6.271153071754923E-2
50 202 1.5205813660762504E-2
50 206 6.561601600989288E-2
51 2 2.1388425701914585E-2
51 6 1.831563888873418E-2
51 12 9.295959200470824E-2
51 18 3.776098077725922E-2
51 46 1.3573189899091048E-1
51 77 2.691381945899113E-1
51 111 1.795999183506017E-2
51 120 2.8366486754137794E-2
51 126 2.9134432131696288E-2
51 130 4.821981519382358E-1
51 134 6.137007927669357E-2
51 141 1.831563888873418E-2
51 156 1.6324897195091708E-2
51 167 5.260713012085998E-2
51 209 6.898842639067537E-2
51 213 3.384480133549278E-2
52 7 1.831563888873418E-2
52 24 1.253850255289946E-1
52 35 1.831563888873418E-2
52 42 5.694144366006387E-2
52 45 1.3668714150427155E-2
52 49 4.798150594170689E-2
52 50 2.001622444548036E-1
52 53 2.441961861007151E-2
52 63 3.978289258981453E-2
52 78 4.402091439603188E-2
52 89 1.8136149832364196E-2
52 136 1.568029857620654E-2
52 189 3.853378658326864E-2
52 206 8.859553349878276E-2
53 24 7.174037910607575E-2
53 26 2.0469082621982812E-2
53 29 1.831563888873418E-2
53 42 1.831563888873418E-2
53 44 2.023745925261502E-2
53 52 2.441961861007151E-2
53 82 6.282452442734733E-1
53 136 3.6090729711010977E-1
53 137 2.746826546456743E-1
53 154 2.462443363403519E-2
53 169 8.197685837084562E-2
53 206 4.563772737484395E-2
54 26 3.452475246082979E-2
54 31 8.057115247149788E-2
54 43 2.832226895943766E-2
54 131 6.85280229534995E-1
54 132 5.223002951366406E-2
54 138 1.831563888873418E-2
54 140 4.155825443029415E-2
54 145 4.3646535893794115E-2
54 151 2.1893587957019907E-2
54 181 1.6312488973778783E-2
54 197 5.331462499401877E-1
54 198 2.628493296536923E-1
54 200 1.9515867236461013E-2
54 208 1.963302553644625E-2
55 9 2.1669522485898424E-1
55 66 2.99940782022951E-1
55 73 4.2140518103307045E-2
55 95 2.076552493249036E-3
55 108 1.1425766215729924E-1
55 112 1.831563888873418E-2
55 128 3.610113257644958E-1
55 144 1.0558933321789848E-2
55 163 4.334499316622209E-2
55 170 6.810513997761386E-2
55 194 5.184278541830086E-1
55 195 3.314212786948181E-2
55 207 1.6283845930945143E-1
56 3 7.091890346370348E-2
56 15 2.1190484813989796E-1
56 35 2.589686747414397E-2
56 43 1.7534917814518103E-2
56 49 1.831563888873418E-2
56 88 1.3466755288001578E-1
56 107 1.3202827693678018E-1
56 146 1.410575904370456E-1
56 172 1.8223527481436155E-2
56 181 2.710227512647541E-2
56 189 5.386195105018434E-2
56 211 1.831563888873418E-2
57 68 1.849808190389793E-2
57 71 2.713036716632075E-2
57 98 4.917700127588473E-2
57 103 1.1442251433315358E-1
57 106 1.831563888873418E-2
57 117 2.5781133584512606E-2
57 123 5.183016307351819E-2
57 148 5.1367905888827906E-2
57 152 1.6319704649536804E-2
57 164 1.831563888873418E-2
57 177 1.831563888873418E-2
57 193 2.085149978236545E-2
58 13 1.831563888873418E-2
58 14 3.9333779589132825E-2
58 21 1.831563888873418E-2
58 70 2.093757591493768E-2
58 75 1.597884043792302E-2
58 83 1.831563888873418E-2
58 93 2.417998725935052E-2
58 94 1.634374621587859E-2
58 96 3.429455396755393E-1
58 109 2.7497815487376304E-2
58 113 1.2390570567950765E-1
58 129 2.1184807039579714E-2
58 139 9.380469247335403E-2
58 142 1.5578950281661716E-2
58 143 1.5412934262923271E-2
58 162 2.253630851588186E-1
58 173 2.325692589767079E-2
58 191 5.383270631816842E-2
58 193 1.831563888873418E-2
59 7 2.1096554768651862E-1
59 24 2.636992133479437E-2
59 30 1.6780486496245115E-2
59 45 1.5296022345765004E-1
59 50 2.9036295563615106E-2
59 62 6.542205924076646E-1
59 63 3.124643957928551E-2
59 113 3.236730870690939E-2
59 155 4.5107854344505885E-2
59 206 7.66812231187586E-2
59 210 1.831563888873418E-2
60 10 1.1151601970802788E-1
60 30 1.3294473885142061E-2
60 34 2.0445873858065847E-2
60 48 6.597860005423091E-2
60 61 7.79280325480005E-2
60 72 2.7129862258028115E-1
60 74 4.4660971448669173E-1
60 86 5.380997124298241E-2
60 100 1.1296784894941417E-1
60 129 2.2477346658960097E-2
60 147 1.831563888873418E-2
60 150 3.787679097533001E-1
60 154 2.1519906530281158E-2
60 160 2.7391458782757855E-1
60 175 2.1685605184822338E-2
61 10 6.746840865606679E-2
61 34 1.393733450331869E-2
61 60 7.79280325480005E-2
61 72 3.969380208603355E-2
61 74 6.318164791043297E-2
61 86 4.205843824009625E-1
61 129 5.356012364316068E-2
61 142 2.1167807819929503E-2
61 143 2.0107717962914377E-2
61 147 1.8293100772124704E-2
61 149 2.160679773515174E-2
61 150 2.7116317905954146E-2
61 160 2.7905126311230093E-2
61 175 8.85782588439611E-2
62 7 2.084480758053426E-1
62 45 2.5733812510299636E-1
62 50 1.9754347675702947E-2
62 59 6.542205924076646E-1
62 63 2.8645463567046895E-2
62 113 9.400939740615186E-2
62 116 1.831563888873418E-2
62 155 6.542147260204148E-2
62 202 1.0626464177666342E-2
62 206 3.1798466897708814E-2
63 3 7.202582675674973E-2
63 7 2.1926893742335897E-2
63 30 3.225160179054258E-2
63 45 1.831563888873418E-2
63 49 3.5395536999565276E-2
63 50 1.1306311083284018E-1
63 52 3.978289258981453E-2
63 59 3.124643957928551E-2
63 62 2.8645463567046895E-2
63 84 4.0397458287518706E-1
63 116 2.4723518808327617E-2
63 155 2.9630140681969386E-1
63 188 1.3811349762813627E-2
63 189 5.724218509890323E-2
63 202 1.2167468399577006E-1
63 206 1.9388252771397924E-1
63 210 7.829245945100441E-2
64 14 7.265681254616635E-1
64 65 4.904643668345557E-2
64 68 4.1859792629031944E-2
64 83 3.041563126038504E-1
64 124 1.8049123720692326E-2
64 139 1.5014631962771632E-1
64 152 1.7385616509801827E-1
64 159 1.68432265440693E-1
64 162 1.831563888873418E-2
64 166 1
64 173 2.460300988851261E-1
64 177 1.0367057467744988E-1
65 13 1.0501779234699399E-1
65 14 9.99973738378914E-2
65 21 1.2572950672127199E-2
65 64 4.904643668345557E-2
65 70 1.2339023841445092E-2
65 75 1.5720186399849237E-1
65 93 9.774381067634265E-3
65 96 2.1672011476792263E-2
65 123 5.649364134173636E-2
65 124 6.813126409512585E-2
65 139 2.2524868099132656E-1
65 152 1.831563888873418E-2
65 162 2.596675001140503E-2
65 166 4.904643668345557E-2
65 173 2.2146443092240486E-1
66 9 5.297534208824173E-1
66 55 2.99940782022951E-1
66 108 1.0599901739888454E-1
66 112 1.759582535628419E-2
66 127 1.9404978350570045E-2
66 128 2.3005212244843223E-1
66 144 5.107499057229979E-2
66 163 3.545928750711781E-2
66 170 1.831563888873418E-2
66 186 1.892633107517195E-2
66 194 3.6760718486678423E-1
66 195 1.7295825448500224E-2
66 207 2.8848158984498945E-1
67 8 3.308348092104443E-2
67 23 5.506354822133274E-2
67 32 2.5367187774535443E-1
67 94 1.831563888873418E-2
67 109 6.232249195468747E-2
67 115 1.904226094668622E-2
67 116 1.6906583097854738E-1
67 148 1.831563888873418E-2
67 155 1.7411710222189576E-2
67 183 4.3594065611542304E-2
67 188 1.976755331941238E-2
67 191 7.185671058867331E-2
67 192 1.4186046656802093E-2
67 196 2.7622583173886106E-1
67 202 7.922965903805211E-2
67 203 2.7261198665213485E-2
67 205 1.831563888873418E-2
68 14 3.6321294124976464E-2
68 57 1.849808190389793E-2
68 64 4.1859792629031944E-2
68 83 1.8715588791929694E-1
68 103 2.0638774919169146E-2
68 129 1.7214921995401797E-2
68 139 1.601532476387058E-2
68 142 1.849011499015301E-2
68 152 9.875423356124757E-2
68 159 3.9238605778959455E-2
68 162 1.831563888873418E-2
68 166 4.1859792629031944E-2
68 173 4.0000433821809206E-2
68 177 4.7836449630042976E-1
69 5 6.532683788060782E-2
69 22 9.378405156697733E-2
69 85 1.831563888873418E-2
69 87 3.99589874081934E-2
69 135 2.7514134164780085E-2
69 153 4.310001072242501E-2
69 161 2.3073342176539474E-2
69 165 2.350921375419813E-2
69 179 1.387255428619755E-2
69 190 2.9361305008052698E-2
70 13 3.7176266012699843E-1
70 21 9.553647417136675E-1
70 58 2.093757591493768E-2
70 65 1.2339023841445092E-2
70 75 2.4191047990148895E-1
70 93 8.811882751491574E-1
70 96 1.952776496524516E-1
70 139 1.831563888873418E-2
70 162 5.429945586238438E-2
70 196 3.116261986954364E-2
71 8 1.681036175032347E-2
71 57 2.713036716632075E-2
71 73 3.0892971996128532E-2
71 94 2.080712035427715E-1
71 103 3.512803750778486E-2
71 109 1.831563888873418E-2
71 117 1.3290753658221555E-1
71 148 1.5455954870071215E-1
71 176 7.741656932359467E-2
71 188 3.875426932758053E-2
71 192 1.9342997392765345E-2
71 193 6.119072022166709E-1
71 214 7.14321244104096E-1
72 10 6.1098643334052904E-2
72 11 1.831563888873418E-2
72 24 1.1751100032788087E-1
72 30 3.215757274821334E-2
72 34 1.8833809938501537E-2
72 48 1.0455447877335591E-1
72 60 2.7129862258028115E-1
72 61 3.969380208603355E-2
72 74 1.1323229976568668E-1
72 76 2.6357423455971536E-2
72 86 1.5281432359546288E-2
72 100 3.762639543706875E-2
72 102 2.402919309789523E-2
72 137 1.6441166695601903E-2
72 150 4.2819495173878835E-1
72 154 1.1826537420692498E-1
72 160 5.2313337674659996E-2
72 169 1.6788370239253465E-2
73 55 4.2140518103307045E-2
73 71 3.0892971996128532E-2
73 90 1.8783404189848772E-2
73 98 5.320482357373878E-2
73 103 1.8549834942604107E-2
73 108 2.4954599562691547E-2
73 163 1.5802991171860816E-2
73 170 2.662924612326612E-2
73 180 2.5494107479227972E-2
73 184 2.1848971376243708E-2
73 194 1.8337386159616498E-2
73 195 6.010431349080461E-2
73 214 2.1276132875590405E-2
74 10 4.1066807873900296E-1
74 34 1.984014257148687E-2
74 48 8.210288659184863E-2
74 60 4.4660971448669173E-1
74 61 6.318164791043297E-2
74 72 1.1323229976568668E-1
74 86 4.423005625254822E-2
74 100 2.0988476829201982E-1
74 102 1.831563888873418E-2
74 150 9.479668697523957E-2
74 160 4.1031285302249365E-1
74 189 1.473525452134056E-2
75 13 7.037645858184163E-1
75 21 2.8091466950428656E-1
75 58 1.597884043792302E-2
75 65 1.5720186399849237E-1
75 70 2.4191047990148895E-1
75 93 3.052919998094638E-1
75 96 1.5045612429145921E-1
75 123 6.421613935549518E-2
75 124 5.424674144344563E-2
75 139 8.47852034484948E-2
75 162 5.628940021765441E-2
75 173 1.831563888873418E-2
76 11 2.9465871189080783E-2
76 16 3.544849126033873E-1
76 34 6.093100137126809E-1
76 40 3.8105549934864376E-2
76 72 2.6357423455971536E-2
76 86 1.916660868134509E-2
76 101 1.0066219027515386E-1
76 102 5.7678658685750686E-2
76 118 2.017062627463479E-2
76 145 1.831563888873418E-2
76 147 1.4674472327182014E-1
76 149 2.638942936870048E-2
76 151 1.8287847661253073E-2
76 169 2.4911270166585623E-2
76 175 3.851733430231803E-2
76 182 1.902939785129486E-1
76 201 1.728012737425293E-1
76 212 2.8214297086891257E-2
77 2 1.2112661803643107E-1
77 12 2.782775675409304E-2
77 18 2.0158585504357167E-2
77 41 4.6859407631722215E-2
77 46 5.085466572835383E-2
77 51 2.691381945899113E-1
77 80 1.831563888873418E-2
77 81 2.3553551779713022E-2
77 130 2.708856518206963E-1
77 134 1.0240865327817972E-1
77 156 5.917424563855343E-2
77 185 3.621880039338746E-2
77 209 1.7448907811302348E-2
77 213 3.185604915169258E-2
78 35 5.4529882436700705E-2
78 39 2.6313316638970713E-2
78 42 3.673653861811812E-2
78 49 1.831563888873418E-2
78 52 4.402091439603188E-2
78 80 1.6743708311191086E-2
78 89 3.1032806057835746E-2
78 126 4.533653704972871E-2
78 136 1.831563888873418E-2
78 178 2.7949544287861987E-2
78 204 1.0610414134808721E-1
79 8 1.831563888873418E-2
79 20 3.6541978636682806E-2
79 35 4.0707996592605725E-2
79 41 1.4277624236966758E-2
79 49 2.1803478815922708E-1
79 80 1.2143889869036707E-1
79 84 3.766753874858646E-2
79 89 2.3185452516397678E-1
79 121 7.638541372144098E-2
79 156 3.928557499605888E-2
79 171 1.831563888873418E-2
79 172 4.061602594962739E-2
79 178 1.0843489847481899E-1
79 192 2.6129304224308383E-2
79 202 2.0640638688553054E-2
79 204 2.852297811076039E-2
80 18 1.998405303592908E-2
80 35 1.4496040765034685E-1
80 39 1.831563888873418E-2
80 41 1.831563888873418E-2
80 49 1.806883499221906E-2
80 77 1.831563888873418E-2
80 78 1.6743708311191086E-2
80 79 1.2143889869036707E-1
80 81 3.9942952192475865E-2
80 88 1.2167417348494865E-2
80 89 9.46680276354579E-2
80 99 1.8377391181577107E-1
80 126 9.796165318818387E-2
80 156 1.350105082983587E-1
80 167 2.645634297956905E-2
80 172 3.780113601348627E-2
80 178 5.864324383219014E-1
80 204 2.4543036678947503E-2
80 209 1.1935190349929849E-1
80 213 1.831563888873418E-2
81 1 3.0816725871665916E-2
81 35 2.561434470734754E-2
81 41 7.203104077383113E-2
81 42 4.6760131325745524E-2
81 77 2.3553551779713022E-2
81 80 3.9942952192475865E-2
81 89 7.796846066636683E-2
81 126 2.047872673331738E-2
81 130 1.808195810292659E-2
81 134 2.946054382605389E-2
81 141 1.2212519999390084E-1
81 156 4.6379760873700104E-1
81 167 1.9563715783979724E-2
81 171 3.804805171028776E-2
81 178 6.402130182072567E-2
81 185 7.206852279609793E-2
81 187 1.0439057690789845E-1
81 204 2.1288416344227238E-2
81 209 2.9315966896989978E-2
82 24 1.831563888873418E-2
82 26 8.967653399875766E-2
82 29 4.063594409133023E-2
82 44 3.99121278172558E-2
82 53 6.282452442734733E-1
82 136 1.5764661941538294E-1
82 137 3.108152485017155E-1
82 154 2.611676053389963E-2
82 169 5.1119516174415854E-2
82 197 1.237515636597466E-2
82 198 7.555522622145507E-2
82 208 2.1982211329823764E-2
83 14 2.3901389943497436E-1
83 58 1.831563888873418E-2
83 64 3.041563126038504E-1
83 68 1.8715588791929694E-1
83 124 1.831563888873418E-2
83 139 7.4415584550416E-2
83 152 6.218259823133595E-1
83 159 8.55355753560116E-2
83 162 1.7698231010751006E-2
83 166 3.041563126038504E-1
83 173 2.395738195238088E-1
83 177 5.032185707794489E-1
84 3 1.583822902014947E-1
84 8 2.411298788796314E-2
84 20 2.4900044513928972E-2
84 30 2.1411276527321887E-2
84 49 1.7929103613838568E-1
84 50 1.831563888873418E-2
84 63 4.0397458287518706E-1
84 79 3.766753874858646E-2
84 116 1.4512264582977902E-2
84 121 2.064604857083455E-2
84 155 1.4298376135357882E-1
84 188 1.831563888873418E-2
84 189 7.983355350123088E-2
84 192 2.5290419651299797E-2
84 202 1.2760585939819377E-1
84 206 2.197766674260294E-2
84 210 1.831563888873418E-2
85 19 2.8502971486128223E-2
85 22 1.831563888873418E-2
85 25 4.0341201869865805E-2
85 38 3.535001127837344E-2
85 69 1.831563888873418E-2
85 90 3.545831500658005E-2
85 110 4.9447554654372984E-2
85 111 1.831563888873418E-2
85 125 6.990107524012101E-2
85 158 1.706526919636894E-1
85 161 1.0168755243962404E-2
85 165 1.2333419065351745E-2
85 179 7.376472398455819E-1
86 10 1.831563888873418E-2
86 34 3.1029477322799245E-2
86 47 2.079230414263706E-2
86 60 5.380997124298241E-2
86 61 4.205843824009625E-1
86 72 1.5281432359546288E-2
86 74 4.423005625254822E-2
86 76 1.916660868134509E-2
86 118 1.831563888873418E-2
86 129 4.024191255015514E-2
86 142 2.750048694375208E-2
86 143 1.831563888873418E-2
86 147 1.3150689480108968E-1
86 149 4.5856721805820455E-2
86 175 1.1338842578933757E-1
87 5 4.270681356421908E-1
87 19 1.831563888873418E-2
87 22 1.9999881273655074E-1
87 69 3.99589874081934E-2
87 110 1.81194684054996E-2
87 135 1.3050093322261547E-1
87 153 3.5703726229121246E-1
87 161 3.505514791654519E-1
87 165 3.5655599815700956E-1
87 184 1.9689785923870065E-2
87 190 2.0774423128965586E-1
88 15 1.6863784638906313E-2
88 35 2.8025602480510226E-2
88 41 1.831563888873418E-2
88 56 1.3466755288001578E-1
88 80 1.2167417348494865E-2
88 115 4.0949918940754663E-2
88 146 1.6996875406868944E-1
88 156 2.174839978802323E-2
88 168 1.0102777063065216E-1
88 171 4.491671582053908E-2
88 178 2.5060953506770085E-2
88 187 3.8873620010693145E-2
88 204 2.3666595875464148E-2
89 1 2.12289368806413E-2
89 35 8.167390163801136E-2
89 42 6.110090531176901E-2
89 49 1.4290969378153986E-1
89 52 1.8136149832364196E-2
89 78 3.1032806057835746E-2
89 79 2.3185452516397678E-1
89 80 9.46680276354579E-2
89 81 7.796846066636683E-2
89 121 1.5374541656940178E-2
89 136 2.6423276253032407E-2
89 156 7.650597931993032E-2
89 167 2.4007338620662295E-2
89 171 5.1296225071342114E-2
89 178 1.7341259029281275E-1
89 204 3.74573726529859E-2
89 209 1.831563888873418E-2
90 5 1.7643442639197045E-2
90 19 8.61585926094347E-2
90 73 1.8783404189848772E-2
90 85 3.545831500658005E-2
90 98 3.883045158374287E-1
90 110 1.831563888873418E-2
90 119 2.8488556994250746E-2
90 125 4.239898696128727E-2
90 135 1.5092888285329153E-1
90 148 1.831563888873418E-2
90 153 5.564721164204993E-2
90 158 1.738342528755265E-2
90 180 4.251863391574875E-2
90 184 1.40031798770299E-1
90 190 8.197731522123484E-2
90 195 7.455903488145049E-2
91 17 6.141553502288093E-1
91 28 3.9513067696376575E-1
91 33 2.095119172172652E-2
91 95 1.831563888873418E-2
91 97 8.282088664545617E-1
91 104 6.079368435308534E-1
91 105 4.3138461777557985E-1
91 108 6.500204904401421E-3
91 112 6.898231915139182E-2
91 114 1.5881197549562245E-1
91 133 2.0190234878242577E-1
91 157 5.7455995875381735E-2
91 163 1.831563888873418E-2
91 170 8.14415112680763E-3
91 174 1.831563888873418E-2
91 186 1.410209789204169E-1
92 1 8.083124104954506E-2
92 6 1.9365504503965517E-2
92 12 1.8389246574032066E-2
92 41 5.767647371778425E-2
92 46 2.148577072468597E-2
92 121 1.1687456906797229E-1
92 134 1.5099095623750375E-1
92 141 1.6379221629136798E-2
92 156 1.831563888873418E-2
92 168 4.45107414165483E-2
92 185 5.300949809856569E-2
92 187 2.1339202610684095E-2
92 204 1.870895569824973E-1
93 13 3.953332943002524E-1
93 21 9.325471358017993E-1
93 58 2.417998725935052E-2
93 65 9.774381067634265E-3
93 70 8.811882751491574E-1
93 75 3.052919998094638E-1
93 96 2.458317136830193E-1
93 139 1.831563888873418E-2
93 162 6.47513160391821E-2
93 196 1.8335567799690016E-2
94 8 7.013393867348804E-2
94 25 1.831563888873418E-2
94 58 1.634374621587859E-2
94 67 1.831563888873418E-2
94 71 2.080712035427715E-1
94 98 1.897519711053068E-2
94 117 1.1566371306787222E-1
94 148 1.7043879873457346E-1
94 158 4.150745001581099E-2
94 176 3.4118857737866104E-2
94 188 1.0566128615157375E-1
94 192 7.427880218531749E-2
94 193 4.961474318580614E-1
94 214 3.432031398230775E-1
95 4 3.563193695961932E-2
95 9 3.990701131519158E-2
95 33 3.532566058050829E-2
95 55 2.076552493249036E-3
95 91 1.831563888873418E-2
95 108 2.1787502798359024E-1
95 112 4.0559158381098176E-1
95 114 1.5574490332920864E-2
95 157 6.141736171755228E-1
95 163 3.801671104902484E-1
95 170 1.501173611277348E-1
95 194 4.07396147810998E-2
95 207 4.8460969755336E-2
96 13 2.514688329487664E-1
96 14 1.831563888873418E-2
96 21 2.104931470285949E-1
96 58 3.429455396755393E-1
96 65 2.1672011476792263E-2
96 70 1.952776496524516E-1
96 75 1.5045612429145921E-1
96 93 2.458317136830193E-1
96 123 1.3621031581048666E-2
96 139 1.9631450023044045E-1
96 162 5.830494041209388E-1
96 173 1.831563888873418E-2
97 17 7.074384829633229E-1
97 28 3.5148861031953915E-1
97 33 1.872865858935601E-2
97 91 8.282088664545617E-1
97 103 1.831563888873418E-2
97 104 7.275002264692387E-1
97 105 5.535627377310733E-1
97 112 1.831563888873418E-2
97 114 1.1729971434834473E-1
97 133 1.79206357976367E-1
97 157 1.806401226886473E-2
97 163 9.260089599625602E-3
97 174 2.5463960208923345E-2
97 186 1.2223216143741057E-1
98 25 4.6424223215385065E-2
98 57 4.917700127588473E-2
98 73 5.320482357373878E-2
98 90 3.883045158374287E-1
98 94 1.897519711053068E-2
98 117 8.31855486947213E-2
98 123 1.831563888873418E-2
98 135 1.6090860638744237E-2
98 148 1.5018960335328366E-1
98 153 1.4689469645715584E-2
98 158 2.245250024269161E-2
98 184 1.660132264380708E-2
98 193 3.726639066335017E-2
98 195 1.831563888873418E-2
98 214 1.65948264940294E-2
99 18 3.6394082079055985E-2
99 26 1.831563888873418E-2
99 35 6.118511217535273E-2
99 39 1.831563888873418E-2
99 44 9.407746310484115E-2
99 80 1.8377391181577107E-1
99 126 2.7217500487380215E-2
99 138 3.7125644025992006E-2
99 172 1.2142749686971104E-1
99 178 6.705254671959578E-2
99 181 6.283909356441282E-2
99 209 1.9661181392593558E-2
99 213 1.8399240452996835E-2
100 10 1.9277412303425046E-1
100 23 1.8332615614464844E-2
100 48 8.775669725346869E-2
100 50 5.8465140443264285E-2
100 60 1.1296784894941417E-1
100 72 3.762639543706875E-2
100 74 2.0988476829201982E-1
100 150 7.020000540388341E-2
100 154 1.7738009119395666E-2
100 160 3.029261443952523E-1
100 171 1.831563888873418E-2
101 11 1.5073708666349925E-2
101 16 2.4026543096589588E-2
101 34 1.831563888873418E-2
101 40 4.0307439720027025E-2
101 76 1.0066219027515386E-1
101 118 1.8115220428972133E-2
101 137 3.884341697229355E-2
101 145 2.5597705803868588E-2
101 149 5.4870733410465534E-2
101 151 2.029949149589557E-2
101 169 3.190735265476357E-2
101 182 2.4369529641923716E-2
101 208 1.0075660748160348E-1
101 212 5.131419703683125E-1
102 11 2.1812650514714378E-2
102 15 2.4330055269309654E-2
102 16 9.578056116116382E-2
102 29 1.831563888873418E-2
102 34 9.818703133076886E-2
102 48 2.1895403285625684E-2
102 72 2.402919309789523E-2
102 74 1.831563888873418E-2
102 76 5.7678658685750686E-2
102 140 1.659295776944386E-2
102 147 2.7477456897682218E-2
102 182 1.9525875776567106E-1
102 201 1.266311068510821E-1
103 47 3.121905380712015E-2
103 57 1.1442251433315358E-1
103 68 2.0638774919169146E-2
103 71 3.512803750778486E-2
103 73 1.8549834942604107E-2
103 97 1.831563888873418E-2
103 142 1.846946876369234E-2
103 143 2.9373215732621333E-2
103 148 1.733579050840707E-2
103 149 1.851980507113788E-2
103 177 2.326134358733968E-2
104 17 8.189428813949552E-1
104 28 4.7510068594173255E-1
104 33 1.9675995285129647E-2
104 91 6.079368435308534E-1
104 97 7.275002264692387E-1
104 105 8.778794405664676E-1
104 112 1.831563888873418E-2
104 114 1.767688543217089E-1
104 133 2.876355280054942E-1
104 157 3.024650299533695E-2
104 174 3.792408970810936E-2
104 186 1.7084848357096033E-1
105 17 7.64982208116697E-1
105 28 6.121529026907573E-1
105 33 1.831563888873418E-2
105 91 4.3138461777557985E-1
105 97 5.535627377310733E-1
105 104 8.778794405664676E-1
105 112 1.831563888873418E-2
105 114 2.4851960363863018E-1
105 133 4.095394880374833E-1
105 157 1.3999555396545944E-2
105 174 5.399510468204602E-2
105 186 2.3686369140258423E-1
106 25 2.363400960780654E-2
106 40 2.9133985615402584E-2
106 47 4.899113323660472E-2
106 57 1.831563888873418E-2
106 117 1.5682221409494834E-2
106 118 3.222130471916598E-2
106 127 2.5606366724070913E-2
106 151 2.9532549939326604E-2
106 164 9.957566245833758E-1
106 174 3.1050073596058932E-2
107 15 1.1218401995427321E-1
107 27 1.509591122183709E-1
107 43 8.864114932526734E-2
107 56 1.3202827693678018E-1
107 138 3.7024008661531535E-2
107 140 7.533911313251215E-2
107 181 5.1478642829072954E-2
107 200 2.633258748669851E-2
107 201 1.664345953061192E-2
107 211 2.1268411725009378E-1
108 9 1.469738995158044E-1
108 55 1.1425766215729924E-1
108 66 1.0599901739888454E-1
108 73 2.4954599562691547E-2
108 91 6.500204904401421E-3
108 95 2.1787502798359024E-1
108 112 6.199602933486763E-1
108 114 1.6924738355642413E-2
108 128 6.693440205387098E-2
108 133 1.7359228022653952E-2
108 157 1.6795507518563463E-1
108 163 7.267243548423188E-1
108 170 4.1837445417602936E-1
108 186 1.831563888873418E-2
108 194 2.4018074633429756E-1
108 207 1.2210453079923506E-1
109 32 2.5285151999772887E-1
109 58 2.7497815487376304E-2
109 67 6.232249195468747E-2
109 71 1.831563888873418E-2
109 113 4.327040976113401E-2
109 116 3.298248496582461E-1
109 142 1.6845439484464295E-1
109 143 2.443398522491105E-2
109 155 1.831563888873418E-2
109 175 1.3774076939964205E-2
109 183 2.774934471495998E-1
109 191 5.747599355283538E-1
109 203 3.932597787364187E-1
109 205 1.1166104733212412E-1
110 19 4.5126779007279083E-1
110 22 2.4401577350293753E-2
110 85 4.9447554654372984E-2
110 87 1.81194684054996E-2
110 90 1.831563888873418E-2
110 119 1.842033159329244E-1
110 125 6.265917654720101E-1
110 127 3.0179286000589365E-2
110 135 6.198959526692316E-2
110 144 1.7127040509381516E-1
110 161 1.956495815506734E-2
110 165 1.831563888873418E-2
110 179 8.58052353395466E-2
110 180 1.831563888873418E-2
110 184 1.9022169584907024E-2
110 190 4.5527058556809635E-2
110 195 3.6943607645439254E-2
111 1 1.831563888873418E-2
111 6 7.998688015694619E-2
111 8 2.9231860066390083E-2
111 12 1.2665158480041877E-1
111 38 1.9094355750686035E-2
111 46 2.5878832265546048E-2
111 51 1.795999183506017E-2
111 85 1.831563888873418E-2
111 120 3.8742731709682104E-1
111 121 2.9096766953236798E-2
111 127 2.3847562884857395E-2
111 179 1.831563888873418E-2
111 192 4.1094016673293064E-2
112 9 2.442856921545316E-2
112 17 1.831563888873418E-2
112 28 1.831563888873418E-2
112 33 2.4513253497135012E-2
112 55 1.831563888873418E-2
112 66 1.759582535628419E-2
112 91 6.898231915139182E-2
112 95 4.0559158381098176E-1
112 97 1.831563888873418E-2
112 104 1.831563888873418E-2
112 105 1.831563888873418E-2
112 108 6.199602933486763E-1
112 114 1.831563888873418E-2
112 128 1.831563888873418E-2
112 133 1.831563888873418E-2
112 157 5.390609652265062E-1
112 163 8.785135962640263E-1
112 170 5.431956360374842E-1
112 186 1.2280414824325485E-2
112 194 8.203787586883057E-2
112 207 2.0823415321176007E-2
113 45 2.218718617164149E-2
113 58 1.2390570567950765E-1
113 59 3.236730870690939E-2
113 62 9.400939740615186E-2
113 109 4.327040976113401E-2
113 116 1.3546654346002869E-2
113 129 9.159222938231333E-2
113 142 1.0466714197114448E-1
113 143 6.420822452611473E-2
113 159 2.326191353013956E-2
113 175 1.831563888873418E-2
113 177 1.831563888873418E-2
113 191 4.117800358306246E-2
113 203 2.267686810312751E-2
114 17 2.3932650262797212E-1
114 28 6.633871092653545E-1
114 33 1.7045286201552132E-2
114 91 1.5881197549562245E-1
114 95 1.5574490332920864E-2
114 97 1.1729971434834473E-1
114 104 1.767688543217089E-1
114 105 2.4851960363863018E-1
114 108 1.6924738355642413E-2
114 112 1.831563888873418E-2
114 133 8.716368460643751E-1
114 174 2.9484687508163875E-2
114 186 6.85920346566269E-1
115 23 9.861317287244623E-2
115 41 4.6677560216997045E-2
115 49 1.8596586928542765E-2
115 67 1.904226094668622E-2
115 88 4.0949918940754663E-2
115 146 5.228374538638128E-2
115 156 1.7768853742104396E-2
115 168 1.298972271102531E-1
115 171 2.751867782003203E-1
115 185 5.7840358601792034E-2
115 187 3.9239997003036337E-1
115 196 1.0011591284895571E-1
115 202 1.831563888873418E-2
116 32 2.0912094143893387E-1
116 45 2.205761422912451E-2
116 62 1.831563888873418E-2
116 63 2.4723518808327617E-2
116 67 1.6906583097854738E-1
116 84 1.4512264582977902E-2
116 109 3.298248496582461E-1
116 113 1.3546654346002869E-2
116 155 1.6906586923018535E-1
116 183 1.0029280336925264E-1
116 188 2.92668159035978E-2
116 191 1.1986644028970402E-1
116 196 4.746032691783858E-2
116 202 3.720806428001892E-2
116 203 1.517932564453193E-1
116 205 1.3811109210052536E-1
116 214 3.69310159329896E-3
117 8 1.831563888873418E-2
117 25 2.883551532417047E-1
117 57 2.5781133584512606E-2
117 71 1.3290753658221555E-1
117 94 1.1566371306787222E-1
117 98 8.31855486947213E-2
117 106 1.5682221409494834E-2
117 148 5.305851278478259E-1
117 158 1.4997063992274298E-1
117 164 1.6981469992610437E-2
117 176 4.637858536192219E-2
117 188 1.8367863381004348E-2
117 192 1.3877672078042424E-2
117 193 2.241235806735614E-1
117 214 1.2065031079952951E-1
118 16 1.9342295958447307E-2
118 34 1.8354358395717675E-2
118 40 1.3167212193174244E-1
118 47 4.493097580218402E-1
118 76 2.017062627463479E-2
118 86 1.831563888873418E-2
118 101 1.8115220428972133E-2
118 106 3.222130471916598E-2
118 147 3.688099636146414E-2
118 149 5.622312336780851E-2
118 151 2.8813253313826825E-1
118 164 3.401910148221599E-2
119 19 1.2784640361172686E-1
119 90 2.8488556994250746E-2
119 110 1.842033159329244E-1
119 125 2.2749031460789498E-1
119 127 2.5467697940896164E-2
119 135 1.831563888873418E-2
119 144 1.094089009453437E-1
119 180 4.1629501443877504E-1
119 184 1.1683142519113875E-1
119 190 1.574247342321479E-2
119 195 5.980371427843002E-2
120 6 2.3504575822149265E-1
120 12 2.1857218263524691E-1
120 20 1.8959295925783787E-2
120 38 3.7958057263132075E-2
120 46 2.1705349340480195E-2
120 51 2.8366486754137794E-2
120 111 3.8742731709682104E-1
120 121 1.831563888873418E-2
120 127 3.3364896932242094E-2
120 192 1.7001345282588565E-2
120 213 4.687146617451008E-2
121 1 3.364308940157179E-2
121 6 9.420038948533499E-2
121 8 1.489959617813027E-1
121 20 1.6045138313256985E-1
121 38 2.4879036860706333E-2
121 41 2.3201452991972345E-2
121 79 7.638541372144098E-2
121 84 2.064604857083455E-2
121 89 1.5374541656940178E-2
121 92 1.1687456906797229E-1
121 111 2.9096766953236798E-2
121 120 1.831563888873418E-2
121 188 4.619745536349313E-2
121 192 1.948969726864933E-1
121 202 1.0304312301373644E-1
121 204 6.160861359539226E-2
122 18 4.615502627235145E-2
122 31 2.786587221286962E-2
122 36 2.5165796685200237E-1
122 37 1.3648537038997799E-2
122 39 6.781543973636221E-2
122 126 1.831563888873418E-2
122 131 2.2695732037588665E-2
122 132 1.146163005749338E-1
122 197 3.622223340486493E-2
122 199 1.831563888873418E-2
122 200 2.1098237618877927E-2
123 13 2.6093786702306967E-2
123 14 1.831563888873418E-2
123 57 5.183016307351819E-2
123 65 5.649364134173636E-2
123 75 6.421613935549518E-2
123 96 1.3621031581048666E-2
123 98 1.831563888873418E-2
123 124 4.189359547315168E-1
123 139 2.6385955323239944E-2
123 148 4.24950333199112E-2
123 152 3.631512077806977E-2
123 173 5.898314928544243E-2
124 13 3.3574782232976885E-2
124 14 2.469439337227676E-2
124 64 1.8049123720692326E-2
124 65 6.813126409512585E-2
124 75 5.424674144344563E-2
124 83 1.831563888873418E-2
124 123 4.189359547315168E-1
124 139 3.1013164929615734E-2
124 152 4.287474303263924E-2
124 173 5.300872224061927E-2
125 19 5.146271047078446E-1
125 85 6.990107524012101E-2
125 90 4.239898696128727E-2
125 110 6.265917654720101E-1
125 119 2.2749031460789498E-1
125 127 2.004023535691979E-2
125 135 1.1123285526300292E-1
125 144 1.5120347926097E-1
125 153 1.831563888873418E-2
125 179 7.190698463202856E-2
125 180 6.016311332337627E-2
125 184 4.979477868588707E-2
125 190 6.896041844029574E-2
125 195 4.831265771562941E-2
126 35 6.651198849915636E-2
126 39 2.5535943717673374E-2
126 42 5.9846758799101604E-2
126 51 2.9134432131696288E-2
126 78 4.533653704972871E-2
126 80 9.796165318818387E-2
126 81 2.047872673331738E-2
126 99 2.7217500487380215E-2
126 122 1.831563888873418E-2
126 130 2.3907868641905243E-2
126 136 3.8977598228792765E-2
126 167 6.62941092928392E-2
126 172 5.259781263652905E-2
126 178 2.751379442720085E-2
126 204 2.405083720075269E-2
126 209 3.0688663007275946E-1
127 6 1.7919136555590694E-2
127 66 1.9404978350570045E-2
127 106 2.5606366724070913E-2
127 110 3.0179286000589365E-2
127 111 2.3847562884857395E-2
127 119 2.5467697940896164E-2
127 120 3.3364896932242094E-2
127 125 2.004023535691979E-2
127 144 1.7287785225613309E-1
127 158 2.090351684878975E-2
127 164 3.1223232619798317E-2
127 213 1.831563888873418E-2
128 9 1.5915550098528547E-1
128 55 3.610113257644958E-1
128 66 2.3005212244843223E-1
128 108 6.693440205387098E-2
128 112 1.831563888873418E-2
128 163 3.563235039432447E-2
128 170 4.210470760700431E-2
128 186 1.759135371214582E-2
128 194 3.216945878643161E-1
128 207 7.837382093703749E-2
129 10 1.881713275854685E-2
129 58 2.1184807039579714E-2
129 60 2.2477346658960097E-2
129 61 5.356012364316068E-2
129 68 1.7214921995401797E-2
129 86 4.024191255015514E-2
129 113 9.159222938231333E-2
129 142 2.2498035189160086E-2
129 162 3.254325117482903E-2
129 177 1.831563888873418E-2
130 2 3.556680235043097E-2
130 12 3.344699194571323E-2
130 18 1.7419397211641065E-2
130 46 7.96833249984657E-2
130 51 4.821981519382358E-1
130 77 2.708856518206963E-1
130 81 1.808195810292659E-2
130 126 2.3907868641905243E-2
130 134 3.629005380884673E-2
130 141 3.2122348839513454E-2
130 156 1.831563888873418E-2
130 167 5.018822739330589E-2
130 209 1.3022089844893148E-1
131 26 2.028136563084257E-2
131 27 1.7290492842273623E-2
131 31 2.3323637854237766E-1
131 43 3.083167608194874E-2
131 54 6.85280229534995E-1
131 122 2.2695732037588665E-2
131 132 1.1997774861711544E-1
131 138 3.408335234786322E-2
131 140 3.861914568576898E-2
131 151 1.9323785217388867E-2
131 181 2.3171361427209342E-2
131 197 8.194219237909778E-1
131 198 1.3375838809625787E-1
131 200 2.9084018430974655E-2
132 18 5.2970306853145785E-2
132 31 2.693758770246168E-1
132 36 1.0478533275268413E-1
132 54 5.223002951366406E-2
132 122 1.146163005749338E-1
132 131 1.1997774861711544E-1
132 138 1.831563888873418E-2
132 197 1.2232057178237836E-1
132 199 8.18358528587437E-2
132 200 1.2817797195755702E-2
133 17 4.000916436198122E-1
133 28 8.124420164493491E-1
133 91 2.0190234878242577E-1
133 97 1.79206357976367E-1
133 104 2.876355280054942E-1
133 105 4.095394880374833E-1
133 108 1.7359228022653952E-2
133 112 1.831563888873418E-2
133 114 8.716368460643751E-1
133 174 3.737874315000687E-2
133 186 8.524761572929658E-1
134 1 4.343349893735162E-2
134 2 5.236536882481875E-2
134 12 3.338954328613713E-2
134 41 1.0579945357287972E-1
134 46 5.770031953716472E-2
134 51 6.137007927669357E-2
134 77 1.0240865327817972E-1
134 81 2.946054382605389E-2
134 92 1.5099095623750375E-1
134 130 3.629005380884673E-2
134 141 1.3711596620677513E-1
134 156 5.534788239355412E-2
134 185 1.9113123312624997E-1
134 187 1.831563888873418E-2
134 204 2.1202061949297715E-2
135 5 7.121934936914265E-2
135 19 2.8289392196468505E-1
135 22 5.979955939480993E-2
135 69 2.7514134164780085E-2
135 87 1.3050093322261547E-1
135 90 1.5092888285329153E-1
135 98 1.6090860638744237E-2
135 110 6.198959526692316E-2
135 119 1.831563888873418E-2
135 125 1.1123285526300292E-1
135 153 3.627268516738506E-1
135 161 2.3036191827165667E-2
135 165 2.363660827886756E-2
135 180 2.0763335009921974E-2
135 184 1.8912199987432277E-1
135 190 9.201040090004051E-1
135 195 9.280013530676168E-2
136 35 2.16416836064107E-2
136 42 1.1705767496466529E-1
136 52 1.568029857620654E-2
136 53 3.6090729711010977E-1
136 78 1.831563888873418E-2
136 82 1.5764661941538294E-1
136 89 2.6423276253032407E-2
136 126 3.8977598228792765E-2
136 137 2.0920412212476692E-2
136 167 2.382965972340151E-2
136 209 4.627463062052467E-2
137 24 1.4150565193586742E-1
137 29 2.8739653489282396E-2
137 53 2.746826546456743E-1
137 72 1.6441166695601903E-2
137 82 3.108152485017155E-1
137 101 3.884341697229355E-2
137 136 2.0920412212476692E-2
137 145 2.2375530648642793E-2
137 154 2.1553860135834213E-1
137 169 2.341674544075996E-1
137 206 1.831563888873418E-2
137 208 2.268159451706802E-2
137 212 7.276717153172563E-2
138 27 6.671340700769723E-2
138 31 1.65688089139578E-1
138 36 1.831563888873418E-2
138 37 1.435008500493982E-1
138 39 2.970860575566123E-2
138 43 3.1918610589673E-1
138 54 1.831563888873418E-2
138 99 3.7125644025992006E-2
138 107 3.7024008661531535E-2
138 131 3.408335234786322E-2
138 132 1.831563888873418E-2
138 140 7.387175243920927E-2
138 181 2.6331612806126226E-1
138 197 6.389758816622479E-2
138 199 3.338423640792685E-2
138 200 1.0832632928071427E-1
138 211 2.4700731442779827E-2
139 13 1.1324306909399733E-1
139 14 3.308782143662394E-1
139 21 1.934237169408041E-2
139 58 9.380469247335403E-2
139 64 1.5014631962771632E-1
139 65 2.2524868099132656E-1
139 68 1.601532476387058E-2
139 70 1.831563888873418E-2
139 75 8.47852034484948E-2
139 83 7.4415584550416E-2
139 93 1.831563888873418E-2
139 96 1.9631450023044045E-1
139 123 2.6385955323239944E-2
139 124 3.1013164929615734E-2
139 152 7.503483840410143E-2
139 159 1.038904738167644E-2
139 162 3.803015979549075E-1
139 166 1.5014631962771632E-1
139 173 3.1497612978265177E-1
139 177 2.065990362222595E-2
140 27 2.8452907101411334E-2
140 29 1.947390690961751E-1
140 37 3.425323908720678E-2
140 43 4.3545033736515043E-1
140 54 4.155825443029415E-2
140 102 1.659295776944386E-2
140 107 7.533911313251215E-2
140 131 3.861914568576898E-2
140 138 7.387175243920927E-2
140 145 7.463563720215886E-2
140 181 3.6759216903096326E-1
140 197 4.5769908949190814E-2
140 198 1.9818301124158607E-2
140 200 1.4632000023871886E-1
140 211 2.3234810791871143E-2
141 1 1.323726193328038E-1
141 2 2.527104780540978E-2
141 12 1.831563888873418E-2
141 41 2.4236705114257292E-2
141 46 5.6159817100949166E-2
141 51 1.831563888873418E-2
141 81 1.2212519999390084E-1
141 92 1.6379221629136798E-2
141 130 3.2122348839513454E-2
141 134 1.3711596620677513E-1
141 156 4.455130211637183E-2
141 167 2.5732117002022645E-2
141 185 5.560416742677074E-2
141 187 1.4448229539740922E-2
142 32 1.6339262353836828E-2
142 58 1.5578950281661716E-2
142 61 2.1167807819929503E-2
142 68 1.849011499015301E-2
142 86 2.750048694375208E-2
142 103 1.846946876369234E-2
142 109 1.6845439484464295E-1
142 113 1.0466714197114448E-1
142 129 2.2498035189160086E-2
142 143 1.4589395595700275E-1
142 175 1.0515049270869295E-1
142 177 1.644826334599549E-2
142 183 1.3575957335431446E-1
142 191 1.6820955338381793E-1
142 203 1.576646790673033E-1
142 205 1.831563888873418E-2
143 47 1.829820819575689E-2
143 58 1.5412934262923271E-2
143 61 2.0107717962914377E-2
143 86 1.831563888873418E-2
143 103 2.9373215732621333E-2
143 109 2.443398522491105E-2
143 113 6.420822452611473E-2
143 142 1.4589395595700275E-1
143 175 2.503183741188246E-2
143 183 2.4689496257233372E-2
143 191 3.0770099699830026E-2
143 203 2.902462950589391E-2
144 9 2.1787355259009725E-2
144 19 1.4998907962914773E-1
144 55 1.0558933321789848E-2
144 66 5.107499057229979E-2
144 110 1.7127040509381516E-1
144 119 1.094089009453437E-1
144 125 1.5120347926097E-1
144 127 1.7287785225613309E-1
144 158 2.1421914357155656E-2
144 179 2.2153986199824637E-2
144 195 3.203275447204207E-2
144 207 1.831563888873418E-2
145 11 1.9690180453677774E-2
145 16 9.229293212020882E-2
145 29 1.8054089205803572E-1
145 40 1.831563888873418E-2
145 43 2.986952414661084E-2
145 54 4.3646535893794115E-2
145 76 1.831563888873418E-2
145 101 2.5597705803868588E-2
145 137 2.2375530648642793E-2
145 140 7.463563720215886E-2
145 151 2.128874800754512E-2
145 169 1.831563888873418E-2
145 182 6.330281821748994E-2
145 198 5.8758926166710385E-2
145 201 1.831563888873418E-2
145 208 2.1665435569663505E-1
145 212 1.7303755898908965E-2
146 3 3.429129531231575E-2
146 10 2.53725807422112E-2
146 15 9.718876067812225E-2
146 23 1.8531504119348723E-2
146 56 1.410575904370456E-1
146 88 1.6996875406868944E-1
146 115 5.228374538638128E-2
146 160 1.797454170258643E-2
146 168 8.108187783035427E-2
146 171 4.2660694521425346E-2
146 187 1.831563888873418E-2
146 189 3.0338482948344743E-2
147 16 1.2982876730315618E-1
147 34 1.6989449612116195E-1
147 40 8.207303893739967E-2
147 47 3.135157971510085E-2
147 60 1.831563888873418E-2
147 61 1.8293100772124704E-2
147 76 1.4674472327182014E-1
147 86 1.3150689480108968E-1
147 102 2.7477456897682218E-2
147 118 3.688099636146414E-2
147 149 8.32863731014937E-2
147 151 1.831563888873418E-2
147 175 4.924521480841295E-2
147 182 2.180075691539074E-2
147 201 4.705390266230017E-2
148 8 1.8037480841328588E-2
148 25 9.741614539153418E-2
148 57 5.1367905888827906E-2
148 67 1.831563888873418E-2
148 71 1.5455954870071215E-1
148 90 1.831563888873418E-2
148 94 1.7043879873457346E-1
148 98 1.5018960335328366E-1
148 103 1.733579050840707E-2
148 117 5.305851278478259E-1
148 123 4.24950333199112E-2
148 158 6.164178040757236E-2
148 188 2.4893935006923457E-2
148 193 3.4132155434091593E-1
148 214 1.0987612170192916E-1
149 16 1.831563888873418E-2
149 34 1.6971832578052164E-2
149 40 7.161847229314361E-2
149 47 3.44419401428405E-2
149 61 2.160679773515174E-2
149 76 2.638942936870048E-2
149 86 4.5856721805820455E-2
149 101 5.4870733410465534E-2
149 103 1.851980507113788E-2
149 118 5.622312336780851E-2
149 147 8.32863731014937E-2
149 175 7.648516388585244E-2
149 212 3.299911732123775E-2
150 10 2.4132002314757574E-2
150 24 3.683062466051391E-2
150 34 1.1692505998065341E-2
150 48 8.60130432360902E-2
150 60 3.787679097533001E-1
150 61 2.7116317905954146E-2
150 72 4.2819495173878835E-1
150 74 9.479668697523957E-2
150 100 7.020000540388341E-2
150 154 1.6512595404487382E-1
150 160 6.630177405467773E-2
151 40 1.0862676653956845E-1
151 47 8.945304341705938E-2
151 54 2.1893587957019907E-2
151 76 1.8287847661253073E-2
151 101 2.029949149589557E-2
151 106 2.9532549939326604E-2
151 118 2.8813253313826825E-1
151 131 1.9323785217388867E-2
151 145 2.128874800754512E-2
151 147 1.831563888873418E-2
151 164 3.3250104761880984E-2
151 198 2.0731317319419223E-2
151 208 2.166900994015033E-2
152 14 1.7294737609799754E-1
152 57 1.6319704649536804E-2
152 64 1.7385616509801827E-1
152 65 1.831563888873418E-2
152 68 9.875423356124757E-2
152 83 6.218259823133595E-1
152 123 3.631512077806977E-2
152 124 4.287474303263924E-2
152 139 7.503483840410143E-2
152 159 2.5769015189739893E-2
152 162 8.654201867245559E-3
152 166 1.7385616509801827E-1
152 173 4.4264996991450667E-1
152 177 2.2062259482176408E-1
153 5 2.6513836093500665E-1
153 19 3.906810521494151E-2
153 22 6.866858374038878E-2
153 69 4.310001072242501E-2
153 87 3.5703726229121246E-1
153 90 5.564721164204993E-2
153 98 1.4689469645715584E-2
153 125 1.831563888873418E-2
153 135 3.627268516738506E-1
153 161 2.8099813513912344E-2
153 165 3.446562161584134E-2
153 184 7.786120748199783E-2
153 190 4.438112662136101E-1
153 195 2.1885420579628244E-2
154 11 2.7415457346168928E-2
154 24 1.4138802534129294E-1
154 29 1.831563888873418E-2
154 30 1.6739653401867772E-2
154 48 1.3305442619213823E-1
154 53 2.462443363403519E-2
154 60 2.1519906530281158E-2
154 72 1.1826537420692498E-1
154 82 2.611676053389963E-2
154 100 1.7738009119395666E-2
154 137 2.1553860135834213E-1
154 150 1.6512595404487382E-1
154 169 4.996697612345326E-2
155 3 2.965077686221604E-2
155 7 2.071885872276113E-2
155 8 1.7562511757661173E-2
155 30 1.831563888873418E-2
155 32 2.740288950165874E-2
155 45 2.7296024896416277E-2
155 59 4.5107854344505885E-2
155 62 6.542147260204148E-2
155 63 2.9630140681969386E-1
155 67 1.7411710222189576E-2
155 84 1.4298376135357882E-1
155 109 1.831563888873418E-2
155 116 1.6906586923018535E-1
155 183 1.6229435205355306E-2
155 188 3.211168414566273E-2
155 189 2.0568187532837814E-2
155 192 1.831563888873418E-2
155 202 9.206582326290033E-2
155 203 1.831563888873418E-2
155 205 7.098161442206898E-2
155 206 2.5937858062194716E-2
155 210 2.8106684266927952E-2
156 1 3.4679031649610115E-2
156 2 1.7603201720767476E-2
156 35 2.7770098259983146E-2
156 41 3.381601636706165E-1
156 46 2.4852144546741912E-2
156 51 1.6324897195091708E-2
156 77 5.917424563855343E-2
156 79 3.928557499605888E-2
156 80 1.350105082983587E-1
156 81 4.6379760873700104E-1
156 88 2.174839978802323E-2
156 89 7.650597931993032E-2
156 92 1.831563888873418E-2
156 115 1.7768853742104396E-2
156 130 1.831563888873418E-2
156 134 5.534788239355412E-2
156 141 4.455130211637183E-2
156 167 1.691111103162691E-2
156 171 2.6584701435247625E-2
156 178 1.128335595517115E-1
156 185 1.7066718474097098E-1
156 187 9.666177344035602E-2
156 204 3.275499377323046E-2
156 209 2.2800568528462573E-2
157 4 2.6380440475209502E-2
157 17 1.831563888873418E-2
157 28 1.9990711649070538E-2
157 33 4.660219877792888E-2
157 91 5.7455995875381735E-2
157 95 6.141736171755228E-1
157 97 1.806401226886473E-2
157 104 3.024650299533695E-2
157 105 1.3999555396545944E-2
157 108 1.6795507518563463E-1
157 112 5.390609652265062E-1
157 163 3.8308768865639736E-1
157 170 2.1635431407854952E-1
157 174 6.991985892754716E-3
158 8 3.168585981073281E-2
158 25 3.704784751277933E-1
158 38 9.561647966169434E-2
158 85 1.706526919636894E-1
158 90 1.738342528755265E-2
158 94 4.150745001581099E-2
158 98 2.245250024269161E-2
158 117 1.4997063992274298E-1
158 127 2.090351684878975E-2
158 144 2.1421914357155656E-2
158 148 6.164178040757236E-2
158 179 7.750303254837347E-2
158 192 2.5213376441759854E-2
158 193 2.5036796433848638E-2
158 214 1.831563888873418E-2
159 14 6.969934311763719E-2
159 64 1.68432265440693E-1
159 68 3.9238605778959455E-2
159 83 8.55355753560116E-2
159 113 2.326191353013956E-2
159 139 1.038904738167644E-2
159 152 2.5769015189739893E-2
159 166 1.68432265440693E-1
159 173 1.831563888873418E-2
159 177 8.916994347259699E-2
160 3 1.831563888873418E-2
160 10 2.2158243958327692E-1
160 30 2.08887145724589E-2
160 48 8.116092890396591E-2
160 50 8.976792802037932E-3
160 60 2.7391458782757855E-1
160 61 2.7905126311230093E-2
160 72 5.2313337674659996E-2
160 74 4.1031285302249365E-1
160 100 3.029261443952523E-1
160 146 1.797454170258643E-2
160 150 6.630177405467773E-2
160 189 2.1178449880795647E-2
160 203 1.1622938889803803E-2
160 205 5.528964978912548E-2
161 5 2.073159989497187E-1
161 22 2.1246973004133518E-1
161 69 2.3073342176539474E-2
161 85 1.0168755243962404E-2
161 87 3.505514791654519E-1
161 110 1.956495815506734E-2
161 135 2.3036191827165667E-2
161 153 2.8099813513912344E-2
161 165 9.652105657884864E-1
161 179 1.831563888873418E-2
161 190 3.9210583923407025E-2
162 13 1.2217622499973854E-1
162 14 4.8876826951416076E-2
162 21 6.311236836451757E-2
162 58 2.253630851588186E-1
162 64 1.831563888873418E-2
162 65 2.596675001140503E-2
162 68 1.831563888873418E-2
162 70 5.429945586238438E-2
162 75 5.628940021765441E-2
162 83 1.7698231010751006E-2
162 93 6.47513160391821E-2
162 96 5.830494041209388E-1
162 129 3.254325117482903E-2
162 139 3.803015979549075E-1
162 152 8.654201867245559E-3
162 166 1.831563888873418E-2
162 173 3.8973522243373665E-2
163 9 5.39585019436952E-2
163 17 1.258447773161831E-2
163 28 1.3656059655381053E-2
163 33 1.9359892419786768E-2
163 55 4.334499316622209E-2
163 66 3.545928750711781E-2
163 73 1.5802991171860816E-2
163 91 1.831563888873418E-2
163 95 3.801671104902484E-1
163 97 9.260089599625602E-3
163 108 7.267243548423188E-1
163 112 8.785135962640263E-1
163 128 3.563235039432447E-2
163 157 3.8308768865639736E-1
163 170 6.02735377602363E-1
163 194 1.2719549956957424E-1
163 207 6.053283327681366E-2
164 25 2.5514801034410818E-2
164 40 3.180286738031517E-2
164 47 4.882956734924254E-2
164 57 1.831563888873418E-2
164 106 9.957566245833758E-1
164 117 1.6981469992610437E-2
164 118 3.401910148221599E-2
164 127 3.1223232619798317E-2
164 151 3.3250104761880984E-2
164 174 3.4742199919802146E-2
165 5 2.354729290853801E-1
165 22 2.1966697186761303E-1
165 69 2.350921375419813E-2
165 85 1.2333419065351745E-2
165 87 3.5655599815700956E-1
165 110 1.831563888873418E-2
165 135 2.363660827886756E-2
165 153 3.446562161584134E-2
165 161 9.652105657884864E-1
165 179 2.1271653263346336E-2
165 190 3.867599884007989E-2
166 14 7.265681254616635E-1
166 64 1
166 65 4.904643668345557E-2
166 68 4.1859792629031944E-2
166 83 3.041563126038504E-1
166 139 1.5014631962771632E-1
166 152 1.7385616509801827E-1
166 159 1.68432265440693E-1
166 162 1.831563888873418E-2
166 173 2.460300988851261E-1
166 177 1.0367057467744988E-1
167 1 1.831563888873418E-2
167 12 1.485917012560276E-2
167 46 2.4281981511793665E-1
167 51 5.260713012085998E-2
167 80 2.645634297956905E-2
167 81 1.9563715783979724E-2
167 89 2.4007338620662295E-2
167 126 6.62941092928392E-2
167 130 5.018822739330589E-2
167 136 2.382965972340151E-2
167 141 2.5732117002022645E-2
167 156 1.691111103162691E-2
167 209 2.7227237762904644E-1
168 10 1.7270674401302005E-2
168 23 1.540480258627452E-1
168 88 1.0102777063065216E-1
168 92 4.45107414165483E-2
168 115 1.298972271102531E-1
168 146 8.108187783035427E-2
168 171 8.909318282594625E-2
168 187 8.309932943441051E-2
168 196 6.431328727458538E-2
168 202 1.831563888873418E-2
168 204 3.995705761860044E-2
169 11 1.831563888873418E-2
169 24 1.0457031876843106E-1
169 29 3.9040577909341324E-2
169 30 3.679308060795324E-2
169 48 1.757698581319246E-2
169 53 8.197685837084562E-2
169 72 1.6788370239253465E-2
169 76 2.4911270166585623E-2
169 82 5.1119516174415854E-2
169 101 3.190735265476357E-2
169 137 2.341674544075996E-1
169 145 1.831563888873418E-2
169 154 4.996697612345326E-2
169 182 2.5834549542922126E-2
169 210 5.9859627899830944E-2
169 212 4.199914821464227E-2
170 9 1.8741573145144432E-2
170 55 6.810513997761386E-2
170 66 1.831563888873418E-2
170 73 2.662924612326612E-2
170 91 8.14415112680763E-3
170 95 1.501173611277348E-1
170 108 4.1837445417602936E-1
170 112 5.431956360374842E-1
170 128 4.210470760700431E-2
170 157 2.1635431407854952E-1
170 163 6.02735377602363E-1
170 194 1.2950387869990643E-1
170 207 2.7783040981982154E-2
171 23 1.831563888873418E-2
171 41 1.3777155157720669E-2
171 49 1.2050930892793509E-1
171 50 5.252460550185343E-2
171 79 1.831563888873418E-2
171 81 3.804805171028776E-2
171 88 4.491671582053908E-2
171 89 5.1296225071342114E-2
171 100 1.831563888873418E-2
171 115 2.751867782003203E-1
171 146 4.2660694521425346E-2
171 156 2.6584701435247625E-2
171 168 8.909318282594625E-2
171 178 3.7779468717793266E-2
171 187 2.8558391802511207E-1
171 196 1.8287334173459558E-2
171 202 2.0061774434686486E-2
172 4 1.831563888873418E-2
172 26 1.2038557377045533E-1
172 35 4.6153496957334283E-2
172 44 1.9959002961891756E-1
172 56 1.8223527481436155E-2
172 79 4.061602594962739E-2
172 80 3.780113601348627E-2
172 99 1.2142749686971104E-1
172 126 5.259781263652905E-2
172 181 1.831563888873418E-2
172 209 2.190137640090544E-2
173 13 1.0831759839669226E-2
173 14 4.3323514196696145E-1
173 58 2.325692589767079E-2
173 64 2.460300988851261E-1
173 65 2.2146443092240486E-1
173 68 4.0000433821809206E-2
173 75 1.831563888873418E-2
173 83 2.395738195238088E-1
173 96 1.831563888873418E-2
173 123 5.898314928544243E-2
173 124 5.300872224061927E-2
173 139 3.1497612978265177E-1
173 152 4.4264996991450667E-1
173 159 1.831563888873418E-2
173 162 3.8973522243373665E-2
173 166 2.460300988851261E-1
173 177 5.207770192103521E-2
174 17 3.252167954784857E-2
174 28 3.168963684652516E-2
174 47 2.482493241281524E-2
174 91 1.831563888873418E-2
174 97 2.5463960208923345E-2
174 104 3.792408970810936E-2
174 105 5.399510468204602E-2
174 106 3.1050073596058932E-2
174 114 2.9484687508163875E-2
174 133 3.737874315000687E-2
174 157 6.991985892754716E-3
174 164 3.4742199919802146E-2
174 186 2.8302889512043412E-2
175 34 2.4496902108157702E-2
175 60 2.1685605184822338E-2
175 61 8.85782588439611E-2
175 76 3.851733430231803E-2
175 86 1.1338842578933757E-1
175 109 1.3774076939964205E-2
175 113 1.831563888873418E-2
175 142 1.0515049270869295E-1
175 143 2.503183741188246E-2
175 147 4.924521480841295E-2
175 149 7.648516388585244E-2
175 203 2.7050398119628737E-2
175 205 1.831563888873418E-2
176 4 8.468182603416002E-2
176 6 1.379675427377651E-2
176 8 2.1474963325643363E-2
176 20 1.831563888873418E-2
176 71 7.741656932359467E-2
176 94 3.4118857737866104E-2
176 117 4.637858536192219E-2
176 188 2.7873641138160432E-2
176 192 3.105617509827249E-2
176 193 5.04082486532177E-2
176 214 1.6692150264983535E-1
177 14 6.74010971761856E-2
177 57 1.831563888873418E-2
177 64 1.0367057467744988E-1
177 68 4.7836449630042976E-1
177 83 5.032185707794489E-1
177 103 2.326134358733968E-2
177 113 1.831563888873418E-2
177 129 1.831563888873418E-2
177 139 2.065990362222595E-2
177 142 1.644826334599549E-2
177 152 2.2062259482176408E-1
177 159 8.916994347259699E-2
177 166 1.0367057467744988E-1
177 173 5.207770192103521E-2
178 35 1.238253645366308E-1
178 41 2.5765274902883134E-2
178 49 7.103139056182632E-2
178 78 2.7949544287861987E-2
178 79 1.0843489847481899E-1
178 80 5.864324383219014E-1
178 81 6.402130182072567E-2
178 88 2.5060953506770085E-2
178 89 1.7341259029281275E-1
178 99 6.705254671959578E-2
178 126 2.751379442720085E-2
178 156 1.128335595517115E-1
178 171 3.7779468717793266E-2
178 187 1.7455536162157396E-2
178 204 4.214349782284669E-2
178 209 3.082689044006113E-2
179 19 2.8019907019010675E-2
179 22 3.7840842364581635E-2
179 25 1.7651248059798844E-2
179 38 2.191824881757103E-2
179 69 1.387255428619755E-2
179 85 7.376472398455819E-1
179 110 8.58052353395466E-2
179 111 1.831563888873418E-2
179 125 7.190698463202856E-2
179 144 2.2153986199824637E-2
179 158 7.750303254837347E-2
179 161 1.831563888873418E-2
179 165 2.1271653263346336E-2
180 19 6.53825040638616E-2
180 73 2.5494107479227972E-2
180 90 4.251863391574875E-2
180 110 1.831563888873418E-2
180 119 4.1629501443877504E-1
180 125 6.016311332337627E-2
180 135 2.0763335009921974E-2
180 184 4.7226635166048325E-1
180 190 1.6061888933523564E-2
180 195 8.665285140274218E-2
181 29 1.770147395357799E-1
181 31 1.6566132290758817E-2
181 35 1.831563888873418E-2
181 37 2.449558242698861E-2
181 39 2.357023604408649E-2
181 43 5.306117746348047E-1
181 44 4.2787189009770535E-2
181 54 1.6312488973778783E-2
181 56 2.710227512647541E-2
181 99 6.283909356441282E-2
181 107 5.1478642829072954E-2
181 131 2.3171361427209342E-2
181 138 2.6331612806126226E-1
181 140 3.6759216903096326E-1
181 172 1.831563888873418E-2
181 197 5.046601249326502E-2
181 200 6.445266652625109E-2
182 11 6.664156148160039E-2
182 15 2.4685090497515265E-2
182 16 3.461331940798586E-1
182 29 5.233557068458547E-2
182 30 1.2307827069480925E-2
182 34 1.6493125984580137E-1
182 40 1.9343951615728223E-2
182 76 1.902939785129486E-1
182 101 2.4369529641923716E-2
182 102 1.9525875776567106E-1
182 145 6.330281821748994E-2
182 147 2.180075691539074E-2
182 169 2.5834549542922126E-2
182 201 3.9184217307697244E-1
182 212 1.9116898954968004E-2
183 15 1.831563888873418E-2
183 32 4.774254793168486E-1
183 67 4.3594065611542304E-2
183 109 2.774934471495998E-1
183 116 1.0029280336925264E-1
183 142 1.3575957335431446E-1
183 143 2.4689496257233372E-2
183 155 1.6229435205355306E-2
183 191 4.222491029204806E-1
183 203 8.076238797841326E-1
183 205 2.4774328154340597E-1
184 5 1.831563888873418E-2
184 19 1.1667804712480137E-1
184 73 2.1848971376243708E-2
184 87 1.9689785923870065E-2
184 90 1.40031798770299E-1
184 98 1.660132264380708E-2
184 110 1.9022169584907024E-2
184 119 1.1683142519113875E-1
184 125 4.979477868588707E-2
184 135 1.8912199987432277E-1
184 153 7.786120748199783E-2
184 180 4.7226635166048325E-1
184 190 1.2978458988809982E-1
184 195 1.9577580303693637E-1
185 1 7.286273799184036E-2
185 2 4.947334866686839E-2
185 38 1.831563888873418E-2
185 41 5.553657079383117E-1
185 46 1.8382630133324238E-2
185 77 3.621880039338746E-2
185 81 7.206852279609793E-2
185 92 5.300949809856569E-2
185 115 5.7840358601792034E-2
185 134 1.9113123312624997E-1
185 141 5.560416742677074E-2
185 156 1.7066718474097098E-1
185 187 2.326222892702097E-1
186 17 3.1316139362444817E-1
186 28 6.585425280716255E-1
186 66 1.892633107517195E-2
186 91 1.410209789204169E-1
186 97 1.2223216143741057E-1
186 104 1.7084848357096033E-1
186 105 2.3686369140258423E-1
186 108 1.831563888873418E-2
186 112 1.2280414824325485E-2
186 114 6.85920346566269E-1
186 128 1.759135371214582E-2
186 133 8.524761572929658E-1
186 174 2.8302889512043412E-2
187 1 3.0981453210932913E-2
187 2 1.938629873110374E-2
187 23 1.781240425444639E-2
187 41 1.62982409385129E-1
187 81 1.0439057690789845E-1
187 88 3.8873620010693145E-2
187 92 2.1339202610684095E-2
187 115 3.9239997003036337E-1
187 134 1.831563888873418E-2
187 141 1.4448229539740922E-2
187 146 1.831563888873418E-2
187 156 9.666177344035602E-2
187 168 8.309932943441051E-2
187 171 2.8558391802511207E-1
187 178 1.7455536162157396E-2
187 185 2.326222892702097E-1
187 196 1.84981253353666E-2
188 8 5.262096735362478E-1
188 20 6.32449296991087E-2
188 63 1.3811349762813627E-2
188 67 1.976755331941238E-2
188 71 3.875426932758053E-2
188 84 1.831563888873418E-2
188 94 1.0566128615157375E-1
188 116 2.92668159035978E-2
188 117 1.8367863381004348E-2
188 121 4.619745536349313E-2
188 148 2.4893935006923457E-2
188 155 3.211168414566273E-2
188 176 2.7873641138160432E-2
188 192 5.634033916571703E-1
188 193 4.433517655259395E-2
188 202 5.6426457639846654E-2
188 214 3.7337184895509044E-2
189 3 4.3672997315205697E-1
189 10 1.831563888873418E-2
189 11 4.7714944295658604E-2
189 15 3.71419616407135E-2
189 24 1.831563888873418E-2
189 30 2.670003331130328E-1
189 48 5.795338098224691E-2
189 49 4.305139165413912E-2
189 50 6.271153071754923E-2
189 52 3.853378658326864E-2
189 56 5.386195105018434E-2
189 63 5.724218509890323E-2
189 74 1.473525452134056E-2
189 84 7.983355350123088E-2
189 146 3.0338482948344743E-2
189 155 2.0568187532837814E-2
189 160 2.1178449880795647E-2
189 205 1.6792635575764943E-2
189 206 2.317453130958403E-2
189 210 3.509563916310954E-2
190 5 9.286133520912833E-2
190 19 1.660224302984356E-1
190 22 7.981517024103513E-2
190 69 2.9361305008052698E-2
190 87 2.0774423128965586E-1
190 90 8.197731522123484E-2
190 110 4.5527058556809635E-2
190 119 1.574247342321479E-2
190 125 6.896041844029574E-2
190 135 9.201040090004051E-1
190 153 4.438112662136101E-1
190 161 3.9210583923407025E-2
190 165 3.867599884007989E-2
190 180 1.6061888933523564E-2
190 184 1.2978458988809982E-1
190 195 3.4831618181106735E-2
191 32 3.854328036473028E-1
191 58 5.383270631816842E-2
191 67 7.185671058867331E-2
191 109 5.747599355283538E-1
191 113 4.117800358306246E-2
191 116 1.1986644028970402E-1
191 142 1.6820955338381793E-1
191 143 3.0770099699830026E-2
191 183 4.222491029204806E-1
191 196 1.831563888873418E-2
191 203 4.75869251061803E-1
191 205 9.26583499843308E-2
192 6 7.853117675829993E-2
192 8 8.027492340403151E-1
192 20 2.905352429719013E-1
192 25 1.78816278017909E-2
192 38 3.258008814501301E-2
192 67 1.4186046656802093E-2
192 71 1.9342997392765345E-2
192 79 2.6129304224308383E-2
192 84 2.5290419651299797E-2
192 94 7.427880218531749E-2
192 111 4.1094016673293064E-2
192 117 1.3877672078042424E-2
192 120 1.7001345282588565E-2
192 121 1.948969726864933E-1
192 155 1.831563888873418E-2
192 158 2.5213376441759854E-2
192 176 3.105617509827249E-2
192 188 5.634033916571703E-1
192 193 2.34050672953991E-2
192 202 6.383771653207544E-2
192 214 2.3524019107275057E-2
193 8 2.403275185204896E-2
193 25 3.033482571162294E-2
193 32 1.429459540849407E-2
193 57 2.085149978236545E-2
193 58 1.831563888873418E-2
193 71 6.119072022166709E-1
193 94 4.961474318580614E-1
193 98 3.726639066335017E-2
193 117 2.241235806735614E-1
193 148 3.4132155434091593E-1
193 158 2.5036796433848638E-2
193 176 5.04082486532177E-2
193 188 4.433517655259395E-2
193 192 2.34050672953991E-2
193 214 6.470099713345108E-1
194 9 5.46473724072457E-1
194 55 5.184278541830086E-1
194 66 3.6760718486678423E-1
194 73 1.8337386159616498E-2
194 95 4.07396147810998E-2
194 108 2.4018074633429756E-1
194 112 8.203787586883057E-2
194 128 3.216945878643161E-1
194 163 1.2719549956957424E-1
194 170 1.2950387869990643E-1
194 207 4.034029922869876E-1
195 19 2.095960654333884E-1
195 55 3.314212786948181E-2
195 66 1.7295825448500224E-2
195 73 6.010431349080461E-2
195 90 7.455903488145049E-2
195 98 1.831563888873418E-2
195 110 3.6943607645439254E-2
195 119 5.980371427843002E-2
195 125 4.831265771562941E-2
195 135 9.280013530676168E-2
195 144 3.203275447204207E-2
195 153 2.1885420579628244E-2
195 180 8.665285140274218E-2
195 184 1.9577580303693637E-1
195 190 3.4831618181106735E-2
196 21 1.9380928596302204E-2
196 23 6.211679247068853E-1
196 32 2.3168243284533027E-2
196 67 2.7622583173886106E-1
196 70 3.116261986954364E-2
196 93 1.8335567799690016E-2
196 115 1.0011591284895571E-1
196 116 4.746032691783858E-2
196 168 6.431328727458538E-2
196 171 1.8287334173459558E-2
196 187 1.84981253353666E-2
196 191 1.831563888873418E-2
196 202 7.17829735886632E-2
197 26 3.830102016347762E-2
197 31 2.619431827065429E-1
197 36 1.3149554429742336E-2
197 37 1.831563888873418E-2
197 43 4.592327218986552E-2
197 54 5.331462499401877E-1
197 82 1.237515636597466E-2
197 122 3.622223340486493E-2
197 131 8.194219237909778E-1
197 132 1.2232057178237836E-1
197 138 6.389758816622479E-2
197 140 4.5769908949190814E-2
197 181 5.046601249326502E-2
197 198 1.317778673704341E-1
197 200 2.2941372685898374E-2
198 4 2.0200710660602285E-2
198 26 1.8341299279344064E-1
198 29 2.1581346676584158E-2
198 44 3.0009572377264093E-2
198 54 2.628493296536923E-1
198 82 7.555522622145507E-2
198 131 1.3375838809625787E-1
198 140 1.9818301124158607E-2
198 145 5.8758926166710385E-2
198 151 2.0731317319419223E-2
198 197 1.317778673704341E-1
198 208 7.758735426433903E-2
199 18 7.838235805732251E-2
199 27 7.351375031636959E-2
199 31 1.2735117229976356E-1
199 36 1.893975988136551E-1
199 37 7.549051875854937E-2
199 39 1.5244685355681256E-2
199 122 1.831563888873418E-2
199 132 8.18358528587437E-2
199 138 3.338423640792685E-2
199 200 3.6110553507701114E-2
200 27 7.730949097854191E-2
200 31 7.491744995027275E-2
200 36 6.753962132922915E-2
200 37 5.102116598575357E-1
200 39 7.129402627434725E-2
200 43 9.538786438723568E-2
200 54 1.9515867236461013E-2
200 107 2.633258748669851E-2
200 122 2.1098237618877927E-2
200 131 2.9084018430974655E-2
200 132 1.2817797195755702E-2
200 138 1.0832632928071427E-1
200 140 1.4632000023871886E-1
200 181 6.445266652625109E-2
200 197 2.2941372685898374E-2
200 199 3.6110553507701114E-2
200 211 3.308294322193507E-2
201 11 6.565736666017413E-2
201 15 7.531929276294115E-2
201 16 4.858505241930034E-1
201 29 4.1200137982472504E-2
201 30 2.4567806182568694E-2
201 34 3.847270583180021E-1
201 40 1.7981330860079248E-2
201 48 1.6783080274431993E-2
201 76 1.728012737425293E-1
201 102 1.266311068510821E-1
201 107 1.664345953061192E-2
201 145 1.831563888873418E-2
201 147 4.705390266230017E-2
201 182 3.9184217307697244E-1
202 7 2.0813429746105346E-2
202 8 6.940615844108568E-2
202 20 1.831563888873418E-2
202 23 2.1226763419148774E-2
202 32 1.2778995963843045E-2
202 45 2.7598277177683338E-2
202 49 2.326349494146577E-2
202 50 1.5205813660762504E-2
202 62 1.0626464177666342E-2
202 63 1.2167468399577006E-1
202 67 7.922965903805211E-2
202 79 2.0640638688553054E-2
202 84 1.2760585939819377E-1
202 115 1.831563888873418E-2
202 116 3.720806428001892E-2
202 121 1.0304312301373644E-1
202 155 9.206582326290033E-2
202 168 1.831563888873418E-2
202 171 2.0061774434686486E-2
202 188 5.6426457639846654E-2
202 192 6.383771653207544E-2
202 196 7.17829735886632E-2
203 32 4.6031528036454844E-1
203 67 2.7261198665213485E-2
203 109 3.932597787364187E-1
203 113 2.267686810312751E-2
203 116 1.517932564453193E-1
203 142 1.576646790673033E-1
203 143 2.902462950589391E-2
203 155 1.831563888873418E-2
203 160 1.1622938889803803E-2
203 175 2.7050398119628737E-2
203 183 8.076238797841326E-1
203 191 4.75869251061803E-1
203 205 3.2848639397151624E-1
204 35 1.6489971725928462E-2
204 41 1.831563888873418E-2
204 78 1.0610414134808721E-1
204 79 2.852297811076039E-2
204 80 2.4543036678947503E-2
204 81 2.1288416344227238E-2
204 88 2.3666595875464148E-2
204 89 3.74573726529859E-2
204 92 1.870895569824973E-1
204 121 6.160861359539226E-2
204 126 2.405083720075269E-2
204 134 2.1202061949297715E-2
204 156 3.275499377323046E-2
204 168 3.995705761860044E-2
204 178 4.214349782284669E-2
205 3 4.3925258380097754E-2
205 30 1.831563888873418E-2
205 32 2.1413605411946027E-1
205 67 1.831563888873418E-2
205 109 1.1166104733212412E-1
205 116 1.3811109210052536E-1
205 142 1.831563888873418E-2
205 155 7.098161442206898E-2
205 160 5.528964978912548E-2
205 175 1.831563888873418E-2
205 183 2.4774328154340597E-1
205 189 1.6792635575764943E-2
205 191 9.26583499843308E-2
205 203 3.2848639397151624E-1
206 7 3.5595374575499536E-2
206 24 8.752885374006109E-2
206 30 5.880655794849972E-2
206 45 2.0124050192627307E-2
206 49 1.831563888873418E-2
206 50 6.561601600989288E-2
206 52 8.859553349878276E-2
206 53 4.563772737484395E-2
206 59 7.66812231187586E-2
206 62 3.1798466897708814E-2
206 63 1.9388252771397924E-1
206 84 2.197766674260294E-2
206 137 1.831563888873418E-2
206 155 2.5937858062194716E-2
206 189 2.317453130958403E-2
206 210 1.5593575177576996E-1
207 9 7.759328615599184E-1
207 55 1.6283845930945143E-1
207 66 2.8848158984498945E-1
207 95 4.8460969755336E-2
207 108 1.2210453079923506E-1
207 112 2.0823415321176007E-2
207 128 7.837382093703749E-2
207 144 1.831563888873418E-2
207 163 6.053283327681366E-2
207 170 2.7783040981982154E-2
207 194 4.034029922869876E-1
208 4 1.965124879285653E-2
208 11 1.831563888873418E-2
208 26 4.810389867983692E-2
208 29 3.436237906849403E-2
208 40 1.9590085033099454E-2
208 54 1.963302553644625E-2
208 82 2.1982211329823764E-2
208 101 1.0075660748160348E-1
208 137 2.268159451706802E-2
208 145 2.1665435569663505E-1
208 151 2.166900994015033E-2
208 198 7.758735426433903E-2
208 212 1.0075570467861233E-1
209 18 3.49162594419796E-2
209 35 8.931839219014899E-3
209 42 2.9447698926702664E-2
209 46 4.0209796157329766E-2
209 51 6.898842639067537E-2
209 77 1.7448907811302348E-2
209 80 1.1935190349929849E-1
209 81 2.9315966896989978E-2
209 89 1.831563888873418E-2
209 99 1.9661181392593558E-2
209 126 3.0688663007275946E-1
209 130 1.3022089844893148E-1
209 136 4.627463062052467E-2
209 156 2.2800568528462573E-2
209 167 2.7227237762904644E-1
209 172 2.190137640090544E-2
209 178 3.082689044006113E-2
210 3 4.886575650294083E-2
210 11 1.4689217222634018E-2
210 24 5.985615701945383E-2
210 30 2.961242001304442E-1
210 59 1.831563888873418E-2
210 63 7.829245945100441E-2
210 84 1.831563888873418E-2
210 155 2.8106684266927952E-2
210 169 5.9859627899830944E-2
210 189 3.509563916310954E-2
210 206 1.5593575177576996E-1
210 212 1.831563888873418E-2
211 15 2.0611430298280907E-2
211 27 4.6038532414027206E-1
211 31 1.825282003593548E-2
211 37 2.2700361844756017E-2
211 43 3.1879408922152186E-2
211 56 1.831563888873418E-2
211 107 2.1268411725009378E-1
211 138 2.4700731442779827E-2
211 140 2.3234810791871143E-2
211 200 3.308294322193507E-2
212 4 2.08958855861818E-2
212 11 2.0504401378687056E-2
212 24 2.7412786426184863E-2
212 76 2.8214297086891257E-2
212 101 5.131419703683125E-1
212 137 7.276717153172563E-2
212 145 1.7303755898908965E-2
212 149 3.299911732123775E-2
212 169 4.199914821464227E-2
212 182 1.9116898954968004E-2
212 208 1.0075570467861233E-1
212 210 1.831563888873418E-2
213 6 2.2018930314127982E-1
213 18 1.0172011512179263E-1
213 20 1.0105917631389141E-1
213 36 1.7060601466770228E-2
213 38 7.554309395971158E-2
213 41 2.220878702209759E-2
213 46 2.245609993086886E-2
213 51 3.384480133549278E-2
213 77 3.185604915169258E-2
213 80 1.831563888873418E-2
213 99 1.8399240452996835E-2
213 120 4.687146617451008E-2
213 127 1.831563888873418E-2
214 4 1.7612211757950552E-2
214 8 1.831563888873418E-2
214 25 2.5469557735245785E-2
214 71 7.14321244104096E-1
214 73 2.1276132875590405E-2
214 94 3.432031398230775E-1
214 98 1.65948264940294E-2
214 116 3.69310159329896E-3
214 117 1.2065031079952951E-1
214 148 1.0987612170192916E-1
214 158 1.831563888873418E-2
214 176 1.6692150264983535E-1
214 188 3.7337184895509044E-2
214 192 2.3524019107275057E-2
214 193 6.470099713345108E-1
