%%MatrixMarket matrix coordinate real general
%
224 224 840
1 57 1
1 59 1
1 90 1
2 57 1
2 60 1
2 62 1
3 60 1
3 63 1
3 65 1
4 63 1
4 66 1
4 68 1
5 66 1
5 69 1
5 71 1
6 69 1
6 72 1
6 74 1
7 72 1
7 75 1
7 77 1
8 75 1
8 78 1
8 80 1
9 78 1
9 81 1
9 83 1
10 81 1
10 84 1
10 86 1
11 84 1
11 87 1
11 89 1
12 87 1
12 90 1
12 92 1
13 59 1
13 93 1
13 95 1
13 126 1
14 62 1
14 93 1
14 96 1
14 98 1
15 65 1
15 96 1
15 99 1
15 101 1
16 68 1
16 99 1
16 102 1
16 104 1
17 71 1
17 102 1
17 105 1
17 107 1
18 74 1
18 105 1
18 108 1
18 110 1
19 77 1
19 108 1
19 111 1
19 113 1
20 80 1
20 111 1
20 114 1
20 116 1
21 83 1
21 114 1
21 117 1
21 119 1
22 86 1
22 117 1
22 120 1
22 122 1
23 89 1
23 120 1
23 123 1
23 125 1
24 92 1
24 123 1
24 126 1
24 128 1
25 95 1
25 129 1
25 131 1
25 162 1
26 98 1
26 129 1
26 132 1
26 134 1
27 101 1
27 132 1
27 135 1
27 137 1
28 104 1
28 135 1
28 138 1
28 140 1
29 107 1
29 138 1
29 141 1
29 143 1
30 110 1
30 141 1
30 144 1
30 146 1
31 113 1
31 144 1
31 147 1
31 149 1
32 116 1
32 147 1
32 150 1
32 152 1
33 119 1
33 150 1
33 153 1
33 155 1
34 122 1
34 153 1
34 156 1
34 158 1
35 125 1
35 156 1
35 159 1
35 161 1
36 128 1
36 159 1
36 162 1
36 164 1
37 131 1
37 165 1
37 167 1
37 198 1
38 134 1
38 165 1
38 168 1
38 170 1
39 137 1
39 168 1
39 171 1
39 173 1
40 140 1
40 171 1
40 174 1
40 176 1
41 143 1
41 174 1
41 177 1
41 179 1
42 146 1
42 177 1
42 180 1
42 182 1
43 149 1
43 180 1
43 183 1
43 185 1
44 152 1
44 183 1
44 186 1
44 188 1
45 155 1
45 186 1
45 189 1
45 191 1
46 158 1
46 189 1
46 192 1
46 194 1
47 161 1
47 192 1
47 195 1
47 197 1
48 164 1
48 195 1
48 198 1
48 200 1
49 187 1
49 201 1
49 203 1
50 184 1
50 203 1
50 204 1
50 206 1
51 181 1
51 206 1
51 207 1
51 209 1
52 178 1
52 209 1
52 210 1
52 212 1
53 201 1
53 213 1
53 215 1
54 204 1
54 215 1
54 216 1
54 218 1
55 207 1
55 218 1
55 219 1
55 221 1
56 210 1
56 221 1
56 222 1
56 224 1
57 1 1
57 2 1
57 58 1
58 57 1
58 59 1
58 62 1
58 93 1
59 1 1
59 13 1
59 58 1
59 91 1
60 2 1
60 3 1
60 61 1
61 60 1
61 62 1
61 65 1
61 96 1
62 2 1
62 14 1
62 58 1
62 61 1
63 3 1
63 4 1
63 64 1
64 63 1
64 65 1
64 68 1
64 99 1
65 3 1
65 15 1
65 61 1
65 64 1
66 4 1
66 5 1
66 67 1
67 66 1
67 68 1
67 71 1
67 102 1
68 4 1
68 16 1
68 64 1
68 67 1
69 5 1
69 6 1
69 70 1
70 69 1
70 71 1
70 74 1
70 105 1
71 5 1
71 17 1
71 67 1
71 70 1
72 6 1
72 7 1
72 73 1
73 72 1
73 74 1
73 77 1
73 108 1
74 6 1
74 18 1
74 70 1
74 73 1
75 7 1
75 8 1
75 76 1
76 75 1
76 77 1
76 80 1
76 111 1
77 7 1
77 19 1
77 73 1
77 76 1
78 8 1
78 9 1
78 79 1
79 78 1
79 80 1
79 83 1
79 114 1
80 8 1
80 20 1
80 76 1
80 79 1
81 9 1
81 10 1
81 82 1
82 81 1
82 83 1
82 86 1
82 117 1
83 9 1
83 21 1
83 79 1
83 82 1
84 10 1
84 11 1
84 85 1
85 84 1
85 86 1
85 89 1
85 120 1
86 10 1
86 22 1
86 82 1
86 85 1
87 11 1
87 12 1
87 88 1
88 87 1
88 89 1
88 92 1
88 123 1
89 11 1
89 23 1
89 85 1
89 88 1
90 1 1
90 12 1
90 91 1
91 59 1
91 90 1
91 92 1
91 126 1
92 12 1
92 24 1
92 88 1
92 91 1
93 13 1
93 14 1
93 58 1
93 94 1
94 93 1
94 95 1
94 98 1
94 129 1
95 13 1
95 25 1
95 94 1
95 127 1
96 14 1
96 15 1
96 61 1
96 97 1
97 96 1
97 98 1
97 101 1
97 132 1
98 14 1
98 26 1
98 94 1
98 97 1
99 15 1
99 16 1
99 64 1
99 100 1
100 99 1
100 101 1
100 104 1
100 135 1
101 15 1
101 27 1
101 97 1
101 100 1
102 16 1
102 17 1
102 67 1
102 103 1
103 102 1
103 104 1
103 107 1
103 138 1
104 16 1
104 28 1
104 100 1
104 103 1
105 17 1
105 18 1
105 70 1
105 106 1
106 105 1
106 107 1
106 110 1
106 141 1
107 17 1
107 29 1
107 103 1
107 106 1
108 18 1
108 19 1
108 73 1
108 109 1
109 108 1
109 110 1
109 113 1
109 144 1
110 18 1
110 30 1
110 106 1
110 109 1
111 19 1
111 20 1
111 76 1
111 112 1
112 111 1
112 113 1
112 116 1
112 147 1
113 19 1
113 31 1
113 109 1
113 112 1
114 20 1
114 21 1
114 79 1
114 115 1
115 114 1
115 116 1
115 119 1
115 150 1
116 20 1
116 32 1
116 112 1
116 115 1
117 21 1
117 22 1
117 82 1
117 118 1
118 117 1
118 119 1
118 122 1
118 153 1
119 21 1
119 33 1
119 115 1
119 118 1
120 22 1
120 23 1
120 85 1
120 121 1
121 120 1
121 122 1
121 125 1
121 156 1
122 22 1
122 34 1
122 118 1
122 121 1
123 23 1
123 24 1
123 88 1
123 124 1
124 123 1
124 125 1
124 128 1
124 159 1
125 23 1
125 35 1
125 121 1
125 124 1
126 13 1
126 24 1
126 91 1
126 127 1
127 95 1
127 126 1
127 128 1
127 162 1
128 24 1
128 36 1
128 124 1
128 127 1
129 25 1
129 26 1
129 94 1
129 130 1
130 129 1
130 131 1
130 134 1
130 165 1
131 25 1
131 37 1
131 130 1
131 163 1
132 26 1
132 27 1
132 97 1
132 133 1
133 132 1
133 134 1
133 137 1
133 168 1
134 26 1
134 38 1
134 130 1
134 133 1
135 27 1
135 28 1
135 100 1
135 136 1
136 135 1
136 137 1
136 140 1
136 171 1
137 27 1
137 39 1
137 133 1
137 136 1
138 28 1
138 29 1
138 103 1
138 139 1
139 138 1
139 140 1
139 143 1
139 174 1
140 28 1
140 40 1
140 136 1
140 139 1
141 29 1
141 30 1
141 106 1
141 142 1
142 141 1
142 143 1
142 146 1
142 177 1
143 29 1
143 41 1
143 139 1
143 142 1
144 30 1
144 31 1
144 109 1
144 145 1
145 144 1
145 146 1
145 149 1
145 180 1
146 30 1
146 42 1
146 142 1
146 145 1
147 31 1
147 32 1
147 112 1
147 148 1
148 147 1
148 149 1
148 152 1
148 183 1
149 31 1
149 43 1
149 145 1
149 148 1
150 32 1
150 33 1
150 115 1
150 151 1
151 150 1
151 152 1
151 155 1
151 186 1
152 32 1
152 44 1
152 148 1
152 151 1
153 33 1
153 34 1
153 118 1
153 154 1
154 153 1
154 155 1
154 158 1
154 189 1
155 33 1
155 45 1
155 151 1
155 154 1
156 34 1
156 35 1
156 121 1
156 157 1
157 156 1
157 158 1
157 161 1
157 192 1
158 34 1
158 46 1
158 154 1
158 157 1
159 35 1
159 36 1
159 124 1
159 160 1
160 159 1
160 161 1
160 164 1
160 195 1
161 35 1
161 47 1
161 157 1
161 160 1
162 25 1
162 36 1
162 127 1
162 163 1
163 131 1
163 162 1
163 164 1
163 198 1
164 36 1
164 48 1
164 160 1
164 163 1
165 37 1
165 38 1
165 130 1
165 166 1
166 165 1
166 167 1
166 170 1
167 37 1
167 166 1
167 199 1
168 38 1
168 39 1
168 133 1
168 169 1
169 168 1
169 170 1
169 173 1
170 38 1
170 166 1
170 169 1
171 39 1
171 40 1
171 136 1
171 172 1
172 171 1
172 173 1
172 176 1
173 39 1
173 169 1
173 172 1
174 40 1
174 41 1
174 139 1
174 175 1
175 174 1
175 176 1
175 179 1
176 40 1
176 172 1
176 175 1
177 41 1
177 42 1
177 142 1
177 178 1
178 52 1
178 177 1
178 179 1
178 182 1
179 41 1
179 175 1
179 178 1
179 212 1
180 42 1
180 43 1
180 145 1
180 181 1
181 51 1
181 180 1
181 182 1
181 185 1
182 42 1
182 178 1
182 181 1
182 209 1
183 43 1
183 44 1
183 148 1
183 184 1
184 50 1
184 183 1
184 185 1
184 188 1
185 43 1
185 181 1
185 184 1
185 206 1
186 44 1
186 45 1
186 151 1
186 187 1
187 49 1
187 186 1
187 188 1
187 191 1
188 44 1
188 184 1
188 187 1
188 203 1
189 45 1
189 46 1
189 154 1
189 190 1
190 189 1
190 191 1
190 194 1
191 45 1
191 187 1
191 190 1
192 46 1
192 47 1
192 157 1
192 193 1
193 192 1
193 194 1
193 197 1
194 46 1
194 190 1
194 193 1
195 47 1
195 48 1
195 160 1
195 196 1
196 195 1
196 197 1
196 200 1
197 47 1
197 193 1
197 196 1
198 37 1
198 48 1
198 163 1
198 199 1
199 167 1
199 198 1
199 200 1
200 48 1
200 196 1
200 199 1
201 49 1
201 53 1
201 202 1
202 201 1
202 203 1
202 204 1
202 215 1
203 49 1
203 50 1
203 188 1
203 202 1
204 50 1
204 54 1
204 202 1
204 205 1
205 204 1
205 206 1
205 207 1
205 218 1
206 50 1
206 51 1
206 185 1
206 205 1
207 51 1
207 55 1
207 205 1
207 208 1
208 207 1
208 209 1
208 210 1
208 221 1
209 51 1
209 52 1
209 182 1
209 208 1
210 52 1
210 56 1
210 208 1
210 211 1
211 210 1
211 212 1
211 224 1
212 52 1
212 179 1
212 211 1
213 53 1
213 214 1
214 213 1
214 215 1
214 216 1
215 53 1
215 54 1
215 202 1
215 214 1
216 54 1
216 214 1
216 217 1
217 216 1
217 218 1
217 219 1
218 54 1
218 55 1
218 205 1
218 217 1
219 55 1
219 217 1
219 220 1
220 219 1
220 221 1
220 222 1
221 55 1
221 56 1
221 208 1
221 220 1
222 56 1
222 220 1
222 223 1
223 222 1
223 224 1
224 56 1
224 211 1
224 223 1
