%%MatrixMarket matrix coordinate real general
%
252 252 952
1 174 1
1 175 1
1 177 1
2 71 1
2 72 1
2 75 1
3 75 1
3 76 1
3 78 1
4 78 1
4 79 1
4 81 1
5 81 1
5 82 1
5 84 1
6 84 1
6 85 1
6 87 1
7 87 1
7 88 1
7 90 1
8 90 1
8 91 1
8 93 1
9 93 1
9 94 1
9 96 1
10 96 1
10 97 1
10 99 1
11 99 1
11 100 1
11 102 1
12 102 1
12 103 1
12 105 1
13 73 1
13 74 1
13 106 1
13 109 1
14 72 1
14 73 1
14 77 1
14 107 1
15 76 1
15 77 1
15 80 1
15 110 1
16 79 1
16 80 1
16 83 1
16 112 1
17 82 1
17 83 1
17 86 1
17 114 1
18 85 1
18 86 1
18 89 1
18 116 1
19 88 1
19 89 1
19 92 1
19 118 1
20 91 1
20 92 1
20 95 1
20 120 1
21 94 1
21 95 1
21 98 1
21 122 1
22 97 1
22 98 1
22 101 1
22 124 1
23 100 1
23 101 1
23 104 1
23 126 1
24 103 1
24 104 1
24 106 1
24 128 1
25 108 1
25 109 1
25 130 1
25 133 1
26 107 1
26 108 1
26 111 1
26 131 1
27 110 1
27 111 1
27 113 1
27 134 1
28 112 1
28 113 1
28 115 1
28 136 1
29 114 1
29 115 1
29 117 1
29 138 1
30 116 1
30 117 1
30 119 1
30 140 1
31 118 1
31 119 1
31 121 1
31 142 1
32 120 1
32 121 1
32 123 1
32 144 1
33 122 1
33 123 1
33 125 1
33 146 1
34 124 1
34 125 1
34 127 1
34 148 1
35 126 1
35 127 1
35 129 1
35 150 1
36 128 1
36 129 1
36 130 1
36 152 1
37 132 1
37 133 1
37 154 1
37 157 1
38 131 1
38 132 1
38 135 1
38 155 1
39 134 1
39 135 1
39 137 1
39 158 1
40 136 1
40 137 1
40 139 1
40 160 1
41 138 1
41 139 1
41 141 1
41 162 1
42 140 1
42 141 1
42 143 1
42 164 1
43 142 1
43 143 1
43 145 1
43 166 1
44 144 1
44 145 1
44 147 1
44 168 1
45 146 1
45 147 1
45 149 1
45 170 1
46 148 1
46 149 1
46 151 1
46 172 1
47 150 1
47 151 1
47 153 1
47 174 1
48 152 1
48 153 1
48 154 1
48 176 1
49 156 1
49 157 1
49 178 1
50 155 1
50 156 1
50 159 1
51 158 1
51 159 1
51 161 1
52 160 1
52 161 1
52 163 1
53 162 1
53 163 1
53 165 1
53 187 1
54 164 1
54 165 1
54 167 1
54 185 1
55 166 1
55 167 1
55 169 1
55 183 1
56 168 1
56 169 1
56 171 1
56 181 1
57 170 1
57 171 1
57 173 1
57 179 1
58 172 1
58 173 1
58 175 1
59 71 1
59 74 1
59 105 1
60 176 1
60 177 1
60 178 1
61 179 1
61 180 1
61 188 1
62 180 1
62 181 1
62 182 1
62 190 1
63 182 1
63 183 1
63 184 1
63 192 1
64 184 1
64 185 1
64 186 1
64 194 1
65 186 1
65 187 1
65 196 1
66 188 1
66 189 1
67 189 1
67 190 1
67 191 1
68 191 1
68 192 1
68 193 1
69 193 1
69 194 1
69 195 1
70 195 1
70 196 1
71 2 1
71 59 1
71 197 1
72 2 1
72 14 1
72 197 1
72 198 1
73 13 1
73 14 1
73 197 1
73 209 1
74 13 1
74 59 1
74 197 1
74 208 1
75 2 1
75 3 1
75 198 1
76 3 1
76 15 1
76 198 1
76 199 1
77 14 1
77 15 1
77 198 1
77 210 1
78 3 1
78 4 1
78 199 1
79 4 1
79 16 1
79 199 1
79 200 1
80 15 1
80 16 1
80 199 1
80 211 1
81 4 1
81 5 1
81 200 1
82 5 1
82 17 1
82 200 1
82 201 1
83 16 1
83 17 1
83 200 1
83 212 1
84 5 1
84 6 1
84 201 1
85 6 1
85 18 1
85 201 1
85 202 1
86 17 1
86 18 1
86 201 1
86 213 1
87 6 1
87 7 1
87 202 1
88 7 1
88 19 1
88 202 1
88 203 1
89 18 1
89 19 1
89 202 1
89 214 1
90 7 1
90 8 1
90 203 1
91 8 1
91 20 1
91 203 1
91 204 1
92 19 1
92 20 1
92 203 1
92 215 1
93 8 1
93 9 1
93 204 1
94 9 1
94 21 1
94 204 1
94 205 1
95 20 1
95 21 1
95 204 1
95 216 1
96 9 1
96 10 1
96 205 1
97 10 1
97 22 1
97 205 1
97 206 1
98 21 1
98 22 1
98 205 1
98 217 1
99 10 1
99 11 1
99 206 1
100 11 1
100 23 1
100 206 1
100 207 1
101 22 1
101 23 1
101 206 1
101 218 1
102 11 1
102 12 1
102 207 1
103 12 1
103 24 1
103 207 1
103 208 1
104 23 1
104 24 1
104 207 1
104 219 1
105 12 1
105 59 1
105 208 1
106 13 1
106 24 1
106 208 1
106 220 1
107 14 1
107 26 1
107 209 1
107 210 1
108 25 1
108 26 1
108 209 1
108 221 1
109 13 1
109 25 1
109 209 1
109 220 1
110 15 1
110 27 1
110 210 1
110 211 1
111 26 1
111 27 1
111 210 1
111 222 1
112 16 1
112 28 1
112 211 1
112 212 1
113 27 1
113 28 1
113 211 1
113 223 1
114 17 1
114 29 1
114 212 1
114 213 1
115 28 1
115 29 1
115 212 1
115 224 1
116 18 1
116 30 1
116 213 1
116 214 1
117 29 1
117 30 1
117 213 1
117 225 1
118 19 1
118 31 1
118 214 1
118 215 1
119 30 1
119 31 1
119 214 1
119 226 1
120 20 1
120 32 1
120 215 1
120 216 1
121 31 1
121 32 1
121 215 1
121 227 1
122 21 1
122 33 1
122 216 1
122 217 1
123 32 1
123 33 1
123 216 1
123 228 1
124 22 1
124 34 1
124 217 1
124 218 1
125 33 1
125 34 1
125 217 1
125 229 1
126 23 1
126 35 1
126 218 1
126 219 1
127 34 1
127 35 1
127 218 1
127 230 1
128 24 1
128 36 1
128 219 1
128 220 1
129 35 1
129 36 1
129 219 1
129 231 1
130 25 1
130 36 1
130 220 1
130 232 1
131 26 1
131 38 1
131 221 1
131 222 1
132 37 1
132 38 1
132 221 1
132 233 1
133 25 1
133 37 1
133 221 1
133 232 1
134 27 1
134 39 1
134 222 1
134 223 1
135 38 1
135 39 1
135 222 1
135 234 1
136 28 1
136 40 1
136 223 1
136 224 1
137 39 1
137 40 1
137 223 1
137 235 1
138 29 1
138 41 1
138 224 1
138 225 1
139 40 1
139 41 1
139 224 1
139 236 1
140 30 1
140 42 1
140 225 1
140 226 1
141 41 1
141 42 1
141 225 1
141 237 1
142 31 1
142 43 1
142 226 1
142 227 1
143 42 1
143 43 1
143 226 1
143 238 1
144 32 1
144 44 1
144 227 1
144 228 1
145 43 1
145 44 1
145 227 1
145 239 1
146 33 1
146 45 1
146 228 1
146 229 1
147 44 1
147 45 1
147 228 1
147 240 1
148 34 1
148 46 1
148 229 1
148 230 1
149 45 1
149 46 1
149 229 1
149 241 1
150 35 1
150 47 1
150 230 1
150 231 1
151 46 1
151 47 1
151 230 1
151 242 1
152 36 1
152 48 1
152 231 1
152 232 1
153 47 1
153 48 1
153 231 1
153 243 1
154 37 1
154 48 1
154 232 1
154 244 1
155 38 1
155 50 1
155 233 1
155 234 1
156 49 1
156 50 1
156 233 1
157 37 1
157 49 1
157 233 1
157 244 1
158 39 1
158 51 1
158 234 1
158 235 1
159 50 1
159 51 1
159 234 1
160 40 1
160 52 1
160 235 1
160 236 1
161 51 1
161 52 1
161 235 1
162 41 1
162 53 1
162 236 1
162 237 1
163 52 1
163 53 1
163 236 1
164 42 1
164 54 1
164 237 1
164 238 1
165 53 1
165 54 1
165 237 1
165 248 1
166 43 1
166 55 1
166 238 1
166 239 1
167 54 1
167 55 1
167 238 1
167 247 1
168 44 1
168 56 1
168 239 1
168 240 1
169 55 1
169 56 1
169 239 1
169 246 1
170 45 1
170 57 1
170 240 1
170 241 1
171 56 1
171 57 1
171 240 1
171 245 1
172 46 1
172 58 1
172 241 1
172 242 1
173 57 1
173 58 1
173 241 1
174 1 1
174 47 1
174 242 1
174 243 1
175 1 1
175 58 1
175 242 1
176 48 1
176 60 1
176 243 1
176 244 1
177 1 1
177 60 1
177 243 1
178 49 1
178 60 1
178 244 1
179 57 1
179 61 1
179 245 1
180 61 1
180 62 1
180 245 1
180 249 1
181 56 1
181 62 1
181 245 1
181 246 1
182 62 1
182 63 1
182 246 1
182 250 1
183 55 1
183 63 1
183 246 1
183 247 1
184 63 1
184 64 1
184 247 1
184 251 1
185 54 1
185 64 1
185 247 1
185 248 1
186 64 1
186 65 1
186 248 1
186 252 1
187 53 1
187 65 1
187 248 1
188 61 1
188 66 1
188 249 1
189 66 1
189 67 1
189 249 1
190 62 1
190 67 1
190 249 1
190 250 1
191 67 1
191 68 1
191 250 1
192 63 1
192 68 1
192 250 1
192 251 1
193 68 1
193 69 1
193 251 1
194 64 1
194 69 1
194 251 1
194 252 1
195 69 1
195 70 1
195 252 1
196 65 1
196 70 1
196 252 1
197 71 1
197 72 1
197 73 1
197 74 1
198 72 1
198 75 1
198 76 1
198 77 1
199 76 1
199 78 1
199 79 1
199 80 1
200 79 1
200 81 1
200 82 1
200 83 1
201 82 1
201 84 1
201 85 1
201 86 1
202 85 1
202 87 1
202 88 1
202 89 1
203 88 1
203 90 1
203 91 1
203 92 1
204 91 1
204 93 1
204 94 1
204 95 1
205 94 1
205 96 1
205 97 1
205 98 1
206 97 1
206 99 1
206 100 1
206 101 1
207 100 1
207 102 1
207 103 1
207 104 1
208 74 1
208 103 1
208 105 1
208 106 1
209 73 1
209 107 1
209 108 1
209 109 1
210 77 1
210 107 1
210 110 1
210 111 1
211 80 1
211 110 1
211 112 1
211 113 1
212 83 1
212 112 1
212 114 1
212 115 1
213 86 1
213 114 1
213 116 1
213 117 1
214 89 1
214 116 1
214 118 1
214 119 1
215 92 1
215 118 1
215 120 1
215 121 1
216 95 1
216 120 1
216 122 1
216 123 1
217 98 1
217 122 1
217 124 1
217 125 1
218 101 1
218 124 1
218 126 1
218 127 1
219 104 1
219 126 1
219 128 1
219 129 1
220 106 1
220 109 1
220 128 1
220 130 1
221 108 1
221 131 1
221 132 1
221 133 1
222 111 1
222 131 1
222 134 1
222 135 1
223 113 1
223 134 1
223 136 1
223 137 1
224 115 1
224 136 1
224 138 1
224 139 1
225 117 1
225 138 1
225 140 1
225 141 1
226 119 1
226 140 1
226 142 1
226 143 1
227 121 1
227 142 1
227 144 1
227 145 1
228 123 1
228 144 1
228 146 1
228 147 1
229 125 1
229 146 1
229 148 1
229 149 1
230 127 1
230 148 1
230 150 1
230 151 1
231 129 1
231 150 1
231 152 1
231 153 1
232 130 1
232 133 1
232 152 1
232 154 1
233 132 1
233 155 1
233 156 1
233 157 1
234 135 1
234 155 1
234 158 1
234 159 1
235 137 1
235 158 1
235 160 1
235 161 1
236 139 1
236 160 1
236 162 1
236 163 1
237 141 1
237 162 1
237 164 1
237 165 1
238 143 1
238 164 1
238 166 1
238 167 1
239 145 1
239 166 1
239 168 1
239 169 1
240 147 1
240 168 1
240 170 1
240 171 1
241 149 1
241 170 1
241 172 1
241 173 1
242 151 1
242 172 1
242 174 1
242 175 1
243 153 1
243 174 1
243 176 1
243 177 1
244 154 1
244 157 1
244 176 1
244 178 1
245 171 1
245 179 1
245 180 1
245 181 1
246 169 1
246 181 1
246 182 1
246 183 1
247 167 1
247 183 1
247 184 1
247 185 1
248 165 1
248 185 1
248 186 1
248 187 1
249 180 1
249 188 1
249 189 1
249 190 1
250 182 1
250 190 1
250 191 1
250 192 1
251 184 1
251 192 1
251 193 1
251 194 1
252 186 1
252 194 1
252 195 1
252 196 1
