%%MatrixMarket matrix coordinate real general
%
150 150 5518
1 2 6.317132735252007E-2
1 3 6.477457554835737E-2
1 4 2.593468769611938E-2
1 5 7.72545388861108E-1
1 6 1.1048245479967773E-1
1 7 5.3992025517819245E-2
1 8 6.611377242318557E-1
1 9 1.8315638888734255E-2
1 10 5.850110257890148E-2
1 11 3.993037845944012E-1
1 12 1.4499812281357785E-1
1 13 3.854943044663205E-2
1 14 2.38529099978133E-2
1 15 1.2839657289294873E-1
1 16 8.822537168418439E-2
1 17 1.9757804233651505E-1
1 18 8.751733190429474E-1
1 19 1.1568749346948487E-1
1 20 3.9212672523825065E-1
1 21 1.84724659629452E-1
1 22 4.572117279747537E-1
1 23 7.542508367063026E-2
1 24 8.677432947392907E-2
1 25 3.5673993347252395E-2
1 26 5.35666145256537E-2
1 27 2.517521153523296E-1
1 28 7.847231940537549E-1
1 29 7.847231940537547E-1
1 30 3.298294379320926E-2
1 31 2.9743296052666342E-2
1 32 2.4774659805977384E-1
1 33 1.5956656352356072E-1
1 34 1.332532433400991E-1
1 35 5.850110257890148E-2
1 36 2.2013516971323926E-1
1 37 3.033152891764067E-1
1 38 5.850110257890148E-2
1 39 1.930543877314411E-2
1 40 7.589176018322884E-1
1 41 6.611377242318563E-1
1 42 1.791531316968207E-2
1 43 3.270295444787086E-2
1 44 1.4177863132802287E-1
1 45 1.034510508889909E-1
1 46 3.5673993347252395E-2
1 47 3.678794411714418E-1
1 48 3.3373269960326274E-2
1 49 4.8675225595997107E-1
1 50 5.017490561548968E-1
2 1 6.317132735252007E-2
2 3 4.2437284567694966E-1
2 4 3.842270061816394E-1
2 5 2.948688992287585E-2
2 7 8.406285583693729E-2
2 8 1.8009231214795274E-1
2 9 2.941900147419931E-1
2 10 7.514772930752858E-1
2 12 1.3533528323661262E-1
2 13 8.302349785034856E-1
2 14 1.7625049009658578E-1
2 18 5.743261926761755E-2
2 23 2.3427466712360706E-2
2 24 5.221523583843976E-2
2 25 1.831563888873418E-2
2 26 6.211451576154516E-1
2 27 9.246247606292016E-2
2 28 3.5673993347252436E-2
2 29 9.246247606292018E-2
2 30 3.189065573239698E-1
2 31 5.647181220077582E-1
2 32 1.38555449725547E-2
2 35 7.514772930752858E-1
2 36 4.2437284567695005E-1
2 38 7.514772930752858E-1
2 39 2.545084979884894E-1
2 40 1.3533528323661323E-1
2 41 6.948345122280164E-2
2 42 2.274868183870942E-1
2 43 1.756730934308742E-1
2 46 8.265654376242373E-1
2 48 2.8993595126671823E-1
2 50 3.8582130682912485E-1
3 1 6.477457554835737E-2
3 2 4.2437284567694966E-1
3 4 5.934874977560278E-1
3 5 6.477457554835717E-2
3 7 4.7862297251123204E-1
3 8 1.6704806656928467E-1
3 9 4.0896829386414024E-1
3 10 3.4901807093131954E-1
3 12 2.2907994981548785E-1
3 13 5.214390995756883E-1
3 14 3.8930342505724735E-1
3 18 5.830279394681862E-2
3 23 2.0189651799465547E-1
3 25 2.0145750527577735E-2
3 26 1.1691109984170056E-1
3 27 6.477457554835717E-2
3 28 1.831563888873418E-2
3 29 4.251515251442983E-2
3 30 3.877601032963247E-1
3 31 3.141468469837143E-1
3 35 3.4901807093131954E-1
3 36 3.490180709313201E-1
3 38 3.4901807093131954E-1
3 39 5.044883526787207E-1
3 40 7.99530421736454E-2
3 41 1.353352832366129E-1
3 42 1.494860074494125E-1
3 43 5.93487497756028E-1
3 44 1.831563888873418E-2
3 46 5.13417119032592E-1
3 48 8.187307530779815E-1
3 50 3.141468469837149E-1
4 1 2.593468769611938E-2
4 2 3.842270061816394E-1
4 3 5.934874977560278E-1
4 5 2.593468769611932E-2
4 7 3.842270061816413E-1
4 8 1.1373170793120904E-1
4 9 6.547319185621088E-1
4 10 4.1913374169932155E-1
4 12 2.960013380148588E-1
4 13 5.440600500081385E-1
4 14 3.610033920156004E-1
4 18 2.3774767856519434E-2
4 23 4.610088752834602E-2
4 24 2.593468769611938E-2
4 25 8.031979860620085E-2
4 26 2.0904256419766068E-1
4 27 7.36305209655772E-2
4 29 1.831563888873418E-2
4 30 7.703813975921452E-1
4 31 6.474053920839109E-1
4 35 4.1913374169932155E-1
4 36 1.0425978464335052E-1
4 38 4.1913374169932155E-1
4 39 6.227038648477504E-1
4 40 5.19994707087483E-2
4 41 4.0059424918657265E-2
4 42 2.1289390712675088E-1
4 43 5.934874977560286E-1
4 44 1.4110027484896153E-2
4 46 5.440600500081385E-1
4 48 8.403699701308979E-1
4 50 1.6104250276283982E-1
5 1 7.72545388861108E-1
5 2 2.948688992287585E-2
5 3 6.477457554835717E-2
5 4 2.593468769611932E-2
5 6 1.1048245479967773E-1
5 7 1.0328426164519858E-1
5 8 5.245779259399974E-1
5 9 1.831563888873418E-2
5 10 2.6973423142389846E-2
5 11 3.071780079878387E-1
5 12 2.1259058549385554E-1
5 13 2.2060789249988468E-2
5 14 2.7739284420369523E-2
5 15 1.0964292652341269E-1
5 16 9.553537258942732E-2
5 17 1.9757804233651516E-1
5 18 6.79025379613404E-1
5 19 8.45351178333417E-2
5 20 5.511519806833013E-1
5 21 7.594257793342471E-2
5 22 5.440600500081385E-1
5 23 1.3956417198983798E-1
5 24 4.455142624448953E-2
5 25 4.315930926145255E-2
5 26 2.0192601089109127E-2
5 27 2.1259058549385573E-1
5 28 4.832250811898251E-1
5 29 3.791979291581646E-1
5 30 3.298294379320911E-2
5 31 1.831563888873418E-2
5 32 9.772660973498953E-2
5 33 2.3250965465669005E-1
5 34 1.50849463753341E-1
5 35 2.6973423142389846E-2
5 36 1.1507603880013934E-1
5 37 1.5035789770837643E-1
5 38 2.6973423142389846E-2
5 39 2.1448399255889195E-2
5 40 4.6107546615912676E-1
5 41 6.790253796134038E-1
5 43 4.630692467231526E-2
5 44 1.4177863132802265E-1
5 45 1.3135512492801474E-1
5 46 2.0145750527577617E-2
5 47 5.004199203605698E-1
5 48 4.076220397836636E-2
5 49 4.147829116815816E-1
5 50 3.130819434391275E-1
6 1 1.1048245479967773E-1
6 5 1.1048245479967773E-1
6 8 5.83918058286975E-2
6 11 4.987490707622952E-1
6 12 2.179473272454189E-2
6 15 2.9804037478766293E-1
6 16 4.694380652327914E-1
6 17 4.211084553304755E-1
6 18 1.314688276908189E-1
6 19 6.496168515669173E-1
6 20 4.191337416993218E-1
6 21 1.8615801548880334E-1
6 22 3.732498492764641E-1
6 24 6.948345122280151E-2
6 25 1.831563888873418E-2
6 27 8.761679210658649E-2
6 28 1.972687225682962E-1
6 29 8.761679210658649E-2
6 32 1.8615801548880348E-1
6 33 3.7223299351455147E-1
6 34 4.90084087933129E-1
6 36 4.2994190832878355E-3
6 37 1.1707652054258634E-1
6 40 8.761679210658638E-2
6 41 5.839180582869755E-2
6 44 1.1707652054258613E-1
6 45 4.441494372036231E-1
6 47 4.191337416993218E-1
6 49 4.706581764772643E-1
6 50 2.3095535650176816E-2
7 1 5.3992025517819245E-2
7 2 8.406285583693729E-2
7 3 4.7862297251123204E-1
7 4 3.842270061816413E-1
7 5 1.0328426164519858E-1
7 8 1.4285202910715245E-1
7 9 2.4371282199589933E-1
7 10 8.320178421554891E-2
7 12 3.779577080933163E-1
7 13 1.0725370894492661E-1
7 14 2.3836259312120298E-1
7 18 6.015619731813724E-2
7 20 2.803033156039546E-2
7 22 4.369879364633291E-2
7 23 2.74636275227127E-1
7 25 5.743261926761727E-2
7 26 2.7058445682482044E-2
7 27 1.0328426164519858E-1
7 29 1.831563888873413E-2
7 30 3.392285937242606E-1
7 31 1.428520291071528E-1
7 35 8.320178421554891E-2
7 36 6.702412145260853E-2
7 38 8.320178421554891E-2
7 39 3.1414684698371453E-1
7 40 5.3992025517819245E-2
7 41 1.4285202910715245E-1
7 42 6.599132109263198E-2
7 43 5.600606794694892E-1
7 44 6.13783768501914E-2
7 45 1.831563888873418E-2
7 46 1.4885808080333313E-1
7 47 2.9057997322928585E-2
7 48 6.065306597126345E-1
7 50 1.4285202910715245E-1
8 1 6.611377242318557E-1
8 2 1.8009231214795274E-1
8 3 1.6704806656928467E-1
8 4 1.1373170793120904E-1
8 5 5.245779259399974E-1
8 6 5.83918058286975E-2
8 7 1.4285202910715245E-1
8 9 5.406073950857318E-2
8 10 2.4187001173957368E-1
8 11 1.94107284032668E-1
8 12 4.4932896411722073E-1
8 13 1.2918476301522894E-1
8 14 4.530492092773937E-2
8 15 5.678852191530811E-2
8 16 4.760696907118636E-2
8 17 7.074675221161493E-2
8 18 5.866462195100318E-1
8 19 6.424200240022655E-2
8 20 2.1612142129391845E-1
8 21 1.6901331540606573E-1
8 22 2.9600133801485784E-1
8 23 6.271022482807159E-2
8 24 1.8887560283756188E-1
8 25 1.4885808080333313E-1
8 26 1.9041743596602154E-1
8 27 4.4932896411722145E-1
8 28 5.454955638202432E-1
8 29 5.454955638202429E-1
8 30 1.9261559277384047E-1
8 31 1.832379501044684E-1
8 32 1.5560024132937228E-1
8 33 7.877367034834751E-2
8 34 6.1378376850191624E-2
8 35 2.4187001173957368E-1
8 36 2.452676034826797E-1
8 37 1.218136138366198E-1
8 38 2.4187001173957368E-1
8 39 5.247762340746622E-2
8 40 8.464817248906148E-1
8 41 4.243728456769499E-1
8 42 3.5542839107946526E-2
8 43 7.802510557914265E-2
8 44 1.8741711124944974E-1
8 45 1.098153210264831E-1
8 46 1.2304094470311124E-1
8 47 2.5042009669367893E-1
8 48 1.2245642825298206E-1
8 49 2.369277586821217E-1
8 50 7.351414805916842E-1
9 1 1.8315638888734255E-2
9 2 2.941900147419931E-1
9 3 4.0896829386414024E-1
9 4 6.547319185621088E-1
9 5 1.831563888873418E-2
9 7 2.4371282199589933E-1
9 8 5.406073950857318E-2
9 10 2.325096546566895E-1
9 12 1.2031438840089935E-1
9 13 4.2867388518401983E-1
9 14 6.358260949285791E-1
9 18 1.7473692348069794E-2
9 23 3.8888417492514815E-2
9 24 2.0123190898886652E-2
9 25 4.478498495733918E-2
9 26 1.4523360489391926E-1
9 27 3.8888417492514864E-2
9 30 3.55121917940577E-1
9 31 3.232233318839213E-1
9 35 2.325096546566895E-1
9 36 9.967081700447783E-2
9 38 2.325096546566895E-1
9 39 9.101756764503792E-1
9 40 2.9322159123893937E-2
9 41 3.073500821997524E-2
9 42 4.223679383329752E-1
9 43 6.24634728000274E-1
9 46 4.2867388518401983E-1
9 48 5.423928601502729E-1
9 50 8.654776477389431E-2
10 1 5.850110257890148E-2
10 2 7.514772930752858E-1
10 3 3.4901807093131954E-1
10 4 4.1913374169932155E-1
10 5 2.6973423142389846E-2
10 7 8.320178421554891E-2
10 8 2.4187001173957368E-1
10 9 2.325096546566895E-1
10 11 1.715314448140214E-2
10 12 2.1259058549385657E-1
10 13 7.564871232025183E-1
10 14 1.353352832366122E-1
10 18 3.972373338644129E-2
10 21 3.1220927161230958E-2
10 23 2.491444078763268E-2
10 24 4.455142624448982E-2
10 25 7.642628699076809E-2
10 26 6.768917588119943E-1
10 27 7.572513333507053E-2
10 28 4.2787248564731026E-2
10 29 8.854517331628894E-2
10 30 4.388799297915541E-1
10 31 6.951439283988778E-1
10 32 1.831563888873418E-2
10 35 1
10 36 2.732693617130786E-1
10 37 1.831563888873418E-2
10 38 1
10 39 1.956204557464932E-1
10 40 1.6423587653856297E-1
10 41 3.972373338644117E-2
10 42 1.4302277706724173E-1
10 43 1.6577871049247894E-1
10 44 1.8315638888734165E-2
10 46 5.134171190325914E-1
10 48 3.0119421191220125E-1
10 49 1.4407591843112402E-2
10 50 4.052602577832704E-1
11 1 3.993037845944012E-1
11 5 3.071780079878387E-1
11 6 4.987490707622952E-1
11 8 1.94107284032668E-1
11 10 1.715314448140214E-2
11 12 4.897754052297832E-2
11 15 4.087151411059845E-1
11 16 2.911749919118218E-1
11 17 5.22751720908769E-1
11 18 3.7395995579118846E-1
11 19 5.553063730019512E-1
11 20 4.861143107617545E-1
11 21 4.2636520280380585E-1
11 22 4.2636520280380497E-1
11 24 8.276059152228436E-2
11 25 1.831563888873418E-2
11 27 1.398460485353482E-1
11 28 5.917978547771798E-1
11 29 3.993037845944019E-1
11 32 4.2636520280380574E-1
11 33 3.7223299351455197E-1
11 34 4.3291697962709896E-1
11 36 3.767763771453901E-2
11 37 5.542364188573674E-1
11 40 3.07178007987838E-1
11 41 1.941072840326681E-1
11 44 8.836940131785685E-2
11 45 1.6678582476043718E-1
11 47 4.861143107617545E-1
11 49 9.365299559357887E-1
11 50 1.148722742871576E-1
12 1 1.4499812281357785E-1
12 2 1.3533528323661262E-1
12 3 2.2907994981548785E-1
12 4 2.960013380148588E-1
12 5 2.1259058549385554E-1
12 6 2.179473272454189E-2
12 7 3.779577080933163E-1
12 8 4.4932896411722073E-1
12 9 1.2031438840089935E-1
12 10 2.1259058549385657E-1
12 11 4.897754052297832E-2
12 13 1.4177863132802287E-1
12 14 7.979440523729985E-2
12 15 1.831563888873418E-2
12 16 2.468665320876725E-2
12 17 1.831563888873418E-2
12 18 1.353352832366125E-1
12 19 2.0602292124919548E-2
12 20 1.00472387505254E-1
12 21 3.7295265566934216E-2
12 22 1.3533528323661245E-1
12 23 6.669053049742592E-2
12 24 1.0836802322189587E-1
12 25 4.243728456769503E-1
12 26 1.4210067237388133E-1
12 27 2.7803730045319386E-1
12 28 1.1283618731705672E-1
12 29 8.854517331628839E-2
12 30 5.553063730019515E-1
12 31 3.359109812391631E-1
12 32 2.2060789249988378E-2
12 33 4.272627636477487E-2
12 34 2.6571741520398783E-2
12 35 2.1259058549385657E-1
12 36 7.467614405107326E-2
12 38 2.1259058549385657E-1
12 39 1.1556816651413941E-1
12 40 2.0189651799465538E-1
12 41 1.1731916609425047E-1
12 42 4.532381569169372E-2
12 43 1.8615801548880356E-1
12 44 1.4177863132802265E-1
12 45 1.0345105088899098E-1
12 46 1.3533528323661273E-1
12 47 1.461565570715422E-1
12 48 3.011942119122025E-1
12 49 6.081006262521787E-2
12 50 2.5042009669367876E-1
13 1 3.854943044663205E-2
13 2 8.302349785034856E-1
13 3 5.214390995756883E-1
13 4 5.440600500081385E-1
13 5 2.2060789249988468E-2
13 7 1.0725370894492661E-1
13 8 1.2918476301522894E-1
13 9 4.2867388518401983E-1
13 10 7.564871232025183E-1
13 12 1.4177863132802287E-1
13 14 2.771992082463744E-1
13 18 2.9162147739668316E-2
13 23 2.9965986984836407E-2
13 24 1.831563888873418E-2
13 25 2.0101180301247447E-2
13 26 4.3291697962709835E-1
13 27 4.643195173024155E-2
13 28 1.83156388887341E-2
13 29 4.6431951730241484E-2
13 30 3.944619643633241E-1
13 31 5.722727675712231E-1
13 35 7.564871232025183E-1
13 36 2.984053966340257E-1
13 38 7.564871232025183E-1
13 39 3.8776010329632526E-1
13 40 8.113604973254795E-2
13 41 4.230750871566796E-2
13 42 2.4851173943599272E-1
13 43 2.793297434559069E-1
13 46 6.892901195306846E-1
13 48 4.3291697962709835E-1
13 50 2.7189873456630453E-1
14 1 2.38529099978133E-2
14 2 1.7625049009658578E-1
14 3 3.8930342505724735E-1
14 4 3.610033920156004E-1
14 5 2.7739284420369523E-2
14 7 2.3836259312120298E-1
14 8 4.530492092773937E-2
14 9 6.358260949285791E-1
14 10 1.353352832366122E-1
14 12 7.979440523729985E-2
14 13 2.771992082463744E-1
14 18 2.1299821133855583E-2
14 23 1.6972345434421432E-1
14 25 1.831563888873418E-2
14 26 5.900172021911385E-2
14 27 2.3852909997813237E-2
14 29 1.7637360889116705E-2
14 30 1.7625049009658597E-1
14 31 1.4053985696895738E-1
14 35 1.353352832366122E-1
14 36 1.2549721672914796E-1
14 38 1.353352832366122E-1
14 39 7.973870421122848E-1
14 40 2.5722804176116183E-2
14 41 4.5304920927739356E-2
14 42 2.5974203895600306E-1
14 43 6.856702235245865E-1
14 46 2.3836259312120292E-1
14 48 4.1982197428980106E-1
14 50 7.683940105241675E-2
15 1 1.2839657289294873E-1
15 5 1.0964292652341269E-1
15 6 2.9804037478766293E-1
15 8 5.678852191530811E-2
15 11 4.087151411059845E-1
15 12 1.831563888873418E-2
15 16 5.504523273584865E-1
15 17 5.604880435689196E-1
15 18 1.2506178692281295E-1
15 19 4.42290013166128E-1
15 20 1.9053969434767584E-1
15 21 1.318202812888732E-1
15 22 1.5436720718743002E-1
15 23 1.3356001111439865E-2
15 24 3.100259989210802E-2
15 27 4.251515251442985E-2
15 28 1.5848342533402854E-1
15 29 1.353352832366128E-1
15 32 1.807706251409617E-1
15 33 2.902995072708595E-1
15 34 6.393083302335298E-1
15 36 3.4443979661397166E-2
15 37 3.980997680657807E-1
15 40 8.427380392170356E-2
15 41 9.119667489006641E-2
15 44 4.141092573540582E-2
15 45 6.1453549378278204E-2
15 47 1.6270940287926486E-1
15 49 3.2252360637329736E-1
15 50 4.600766028506648E-2
16 1 8.822537168418439E-2
16 5 9.553537258942732E-2
16 6 4.694380652327914E-1
16 8 4.760696907118636E-2
16 11 2.911749919118218E-1
16 12 2.468665320876725E-2
16 15 5.504523273584865E-1
16 17 4.694380652327914E-1
16 18 9.365296370527765E-2
16 19 4.422321104348933E-1
16 20 2.339293064613881E-1
16 21 9.745561757685575E-2
16 22 1.8423516098382642E-1
16 24 3.980030923433871E-2
16 25 1.831563888873418E-2
16 27 5.053573208512018E-2
16 28 1.1202259058568793E-1
16 29 7.524057167060488E-2
16 32 1.1427422589332809E-1
16 33 4.2497650538416204E-1
16 34 7.720496113142832E-1
16 36 1.6580922565264555E-2
16 37 1.5711986891786558E-1
16 40 6.166309570461871E-2
16 41 6.811436391683279E-2
16 44 6.811436391683279E-2
16 45 1.735579410625491E-1
16 47 2.1602993164715495E-1
16 49 2.533117517756099E-1
16 50 3.0727813274559493E-2
17 1 1.9757804233651505E-1
17 5 1.9757804233651516E-1
17 6 4.211084553304755E-1
17 8 7.074675221161493E-2
17 11 5.22751720908769E-1
17 12 1.831563888873418E-2
17 15 5.604880435689196E-1
17 16 4.694380652327914E-1
17 18 2.3236184178521896E-1
17 19 3.468636452568927E-1
17 20 4.444975166820558E-1
17 21 8.782294916948338E-2
17 22 3.989501054460604E-1
17 23 9.57453174862934E-3
17 24 3.5036974831749376E-2
17 27 6.702412145260853E-2
17 28 2.2013516971323935E-1
17 29 1.5916118663542325E-1
17 32 2.085518541786632E-1
17 33 3.7223299351455147E-1
17 34 6.280620704702078E-1
17 36 2.2736498465972477E-2
17 37 3.213786888472836E-1
17 40 1.0328426164519876E-1
17 41 1.6800126265832083E-1
17 44 8.78229491694833E-2
17 45 8.320178421554911E-2
17 47 2.884471948477725E-1
17 49 4.952449933948652E-1
17 50 4.590959781363064E-2
18 1 8.751733190429474E-1
18 2 5.743261926761755E-2
18 3 5.830279394681862E-2
18 4 2.3774767856519434E-2
18 5 6.79025379613404E-1
18 6 1.314688276908189E-1
18 7 6.015619731813724E-2
18 8 5.866462195100318E-1
18 9 1.7473692348069794E-2
18 10 3.972373338644129E-2
18 11 3.7395995579118846E-1
18 12 1.353352832366125E-1
18 13 2.9162147739668316E-2
18 14 2.1299821133855583E-2
18 15 1.2506178692281295E-1
18 16 9.365296370527765E-2
18 17 2.3236184178521896E-1
18 19 1.2031438840089914E-1
18 20 4.269604769868338E-1
18 21 1.6901331540606546E-1
18 22 5.934874977560273E-1
18 23 7.092347173402522E-2
18 24 1.5123975969049547E-1
18 25 3.243324089479551E-2
18 26 4.858743872640819E-2
18 27 3.9324072086859785E-1
18 28 6.951439283988778E-1
18 29 6.951439283988777E-1
18 30 2.93221591238939E-2
18 31 2.6347980814448817E-2
18 32 3.274961205036263E-1
18 33 1.3855740146080422E-1
18 34 1.2918476301522877E-1
18 35 3.972373338644129E-2
18 36 1.975780423365152E-1
18 37 2.827596897962024E-1
18 38 3.972373338644129E-2
18 39 1.831563888873418E-2
18 40 6.703200460356388E-1
18 41 7.659283383646495E-1
18 42 1.831563888873418E-2
18 43 3.086103575557289E-2
18 44 2.7189873456630437E-1
18 45 1.2374253051794765E-1
18 46 3.923856408515824E-2
18 47 3.406420441574407E-1
18 48 3.019738342231866E-2
18 49 4.493289641172212E-1
18 50 4.493289641172213E-1
19 1 1.1568749346948487E-1
19 5 8.45351178333417E-2
19 6 6.496168515669173E-1
19 8 6.424200240022655E-2
19 11 5.553063730019512E-1
19 12 2.0602292124919548E-2
19 15 4.42290013166128E-1
19 16 4.422321104348933E-1
19 17 3.468636452568927E-1
19 18 1.2031438840089914E-1
19 20 2.0833093062499106E-1
19 21 3.607363776845716E-1
19 22 1.9261559277383977E-1
19 24 7.815825419119127E-2
19 25 1.831563888873418E-2
19 27 7.226242601634529E-2
19 28 2.1666307870822288E-1
19 29 1.353352832366128E-1
19 32 3.0836516789658186E-1
19 33 1.926155927738403E-1
19 34 3.944619643633241E-1
19 36 1.2868907137631346E-2
19 37 3.083651678965817E-1
19 40 1.0696066620686173E-1
19 41 5.4915437093733796E-2
19 44 6.948345122280154E-2
19 45 2.0031920950188065E-1
19 47 2.2532846915480598E-1
19 49 4.220020538397137E-1
19 50 3.71007665796178E-2
20 1 3.9212672523825065E-1
20 5 5.511519806833013E-1
20 6 4.191337416993218E-1
20 7 2.803033156039546E-2
20 8 2.1612142129391845E-1
20 11 4.861143107617545E-1
20 12 1.00472387505254E-1
20 15 1.9053969434767584E-1
20 16 2.339293064613881E-1
20 17 4.444975166820558E-1
20 18 4.269604769868338E-1
20 19 2.0833093062499106E-1
20 21 7.783286642654502E-2
20 22 8.434853325386424E-1
20 23 3.3890674714179087E-2
20 24 6.029472620878699E-2
20 25 2.80303315603955E-2
20 27 1.9848906339973438E-1
20 28 3.9212672523825043E-1
20 29 1.9848906339973404E-1
20 30 1.0094700651005957E-2
20 32 1.0939764043673635E-1
20 33 5.174597527081122E-1
20 34 3.4844894252768216E-1
20 36 1.831563888873418E-2
20 37 1.2181361383661952E-1
20 40 2.353201125647802E-1
20 41 3.037685058111259E-1
20 44 1.8229524890882465E-1
20 45 3.62429475799106E-1
20 47 8.57403919160441E-1
20 49 6.18783391806141E-1
20 50 9.227530512272375E-2
21 1 1.84724659629452E-1
21 5 7.594257793342471E-2
21 6 1.8615801548880334E-1
21 8 1.6901331540606573E-1
21 10 3.1220927161230958E-2
21 11 4.2636520280380585E-1
21 12 3.7295265566934216E-2
21 15 1.318202812888732E-1
21 16 9.745561757685575E-2
21 17 8.782294916948338E-2
21 18 1.6901331540606546E-1
21 19 3.607363776845716E-1
21 20 7.783286642654502E-2
21 22 1.0425978464334987E-1
21 24 1.84724659629452E-1
21 25 2.8565500784550227E-2
21 26 5.321934433892146E-2
21 27 1.546382645492545E-1
21 28 4.4932896411722134E-1
21 29 3.1488255354945455E-1
21 32 4.910982295021551E-1
21 33 6.525766524199461E-2
21 34 1.0080436271175688E-1
21 35 3.1220927161230958E-2
21 36 1.8315638888734147E-2
21 37 2.827596897962032E-1
21 38 3.1220927161230958E-2
21 40 3.148825535494537E-1
21 41 4.86928916177254E-2
21 44 4.86928916177254E-2
21 45 1.3943604331213946E-1
21 47 1.3533528323661193E-1
21 49 3.262797946230389E-1
21 50 9.915102252982494E-2
22 1 4.572117279747537E-1
22 5 5.440600500081385E-1
22 6 3.732498492764641E-1
22 7 4.369879364633291E-2
22 8 2.9600133801485784E-1
22 11 4.2636520280380497E-1
22 12 1.3533528323661245E-1
22 15 1.5436720718743002E-1
22 16 1.8423516098382642E-1
22 17 3.989501054460604E-1
22 18 5.934874977560273E-1
22 19 1.9261559277383977E-1
22 20 8.434853325386424E-1
22 21 1.0425978464334987E-1
22 23 3.389067471417904E-2
22 24 1.6104250276283918E-1
22 25 3.672315391132515E-2
22 27 3.8422700618163996E-1
22 28 4.5721172797475335E-1
22 29 2.7134944438044567E-1
22 30 1.831563888873418E-2
22 32 2.0904256419765943E-1
22 33 2.941900147419936E-1
22 34 2.401824132452469E-1
22 36 3.3664737722352796E-2
22 37 1.401681815310765E-1
22 40 3.2289283770834887E-1
22 41 4.191337416993223E-1
22 44 4.191337416993223E-1
22 45 3.624294757991062E-1
22 47 6.303131865967195E-1
22 49 5.272924240430483E-1
22 50 1.4763039227930597E-1
23 1 7.542508367063026E-2
23 2 2.3427466712360706E-2
23 3 2.0189651799465547E-1
23 4 4.610088752834602E-2
23 5 1.3956417198983798E-1
23 7 2.74636275227127E-1
23 8 6.271022482807159E-2
23 9 3.8888417492514815E-2
23 10 2.491444078763268E-2
23 12 6.669053049742592E-2
23 13 2.9965986984836407E-2
23 14 1.6972345434421432E-1
23 15 1.3356001111439865E-2
23 17 9.57453174862934E-3
23 18 7.092347173402522E-2
23 20 3.3890674714179087E-2
23 22 3.389067471417904E-2
23 27 2.491444078763267E-2
23 28 2.202924003942372E-2
23 29 3.186797008584646E-2
23 30 3.832938435044723E-2
23 31 1.831563888873418E-2
23 33 1.6670449015174466E-2
23 34 1.6179164479899064E-2
23 35 2.491444078763268E-2
23 36 1.0911154020004905E-1
23 38 2.491444078763268E-2
23 39 7.585380812713437E-2
23 40 3.604176323400052E-2
23 41 1.898466834948674E-1
23 42 1.8724910065776125E-2
23 43 1.8615801548880345E-1
23 46 2.9965986984836407E-2
23 47 1.831563888873418E-2
23 48 1.3956417198983817E-1
23 50 8.021241921230307E-2
24 1 8.677432947392907E-2
24 2 5.221523583843976E-2
24 4 2.593468769611938E-2
24 5 4.455142624448953E-2
24 6 6.948345122280151E-2
24 8 1.8887560283756188E-1
24 9 2.0123190898886652E-2
24 10 4.455142624448982E-2
24 11 8.276059152228436E-2
24 12 1.0836802322189587E-1
24 13 1.831563888873418E-2
24 15 3.100259989210802E-2
24 16 3.980030923433871E-2
24 17 3.5036974831749376E-2
24 18 1.5123975969049547E-1
24 19 7.815825419119127E-2
24 20 6.029472620878699E-2
24 21 1.84724659629452E-1
24 22 1.6104250276283918E-1
24 25 1.1186346761447105E-1
24 26 1.421006723738816E-1
24 27 6.411803884299551E-1
24 28 1.3533528323661234E-1
24 29 1.0836802322189558E-1
24 30 4.9787068367864167E-2
24 31 7.7649081703476E-2
24 32 2.4774659805977406E-1
24 33 1.831563888873418E-2
24 34 2.82717707301797E-2
24 35 4.455142624448982E-2
24 36 2.040670222003075E-2
24 37 4.251515251442965E-2
24 38 4.455142624448982E-2
24 40 2.1107208779109005E-1
24 41 6.217652402211629E-2
24 42 3.1824660186684124E-2
24 44 5.214390995756882E-1
24 45 1.6678582476043757E-1
24 46 5.221523583843965E-2
24 47 6.772447165924063E-2
24 48 1.2277339903068524E-2
24 49 7.136126955638589E-2
24 50 1.2110333239232973E-1
24 99 2.5098893766854834E-2
25 1 3.5673993347252395E-2
25 2 1.831563888873418E-2
25 3 2.0145750527577735E-2
25 4 8.031979860620085E-2
25 5 4.315930926145255E-2
25 6 1.831563888873418E-2
25 7 5.743261926761727E-2
25 8 1.4885808080333313E-1
25 9 4.478498495733918E-2
25 10 7.642628699076809E-2
25 11 1.831563888873418E-2
25 12 4.243728456769503E-1
25 13 2.0101180301247447E-2
25 14 1.831563888873418E-2
25 16 1.831563888873418E-2
25 18 3.243324089479551E-2
25 19 1.831563888873418E-2
25 20 2.80303315603955E-2
25 21 2.8565500784550227E-2
25 22 3.672315391132515E-2
25 24 1.1186346761447105E-1
25 26 6.31713273525199E-2
25 27 1.9808726381359867E-1
25 28 4.3159309261452485E-2
25 29 2.01457505275776E-2
25 30 2.635971381157274E-1
25 31 1.8009231214795268E-1
25 33 2.1092799990483E-2
25 35 7.642628699076809E-2
25 38 7.642628699076809E-2
25 39 2.7905056544536035E-2
25 40 9.246247606292012E-2
25 41 1.831563888873418E-2
25 42 2.495683029810931E-2
25 43 3.8914948903727355E-2
25 44 6.1378376850191624E-2
25 45 1.7704642660796133E-1
25 46 1.831563888873418E-2
25 47 7.31396526499162E-2
25 48 4.31593092614526E-2
25 49 1.831563888873418E-2
25 50 5.743261926761727E-2
25 99 1.831563888873418E-2
26 1 5.35666145256537E-2
26 2 6.211451576154516E-1
26 3 1.1691109984170056E-1
26 4 2.0904256419766068E-1
26 5 2.0192601089109127E-2
26 7 2.7058445682482044E-2
26 8 1.9041743596602154E-1
26 9 1.4523360489391926E-1
26 10 6.768917588119943E-1
26 12 1.4210067237388133E-1
26 13 4.3291697962709835E-1
26 14 5.900172021911385E-2
26 18 4.858743872640819E-2
26 21 5.321934433892146E-2
26 24 1.421006723738816E-1
26 25 6.31713273525199E-2
26 27 1.421006723738814E-1
26 28 5.35666145256537E-2
26 29 9.618677405152339E-2
26 30 2.813114999364466E-1
26 31 6.139726608994063E-1
26 32 3.200508555818117E-2
26 35 6.768917588119943E-1
26 36 1.4210067237388108E-1
26 37 1.5917265519126207E-2
26 38 6.768917588119943E-1
26 39 9.362844401338866E-2
26 40 1.7271757015758363E-1
26 41 3.288843685568845E-2
26 42 1.562413126173594E-1
26 43 5.839180582869742E-2
26 44 2.206078924998848E-2
26 46 4.2437284567694944E-1
26 48 9.618677405152308E-2
26 50 2.813114999364466E-1
26 99 1.575362263626237E-2
27 1 2.517521153523296E-1
27 2 9.246247606292016E-2
27 3 6.477457554835717E-2
27 4 7.36305209655772E-2
27 5 2.1259058549385573E-1
27 6 8.761679210658649E-2
27 7 1.0328426164519858E-1
27 8 4.4932896411722145E-1
27 9 3.8888417492514864E-2
27 10 7.572513333507053E-2
27 11 1.398460485353482E-1
27 12 2.7803730045319386E-1
27 13 4.643195173024155E-2
27 14 2.3852909997813237E-2
27 15 4.251515251442985E-2
27 16 5.053573208512018E-2
27 17 6.702412145260853E-2
27 18 3.9324072086859785E-1
27 19 7.226242601634529E-2
27 20 1.9848906339973438E-1
27 21 1.546382645492545E-1
27 22 3.8422700618163996E-1
27 23 2.491444078763267E-2
27 24 6.411803884299551E-1
27 25 1.9808726381359867E-1
27 26 1.421006723738814E-1
27 28 2.975654101475652E-1
27 29 2.335064790909129E-1
27 30 1.3533528323661287E-1
27 31 1.2737674846737793E-1
27 32 2.0568789151446865E-1
27 33 5.1575636319352636E-2
27 34 4.9402614159271725E-2
27 35 7.572513333507053E-2
27 36 7.467614405107328E-2
27 37 6.477457554835697E-2
27 38 7.572513333507053E-2
27 39 3.267801891385392E-2
27 40 3.828928859751123E-1
27 41 2.0774818714360052E-1
27 42 3.182466018668408E-2
27 43 4.630692467231526E-2
27 44 6.280620704702078E-1
27 45 2.1177332331923865E-1
27 46 9.246247606291995E-2
27 47 1.9881418873807388E-1
27 48 6.081006262521803E-2
27 49 1.5881742610692068E-1
27 50 2.5042009669367904E-1
28 1 7.847231940537549E-1
28 2 3.5673993347252436E-2
28 3 1.831563888873418E-2
28 5 4.832250811898251E-1
28 6 1.972687225682962E-1
28 8 5.454955638202432E-1
28 10 4.2787248564731026E-2
28 11 5.917978547771798E-1
28 12 1.1283618731705672E-1
28 13 1.83156388887341E-2
28 15 1.5848342533402854E-1
28 16 1.1202259058568793E-1
28 17 2.2013516971323935E-1
28 18 6.951439283988778E-1
28 19 2.1666307870822288E-1
28 20 3.9212672523825043E-1
28 21 4.4932896411722134E-1
28 22 4.5721172797475335E-1
28 23 2.202924003942372E-2
28 24 1.3533528323661234E-1
28 25 4.3159309261452485E-2
28 26 5.35666145256537E-2
28 27 2.975654101475652E-1
28 29 7.847231940537557E-1
28 30 1.6282781831675492E-2
28 31 1.831563888873418E-2
28 32 4.329169796270986E-1
28 33 1.7531402744782093E-1
28 34 1.605006375186585E-1
28 35 4.2787248564731026E-2
28 36 9.27007812818538E-2
28 37 4.016072324193767E-1
28 38 4.2787248564731026E-2
28 40 7.847231940537549E-1
28 41 3.359109812391625E-1
28 44 1.4177863132802265E-1
28 45 1.6678582476043757E-1
28 47 4.29062000943108E-1
28 49 6.703200460356393E-1
28 50 3.3591098123916197E-1
29 1 7.847231940537547E-1
29 2 9.246247606292018E-2
29 3 4.251515251442983E-2
29 4 1.831563888873418E-2
29 5 3.791979291581646E-1
29 6 8.761679210658649E-2
29 7 1.831563888873413E-2
29 8 5.454955638202429E-1
29 10 8.854517331628894E-2
29 11 3.993037845944019E-1
29 12 8.854517331628839E-2
29 13 4.6431951730241484E-2
29 14 1.7637360889116705E-2
29 15 1.353352832366128E-1
29 16 7.524057167060488E-2
29 17 1.5916118663542325E-1
29 18 6.951439283988777E-1
29 19 1.353352832366128E-1
29 20 1.9848906339973404E-1
29 21 3.1488255354945455E-1
29 22 2.7134944438044567E-1
29 23 3.186797008584646E-2
29 24 1.0836802322189558E-1
29 25 2.01457505275776E-2
29 26 9.618677405152339E-2
29 27 2.335064790909129E-1
29 28 7.847231940537557E-1
29 30 2.0602292124919513E-2
29 31 2.9743296052666266E-2
29 32 4.329169796270986E-1
29 33 9.07179532894127E-2
29 34 1.0397904490168E-1
29 35 8.854517331628894E-2
29 36 2.732693617130787E-1
29 37 4.621203959473194E-1
29 38 8.854517331628894E-2
29 39 1.4077776007559516E-2
29 40 7.847231940537547E-1
29 41 4.2806302118317546E-1
29 42 2.2346066423165833E-2
29 43 1.831563888873418E-2
29 44 9.772660973498962E-2
29 45 6.416684358762817E-2
29 46 4.3159309261452485E-2
29 47 1.988141887380735E-1
29 48 1.831563888873418E-2
29 49 4.147829116815811E-1
29 50 5.454955638202429E-1
30 1 3.298294379320926E-2
30 2 3.189065573239698E-1
30 3 3.877601032963247E-1
30 4 7.703813975921452E-1
30 5 3.298294379320911E-2
30 7 3.392285937242606E-1
30 8 1.9261559277384047E-1
30 9 3.55121917940577E-1
30 10 4.388799297915541E-1
30 12 5.553063730019515E-1
30 13 3.944619643633241E-1
30 14 1.7625049009658597E-1
30 18 2.93221591238939E-2
30 20 1.0094700651005957E-2
30 22 1.831563888873418E-2
30 23 3.832938435044723E-2
30 24 4.9787068367864167E-2
30 25 2.635971381157274E-1
30 26 2.813114999364466E-1
30 27 1.3533528323661287E-1
30 28 1.6282781831675492E-2
30 29 2.0602292124919513E-2
30 31 7.903383629814986E-1
30 35 4.388799297915541E-1
30 36 6.702412145260826E-2
30 38 4.388799297915541E-1
30 39 3.1414684698371387E-1
30 40 8.453511783334204E-2
30 41 3.710076657961783E-2
30 42 1.2252410243100735E-1
30 43 3.522274099927112E-1
30 44 4.2307508715668046E-2
30 45 2.0638500010379625E-2
30 46 3.858213068291238E-1
30 47 1.831563888873418E-2
30 48 6.065306597126328E-1
30 50 1.9261559277384016E-1
31 1 2.9743296052666342E-2
31 2 5.647181220077582E-1
31 3 3.141468469837143E-1
31 4 6.474053920839109E-1
31 5 1.831563888873418E-2
31 7 1.428520291071528E-1
31 8 1.832379501044684E-1
31 9 3.232233318839213E-1
31 10 6.951439283988778E-1
31 12 3.359109812391631E-1
31 13 5.722727675712231E-1
31 14 1.4053985696895738E-1
31 18 2.6347980814448817E-2
31 23 1.831563888873418E-2
31 24 7.7649081703476E-2
31 25 1.8009231214795268E-1
31 26 6.139726608994063E-1
31 27 1.2737674846737793E-1
31 28 1.831563888873418E-2
31 29 2.9743296052666266E-2
31 30 7.903383629814986E-1
31 35 6.951439283988778E-1
31 36 1.0328426164519836E-1
31 38 6.951439283988778E-1
31 39 2.5450849798848985E-1
31 40 9.99554889055029E-2
31 41 2.6347980814448772E-2
31 42 1.5973259492020175E-1
31 43 2.2151911908490388E-1
31 44 3.512517358908867E-2
31 45 1.4424805212443756E-2
31 46 5.647181220077587E-1
31 48 4.06569659740599E-1
31 50 2.3350647909091354E-1
32 1 2.4774659805977384E-1
32 2 1.38555449725547E-2
32 5 9.772660973498953E-2
32 6 1.8615801548880348E-1
32 8 1.5560024132937228E-1
32 10 1.831563888873418E-2
32 11 4.2636520280380574E-1
32 12 2.2060789249988378E-2
32 15 1.807706251409617E-1
32 16 1.1427422589332809E-1
32 17 2.085518541786632E-1
32 18 3.274961205036263E-1
32 19 3.0836516789658186E-1
32 20 1.0939764043673635E-1
32 21 4.910982295021551E-1
32 22 2.0904256419765943E-1
32 24 2.4774659805977406E-1
32 26 3.200508555818117E-2
32 27 2.0568789151446865E-1
32 28 4.329169796270986E-1
32 29 4.329169796270986E-1
32 33 5.406073950857318E-2
32 34 1.141156768714075E-1
32 35 1.831563888873418E-2
32 36 4.6431951730241526E-2
32 37 4.957148652698769E-1
32 38 1.831563888873418E-2
32 40 2.984053966340248E-1
32 41 1.2918476301522872E-1
32 44 1.2918476301522872E-1
32 45 8.648699752009927E-2
32 47 9.949058049485779E-2
32 49 3.262797946230387E-1
32 50 1.2918476301522863E-1
33 1 1.5956656352356072E-1
33 5 2.3250965465669005E-1
33 6 3.7223299351455147E-1
33 8 7.877367034834751E-2
33 11 3.7223299351455197E-1
33 12 4.272627636477487E-2
33 15 2.902995072708595E-1
33 16 4.2497650538416204E-1
33 17 3.7223299351455147E-1
33 18 1.3855740146080422E-1
33 19 1.926155927738403E-1
33 20 5.174597527081122E-1
33 21 6.525766524199461E-2
33 22 2.941900147419936E-1
33 23 1.6670449015174466E-2
33 24 1.831563888873418E-2
33 25 2.1092799990483E-2
33 27 5.1575636319352636E-2
33 28 1.7531402744782093E-1
33 29 9.07179532894127E-2
33 32 5.406073950857318E-2
33 34 6.892901195306846E-1
33 37 9.508907677188708E-2
33 40 9.07179532894126E-2
33 41 1.0447332227414342E-1
33 44 4.478498495733918E-2
33 45 1.9261559277384008E-1
33 47 5.685273360920483E-1
33 49 4.2867388518402005E-1
33 50 3.710076657961785E-2
34 1 1.332532433400991E-1
34 5 1.50849463753341E-1
34 6 4.90084087933129E-1
34 8 6.1378376850191624E-2
34 11 4.3291697962709896E-1
34 12 2.6571741520398783E-2
34 15 6.393083302335298E-1
34 16 7.720496113142832E-1
34 17 6.280620704702078E-1
34 18 1.2918476301522877E-1
34 19 3.944619643633241E-1
34 20 3.4844894252768216E-1
34 21 1.0080436271175688E-1
34 22 2.401824132452469E-1
34 23 1.6179164479899064E-2
34 24 2.82717707301797E-2
34 27 4.9402614159271725E-2
34 28 1.605006375186585E-1
34 29 1.0397904490168E-1
34 32 1.141156768714075E-1
34 33 6.892901195306846E-1
34 36 1.831563888873418E-2
34 37 2.121657231113117E-1
34 40 8.113604973254773E-2
34 41 9.474282653424383E-2
34 44 5.4218739548272124E-2
34 45 1.5084946375334074E-1
34 47 3.274961205036271E-1
34 49 3.9446196436332437E-1
34 50 3.737244146403153E-2
35 1 5.850110257890148E-2
35 2 7.514772930752858E-1
35 3 3.4901807093131954E-1
35 4 4.1913374169932155E-1
35 5 2.6973423142389846E-2
35 7 8.320178421554891E-2
35 8 2.4187001173957368E-1
35 9 2.325096546566895E-1
35 10 1
35 12 2.1259058549385657E-1
35 13 7.564871232025183E-1
35 14 1.353352832366122E-1
35 18 3.972373338644129E-2
35 21 3.1220927161230958E-2
35 23 2.491444078763268E-2
35 24 4.455142624448982E-2
35 25 7.642628699076809E-2
35 26 6.768917588119943E-1
35 27 7.572513333507053E-2
35 28 4.2787248564731026E-2
35 29 8.854517331628894E-2
35 30 4.388799297915541E-1
35 31 6.951439283988778E-1
35 32 1.831563888873418E-2
35 36 2.732693617130786E-1
35 37 1.831563888873418E-2
35 38 1
35 39 1.956204557464932E-1
35 40 1.6423587653856297E-1
35 41 3.972373338644117E-2
35 42 1.4302277706724173E-1
35 43 1.6577871049247894E-1
35 46 5.134171190325914E-1
35 48 3.0119421191220125E-1
35 50 4.052602577832704E-1
36 1 2.2013516971323926E-1
36 2 4.2437284567695005E-1
36 3 3.490180709313201E-1
36 4 1.0425978464335052E-1
36 5 1.1507603880013934E-1
36 6 4.2994190832878355E-3
36 7 6.702412145260853E-2
36 8 2.452676034826797E-1
36 9 9.967081700447783E-2
36 10 2.732693617130786E-1
36 11 3.767763771453901E-2
36 12 7.467614405107326E-2
36 13 2.984053966340257E-1
36 14 1.2549721672914796E-1
36 15 3.4443979661397166E-2
36 16 1.6580922565264555E-2
36 17 2.2736498465972477E-2
36 18 1.975780423365152E-1
36 19 1.2868907137631346E-2
36 20 1.831563888873418E-2
36 21 1.8315638888734147E-2
36 22 3.3664737722352796E-2
36 23 1.0911154020004905E-1
36 24 2.040670222003075E-2
36 26 1.4210067237388108E-1
36 27 7.467614405107328E-2
36 28 9.27007812818538E-2
36 29 2.732693617130787E-1
36 30 6.702412145260826E-2
36 31 1.0328426164519836E-1
36 32 4.6431951730241526E-2
36 34 1.831563888873418E-2
36 35 2.732693617130786E-1
36 37 8.576533707796652E-2
36 38 2.732693617130786E-1
36 39 1.1556816651413926E-1
36 40 2.2013516971323904E-1
36 41 3.044680299832052E-1
36 42 9.192885360463286E-2
36 43 1.1707652054258604E-1
36 44 2.206078924998848E-2
36 46 2.899359512667192E-1
36 47 1.695956874143538E-2
36 48 1.3533528323661276E-1
36 49 3.20646853278608E-2
36 50 5.824333384381949E-1
37 1 3.033152891764067E-1
37 5 1.5035789770837643E-1
37 6 1.1707652054258634E-1
37 8 1.218136138366198E-1
37 10 1.831563888873418E-2
37 11 5.542364188573674E-1
37 15 3.980997680657807E-1
37 16 1.5711986891786558E-1
37 17 3.213786888472836E-1
37 18 2.827596897962024E-1
37 19 3.083651678965817E-1
37 20 1.2181361383661952E-1
37 21 2.827596897962032E-1
37 22 1.401681815310765E-1
37 24 4.251515251442965E-2
37 26 1.5917265519126207E-2
37 27 6.477457554835697E-2
37 28 4.016072324193767E-1
37 29 4.621203959473194E-1
37 32 4.957148652698769E-1
37 33 9.508907677188708E-2
37 34 2.121657231113117E-1
37 35 1.831563888873418E-2
37 36 8.576533707796652E-2
37 38 1.831563888873418E-2
37 40 2.2907994981548704E-1
37 41 1.6128836913155098E-1
37 44 2.993365249972624E-2
37 45 2.0638500010379496E-2
37 47 9.20001646481674E-2
37 49 4.308026151974346E-1
37 50 1.2181361383661964E-1
38 1 5.850110257890148E-2
38 2 7.514772930752858E-1
38 3 3.4901807093131954E-1
38 4 4.1913374169932155E-1
38 5 2.6973423142389846E-2
38 7 8.320178421554891E-2
38 8 2.4187001173957368E-1
38 9 2.325096546566895E-1
38 10 1
38 12 2.1259058549385657E-1
38 13 7.564871232025183E-1
38 14 1.353352832366122E-1
38 18 3.972373338644129E-2
38 21 3.1220927161230958E-2
38 23 2.491444078763268E-2
38 24 4.455142624448982E-2
38 25 7.642628699076809E-2
38 26 6.768917588119943E-1
38 27 7.572513333507053E-2
38 28 4.2787248564731026E-2
38 29 8.854517331628894E-2
38 30 4.388799297915541E-1
38 31 6.951439283988778E-1
38 32 1.831563888873418E-2
38 35 1
38 36 2.732693617130786E-1
38 37 1.831563888873418E-2
38 39 1.956204557464932E-1
38 40 1.6423587653856297E-1
38 41 3.972373338644117E-2
38 42 1.4302277706724173E-1
38 43 1.6577871049247894E-1
38 46 5.134171190325914E-1
38 48 3.0119421191220125E-1
38 50 4.052602577832704E-1
39 1 1.930543877314411E-2
39 2 2.545084979884894E-1
39 3 5.044883526787207E-1
39 4 6.227038648477504E-1
39 5 2.1448399255889195E-2
39 7 3.1414684698371453E-1
39 8 5.247762340746622E-2
39 9 9.101756764503792E-1
39 10 1.956204557464932E-1
39 12 1.1556816651413941E-1
39 13 3.8776010329632526E-1
39 14 7.973870421122848E-1
39 18 1.831563888873418E-2
39 23 7.585380812713437E-2
39 25 2.7905056544536035E-2
39 26 9.362844401338866E-2
39 27 3.267801891385392E-2
39 29 1.4077776007559516E-2
39 30 3.1414684698371387E-1
39 31 2.5450849798848985E-1
39 35 1.956204557464932E-1
39 36 1.1556816651413926E-1
39 38 1.956204557464932E-1
39 40 2.6474349785327006E-2
39 41 3.826736270646579E-2
39 42 3.2398054113962116E-1
39 43 8.101577349324262E-1
39 46 3.8776010329632526E-1
39 48 6.227038648477504E-1
39 50 8.882806500357038E-2
40 1 7.589176018322884E-1
40 2 1.3533528323661323E-1
40 3 7.99530421736454E-2
40 4 5.19994707087483E-2
40 5 4.6107546615912676E-1
40 6 8.761679210658638E-2
40 7 5.3992025517819245E-2
40 8 8.464817248906148E-1
40 9 2.9322159123893937E-2
40 10 1.6423587653856297E-1
40 11 3.07178007987838E-1
40 12 2.0189651799465538E-1
40 13 8.113604973254795E-2
40 14 2.5722804176116183E-2
40 15 8.427380392170356E-2
40 16 6.166309570461871E-2
40 17 1.0328426164519876E-1
40 18 6.703200460356388E-1
40 19 1.0696066620686173E-1
40 20 2.353201125647802E-1
40 21 3.148825535494537E-1
40 22 3.2289283770834887E-1
40 23 3.604176323400052E-2
40 24 2.1107208779109005E-1
40 25 9.246247606292012E-2
40 26 1.7271757015758363E-1
40 27 3.828928859751123E-1
40 28 7.847231940537549E-1
40 29 7.847231940537547E-1
40 30 8.453511783334204E-2
40 31 9.99554889055029E-2
40 32 2.984053966340248E-1
40 33 9.07179532894126E-2
40 34 8.113604973254773E-2
40 35 1.6423587653856297E-1
40 36 2.2013516971323904E-1
40 37 2.2907994981548704E-1
40 38 1.6423587653856297E-1
40 39 2.6474349785327006E-2
40 41 3.678794411714426E-1
40 42 2.787261823776437E-2
40 43 3.672315391132539E-2
40 44 1.7076928218994272E-1
40 45 1.1657111869351608E-1
40 46 7.642628699076819E-2
40 47 2.704434370620152E-1
40 48 4.978706836786419E-2
40 49 3.534546819587796E-1
40 50 6.303131865967203E-1
41 1 6.611377242318563E-1
41 2 6.948345122280164E-2
41 3 1.353352832366129E-1
41 4 4.0059424918657265E-2
41 5 6.790253796134038E-1
41 6 5.839180582869755E-2
41 7 1.4285202910715245E-1
41 8 4.243728456769499E-1
41 9 3.073500821997524E-2
41 10 3.972373338644117E-2
41 11 1.941072840326681E-1
41 12 1.1731916609425047E-1
41 13 4.230750871566796E-2
41 14 4.5304920927739356E-2
41 15 9.119667489006641E-2
41 16 6.811436391683279E-2
41 17 1.6800126265832083E-1
41 18 7.659283383646495E-1
41 19 5.4915437093733796E-2
41 20 3.037685058111259E-1
41 21 4.86928916177254E-2
41 22 4.191337416993223E-1
41 23 1.898466834948674E-1
41 24 6.217652402211629E-2
41 25 1.831563888873418E-2
41 26 3.288843685568845E-2
41 27 2.0774818714360052E-1
41 28 3.359109812391625E-1
41 29 4.2806302118317546E-1
41 30 3.710076657961783E-2
41 31 2.6347980814448772E-2
41 32 1.2918476301522872E-1
41 33 1.0447332227414342E-1
41 34 9.474282653424383E-2
41 35 3.972373338644117E-2
41 36 3.044680299832052E-1
41 37 1.6128836913155098E-1
41 38 3.972373338644117E-2
41 39 3.826736270646579E-2
41 40 3.678794411714426E-1
41 42 2.3877787874155308E-2
41 43 6.948345122280164E-2
41 44 1.8741711124944974E-1
41 45 6.044809903864703E-2
41 46 5.743261926761727E-2
41 47 2.1471117234169695E-1
41 48 6.72055127397499E-2
41 49 2.3692775868212193E-1
41 50 4.2437284567694966E-1
42 1 1.791531316968207E-2
42 2 2.274868183870942E-1
42 3 1.494860074494125E-1
42 4 2.1289390712675088E-1
42 7 6.599132109263198E-2
42 8 3.5542839107946526E-2
42 9 4.223679383329752E-1
42 10 1.4302277706724173E-1
42 12 4.532381569169372E-2
42 13 2.4851173943599272E-1
42 14 2.5974203895600306E-1
42 18 1.831563888873418E-2
42 23 1.8724910065776125E-2
42 24 3.1824660186684124E-2
42 25 2.495683029810931E-2
42 26 1.562413126173594E-1
42 27 3.182466018668408E-2
42 29 2.2346066423165833E-2
42 30 1.2252410243100735E-1
42 31 1.5973259492020175E-1
42 35 1.4302277706724173E-1
42 36 9.192885360463286E-2
42 38 1.4302277706724173E-1
42 39 3.2398054113962116E-1
42 40 2.787261823776437E-2
42 41 2.3877787874155308E-2
42 43 1.5973259492020167E-1
42 46 2.714798381522679E-1
42 48 1.5624131261735932E-1
42 50 6.040823548454775E-2
43 1 3.270295444787086E-2
43 2 1.756730934308742E-1
43 3 5.93487497756028E-1
43 4 5.934874977560286E-1
43 5 4.630692467231526E-2
43 7 5.600606794694892E-1
43 8 7.802510557914265E-2
43 9 6.24634728000274E-1
43 10 1.6577871049247894E-1
43 12 1.8615801548880356E-1
43 13 2.793297434559069E-1
43 14 6.856702235245865E-1
43 18 3.086103575557289E-2
43 23 1.8615801548880345E-1
43 25 3.8914948903727355E-2
43 26 5.839180582869742E-2
43 27 4.630692467231526E-2
43 29 1.831563888873418E-2
43 30 3.522274099927112E-1
43 31 2.2151911908490388E-1
43 35 1.6577871049247894E-1
43 36 1.1707652054258604E-1
43 38 1.6577871049247894E-1
43 39 8.101577349324262E-1
43 40 3.672315391132539E-2
43 41 6.948345122280164E-2
43 42 1.5973259492020167E-1
43 44 1.7284052654398252E-2
43 46 2.793297434559069E-1
43 48 7.483720194325079E-1
43 50 1.1048245479967789E-1
44 1 1.4177863132802287E-1
44 3 1.831563888873418E-2
44 4 1.4110027484896153E-2
44 5 1.4177863132802265E-1
44 6 1.1707652054258613E-1
44 7 6.13783768501914E-2
44 8 1.8741711124944974E-1
44 10 1.8315638888734165E-2
44 11 8.836940131785685E-2
44 12 1.4177863132802265E-1
44 15 4.141092573540582E-2
44 16 6.811436391683279E-2
44 17 8.78229491694833E-2
44 18 2.7189873456630437E-1
44 19 6.948345122280154E-2
44 20 1.8229524890882465E-1
44 21 4.86928916177254E-2
44 22 4.191337416993223E-1
44 24 5.214390995756882E-1
44 25 6.1378376850191624E-2
44 26 2.206078924998848E-2
44 27 6.280620704702078E-1
44 28 1.4177863132802265E-1
44 29 9.772660973498962E-2
44 30 4.2307508715668046E-2
44 31 3.512517358908867E-2
44 32 1.2918476301522872E-1
44 33 4.478498495733918E-2
44 34 5.4218739548272124E-2
44 36 2.206078924998848E-2
44 37 2.993365249972624E-2
44 40 1.7076928218994272E-1
44 41 1.8741711124944974E-1
44 43 1.7284052654398252E-2
44 45 2.533117517756104E-1
44 46 2.0101180301247367E-2
44 47 1.3533528323661245E-1
44 49 9.07179532894126E-2
44 50 1.0725370894492646E-1
45 1 1.034510508889909E-1
45 5 1.3135512492801474E-1
45 6 4.441494372036231E-1
45 7 1.831563888873418E-2
45 8 1.098153210264831E-1
45 11 1.6678582476043718E-1
45 12 1.0345105088899098E-1
45 15 6.1453549378278204E-2
45 16 1.735579410625491E-1
45 17 8.320178421554911E-2
45 18 1.2374253051794765E-1
45 19 2.0031920950188065E-1
45 20 3.62429475799106E-1
45 21 1.3943604331213946E-1
45 22 3.624294757991062E-1
45 24 1.6678582476043757E-1
45 25 1.7704642660796133E-1
45 27 2.1177332331923865E-1
45 28 1.6678582476043757E-1
45 29 6.416684358762817E-2
45 30 2.0638500010379625E-2
45 31 1.4424805212443756E-2
45 32 8.648699752009927E-2
45 33 1.9261559277384008E-1
45 34 1.5084946375334074E-1
45 37 2.0638500010379496E-2
45 40 1.1657111869351608E-1
45 41 6.044809903864703E-2
45 44 2.533117517756104E-1
45 47 4.6018835634904814E-1
45 49 2.2480153932996166E-1
45 50 3.749371014456355E-2
46 1 3.5673993347252395E-2
46 2 8.265654376242373E-1
46 3 5.13417119032592E-1
46 4 5.440600500081385E-1
46 5 2.0145750527577617E-2
46 7 1.4885808080333313E-1
46 8 1.2304094470311124E-1
46 9 4.2867388518401983E-1
46 10 5.134171190325914E-1
46 12 1.3533528323661273E-1
46 13 6.892901195306846E-1
46 14 2.3836259312120292E-1
46 18 3.923856408515824E-2
46 23 2.9965986984836407E-2
46 24 5.221523583843965E-2
46 25 1.831563888873418E-2
46 26 4.2437284567694944E-1
46 27 9.246247606291995E-2
46 29 4.3159309261452485E-2
46 30 3.858213068291238E-1
46 31 5.647181220077587E-1
46 35 5.134171190325914E-1
46 36 2.899359512667192E-1
46 38 5.134171190325914E-1
46 39 3.8776010329632526E-1
46 40 7.642628699076819E-2
46 41 5.743261926761727E-2
46 42 2.714798381522679E-1
46 43 2.793297434559069E-1
46 44 2.0101180301247367E-2
46 48 4.2437284567694944E-1
46 50 2.635971381157269E-1
47 1 3.678794411714418E-1
47 5 5.004199203605698E-1
47 6 4.191337416993218E-1
47 7 2.9057997322928585E-2
47 8 2.5042009669367893E-1
47 11 4.861143107617545E-1
47 12 1.461565570715422E-1
47 15 1.6270940287926486E-1
47 16 2.1602993164715495E-1
47 17 2.884471948477725E-1
47 18 3.406420441574407E-1
47 19 2.2532846915480598E-1
47 20 8.57403919160441E-1
47 21 1.3533528323661193E-1
47 22 6.303131865967195E-1
47 23 1.831563888873418E-2
47 24 6.772447165924063E-2
47 25 7.31396526499162E-2
47 27 1.9881418873807388E-1
47 28 4.29062000943108E-1
47 29 1.988141887380735E-1
47 30 1.831563888873418E-2
47 32 9.949058049485779E-2
47 33 5.685273360920483E-1
47 34 3.274961205036271E-1
47 36 1.695956874143538E-2
47 37 9.20001646481674E-2
47 40 2.704434370620152E-1
47 41 2.1471117234169695E-1
47 44 1.3533528323661245E-1
47 45 4.6018835634904814E-1
47 49 6.303131865967192E-1
47 50 9.949058049485797E-2
48 1 3.3373269960326274E-2
48 2 2.8993595126671823E-1
48 3 8.187307530779815E-1
48 4 8.403699701308979E-1
48 5 4.076220397836636E-2
48 7 6.065306597126345E-1
48 8 1.2245642825298206E-1
48 9 5.423928601502729E-1
48 10 3.0119421191220125E-1
48 12 3.011942119122025E-1
48 13 4.3291697962709835E-1
48 14 4.1982197428980106E-1
48 18 3.019738342231866E-2
48 23 1.3956417198983817E-1
48 24 1.2277339903068524E-2
48 25 4.31593092614526E-2
48 26 9.618677405152308E-2
48 27 6.081006262521803E-2
48 29 1.831563888873418E-2
48 30 6.065306597126328E-1
48 31 4.06569659740599E-1
48 35 3.0119421191220125E-1
48 36 1.3533528323661276E-1
48 38 3.0119421191220125E-1
48 39 6.227038648477504E-1
48 40 4.978706836786419E-2
48 41 6.72055127397499E-2
48 42 1.5624131261735932E-1
48 43 7.483720194325079E-1
48 46 4.2437284567694944E-1
48 50 1.8268352405273475E-1
49 1 4.8675225595997107E-1
49 5 4.147829116815816E-1
49 6 4.706581764772643E-1
49 8 2.369277586821217E-1
49 10 1.4407591843112402E-2
49 11 9.365299559357887E-1
49 12 6.081006262521787E-2
49 15 3.2252360637329736E-1
49 16 2.533117517756099E-1
49 17 4.952449933948652E-1
49 18 4.493289641172212E-1
49 19 4.220020538397137E-1
49 20 6.18783391806141E-1
49 21 3.262797946230389E-1
49 22 5.272924240430483E-1
49 24 7.136126955638589E-2
49 25 1.831563888873418E-2
49 27 1.5881742610692068E-1
49 28 6.703200460356393E-1
49 29 4.147829116815811E-1
49 32 3.262797946230387E-1
49 33 4.2867388518402005E-1
49 34 3.9446196436332437E-1
49 36 3.20646853278608E-2
49 37 4.308026151974346E-1
49 40 3.534546819587796E-1
49 41 2.3692775868212193E-1
49 44 9.07179532894126E-2
49 45 2.2480153932996166E-1
49 47 6.303131865967192E-1
49 50 1.2493021219858236E-1
50 1 5.017490561548968E-1
50 2 3.8582130682912485E-1
50 3 3.141468469837149E-1
50 4 1.6104250276283982E-1
50 5 3.130819434391275E-1
50 6 2.3095535650176816E-2
50 7 1.4285202910715245E-1
50 8 7.351414805916842E-1
50 9 8.654776477389431E-2
50 10 4.052602577832704E-1
50 11 1.148722742871576E-1
50 12 2.5042009669367876E-1
50 13 2.7189873456630453E-1
50 14 7.683940105241675E-2
50 15 4.600766028506648E-2
50 16 3.0727813274559493E-2
50 17 4.590959781363064E-2
50 18 4.493289641172213E-1
50 19 3.71007665796178E-2
50 20 9.227530512272375E-2
50 21 9.915102252982494E-2
50 22 1.4763039227930597E-1
50 23 8.021241921230307E-2
50 24 1.2110333239232973E-1
50 25 5.743261926761727E-2
50 26 2.813114999364466E-1
50 27 2.5042009669367904E-1
50 28 3.3591098123916197E-1
50 29 5.454955638202429E-1
50 30 1.9261559277384016E-1
50 31 2.3350647909091354E-1
50 32 1.2918476301522863E-1
50 33 3.710076657961785E-2
50 34 3.737244146403153E-2
50 35 4.052602577832704E-1
50 36 5.824333384381949E-1
50 37 1.2181361383661964E-1
50 38 4.052602577832704E-1
50 39 8.882806500357038E-2
50 40 6.303131865967203E-1
50 41 4.2437284567694966E-1
50 42 6.040823548454775E-2
50 43 1.1048245479967789E-1
50 44 1.0725370894492646E-1
50 45 3.749371014456355E-2
50 46 2.635971381157269E-1
50 47 9.949058049485797E-2
50 48 1.8268352405273475E-1
50 49 1.2493021219858236E-1
51 52 2.520440864594923E-1
51 53 7.903383629814981E-1
51 55 2.3565694573338322E-1
51 57 1.6281738389701267E-1
51 59 4.0350636165618525E-1
51 64 4.854762111853593E-2
51 66 5.280018654753446E-1
51 73 3.136116691320894E-2
51 74 3.354196346873744E-2
51 75 1.2442730695944844E-1
51 76 3.772716039785733E-1
51 77 4.936727883891299E-1
51 78 3.527425505371426E-1
51 79 2.1667696391784737E-2
51 86 2.3174427241061266E-2
51 87 6.909084872941549E-1
51 92 5.553419607238674E-2
51 98 4.854762111853604E-2
51 111 7.515254527331514E-2
51 113 1.7124811695863246E-2
51 117 2.5633234514977298E-2
51 124 4.244000423084952E-2
51 127 3.836904740146982E-2
51 128 2.9322159123893743E-2
51 134 6.352622151919987E-2
51 138 1.9589273964603526E-2
51 140 3.468858745838923E-2
51 142 3.5874408514571555E-2
51 146 1.831563888873418E-2
51 148 4.854762111853604E-2
52 51 2.520440864594923E-1
52 53 1.5142869128329367E-1
52 55 3.522274099927113E-1
52 56 1.831563888873418E-2
52 57 6.664453745083865E-1
52 59 3.9256037377051145E-1
52 62 1.1048245479967789E-1
52 64 2.635971381157261E-1
52 66 6.330898921891815E-1
52 67 1.9408794604496078E-2
52 71 9.478307839833716E-2
52 72 4.369879364633304E-2
52 73 2.1794732724541896E-2
52 74 1.1048245479967739E-1
52 75 3.7324984927646443E-1
52 76 6.314287848661002E-1
52 77 1.2889199313951047E-1
52 78 8.761679210658661E-2
52 79 2.3474032816471121E-1
52 86 3.5450350813975695E-1
52 87 4.8775174689448253E-1
52 89 1.749260582732064E-2
52 92 4.191337416993218E-1
52 96 1.831563888873418E-2
52 98 2.9600133801485823E-1
52 111 2.7482580852549374E-2
52 124 5.1999470708748066E-2
52 127 1.1048245479967773E-1
52 128 1.1048245479967739E-1
52 134 4.630692467231532E-2
52 139 1.1048245479967773E-1
53 51 7.903383629814981E-1
53 52 1.5142869128329367E-1
53 55 2.169496700404156E-1
53 57 1.3232795764576477E-1
53 59 3.10820617491779E-1
53 64 3.759444885185289E-2
53 66 3.189065573239702E-1
53 73 3.932263167828475E-2
53 74 2.095938965795085E-2
53 75 4.499861373813179E-2
53 76 1.9829934865824636E-1
53 77 5.831412488201811E-1
53 78 6.379864703263796E-1
53 87 6.979899589387872E-1
53 92 3.4362599948178606E-2
53 111 1.2651230151849488E-1
53 112 3.7594448851853174E-2
53 113 3.594221760226407E-2
53 117 6.163552599817412E-2
53 124 6.446885540666945E-2
53 125 1.1636503744124435E-2
53 127 4.7067159330645425E-2
53 128 3.594221760226386E-2
53 130 5.389945455805903E-2
53 132 1.7230594895872496E-2
53 134 1.1055444206202794E-1
53 138 4.3020978260636195E-2
53 140 6.446885540666958E-2
53 142 6.408949920213616E-2
53 146 3.0028210849647945E-2
53 147 1.831563888873418E-2
53 148 1.0105050562230375E-1
54 56 1.004723875052541E-1
54 58 2.9928792581539265E-1
54 60 4.096050060740404E-1
54 61 3.692294559570539E-1
54 62 4.476257005042101E-2
54 63 3.174163424844215E-1
54 65 1.8838051635118958E-1
54 67 3.467618538935502E-2
54 68 2.255165563468571E-1
54 69 3.467618538935502E-2
54 70 6.62078510589381E-1
54 72 7.459030941219474E-2
54 79 2.171423518842884E-2
54 80 2.685588214606072E-1
54 81 7.312181197855748E-1
54 82 5.788206602276833E-1
54 83 3.1697379624387556E-1
54 85 3.467618538935502E-2
54 88 3.3231557774730386E-2
54 89 1.1415332638504555E-1
54 90 8.43485332538642E-1
54 91 3.30753141234874E-1
54 93 4.4552111442639214E-1
54 94 3.2943774094742156E-1
54 95 4.091730851937947E-1
54 96 8.474698518582044E-2
54 97 1.537633686460744E-1
54 98 1.831563888873418E-2
54 99 1.829339469389108E-1
54 100 2.7898542332269866E-1
54 107 1.353352832366127E-1
55 51 2.3565694573338322E-1
55 52 3.522274099927113E-1
55 53 2.169496700404156E-1
55 57 1.3970056501293823E-1
55 59 7.322097138745856E-1
55 62 2.8565500784550505E-2
55 63 1.831563888873418E-2
55 64 2.992879258153918E-1
55 66 5.037302936889634E-1
55 69 1.118634676144712E-1
55 71 2.839211436381684E-2
55 72 2.856550078455043E-2
55 73 2.473810553772498E-1
55 74 1.9189754852670837E-1
55 75 4.0289032152913373E-1
55 76 6.314287848661002E-1
55 77 5.051363787331283E-1
55 78 1.6901331540606565E-1
55 79 1.8009231214795243E-1
55 84 3.682466913056056E-2
55 86 4.4551426244489586E-2
55 87 4.8775174689448164E-1
55 88 1.5723716631362777E-1
55 92 2.635971381157262E-1
55 98 2.3216256062952756E-1
55 120 5.4712647675070926E-2
55 124 2.3216256062952656E-1
55 127 2.4738105537725047E-1
55 128 8.957326253887948E-2
55 134 1.586158811769975E-1
55 139 6.948345122280145E-2
55 147 6.539740322986003E-2
56 52 1.831563888873418E-2
56 54 1.004723875052541E-1
56 58 5.18847607689204E-2
56 59 1.3410888710150351E-2
56 60 1.2460025474864979E-1
56 61 3.866783147101374E-2
56 62 2.579889022095304E-1
56 63 7.500774272610765E-2
56 64 2.418700117395732E-1
56 65 7.32283067634925E-2
56 67 5.647181220077587E-1
56 68 1.9468670833150986E-1
56 69 4.526423397858692E-2
56 70 1.2721767668229814E-1
56 71 5.18757361551641E-2
56 72 7.099390218676456E-2
56 73 1.6131455957262494E-2
56 74 2.579889022095311E-1
56 75 3.790291440095854E-2
56 76 1.831563888873418E-2
56 79 4.0526025778326935E-1
56 80 4.2390153993757396E-2
56 81 7.893500909456268E-2
56 82 6.882012978136338E-2
56 83 1.4574074922416919E-1
56 84 2.8771007101248462E-2
56 85 4.2284081541000434E-1
56 86 6.948345122280139E-2
56 88 4.5049202393557905E-2
56 89 3.807861904186882E-1
56 90 1.7427401200786174E-1
56 91 5.866462195100323E-1
56 92 2.4187001173957334E-1
56 93 1.5277517560171489E-1
56 94 4.79887199055682E-2
56 95 5.285165498410691E-1
56 96 4.544204562802079E-1
56 97 5.692814760393669E-1
56 98 1.4435440301720143E-1
56 99 2.343734338452156E-2
56 100 4.008028115921086E-1
56 102 1.931899120415903E-2
56 107 1.1107708444885786E-1
56 114 3.3784434441711454E-2
56 120 6.127074272286638E-2
56 122 6.029472620878712E-2
56 127 2.222690886895959E-2
56 128 1.9536244018785107E-2
56 139 4.820666138260458E-2
56 143 1.931899120415903E-2
57 51 1.6281738389701267E-1
57 52 6.664453745083865E-1
57 53 1.3232795764576477E-1
57 55 1.3970056501293823E-1
57 59 1.6232061118184818E-1
57 62 3.923856408515841E-2
57 64 2.178802838231225E-1
57 66 2.8446562545044807E-1
57 67 1.831563888873418E-2
57 71 2.9954834600851094E-1
57 73 1.2513435386733836E-2
57 74 5.743261926761735E-2
57 75 7.843739051713067E-2
57 76 2.4043936150986375E-1
57 77 6.836277488896467E-2
57 78 1.0836802322189595E-1
57 79 1.4885808080333332E-1
57 84 2.0795557994967427E-2
57 86 5.008953786814566E-1
57 87 3.406420441574407E-1
57 92 3.1890655732397033E-1
57 98 6.948345122280151E-2
57 111 9.544488207041908E-2
57 122 1.8315638888734206E-2
57 124 6.119738655956248E-2
57 127 1.397005650129386E-1
57 128 2.6359713811572677E-1
57 134 6.948345122280176E-2
57 139 2.3216256062952775E-1
57 148 3.2433240894795566E-2
57 150 5.743261926761773E-2
58 54 2.9928792581539265E-1
58 56 5.18847607689204E-2
58 60 4.1111229050718734E-1
58 61 7.659283383646488E-1
58 62 4.628136544863836E-2
58 63 1.0975289935925621E-1
58 65 3.109093251698175E-1
58 67 3.9740008602186516E-2
58 68 1.414858516049622E-1
58 70 3.3128975136465716E-1
58 72 6.277151016385432E-2
58 79 1.831563888873418E-2
58 80 4.008028115921093E-1
58 81 4.550711096480725E-1
58 82 5.166872807446268E-1
58 83 1.91897548526709E-1
58 85 5.389945455805879E-2
58 88 1.5726926808168583E-2
58 89 1.3447873367942234E-1
58 90 2.9928792581539265E-1
58 91 1.2304094470311112E-1
58 93 1.733606881318831E-1
58 94 9.749229610665266E-1
58 95 1.526870191266071E-1
58 96 9.544488207041862E-2
58 97 1.030010730324619E-1
58 98 2.1330462842128355E-2
58 99 8.265654376242384E-1
58 100 1.4329395305256906E-1
58 107 8.513712700684296E-2
59 51 4.0350636165618525E-1
59 52 3.9256037377051145E-1
59 53 3.10820617491779E-1
59 55 7.322097138745856E-1
59 56 1.3410888710150351E-2
59 57 1.6232061118184818E-1
59 62 2.6347980814448935E-2
59 64 2.459572834604582E-1
59 66 6.832104226749485E-1
59 69 3.567399334725252E-2
59 72 3.992393657592874E-2
59 73 1.388965352099199E-1
59 74 2.3350647909091315E-1
59 75 5.089911369145992E-1
59 76 7.589176018322896E-1
59 77 6.139726608994062E-1
59 78 1.7097571224301925E-1
59 79 1.1885272826940918E-1
59 84 2.1404462639130192E-2
59 86 3.001155395874254E-2
59 87 5.98804259648501E-1
59 88 8.62935864993706E-2
59 92 2.4595728346045828E-1
59 98 2.728859603565659E-1
59 120 1.9020001348926913E-2
59 124 8.70251221593576E-2
59 127 9.166539070976515E-2
59 128 4.429501586802317E-2
59 134 1.318653403488648E-1
59 139 3.2433240894795566E-2
59 147 1.831563888873418E-2
60 54 4.096050060740404E-1
60 56 1.2460025474864979E-1
60 58 4.1111229050718734E-1
60 61 2.8781963988527076E-1
60 62 1.0561721667567757E-1
60 63 3.094914714692618E-2
60 65 3.887254806488391E-1
60 67 1.2878811082142927E-1
60 68 1.5704236497620538E-1
60 70 3.833995255121911E-1
60 72 6.223364530796954E-2
60 79 3.108361709316731E-2
60 80 1.974287296345088E-1
60 81 3.962857112945219E-1
60 82 3.350333567064112E-1
60 83 2.6651785231081054E-1
60 85 1.9149519501466292E-1
60 89 3.7093236514330297E-1
60 90 6.090421702503876E-1
60 91 2.7547560611761746E-1
60 92 1.010180334246398E-2
60 93 2.494667218447572E-1
60 94 3.8166550232586954E-1
60 95 4.233719667884336E-1
60 96 2.1146008784331327E-1
60 97 2.7547560611761773E-1
60 98 1.831563888873418E-2
60 99 2.721587174002748E-1
60 100 3.588706045658091E-1
60 107 2.3880719563755284E-1
61 54 3.692294559570539E-1
61 56 3.866783147101374E-2
61 58 7.659283383646488E-1
61 60 2.8781963988527076E-1
61 62 2.3843020731786735E-2
61 63 1.510552084508224E-1
61 65 1.5554723043087212E-1
61 67 2.1836425170423425E-2
61 68 1.1268598941935976E-1
61 69 1.831563888873418E-2
61 70 3.1890655732397066E-1
61 72 4.040542548731582E-2
61 80 2.8781963988527076E-1
61 81 4.7366604725336064E-1
61 82 5.17192227961477E-1
61 83 1.4245659121715715E-1
61 85 2.9271658108833226E-2
61 88 1.9707816865453115E-2
61 89 7.050901873583623E-2
61 90 2.9206782369141415E-1
61 91 1.1774969466186652E-1
61 93 1.510552084508224E-1
61 94 8.40369970130898E-1
61 95 1.2304094470311124E-1
61 96 5.183410442852942E-2
61 97 6.363582032148703E-2
61 98 1.2698132211420035E-2
61 99 4.9050060471498086E-1
61 100 9.87643751142277E-2
61 107 7.698824246074545E-2
62 52 1.1048245479967789E-1
62 54 4.476257005042101E-2
62 55 2.8565500784550505E-2
62 56 2.579889022095304E-1
62 57 3.923856408515841E-2
62 58 4.628136544863836E-2
62 59 2.6347980814448935E-2
62 60 1.0561721667567757E-1
62 61 2.3843020731786735E-2
62 63 4.586893386782828E-2
62 64 1.1789851882642273E-1
62 65 2.070483062104391E-1
62 66 6.948345122280161E-2
62 67 3.189065573239699E-1
62 68 1.1283618731705676E-1
62 69 2.0145750527577715E-2
62 70 8.777402273667119E-2
62 71 6.822586684086554E-2
62 72 3.5022470091887226E-1
62 74 5.5213282804043445E-2
62 75 1.52775175601715E-1
62 76 8.351252814713189E-2
62 79 4.6831192922221354E-1
62 80 7.212384058431032E-2
62 81 5.3839971099281556E-2
62 82 5.3117342751893656E-2
62 83 2.5089618038443984E-1
62 85 1.7879435517659736E-1
62 86 2.635971381157268E-1
62 88 2.5991128778755333E-2
62 89 5.253565201213857E-1
62 90 1.0509678797035979E-1
62 91 9.071795328941247E-2
62 92 2.3497506847332525E-1
62 93 1.6232061118184804E-1
62 94 4.254509803354039E-2
62 95 2.793297434559065E-1
62 96 4.807565037819406E-1
62 97 6.022743217346416E-1
62 98 3.5541016623477484E-1
62 99 3.30095322188502E-2
62 100 4.7575267845565E-1
62 107 3.31269738870725E-2
62 122 2.4670979143764572E-2
62 127 1.831563888873418E-2
62 139 4.190233217493265E-2
63 54 3.174163424844215E-1
63 55 1.831563888873418E-2
63 56 7.500774272610765E-2
63 58 1.0975289935925621E-1
63 60 3.094914714692618E-2
63 61 1.510552084508224E-1
63 62 4.586893386782828E-2
63 64 2.3040728994270034E-2
63 65 5.873933529724071E-2
63 68 3.739599557911889E-1
63 69 1.7024923909891923E-1
63 70 4.1261269866415773E-1
63 72 2.2130869960979505E-1
63 73 1.715314448140199E-2
63 74 5.229682212785126E-2
63 75 6.578841793231287E-2
63 79 3.893344460152734E-2
63 80 2.469420960951634E-1
63 81 3.279959237191761E-1
63 82 3.350333567064112E-1
63 83 3.279959237191761E-1
63 88 3.174163424844214E-1
63 89 5.229682212785126E-2
63 90 2.4418330992327164E-1
63 91 1.3533528323661256E-1
63 92 2.1578332909732212E-2
63 93 4.55260614037463E-1
63 94 1.3443305136780814E-1
63 95 1.7024923909891904E-1
63 96 7.024699799012464E-2
63 97 9.750331978715027E-2
63 98 9.750331978715027E-2
63 99 7.306262300706663E-2
63 100 1.6475781214830806E-1
64 51 4.854762111853593E-2
64 52 2.635971381157261E-1
64 53 3.759444885185289E-2
64 55 2.992879258153918E-1
64 56 2.418700117395732E-1
64 57 2.178802838231225E-1
64 59 2.459572834604582E-1
64 62 1.1789851882642273E-1
64 63 2.3040728994270034E-2
64 66 1.5463826454925433E-1
64 67 1.3970056501293834E-1
64 68 1.946000511467901E-2
64 69 7.287223191492673E-2
64 71 1.932374343420301E-1
64 72 3.528623638856161E-2
64 73 2.0447663029784294E-1
64 74 6.856702235245873E-1
64 75 2.068507881656015E-1
64 76 2.0004850790864165E-1
64 77 8.309216396235766E-2
64 78 2.2525586270576776E-2
64 79 6.246347280002744E-1
64 83 1.831563888873418E-2
64 84 1.9930813677931275E-1
64 85 6.174081085686265E-2
64 86 1.8655814003237586E-1
64 87 1.2214283961982676E-1
64 88 8.208499862389873E-2
64 89 5.5213282804043404E-2
64 91 4.5350533731266254E-2
64 92 8.548213791906968E-1
64 93 1.3527504402080304E-2
64 95 4.123755960167374E-2
64 96 7.490390184368338E-2
64 97 9.383689315338833E-2
64 98 2.8275968979620225E-1
64 100 4.569738125333739E-2
64 102 5.6134762834133975E-2
64 114 4.31593092614526E-2
64 120 1.0391822955327466E-1
64 122 6.0294726208787175E-2
64 124 1.1123853367110742E-1
64 127 2.3187926284819188E-1
64 128 1.9881418873807383E-1
64 134 1.7808573344493725E-1
64 135 4.489412783991971E-2
64 139 2.4477706843938965E-1
64 143 5.6134762834133975E-2
64 147 3.790291440095847E-2
64 150 8.486727897001753E-2
65 54 1.8838051635118958E-1
65 56 7.32283067634925E-2
65 58 3.109093251698175E-1
65 60 3.887254806488391E-1
65 61 1.5554723043087212E-1
65 62 2.070483062104391E-1
65 63 5.873933529724071E-2
65 67 6.662593136893047E-2
65 68 2.663791402705825E-1
65 70 4.0116365137111665E-1
65 72 2.6637914027058207E-1
65 75 2.8465708743739132E-2
65 79 4.1539837924921344E-2
65 80 5.715287107704413E-1
65 81 3.427115520528552E-1
65 82 3.548815443696305E-1
65 83 5.672647608674565E-1
65 85 5.873933529724079E-2
65 89 4.409174374208601E-1
65 90 3.53677400717613E-1
65 91 9.421228193629169E-2
65 92 1.831563888873418E-2
65 93 3.8872548064883833E-1
65 94 2.9998782816678365E-1
65 95 2.836986999427048E-1
65 96 2.927762959307161E-1
65 97 3.118121578334325E-1
65 98 6.875778212261482E-2
65 99 3.2969442409763317E-1
65 100 4.2724669147384825E-1
65 107 1.8315638888734196E-2
66 51 5.280018654753446E-1
66 52 6.330898921891815E-1
66 53 3.189065573239702E-1
66 55 5.037302936889634E-1
66 57 2.8446562545044807E-1
66 59 6.832104226749485E-1
66 62 6.948345122280161E-2
66 64 1.5463826454925433E-1
66 69 1.6337605961220233E-2
66 71 2.484153830633115E-2
66 72 9.42405463272702E-2
66 73 5.1230072213984554E-2
66 74 1.0975289935925578E-1
66 75 5.647181220077591E-1
66 76 9.266396869510097E-1
66 77 3.7139979186279726E-1
66 78 1.733606881318832E-1
66 79 1.2304094470311112E-1
66 86 9.07179532894124E-2
66 87 6.832104226749482E-1
66 88 4.5697381253337284E-2
66 92 2.0973619297483098E-1
66 98 3.0698623149462334E-1
66 111 3.243324089479561E-2
66 124 6.197945121106562E-2
66 127 8.092069206291473E-2
66 128 5.1230072213984464E-2
66 134 5.7432619267617425E-2
66 139 4.3989270643575606E-2
66 148 1.831563888873418E-2
67 52 1.9408794604496078E-2
67 54 3.467618538935502E-2
67 56 5.647181220077587E-1
67 57 1.831563888873418E-2
67 58 3.9740008602186516E-2
67 60 1.2878811082142927E-1
67 61 2.1836425170423425E-2
67 62 3.189065573239699E-1
67 64 1.3970056501293834E-1
67 65 6.662593136893047E-2
67 68 3.7902914400958436E-2
67 70 4.178333379659282E-2
67 71 1.8293394693891052E-1
67 72 2.5158997761555443E-2
67 74 6.948345122280151E-2
67 79 3.3981121031577577E-1
67 80 1.8835197124565908E-2
67 81 2.8787152447121836E-2
67 82 2.6625143093172373E-2
67 83 5.702887668827256E-2
67 84 1.9516247864934298E-2
67 85 8.166606384980969E-1
67 86 1.9600215407574637E-1
67 89 3.987023103574792E-1
67 90 7.975980228674209E-2
67 91 2.369277586821221E-1
67 92 1.8009231214795252E-1
67 93 3.790291440095854E-2
67 94 3.344030697154158E-2
67 95 2.7932974345590744E-1
67 96 3.4286361485770567E-1
67 97 4.2952710875768907E-1
67 98 5.743261926761714E-2
67 99 1.856826441293189E-2
67 100 2.396510364417752E-1
67 102 3.1220927161231055E-2
67 107 1.457407492241694E-1
67 114 4.4957358995445736E-2
67 120 1.9020001348926913E-2
67 122 1.4735750808299125E-1
67 127 2.515899776155533E-2
67 128 4.1810692337960725E-2
67 139 1.154716586562727E-1
67 143 3.1220927161231055E-2
67 150 3.243324089479555E-2
68 54 2.255165563468571E-1
68 56 1.9468670833150986E-1
68 58 1.414858516049622E-1
68 60 1.5704236497620538E-1
68 61 1.1268598941935976E-1
68 62 1.1283618731705676E-1
68 63 3.739599557911889E-1
68 64 1.946000511467901E-2
68 65 2.663791402705825E-1
68 67 3.7902914400958436E-2
68 69 2.01457505275776E-2
68 70 5.850356612381331E-1
68 72 2.975654101475656E-1
68 74 4.830099924172998E-2
68 75 4.027109906373953E-2
68 79 5.1318859145357165E-2
68 80 3.4543974067088923E-1
68 81 3.77602568154137E-1
68 82 3.7590558675187624E-1
68 83 6.736384553447272E-1
68 85 3.5374213662109855E-2
68 88 5.233970594843217E-2
68 89 3.636751507247891E-1
68 90 3.4733301412342077E-1
68 91 2.932685119265621E-1
68 92 2.7994210004108355E-2
68 93 6.951439283988791E-1
68 94 1.4566855566565862E-1
68 95 4.4414943720362393E-1
68 96 4.2952710875768974E-1
68 97 4.295271087576892E-1
68 98 1.3533528323661234E-1
68 99 9.096683640729128E-2
68 100 5.333531901568123E-1
68 107 2.4632127216140883E-2
69 54 3.467618538935502E-2
69 55 1.118634676144712E-1
69 56 4.526423397858692E-2
69 59 3.567399334725252E-2
69 61 1.831563888873418E-2
69 62 2.0145750527577715E-2
69 63 1.7024923909891923E-1
69 64 7.287223191492673E-2
69 66 1.6337605961220233E-2
69 68 2.01457505275776E-2
69 70 1.831563888873418E-2
69 72 4.3159309261452616E-2
69 73 2.899359512667193E-1
69 74 9.246247606291999E-2
69 75 5.476182757978366E-2
69 76 2.3049413777052392E-2
69 77 2.0145750527577735E-2
69 79 8.015367705512556E-2
69 81 1.6500776706093054E-2
69 82 1.6800763700352654E-2
69 83 1.6651781101095924E-2
69 84 4.3159309261452616E-2
69 88 7.1653131057379E-1
69 90 1.8315638888734196E-2
69 91 2.811565974897202E-2
69 92 4.115226995351133E-2
69 93 4.3159309261452526E-2
69 95 2.9486889922875733E-2
69 98 6.625225915226175E-2
69 100 2.1128279881183272E-2
69 114 3.243324089479551E-2
69 120 3.347606022926841E-1
69 124 8.816268936235726E-2
69 127 7.642628699076819E-2
69 134 3.0924996428568233E-2
69 139 1.6651781101095952E-2
69 147 8.816268936235747E-2
70 54 6.62078510589381E-1
70 56 1.2721767668229814E-1
70 58 3.3128975136465716E-1
70 60 3.833995255121911E-1
70 61 3.1890655732397066E-1
70 62 8.777402273667119E-2
70 63 4.1261269866415773E-1
70 65 4.0116365137111665E-1
70 67 4.178333379659282E-2
70 68 5.850356612381331E-1
70 69 1.831563888873418E-2
70 72 2.002382397335814E-1
70 74 1.6865684457388924E-2
70 79 3.130687597739278E-2
70 80 5.877412191355041E-1
70 81 9.009118822626806E-1
70 82 8.175535703146047E-1
70 83 6.899514676397542E-1
70 85 3.5429651885582676E-2
70 88 3.3998349523555876E-2
70 89 2.564491852285677E-1
70 90 7.808105904298873E-1
70 91 3.1517123796981117E-1
70 93 7.492670673383577E-1
70 94 3.569711422697039E-1
70 95 4.960736239770531E-1
70 96 2.2660744345956374E-1
70 97 2.902207606262124E-1
70 98 5.13509334312794E-2
70 99 2.3408878921118662E-1
70 100 4.760330276982514E-1
70 107 5.040553336275374E-2
71 52 9.478307839833716E-2
71 55 2.839211436381684E-2
71 56 5.18757361551641E-2
71 57 2.9954834600851094E-1
71 62 6.822586684086554E-2
71 64 1.932374343420301E-1
71 66 2.484153830633115E-2
71 67 1.8293394693891052E-1
71 74 4.401223254864934E-2
71 76 2.0079698945770927E-2
71 78 1.831563888873418E-2
71 79 2.1561808196700896E-1
71 84 1.1800995409112348E-1
71 85 9.257401100243498E-2
71 86 4.111122905071877E-1
71 87 2.1361739175007083E-2
71 89 1.831563888873418E-2
71 92 2.1561808196700905E-1
71 96 1.2480827104528103E-2
71 97 1.7339042634428058E-2
71 98 2.4088339415377292E-2
71 102 1.466069621303503E-1
71 107 1.972386557536901E-2
71 111 6.822586684086564E-2
71 114 8.292688870320339E-2
71 115 1.3097001367260377E-1
71 116 1.831563888873418E-2
71 122 2.7898542332269793E-1
71 124 1.0012159686714969E-1
71 127 2.541417711096403E-1
71 128 6.106992389592896E-1
71 134 6.458803982274494E-2
71 137 2.083819367045274E-2
71 139 7.603529065620016E-1
71 143 1.466069621303503E-1
71 147 2.1588026679968866E-2
71 148 3.7340706031090395E-2
71 149 4.146955651386068E-2
71 150 4.905006047149809E-1
72 52 4.369879364633304E-2
72 54 7.459030941219474E-2
72 55 2.856550078455043E-2
72 56 7.099390218676456E-2
72 58 6.277151016385432E-2
72 59 3.992393657592874E-2
72 60 6.223364530796954E-2
72 61 4.040542548731582E-2
72 62 3.5022470091887226E-1
72 63 2.2130869960979505E-1
72 64 3.528623638856161E-2
72 65 2.6637914027058207E-1
72 66 9.42405463272702E-2
72 67 2.5158997761555443E-2
72 68 2.975654101475656E-1
72 69 4.3159309261452616E-2
72 70 2.002382397335814E-1
72 74 3.767763771453873E-2
72 75 3.161573799636857E-1
72 76 1.2064022270005978E-1
72 79 1.3097001367260383E-1
72 80 2.2080186667089338E-1
72 81 1.2406414835017367E-1
72 82 1.3340195516367803E-1
72 83 5.52892001278803E-1
72 86 3.0011553958742433E-2
72 88 1.0539922456186405E-1
72 89 2.5175211535232994E-1
72 90 1.2631638626303052E-1
72 91 4.783488949419849E-2
72 92 6.798116549651581E-2
72 93 4.2806302118317663E-1
72 94 6.527820993986647E-2
72 95 1.7567309343087484E-1
72 96 2.4452182647249956E-1
72 97 3.063280809089961E-1
72 98 4.861143107617549E-1
72 99 5.405202776263941E-2
72 100 3.78541877541402E-1
73 51 3.136116691320894E-2
73 52 2.1794732724541896E-2
73 53 3.932263167828475E-2
73 55 2.473810553772498E-1
73 56 1.6131455957262494E-2
73 57 1.2513435386733836E-2
73 59 1.388965352099199E-1
73 63 1.715314448140199E-2
73 64 2.0447663029784294E-1
73 66 5.1230072213984554E-2
73 69 2.899359512667193E-1
73 74 1.9189754852670884E-1
73 75 3.16016654853529E-2
73 76 6.33791275843726E-2
73 77 1.7271757015758313E-1
73 78 5.389945455805886E-2
73 79 7.403816294987997E-2
73 84 3.18906557323971E-1
73 87 5.659725055074384E-2
73 88 1.92049908620754E-1
73 92 8.406285583693726E-2
73 98 2.6808195953778882E-2
73 102 7.32898366888846E-2
73 109 1.9723865575369134E-2
73 112 9.5444882070419E-2
73 114 7.961026438395072E-2
73 115 2.0208755169119283E-2
73 120 4.882239169901485E-1
73 122 2.924885376431175E-2
73 124 4.380611241901165E-1
73 127 2.8087620176428174E-1
73 128 8.957326253887989E-2
73 134 4.3806112419011783E-1
73 135 1.5008526333580205E-1
73 139 6.119738655956223E-2
73 143 7.32898366888846E-2
73 147 3.5689879303155103E-1
73 148 1.831563888873418E-2
73 150 3.2433240894795656E-2
74 51 3.354196346873744E-2
74 52 1.1048245479967739E-1
74 53 2.095938965795085E-2
74 55 1.9189754852670837E-1
74 56 2.579889022095311E-1
74 57 5.743261926761735E-2
74 59 2.3350647909091315E-1
74 62 5.5213282804043445E-2
74 63 5.229682212785126E-2
74 64 6.856702235245873E-1
74 66 1.0975289935925578E-1
74 67 6.948345122280151E-2
74 68 4.830099924172998E-2
74 69 9.246247606291999E-2
74 70 1.6865684457388924E-2
74 71 4.401223254864934E-2
74 72 3.767763771453873E-2
74 73 1.9189754852670884E-1
74 75 1.9468670833150958E-1
74 76 1.449981228135776E-1
74 77 7.178021905848497E-2
74 79 3.223635053061598E-1
74 83 2.587906372240617E-2
74 84 1.1152032841273737E-1
74 85 3.5374213662109966E-2
74 86 5.991581323378154E-2
74 87 6.271022482807137E-2
74 88 1.4227407158651356E-1
74 89 4.809953551255482E-2
74 90 1.267889990580526E-2
74 91 7.32898366888848E-2
74 92 5.069994891329046E-1
74 93 2.3340254280134747E-2
74 95 4.9070720120151845E-2
74 96 7.924497559984363E-2
74 97 8.86964678943187E-2
74 98 2.635971381157257E-1
74 100 4.8384709791404724E-2
74 102 1.831563888873428E-2
74 114 1.8315638888734196E-2
74 120 1.2549721672914851E-1
74 122 1.9111848259884396E-2
74 124 3.349944474400372E-2
74 127 5.6816725799464216E-2
74 128 3.612555689170117E-2
74 134 1.1206466084736114E-1
74 135 4.646920158923974E-2
74 139 4.4551426244489545E-2
74 143 1.831563888873428E-2
74 150 1.831563888873418E-2
75 51 1.2442730695944844E-1
75 52 3.7324984927646443E-1
75 53 4.499861373813179E-2
75 55 4.0289032152913373E-1
75 56 3.790291440095854E-2
75 57 7.843739051713067E-2
75 59 5.089911369145992E-1
75 62 1.52775175601715E-1
75 63 6.578841793231287E-2
75 64 2.068507881656015E-1
75 65 2.8465708743739132E-2
75 66 5.647181220077591E-1
75 68 4.027109906373953E-2
75 69 5.476182757978366E-2
75 72 3.161573799636857E-1
75 73 3.16016654853529E-2
75 74 1.9468670833150958E-1
75 76 7.248148178130653E-1
75 77 1.2275546700138912E-1
75 79 2.3350647909091327E-1
75 80 2.5621186699200042E-2
75 83 5.9915813233781624E-2
75 86 6.948345122280127E-2
75 87 1.840942006533039E-1
75 88 1.4956861922263484E-1
75 89 4.1902332174932506E-2
75 92 2.975654101475651E-1
75 93 3.5673993347252395E-2
75 95 1.831563888873418E-2
75 96 5.341960504130919E-2
75 97 5.9790923621446744E-2
75 98 7.847231940537558E-1
75 100 4.5697381253337326E-2
75 124 1.831563888873418E-2
75 127 3.5673993347252485E-2
75 139 1.7238568331591365E-2
76 51 3.772716039785733E-1
76 52 6.314287848661002E-1
76 53 1.9829934865824636E-1
76 55 6.314287848661002E-1
76 56 1.831563888873418E-2
76 57 2.4043936150986375E-1
76 59 7.589176018322896E-1
76 62 8.351252814713189E-2
76 64 2.0004850790864165E-1
76 66 9.266396869510097E-1
76 69 2.3049413777052392E-2
76 71 2.0079698945770927E-2
76 72 1.2064022270005978E-1
76 73 6.33791275843726E-2
76 74 1.449981228135776E-1
76 75 7.248148178130653E-1
76 77 3.317252291217299E-1
76 78 1.2064022270006015E-1
76 79 1.6644282061459487E-1
76 86 7.275267126594442E-2
76 87 5.75955926370872E-1
76 88 6.63611371214542E-2
76 92 2.6359713811572677E-1
76 97 1.831563888873418E-2
76 98 4.1746138984085923E-1
76 124 6.636113712145422E-2
76 127 9.155598849604304E-2
76 128 4.809953551255464E-2
76 134 5.521328280404355E-2
76 139 4.38738511739165E-2
77 51 4.936727883891299E-1
77 52 1.2889199313951047E-1
77 53 5.831412488201811E-1
77 55 5.051363787331283E-1
77 57 6.836277488896467E-2
77 59 6.139726608994062E-1
77 64 8.309216396235766E-2
77 66 3.7139979186279726E-1
77 69 2.0145750527577735E-2
77 73 1.7271757015758313E-1
77 74 7.178021905848497E-2
77 75 1.2275546700138912E-1
77 76 3.317252291217299E-1
77 78 4.15593034298679E-1
77 79 2.5770197629651045E-2
77 84 2.2261911867824183E-2
77 87 5.569020798738941E-1
77 88 3.807137152161531E-2
77 92 6.200825207077546E-2
77 98 4.627419893185975E-2
77 111 3.2888436855688354E-2
77 112 3.807137152161531E-2
77 117 2.2261911867824072E-2
77 120 1.9020001348926945E-2
77 124 1.2275546700138873E-1
77 127 7.913615999649332E-2
77 128 3.288843685568828E-2
77 130 1.951624786493416E-2
77 134 1.8135169383187022E-1
77 135 1.7694830244964634E-2
77 139 1.66131458954756E-2
77 142 1.7590363761946802E-2
77 147 4.6274198931859675E-2
77 148 4.197287480504469E-2
78 51 3.527425505371426E-1
78 52 8.761679210658661E-2
78 53 6.379864703263796E-1
78 55 1.6901331540606565E-1
78 57 1.0836802322189595E-1
78 59 1.7097571224301925E-1
78 64 2.2525586270576776E-2
78 66 1.733606881318832E-1
78 71 1.831563888873418E-2
78 73 5.389945455805886E-2
78 76 1.2064022270006015E-1
78 77 4.15593034298679E-1
78 84 2.083819367045264E-2
78 87 4.8775174689448275E-1
78 104 4.173268733758958E-2
78 105 2.606768580383567E-2
78 109 3.567399334725247E-2
78 111 2.88985342443404E-1
78 112 1.3970056501293876E-1
78 113 1.1924414147878493E-1
78 116 4.5350533731266074E-2
78 117 1.39846048535348E-1
78 121 1.3225858408238696E-2
78 124 1.5535088202167766E-1
78 125 4.728574553722233E-2
78 126 1.8883520870714564E-2
78 127 9.586372893485963E-2
78 128 7.275267126594406E-2
78 129 1.831563888873418E-2
78 130 5.743261926761735E-2
78 131 1.4073339966629668E-2
78 133 1.5467502259060935E-2
78 134 1.783267154561527E-1
78 135 3.5266295029166866E-2
78 137 2.2955595756409194E-2
78 138 1.1283618731705682E-1
78 139 2.4133896544913207E-2
78 140 1.8958432847222328E-1
78 141 4.763212799202855E-2
78 142 1.8323795010446808E-1
78 145 2.2755560714670546E-2
78 146 1.5560024132937256E-1
78 147 6.539740322986003E-2
78 148 3.096186831166032E-1
78 149 1.831563888873418E-2
79 51 2.1667696391784737E-2
79 52 2.3474032816471121E-1
79 54 2.171423518842884E-2
79 55 1.8009231214795243E-1
79 56 4.0526025778326935E-1
79 57 1.4885808080333332E-1
79 58 1.831563888873418E-2
79 59 1.1885272826940918E-1
79 60 3.108361709316731E-2
79 62 4.6831192922221354E-1
79 63 3.893344460152734E-2
79 64 6.246347280002744E-1
79 65 4.1539837924921344E-2
79 66 1.2304094470311112E-1
79 67 3.3981121031577577E-1
79 68 5.1318859145357165E-2
79 69 8.015367705512556E-2
79 70 3.130687597739278E-2
79 71 2.1561808196700896E-1
79 72 1.3097001367260383E-1
79 73 7.403816294987997E-2
79 74 3.223635053061598E-1
79 75 2.3350647909091327E-1
79 76 1.6644282061459487E-1
79 77 2.5770197629651045E-2
79 80 1.831563888873418E-2
79 81 1.831563888873418E-2
79 82 1.831563888873418E-2
79 83 7.300086777195947E-2
79 84 7.099390218676466E-2
79 85 1.5359780918035965E-1
79 86 2.76941048350494E-1
79 87 5.3767992539020905E-2
79 88 8.208499862389883E-2
79 89 1.8247366362315237E-1
79 90 4.0019405516474024E-2
79 91 9.568758984080333E-2
79 92 7.062216866978067E-1
79 93 5.793203021494527E-2
79 94 1.6902942521203966E-2
79 95 1.476303922793068E-1
79 96 2.0649795108591248E-1
79 97 2.8954729723478634E-1
79 98 4.308026151974346E-1
79 100 1.8009231214795218E-1
79 102 4.0762203978366426E-2
79 107 3.076180421498307E-2
79 114 4.683031685241959E-2
79 115 1.831563888873418E-2
79 120 6.127074272286638E-2
79 122 8.474698518582044E-2
79 124 5.077291901164865E-2
79 127 1.7046406460872834E-1
79 128 1.2531520484413688E-1
79 134 2.3398062929951117E-2
79 139 2.4477706843938976E-1
79 143 4.0762203978366426E-2
79 147 1.831563888873418E-2
79 150 4.357231386892159E-2
80 54 2.685588214606072E-1
80 56 4.2390153993757396E-2
80 58 4.008028115921093E-1
80 60 1.974287296345088E-1
80 61 2.8781963988527076E-1
80 62 7.212384058431032E-2
80 63 2.469420960951634E-1
80 65 5.715287107704413E-1
80 67 1.8835197124565908E-2
80 68 3.4543974067088923E-1
80 70 5.877412191355041E-1
80 72 2.2080186667089338E-1
80 75 2.5621186699200042E-2
80 79 1.831563888873418E-2
80 81 6.044136264042159E-1
80 82 7.148630195691136E-1
80 83 5.404329964865342E-1
80 85 1.5058627506286212E-2
80 88 2.29090379443719E-2
80 89 1.7652977247331494E-1
80 90 3.359109812391622E-1
80 91 8.295056180858168E-2
80 93 4.320729500400364E-1
80 94 4.362972778130201E-1
80 95 1.8668703415629948E-1
80 96 1.451380486148481E-1
80 97 1.5348907699541006E-1
80 98 5.0136449874992065E-2
80 99 4.218887190602577E-1
80 100 2.5394708241200514E-1
81 54 7.312181197855748E-1
81 56 7.893500909456268E-2
81 58 4.550711096480725E-1
81 60 3.962857112945219E-1
81 61 4.7366604725336064E-1
81 62 5.3839971099281556E-2
81 63 3.279959237191761E-1
81 65 3.427115520528552E-1
81 67 2.8787152447121836E-2
81 68 3.77602568154137E-1
81 69 1.6500776706093054E-2
81 70 9.009118822626806E-1
81 72 1.2406414835017367E-1
81 79 1.831563888873418E-2
81 80 6.044136264042159E-1
81 82 9.440709499321095E-1
81 83 4.987490707622945E-1
81 85 2.8787152447121836E-2
81 88 2.593468769611923E-2
81 89 1.7567309343087456E-1
81 90 7.312181197855748E-1
81 91 2.4024718299156625E-1
81 93 5.346799387027514E-1
81 94 4.9874907076229447E-1
81 95 3.5222740999271085E-1
81 96 1.3770952608437198E-1
81 97 1.8189097204884597E-1
81 98 2.78030738111289E-2
81 99 3.2969442409763317E-1
81 100 3.1732585892104254E-1
81 107 4.917619180472731E-2
82 54 5.788206602276833E-1
82 56 6.882012978136338E-2
82 58 5.166872807446268E-1
82 60 3.350333567064112E-1
82 61 5.17192227961477E-1
82 62 5.3117342751893656E-2
82 63 3.350333567064112E-1
82 65 3.548815443696305E-1
82 67 2.6625143093172373E-2
82 68 3.7590558675187624E-1
82 69 1.6800763700352654E-2
82 70 8.175535703146047E-1
82 72 1.3340195516367803E-1
82 79 1.831563888873418E-2
82 80 7.148630195691136E-1
82 81 9.440709499321095E-1
82 83 4.732168973409991E-1
82 85 2.6625143093172373E-2
82 88 2.902585352385997E-2
82 89 1.6793594335017875E-1
82 90 5.788206602276833E-1
82 91 1.939242287271016E-1
82 93 4.7321689734099925E-1
82 94 5.701402420687502E-1
82 95 2.819044626539375E-1
82 96 1.3729663007008966E-1
82 97 1.6317212719448226E-1
82 98 3.256684828974164E-2
82 99 3.9939346539909926E-1
82 100 2.7390771694981314E-1
82 107 2.4632127216140883E-2
83 54 3.1697379624387556E-1
83 56 1.4574074922416919E-1
83 58 1.91897548526709E-1
83 60 2.6651785231081054E-1
83 61 1.4245659121715715E-1
83 62 2.5089618038443984E-1
83 63 3.279959237191761E-1
83 64 1.831563888873418E-2
83 65 5.672647608674565E-1
83 67 5.702887668827256E-2
83 68 6.736384553447272E-1
83 69 1.6651781101095924E-2
83 70 6.899514676397542E-1
83 72 5.52892001278803E-1
83 74 2.587906372240617E-2
83 75 5.9915813233781624E-2
83 79 7.300086777195947E-2
83 80 5.404329964865342E-1
83 81 4.987490707622945E-1
83 82 4.732168973409991E-1
83 85 3.153080976286114E-2
83 88 3.6565797306710494E-2
83 89 4.371030904024773E-1
83 90 5.017490561548968E-1
83 91 1.7756916895356856E-1
83 92 3.00115539587427E-2
83 93 9.059551911095094E-1
83 94 2.0081902079649325E-1
83 95 5.008953786814563E-1
83 96 3.913035783873623E-1
83 97 4.767606286689699E-1
83 98 1.6086971039448725E-1
83 99 1.5734489989373343E-1
83 100 7.077396263326352E-1
83 107 2.718912310218598E-2
84 55 3.682466913056056E-2
84 56 2.8771007101248462E-2
84 57 2.0795557994967427E-2
84 59 2.1404462639130192E-2
84 64 1.9930813677931275E-1
84 67 1.9516247864934298E-2
84 69 4.3159309261452616E-2
84 71 1.1800995409112348E-1
84 73 3.18906557323971E-1
84 74 1.1152032841273737E-1
84 77 2.2261911867824183E-2
84 78 2.083819367045264E-2
84 79 7.099390218676466E-2
84 92 8.077166688948714E-2
84 102 4.9990693227598243E-1
84 104 8.453511783334192E-2
84 107 1.831563888873418E-2
84 109 1.972386557536902E-2
84 112 1.586158811769975E-1
84 114 2.9390761494152196E-1
84 115 1.0411126645674032E-1
84 117 3.068838705604296E-2
84 120 3.610033920156004E-1
84 122 2.0711769237138927E-1
84 124 3.3394659515068814E-1
84 127 3.1308194343912854E-1
84 128 3.130819434391293E-1
84 134 4.918028179459459E-1
84 135 3.433635374154085E-1
84 138 4.2787248564730686E-2
84 139 2.418700117395731E-1
84 143 4.9990693227598243E-1
84 147 2.480960290287707E-1
84 148 3.724183396351997E-2
84 150 4.052602577832698E-1
85 54 3.467618538935502E-2
85 56 4.2284081541000434E-1
85 58 5.389945455805879E-2
85 60 1.9149519501466292E-1
85 61 2.9271658108833226E-2
85 62 1.7879435517659736E-1
85 64 6.174081085686265E-2
85 65 5.873933529724079E-2
85 67 8.166606384980969E-1
85 68 3.5374213662109855E-2
85 70 3.5429651885582676E-2
85 71 9.257401100243498E-2
85 74 3.5374213662109966E-2
85 79 1.5359780918035965E-1
85 80 1.5058627506286212E-2
85 81 2.8787152447121836E-2
85 82 2.6625143093172373E-2
85 83 3.153080976286114E-2
85 86 7.300086777195947E-2
85 89 3.317252291217302E-1
85 90 7.975980228674209E-2
85 91 2.548478426022349E-1
85 92 7.560155093357868E-2
85 93 3.537421366210992E-2
85 94 4.369879364633306E-2
85 95 2.6808379050389397E-1
85 96 2.548478426022349E-1
85 97 3.120608862341162E-1
85 98 2.4817591771681923E-2
85 99 2.3118472916789923E-2
85 100 1.8808033831878795E-1
85 102 2.0267550342246914E-2
85 107 2.6359713811572655E-1
85 114 3.243324089479551E-2
85 122 1.2429389670744763E-1
85 128 2.3592286985006178E-2
85 139 6.494742287901352E-2
85 143 2.0267550342246914E-2
85 150 2.8888727915666712E-2
86 51 2.3174427241061266E-2
86 52 3.5450350813975695E-1
86 55 4.4551426244489586E-2
86 56 6.948345122280139E-2
86 57 5.008953786814566E-1
86 59 3.001155395874254E-2
86 62 2.635971381157268E-1
86 64 1.8655814003237586E-1
86 66 9.07179532894124E-2
86 67 1.9600215407574637E-1
86 71 4.111122905071877E-1
86 72 3.0011553958742433E-2
86 74 5.991581323378154E-2
86 75 6.948345122280127E-2
86 76 7.275267126594442E-2
86 79 2.76941048350494E-1
86 85 7.300086777195947E-2
86 87 4.455142624448953E-2
86 89 7.275267126594445E-2
86 92 3.3742238918428846E-1
86 96 8.465798862252986E-2
86 97 7.669634426147076E-2
86 98 1.2567273728339484E-1
86 100 3.15308097628609E-2
86 111 1.831563888873418E-2
86 122 2.8030331560395513E-2
86 124 2.1240365984422103E-2
86 127 7.300086777195924E-2
86 128 1.6086971039448691E-1
86 134 1.7433132511729448E-2
86 139 2.3880719563755295E-1
86 150 5.9915813233781805E-2
87 51 6.909084872941549E-1
87 52 4.8775174689448253E-1
87 53 6.979899589387872E-1
87 55 4.8775174689448164E-1
87 57 3.406420441574407E-1
87 59 5.98804259648501E-1
87 64 1.2214283961982676E-1
87 66 6.832104226749482E-1
87 71 2.1361739175007083E-2
87 73 5.659725055074384E-2
87 74 6.271022482807137E-2
87 75 1.840942006533039E-1
87 76 5.75955926370872E-1
87 77 5.569020798738941E-1
87 78 4.8775174689448275E-1
87 79 5.3767992539020905E-2
87 86 4.455142624448953E-2
87 92 1.3533528323661204E-1
87 98 8.103934408281996E-2
87 111 9.451711413002743E-2
87 112 1.9279403121296352E-2
87 117 1.831563888873418E-2
87 124 9.949058049485823E-2
87 127 1.0472574938742502E-1
87 128 7.698824246074504E-2
87 134 1.2214283961982725E-1
87 138 1.4918873270394881E-2
87 139 4.6100887528345895E-2
87 140 1.831563888873418E-2
87 142 3.3576146358487546E-2
87 147 1.9279403121296272E-2
87 148 5.957538339522333E-2
88 54 3.3231557774730386E-2
88 55 1.5723716631362777E-1
88 56 4.5049202393557905E-2
88 58 1.5726926808168583E-2
88 59 8.62935864993706E-2
88 61 1.9707816865453115E-2
88 62 2.5991128778755333E-2
88 63 3.174163424844214E-1
88 64 8.208499862389873E-2
88 66 4.5697381253337284E-2
88 68 5.233970594843217E-2
88 69 7.1653131057379E-1
88 70 3.3998349523555876E-2
88 72 1.0539922456186405E-1
88 73 1.92049908620754E-1
88 74 1.4227407158651356E-1
88 75 1.4956861922263484E-1
88 76 6.63611371214542E-2
88 77 3.807137152161531E-2
88 79 8.208499862389883E-2
88 80 2.29090379443719E-2
88 81 2.593468769611923E-2
88 82 2.902585352385997E-2
88 83 3.6565797306710494E-2
88 90 2.102445561946143E-2
88 91 2.4723526470339388E-2
88 92 5.502322005640718E-2
88 93 7.808166600115296E-2
88 94 1.831563888873418E-2
88 95 3.174563637806784E-2
88 97 2.237077185616563E-2
88 98 1.4956861922263492E-1
88 100 3.0197383422318487E-2
88 120 1.515571567613046E-1
88 124 3.6883167401239966E-2
88 127 3.508435410084509E-2
88 134 2.0241911445804506E-2
88 147 2.237077185616564E-2
89 52 1.749260582732064E-2
89 54 1.1415332638504555E-1
89 56 3.807861904186882E-1
89 58 1.3447873367942234E-1
89 60 3.7093236514330297E-1
89 61 7.050901873583623E-2
89 62 5.253565201213857E-1
89 63 5.229682212785126E-2
89 64 5.5213282804043404E-2
89 65 4.409174374208601E-1
89 67 3.987023103574792E-1
89 68 3.636751507247891E-1
89 70 2.564491852285677E-1
89 71 1.831563888873418E-2
89 72 2.5175211535232994E-1
89 74 4.809953551255482E-2
89 75 4.1902332174932506E-2
89 79 1.8247366362315237E-1
89 80 1.7652977247331494E-1
89 81 1.7567309343087456E-1
89 82 1.6793594335017875E-1
89 83 4.371030904024773E-1
89 85 3.317252291217302E-1
89 86 7.275267126594445E-2
89 90 2.8898534244340485E-1
89 91 2.889853424434044E-1
89 92 9.58637289348601E-2
89 93 3.636751507247893E-1
89 94 1.2078872008973099E-1
89 95 6.314287848661E-1
89 96 8.71158769589268E-1
89 97 8.71158769589268E-1
89 98 1.5182033387215396E-1
89 99 9.096683640729128E-2
89 100 7.946249334535753E-1
89 107 7.300086777195951E-2
90 54 8.43485332538642E-1
90 56 1.7427401200786174E-1
90 58 2.9928792581539265E-1
90 60 6.090421702503876E-1
90 61 2.9206782369141415E-1
90 62 1.0509678797035979E-1
90 63 2.4418330992327164E-1
90 65 3.53677400717613E-1
90 67 7.975980228674209E-2
90 68 3.4733301412342077E-1
90 69 1.8315638888734196E-2
90 70 7.808105904298873E-1
90 72 1.2631638626303052E-1
90 74 1.267889990580526E-2
90 79 4.0019405516474024E-2
90 80 3.359109812391622E-1
90 81 7.312181197855748E-1
90 82 5.788206602276833E-1
90 83 5.017490561548968E-1
90 85 7.975980228674209E-2
90 88 2.102445561946143E-2
90 89 2.8898534244340485E-1
90 91 4.371030904024764E-1
90 93 6.030548488527301E-1
90 94 3.1227233645174046E-1
90 95 6.611377242318552E-1
90 96 2.0946085833376235E-1
90 97 3.317252291217299E-1
90 98 3.32966379160555E-2
90 99 1.9323743434203E-1
90 100 5.25356520121387E-1
90 107 1.4938408054251512E-1
91 54 3.30753141234874E-1
91 56 5.866462195100323E-1
91 58 1.2304094470311112E-1
91 60 2.7547560611761746E-1
91 61 1.1774969466186652E-1
91 62 9.071795328941247E-2
91 63 1.3533528323661256E-1
91 64 4.5350533731266254E-2
91 65 9.421228193629169E-2
91 67 2.369277586821221E-1
91 68 2.932685119265621E-1
91 69 2.811565974897202E-2
91 70 3.1517123796981117E-1
91 72 4.783488949419849E-2
91 74 7.32898366888848E-2
91 79 9.568758984080333E-2
91 80 8.295056180858168E-2
91 81 2.4024718299156625E-1
91 82 1.939242287271016E-1
91 83 1.7756916895356856E-1
91 85 2.548478426022349E-1
91 88 2.4723526470339388E-2
91 89 2.889853424434044E-1
91 90 4.371030904024764E-1
91 92 4.076220397836644E-2
91 93 2.6359713811572677E-1
91 94 1.1918357815432633E-1
91 95 6.884357160212701E-1
91 96 2.7803730045319425E-1
91 97 3.8289288597511206E-1
91 98 4.076220397836619E-2
91 99 5.3316637445923666E-2
91 100 3.828928859751114E-1
91 107 2.1107208779109032E-1
91 120 3.895753707885377E-2
91 122 1.831563888873422E-2
92 51 5.553419607238674E-2
92 52 4.191337416993218E-1
92 53 3.4362599948178606E-2
92 55 2.635971381157262E-1
92 56 2.4187001173957334E-1
92 57 3.1890655732397033E-1
92 59 2.4595728346045828E-1
92 60 1.010180334246398E-2
92 62 2.3497506847332525E-1
92 63 2.1578332909732212E-2
92 64 8.548213791906968E-1
92 65 1.831563888873418E-2
92 66 2.0973619297483098E-1
92 67 1.8009231214795252E-1
92 68 2.7994210004108355E-2
92 69 4.115226995351133E-2
92 71 2.1561808196700905E-1
92 72 6.798116549651581E-2
92 73 8.406285583693726E-2
92 74 5.069994891329046E-1
92 75 2.975654101475651E-1
92 76 2.6359713811572677E-1
92 77 6.200825207077546E-2
92 79 7.062216866978067E-1
92 83 3.00115539587427E-2
92 84 8.077166688948714E-2
92 85 7.560155093357868E-2
92 86 3.3742238918428846E-1
92 87 1.3533528323661204E-1
92 88 5.502322005640718E-2
92 89 9.58637289348601E-2
92 91 4.076220397836644E-2
92 93 1.9460005114679158E-2
92 95 5.1999470708748455E-2
92 96 1.315762149241332E-1
92 97 1.4726921718804076E-1
92 98 4.30802615197435E-1
92 100 7.218150505502331E-2
92 102 2.660471916620947E-2
92 114 2.246226772829289E-2
92 120 4.5304920927739474E-2
92 122 4.2897738493249245E-2
92 124 5.0772919011648425E-2
92 127 1.46156557071542E-1
92 128 1.461565570715418E-1
92 134 6.231767384583902E-2
92 135 1.831563888873418E-2
92 139 2.1107208779108974E-1
92 143 2.660471916620947E-2
92 150 4.978706836786383E-2
93 54 4.4552111442639214E-1
93 56 1.5277517560171489E-1
93 58 1.733606881318831E-1
93 60 2.494667218447572E-1
93 61 1.510552084508224E-1
93 62 1.6232061118184804E-1
93 63 4.55260614037463E-1
93 64 1.3527504402080304E-2
93 65 3.8872548064883833E-1
93 67 3.790291440095854E-2
93 68 6.951439283988791E-1
93 69 4.3159309261452526E-2
93 70 7.492670673383577E-1
93 72 4.2806302118317663E-1
93 74 2.3340254280134747E-2
93 75 3.5673993347252395E-2
93 79 5.793203021494527E-2
93 80 4.320729500400364E-1
93 81 5.346799387027514E-1
93 82 4.7321689734099925E-1
93 83 9.059551911095094E-1
93 85 3.537421366210992E-2
93 88 7.808166600115296E-2
93 89 3.636751507247893E-1
93 90 6.030548488527301E-1
93 91 2.6359713811572677E-1
93 92 1.9460005114679158E-2
93 94 1.8532972757917196E-1
93 95 5.600606794694879E-1
93 96 3.0632808090899605E-1
93 97 4.2952710875768935E-1
93 98 1.1988622377030095E-1
93 99 1.2637606799414916E-1
93 100 6.703200460356402E-1
93 107 3.841684440233284E-2
94 54 3.2943774094742156E-1
94 56 4.79887199055682E-2
94 58 9.749229610665266E-1
94 60 3.8166550232586954E-1
94 61 8.40369970130898E-1
94 62 4.254509803354039E-2
94 63 1.3443305136780814E-1
94 65 2.9998782816678365E-1
94 67 3.344030697154158E-2
94 68 1.4566855566565862E-1
94 70 3.569711422697039E-1
94 72 6.527820993986647E-2
94 79 1.6902942521203966E-2
94 80 4.362972778130201E-1
94 81 4.9874907076229447E-1
94 82 5.701402420687502E-1
94 83 2.0081902079649325E-1
94 85 4.369879364633306E-2
94 88 1.831563888873418E-2
94 89 1.2078872008973099E-1
94 90 3.1227233645174046E-1
94 91 1.1918357815432633E-1
94 93 1.8532972757917196E-1
94 95 1.4961865053818205E-1
94 96 8.64524666037462E-2
94 97 9.621816404032912E-2
94 98 2.0937347860530923E-2
94 99 8.181832902076632E-1
94 100 1.3993808783342682E-1
94 107 7.073396357242125E-2
95 54 4.091730851937947E-1
95 56 5.285165498410691E-1
95 58 1.526870191266071E-1
95 60 4.233719667884336E-1
95 61 1.2304094470311124E-1
95 62 2.793297434559065E-1
95 63 1.7024923909891904E-1
95 64 4.123755960167374E-2
95 65 2.836986999427048E-1
95 67 2.7932974345590744E-1
95 68 4.4414943720362393E-1
95 69 2.9486889922875733E-2
95 70 4.960736239770531E-1
95 72 1.7567309343087484E-1
95 74 4.9070720120151845E-2
95 75 1.831563888873418E-2
95 79 1.476303922793068E-1
95 80 1.8668703415629948E-1
95 81 3.5222740999271085E-1
95 82 2.819044626539375E-1
95 83 5.008953786814563E-1
95 85 2.6808379050389397E-1
95 88 3.174563637806784E-2
95 89 6.314287848661E-1
95 90 6.611377242318552E-1
95 91 6.884357160212701E-1
95 92 5.1999470708748455E-2
95 93 5.600606794694879E-1
95 94 1.4961865053818205E-1
95 96 5.380959925838383E-1
95 97 7.545074393532291E-1
95 98 9.284613723999352E-2
95 99 8.850842495685939E-2
95 100 8.424604416167707E-1
95 107 1.457407492241694E-1
95 120 1.635523012991252E-2
95 122 1.4805360653922926E-2
96 52 1.831563888873418E-2
96 54 8.474698518582044E-2
96 56 4.544204562802079E-1
96 58 9.544488207041862E-2
96 60 2.1146008784331327E-1
96 61 5.183410442852942E-2
96 62 4.807565037819406E-1
96 63 7.024699799012464E-2
96 64 7.490390184368338E-2
96 65 2.927762959307161E-1
96 67 3.4286361485770567E-1
96 68 4.2952710875768974E-1
96 70 2.2660744345956374E-1
96 71 1.2480827104528103E-2
96 72 2.4452182647249956E-1
96 74 7.924497559984363E-2
96 75 5.341960504130919E-2
96 79 2.0649795108591248E-1
96 80 1.451380486148481E-1
96 81 1.3770952608437198E-1
96 82 1.3729663007008966E-1
96 83 3.913035783873623E-1
96 85 2.548478426022349E-1
96 86 8.465798862252986E-2
96 89 8.71158769589268E-1
96 90 2.0946085833376235E-1
96 91 2.7803730045319425E-1
96 92 1.315762149241332E-1
96 93 3.0632808090899605E-1
96 94 8.64524666037462E-2
96 95 5.380959925838383E-1
96 97 8.934400374799968E-1
96 98 2.064979510859124E-1
96 99 5.9491739487042186E-2
96 100 7.131751981731269E-1
96 107 4.7976832682466934E-2
97 54 1.537633686460744E-1
97 56 5.692814760393669E-1
97 58 1.030010730324619E-1
97 60 2.7547560611761773E-1
97 61 6.363582032148703E-2
97 62 6.022743217346416E-1
97 63 9.750331978715027E-2
97 64 9.383689315338833E-2
97 65 3.118121578334325E-1
97 67 4.2952710875768907E-1
97 68 4.295271087576892E-1
97 70 2.902207606262124E-1
97 71 1.7339042634428058E-2
97 72 3.063280809089961E-1
97 74 8.86964678943187E-2
97 75 5.9790923621446744E-2
97 76 1.831563888873418E-2
97 79 2.8954729723478634E-1
97 80 1.5348907699541006E-1
97 81 1.8189097204884597E-1
97 82 1.6317212719448226E-1
97 83 4.767606286689699E-1
97 85 3.120608862341162E-1
97 86 7.669634426147076E-2
97 88 2.237077185616563E-2
97 89 8.71158769589268E-1
97 90 3.317252291217299E-1
97 91 3.8289288597511206E-1
97 92 1.4726921718804076E-1
97 93 4.2952710875768935E-1
97 94 9.621816404032912E-2
97 95 7.545074393532291E-1
97 96 8.934400374799968E-1
97 98 2.3112681592863504E-1
97 99 6.458803982274486E-2
97 100 8.934400374799962E-1
97 107 7.482579559232441E-2
97 139 1.831563888873418E-2
98 51 4.854762111853604E-2
98 52 2.9600133801485823E-1
98 54 1.831563888873418E-2
98 55 2.3216256062952756E-1
98 56 1.4435440301720143E-1
98 57 6.948345122280151E-2
98 58 2.1330462842128355E-2
98 59 2.728859603565659E-1
98 60 1.831563888873418E-2
98 61 1.2698132211420035E-2
98 62 3.5541016623477484E-1
98 63 9.750331978715027E-2
98 64 2.8275968979620225E-1
98 65 6.875778212261482E-2
98 66 3.0698623149462334E-1
98 67 5.743261926761714E-2
98 68 1.3533528323661234E-1
98 69 6.625225915226175E-2
98 70 5.13509334312794E-2
98 71 2.4088339415377292E-2
98 72 4.861143107617549E-1
98 73 2.6808195953778882E-2
98 74 2.635971381157257E-1
98 75 7.847231940537558E-1
98 76 4.1746138984085923E-1
98 77 4.627419893185975E-2
98 79 4.308026151974346E-1
98 80 5.0136449874992065E-2
98 81 2.78030738111289E-2
98 82 3.256684828974164E-2
98 83 1.6086971039448725E-1
98 85 2.4817591771681923E-2
98 86 1.2567273728339484E-1
98 87 8.103934408281996E-2
98 88 1.4956861922263492E-1
98 89 1.5182033387215396E-1
98 90 3.32966379160555E-2
98 91 4.076220397836619E-2
98 92 4.30802615197435E-1
98 93 1.1988622377030095E-1
98 94 2.0937347860530923E-2
98 95 9.284613723999352E-2
98 96 2.064979510859124E-1
98 97 2.3112681592863504E-1
98 100 1.8009231214795232E-1
98 120 1.831563888873418E-2
98 127 2.790505654453601E-2
98 139 2.1075393100618782E-2
99 24 2.5098893766854834E-2
99 25 1.831563888873418E-2
99 26 1.575362263626237E-2
99 54 1.829339469389108E-1
99 56 2.343734338452156E-2
99 58 8.265654376242384E-1
99 60 2.721587174002748E-1
99 61 4.9050060471498086E-1
99 62 3.30095322188502E-2
99 63 7.306262300706663E-2
99 65 3.2969442409763317E-1
99 67 1.856826441293189E-2
99 68 9.096683640729128E-2
99 70 2.3408878921118662E-1
99 72 5.405202776263941E-2
99 80 4.218887190602577E-1
99 81 3.2969442409763317E-1
99 82 3.9939346539909926E-1
99 83 1.5734489989373343E-1
99 85 2.3118472916789923E-2
99 89 9.096683640729128E-2
99 90 1.9323743434203E-1
99 91 5.3316637445923666E-2
99 93 1.2637606799414916E-1
99 94 8.181832902076632E-1
99 95 8.850842495685939E-2
99 96 5.9491739487042186E-2
99 97 6.458803982274486E-2
99 100 9.74157747247629E-2
99 107 2.651255230364558E-2
100 54 2.7898542332269866E-1
100 56 4.008028115921086E-1
100 58 1.4329395305256906E-1
100 60 3.588706045658091E-1
100 61 9.87643751142277E-2
100 62 4.7575267845565E-1
100 63 1.6475781214830806E-1
100 64 4.569738125333739E-2
100 65 4.2724669147384825E-1
100 67 2.396510364417752E-1
100 68 5.333531901568123E-1
100 69 2.1128279881183272E-2
100 70 4.760330276982514E-1
100 72 3.78541877541402E-1
100 74 4.8384709791404724E-2
100 75 4.5697381253337326E-2
100 79 1.8009231214795218E-1
100 80 2.5394708241200514E-1
100 81 3.1732585892104254E-1
100 82 2.7390771694981314E-1
100 83 7.077396263326352E-1
100 85 1.8808033831878795E-1
100 86 3.15308097628609E-2
100 88 3.0197383422318487E-2
100 89 7.946249334535753E-1
100 90 5.25356520121387E-1
100 91 3.828928859751114E-1
100 92 7.218150505502331E-2
100 93 6.703200460356402E-1
100 94 1.3993808783342682E-1
100 95 8.424604416167707E-1
100 96 7.131751981731269E-1
100 97 8.934400374799962E-1
100 98 1.8009231214795232E-1
100 99 9.74157747247629E-2
100 107 7.48257955923243E-2
101 102 1.7101802210988847E-2
101 103 1.278186448106077E-1
101 104 1.5701270216003488E-1
101 105 5.519566798674074E-1
101 106 4.375052349368001E-2
101 108 2.5158997761555432E-2
101 109 4.783488949419843E-2
101 110 1.4722555599144677E-1
101 111 7.909205457197196E-2
101 112 6.150902121087113E-2
101 113 1.8009231214795257E-1
101 115 4.8940849792961275E-2
101 116 2.844656254504482E-1
101 117 1.3689084417630507E-1
101 118 6.227972154868959E-2
101 119 4.643195173024167E-2
101 121 3.189065573239701E-1
101 123 4.014494073637523E-2
101 125 3.917455108070057E-1
101 126 5.007238030199062E-2
101 129 2.6561316762317005E-1
101 130 1.831563888873418E-2
101 132 3.772796472659054E-2
101 133 3.1169993968436005E-1
101 136 2.8888727915666535E-2
101 137 6.627028552221845E-1
101 138 1.643570167702384E-1
101 140 1.2210705209016254E-1
101 141 4.2925064108117517E-1
101 142 5.743261926761722E-2
101 144 4.923470482312128E-1
101 145 5.647181220077591E-1
101 146 1.1934768946401304E-1
101 148 9.71568523992339E-2
101 149 3.828928859751124E-1
101 150 2.893055017100333E-2
102 56 1.931899120415903E-2
102 64 5.6134762834133975E-2
102 67 3.1220927161231055E-2
102 71 1.466069621303503E-1
102 73 7.32898366888846E-2
102 74 1.831563888873428E-2
102 79 4.0762203978366426E-2
102 84 4.9990693227598243E-1
102 85 2.0267550342246914E-2
102 92 2.660471916620947E-2
102 101 1.7101802210988847E-2
102 104 5.321934433892163E-2
102 107 4.5665154610630324E-2
102 111 1.831563888873418E-2
102 112 1.1844182901380333E-1
102 114 7.51477293075286E-1
102 115 4.2636520280380574E-1
102 117 1.8315638888734165E-2
102 120 1.7625049009658628E-1
102 122 6.534221277144163E-1
102 124 2.0189651799465588E-1
102 127 2.3692775868212182E-1
102 128 2.9326851192656334E-1
102 129 2.959943516789196E-2
102 133 2.2671046194675595E-2
102 134 1.0645850437925299E-1
102 135 1.2631638626303018E-1
102 137 1.831563888873418E-2
102 138 2.5222974835227143E-2
102 139 2.932685119265629E-1
102 143 1
102 147 2.0189651799465544E-1
102 148 4.076220397836619E-2
102 149 2.0838193670452677E-2
102 150 5.561781253709419E-1
103 101 1.278186448106077E-1
103 104 4.2345007059073625E-2
103 105 2.351294541895029E-1
103 106 3.6538535285083074E-1
103 108 5.299775483586847E-1
103 109 1.5123975969049597E-1
103 110 3.011942119122022E-1
103 111 1.8315638888734147E-2
103 112 2.3912992862805432E-2
103 113 3.8582130682912424E-1
103 116 2.8930550171003395E-2
103 117 9.789992223181007E-2
103 118 1.9363292629241433E-1
103 119 2.3429769046256105E-1
103 121 5.436096691977702E-1
103 123 3.184103978639217E-1
103 125 3.312897513646576E-1
103 126 6.325378190677049E-1
103 129 9.424054632727095E-2
103 130 4.2437284567694944E-1
103 131 6.047174154456482E-1
103 132 2.085805408160562E-1
103 133 9.071795328941283E-2
103 136 4.7586740058638344E-1
103 137 4.237103349160359E-2
103 138 5.74326192676176E-2
103 140 3.18906557323971E-1
103 141 2.8969169184455323E-1
103 142 6.197945121106565E-2
103 144 5.232902237928329E-1
103 145 2.4774659805977525E-1
103 146 7.218150505502328E-2
103 148 3.7771875933946576E-2
104 78 4.173268733758958E-2
104 84 8.453511783334192E-2
104 101 1.5701270216003488E-1
104 102 5.321934433892163E-2
104 103 4.2345007059073625E-2
104 105 3.7516394688353294E-1
104 106 2.246226772829291E-2
104 108 4.270500495996711E-2
104 109 2.635971381157266E-1
104 111 8.45351178333417E-2
104 112 4.138080991773706E-1
104 113 1.615751676675302E-1
104 114 2.339806292995097E-2
104 115 5.7702255483688826E-2
104 116 9.568758984080311E-2
104 117 7.026185226629956E-1
104 119 2.443770855686401E-2
104 120 2.0511030736826884E-2
104 121 3.679749225420713E-2
104 123 2.9910766351847647E-2
104 124 4.426118996980703E-2
104 125 1.7693749172346873E-1
104 126 3.92956591119563E-2
104 127 2.060229212491963E-2
104 128 4.173268733758978E-2
104 129 5.235834657149967E-1
104 130 5.7432619267617196E-2
104 131 2.8871215616185896E-2
104 133 3.6273435862092307E-1
104 134 1.276040039797951E-1
104 135 3.6787944117144217E-1
104 137 1.3977211459652863E-1
104 138 7.026185226629952E-1
104 140 9.236358572362098E-2
104 141 1.3775192107398096E-1
104 142 2.6347980814448606E-2
104 143 5.321934433892163E-2
104 144 5.3679119844330964E-2
104 145 7.865880855101748E-2
104 146 6.73619865055597E-2
104 147 4.4261189969806894E-2
104 148 2.2979027467301746E-1
104 149 9.389375538049516E-2
104 150 8.453511783334196E-2
105 78 2.606768580383567E-2
105 101 5.519566798674074E-1
105 103 2.351294541895029E-1
105 104 3.7516394688353294E-1
105 106 7.961026438395072E-2
105 108 1.0609861964542826E-1
105 109 1.8887560283756177E-1
105 110 1.1435803976019811E-1
105 111 1.0696066620686163E-1
105 112 1.7808573344493656E-1
105 113 4.746877596429116E-1
105 115 3.0949147146926096E-2
105 116 2.9650645962960953E-1
105 117 3.751639468835333E-1
105 118 5.6381065747056064E-2
105 119 7.256621569934368E-2
105 121 4.2200205383971334E-1
105 123 7.890509034606362E-2
105 125 5.553063730019506E-1
105 126 1.0763519070225847E-1
105 129 6.75598129471162E-1
105 130 6.731227286463932E-2
105 131 8.483340657814216E-2
105 132 4.7196520161339975E-2
105 133 7.026185226629951E-1
105 135 3.180041744537976E-2
105 136 7.433628279331622E-2
105 137 4.0526025778326935E-1
105 138 3.468636452568923E-1
105 140 2.635971381157268E-1
105 141 6.311719237754225E-1
105 142 7.226242601634503E-2
105 144 5.553063730019504E-1
105 145 4.900840879331295E-1
105 146 2.0031920950188117E-1
105 147 1.831563888873418E-2
105 148 2.0833093062499142E-1
105 149 1.9261559277384047E-1
105 150 1.904816869120803E-2
106 101 4.375052349368001E-2
106 103 3.6538535285083074E-1
106 104 2.246226772829291E-2
106 105 7.961026438395072E-2
106 108 6.832104226749482E-1
106 109 8.756497851134548E-2
106 110 2.82152909579098E-1
106 113 8.070079901345677E-2
106 117 3.287752496565739E-2
106 118 5.13417119032592E-1
106 119 7.564871232025192E-1
106 121 1.5296425376522135E-1
106 123 9.265435051323817E-1
106 125 9.763388999836699E-2
106 126 4.12980979526623E-1
106 129 3.424722772574426E-2
106 130 2.396510364417759E-1
106 131 6.044711348367515E-1
106 132 4.5208135347961714E-1
106 133 3.378443444171147E-2
106 136 6.648703197043957E-1
106 137 1.831563888873418E-2
106 138 2.3718579361920268E-2
106 140 7.1400116191005E-2
106 141 7.437469947607575E-2
106 142 2.246226772829291E-2
106 144 1.9276980861250237E-1
106 145 7.853446648311024E-2
106 146 2.185929053500591E-2
106 148 1.3213310156421272E-2
107 54 1.353352832366127E-1
107 56 1.1107708444885786E-1
107 58 8.513712700684296E-2
107 60 2.3880719563755284E-1
107 61 7.698824246074545E-2
107 62 3.31269738870725E-2
107 65 1.8315638888734196E-2
107 67 1.457407492241694E-1
107 68 2.4632127216140883E-2
107 70 5.040553336275374E-2
107 71 1.972386557536901E-2
107 79 3.076180421498307E-2
107 81 4.917619180472731E-2
107 82 2.4632127216140883E-2
107 83 2.718912310218598E-2
107 84 1.831563888873418E-2
107 85 2.6359713811572655E-1
107 89 7.300086777195951E-2
107 90 1.4938408054251512E-1
107 91 2.1107208779109032E-1
107 93 3.841684440233284E-2
107 94 7.073396357242125E-2
107 95 1.457407492241694E-1
107 96 4.7976832682466934E-2
107 97 7.482579559232441E-2
107 99 2.651255230364558E-2
107 100 7.48257955923243E-2
107 102 4.5665154610630324E-2
107 114 8.89435761251494E-2
107 120 1.9723865575369065E-2
107 122 1.288143941092608E-1
107 139 2.124036598442216E-2
107 143 4.5665154610630324E-2
107 150 1.8315638888734147E-2
108 101 2.5158997761555432E-2
108 103 5.299775483586847E-1
108 104 4.270500495996711E-2
108 105 1.0609861964542826E-1
108 106 6.832104226749482E-1
108 109 1.9600215407574698E-1
108 110 1.1435803976019801E-1
108 112 1.951624786493428E-2
108 113 1.2304094470311135E-1
108 117 6.520893822149146E-2
108 118 2.770431276152253E-1
108 119 4.493289641172217E-1
108 121 1.6200860625891336E-1
108 123 6.681318432615523E-1
108 125 1.2836082276847086E-1
108 126 6.689028794477018E-1
108 129 5.1665606878884676E-2
108 130 5.188789520390853E-1
108 131 8.623033568332584E-1
108 132 2.8888393518330185E-1
108 133 4.4551426244489746E-2
108 136 4.6007244718616974E-1
108 138 4.27050049599672E-2
108 140 9.748640680891238E-2
108 141 7.096967218625351E-2
108 142 1.831563888873418E-2
108 144 2.0447663029784313E-1
108 145 5.505234057441335E-2
108 146 2.079555799496735E-2
108 148 1.793207946628102E-2
109 73 1.9723865575369134E-2
109 78 3.567399334725247E-2
109 84 1.972386557536902E-2
109 101 4.783488949419843E-2
109 103 1.5123975969049597E-1
109 104 2.635971381157266E-1
109 105 1.8887560283756177E-1
109 106 8.756497851134548E-2
109 108 1.9600215407574698E-1
109 111 1.972386557536902E-2
109 112 2.3587708298570007E-1
109 113 1.9600215407574695E-1
109 116 1.831563888873418E-2
109 117 2.4477706843938998E-1
109 118 2.6205366923718013E-2
109 119 1.0049227515117207E-1
109 121 5.361502538049469E-2
109 123 1.207006920939639E-1
109 124 2.3736514014647873E-2
109 125 6.452253471698072E-2
109 126 9.23952794989724E-2
109 129 3.1722367703207827E-1
109 130 1.8009231214795224E-1
109 131 1.9617610760689036E-1
109 132 2.7519090419886892E-2
109 133 2.4477706843938998E-1
109 134 4.623241636230084E-2
109 135 1.4008341093702925E-1
109 136 6.832057564654653E-2
109 138 1.353352832366128E-1
109 140 9.004845114906672E-2
109 141 6.786292027545388E-2
109 144 5.9915813233781784E-2
109 145 2.9162147739668354E-2
109 146 4.1370583872318956E-2
109 147 4.9787068367863965E-2
109 148 7.7649081703476E-2
110 101 1.4722555599144677E-1
110 103 3.011942119122022E-1
110 105 1.1435803976019811E-1
110 106 2.82152909579098E-1
110 108 1.1435803976019801E-1
110 111 1.831563888873418E-2
110 113 1.119756676728874E-1
110 116 4.434348531017974E-2
110 117 2.7905056544536098E-2
110 118 4.7887369171582556E-1
110 119 1.6606951101660153E-1
110 121 3.877601032963254E-1
110 123 1.9497627700647358E-1
110 125 2.492064314012817E-1
110 126 2.4920643140128165E-1
110 129 2.8498758990684835E-2
110 130 7.046553323824527E-2
110 131 1.1197566767288719E-1
110 132 4.125094422335998E-1
110 133 3.302381484596676E-2
110 136 3.338557005962265E-1
110 137 9.663231158226941E-2
110 138 2.5651380331060795E-2
110 140 1.244052961144754E-1
110 141 2.0189651799465552E-1
110 142 5.473438492058368E-2
110 144 4.308026151974353E-1
110 145 3.490180709313202E-1
110 146 4.6250444210137465E-2
110 148 1.793407702442382E-2
110 149 3.668955541969817E-2
111 51 7.515254527331514E-2
111 52 2.7482580852549374E-2
111 53 1.2651230151849488E-1
111 57 9.544488207041908E-2
111 66 3.243324089479561E-2
111 71 6.822586684086564E-2
111 77 3.2888436855688354E-2
111 78 2.88985342443404E-1
111 86 1.831563888873418E-2
111 87 9.451711413002743E-2
111 101 7.909205457197196E-2
111 102 1.831563888873418E-2
111 103 1.8315638888734147E-2
111 104 8.45351178333417E-2
111 105 1.0696066620686163E-1
111 109 1.972386557536902E-2
111 110 1.831563888873418E-2
111 112 1.3970056501293843E-1
111 113 2.1893347952389872E-1
111 115 7.024699799012445E-2
111 116 4.739437350937189E-1
111 117 2.0726222669376743E-1
111 121 5.8588942055771906E-2
111 124 7.45346450047701E-2
111 125 1.769374917234685E-1
111 126 1.6712421169311542E-2
111 127 6.948345122280167E-2
111 128 1.4016818153107727E-1
111 129 7.092347173402497E-2
111 130 2.36112556569373E-2
111 133 7.490390184368319E-2
111 134 4.251515251442982E-2
111 135 2.0311831623192302E-2
111 137 2.0584225390235988E-1
111 138 2.635971381157264E-1
111 139 5.247762340746646E-2
111 140 2.971604215607206E-1
111 141 1.962592903512241E-1
111 142 3.497610574970804E-1
111 143 1.831563888873418E-2
111 144 2.939643941132338E-2
111 145 1.2918476301522877E-1
111 146 4.3291697962709846E-1
111 147 3.567399334725231E-2
111 148 7.040702133096358E-1
111 149 2.6359713811572655E-1
111 150 5.3219344338921434E-2
112 53 3.7594448851853174E-2
112 73 9.5444882070419E-2
112 77 3.807137152161531E-2
112 78 1.3970056501293876E-1
112 84 1.586158811769975E-1
112 87 1.9279403121296352E-2
112 101 6.150902121087113E-2
112 102 1.1844182901380333E-1
112 103 2.3912992862805432E-2
112 104 4.138080991773706E-1
112 105 1.7808573344493656E-1
112 108 1.951624786493428E-2
112 109 2.3587708298570007E-1
112 111 1.3970056501293843E-1
112 113 1.8808033831878831E-1
112 114 7.642628699076795E-2
112 115 1.1487227428715735E-1
112 116 1.1229042689718798E-1
112 117 3.858213068291245E-1
112 119 1.6381085924842637E-2
112 120 8.286304968503094E-2
112 121 2.206078924998843E-2
112 122 3.0520347027747433E-2
112 123 1.831563888873418E-2
112 124 3.189065573239712E-1
112 125 6.853488651742655E-2
112 127 1.397005650129386E-1
112 128 1.0836802322189605E-1
112 129 4.225115642563838E-1
112 130 3.347938519685237E-2
112 131 1.9214389867761923E-2
112 133 3.42863614857706E-1
112 134 2.4738105537725058E-1
112 135 2.1931606305183093E-1
112 137 6.655827366327885E-2
112 138 2.800667608216489E-1
112 139 3.9238564085158203E-2
112 140 1.2651230151849477E-1
112 141 1.2387335384978149E-1
112 142 8.503890131597766E-2
112 143 1.1844182901380333E-1
112 144 1.831563888873418E-2
112 145 4.9402614159271836E-2
112 146 1.9634008874051204E-1
112 147 4.280630211831756E-1
112 148 4.667764816516822E-1
112 149 4.9254591456217654E-2
112 150 8.406285583693764E-2
113 51 1.7124811695863246E-2
113 53 3.594221760226407E-2
113 78 1.1924414147878493E-1
113 101 1.8009231214795257E-1
113 103 3.8582130682912424E-1
113 104 1.615751676675302E-1
113 105 4.746877596429116E-1
113 106 8.070079901345677E-2
113 108 1.2304094470311135E-1
113 109 1.9600215407574695E-1
113 110 1.119756676728874E-1
113 111 2.1893347952389872E-1
113 112 1.8808033831878831E-1
113 116 2.422653855980536E-1
113 117 4.0196413729029395E-1
113 118 5.582284195620763E-2
113 119 6.311538639770696E-2
113 121 5.46264950947821E-1
113 123 8.152773669392165E-2
113 124 1.8315638888734213E-2
113 125 5.614011381978232E-1
113 126 1.9226993904384987E-1
113 129 3.453174502957901E-1
113 130 2.044766302978427E-1
113 131 1.4716988714058832E-1
113 132 6.603586655512202E-2
113 133 3.2826828901282823E-1
113 135 1.8958228095913666E-2
113 136 1.2974372856972888E-1
113 137 1.9298143424568087E-1
113 138 2.6808379050389375E-1
113 140 8.73863179588636E-1
113 141 6.539144404639472E-1
113 142 4.111122905071866E-1
113 144 3.5620172529821914E-1
113 145 3.944619643633247E-1
113 146 5.214390995756888E-1
113 147 1.831563888873418E-2
113 148 3.8211819147794507E-1
113 149 8.615451547953669E-2
114 56 3.3784434441711454E-2
114 64 4.31593092614526E-2
114 67 4.4957358995445736E-2
114 69 3.243324089479551E-2
114 71 8.292688870320339E-2
114 73 7.961026438395072E-2
114 74 1.8315638888734196E-2
114 79 4.683031685241959E-2
114 84 2.9390761494152196E-1
114 85 3.243324089479551E-2
114 92 2.246226772829289E-2
114 102 7.51477293075286E-1
114 104 2.339806292995097E-2
114 107 8.89435761251494E-2
114 112 7.642628699076795E-2
114 115 4.1261269866415834E-1
114 120 1.9737663762171498E-1
114 122 6.382791246654353E-1
114 124 1.5933686121653348E-1
114 127 1.8009231214795232E-1
114 128 1.529642537652212E-1
114 129 2.0701460608393285E-2
114 133 1.831563888873418E-2
114 134 5.513562700418987E-2
114 135 4.6469201589239686E-2
114 139 1.8009231214795232E-1
114 143 7.51477293075286E-1
114 147 2.208648988904685E-1
114 148 2.246226772829291E-2
114 150 2.4963508136045068E-1
115 71 1.3097001367260377E-1
115 73 2.0208755169119283E-2
115 79 1.831563888873418E-2
115 84 1.0411126645674032E-1
115 101 4.8940849792961275E-2
115 102 4.2636520280380574E-1
115 104 5.7702255483688826E-2
115 105 3.0949147146926096E-2
115 111 7.024699799012445E-2
115 112 1.1487227428715735E-1
115 114 4.1261269866415834E-1
115 116 1.5430062655133125E-1
115 117 3.198069143927246E-2
115 120 1.831563888873418E-2
115 122 4.5526061403746343E-1
115 124 1.1487227428715781E-1
115 127 1.3533528323661256E-1
115 128 1.7592369694536952E-1
115 129 1.0075313447618736E-1
115 133 1.1870100140287497E-1
115 134 3.0949147146926138E-2
115 137 6.239977880609862E-2
115 138 4.157202271509246E-2
115 139 1.7592369694536936E-1
115 141 2.304072899426994E-2
115 143 4.2636520280380574E-1
115 146 5.770225548368865E-2
115 147 1.3984604853534813E-1
115 148 1.0075313447618746E-1
115 149 1.3097001367260347E-1
115 150 2.6073198019521054E-1
116 71 1.831563888873418E-2
116 78 4.5350533731266074E-2
116 101 2.844656254504482E-1
116 103 2.8930550171003395E-2
116 104 9.568758984080311E-2
116 105 2.9650645962960953E-1
116 109 1.831563888873418E-2
116 110 4.434348531017974E-2
116 111 4.739437350937189E-1
116 112 1.1229042689718798E-1
116 113 2.422653855980536E-1
116 115 1.5430062655133125E-1
116 117 1.6310953119364124E-1
116 118 1.831563888873418E-2
116 121 1.485287489006367E-1
116 124 2.8062157082451626E-2
116 125 2.90220760626212E-1
116 127 2.3912992862805252E-2
116 128 5.613476283413368E-2
116 129 2.1295664753950733E-1
116 132 1.869229698535351E-2
116 133 2.4990694093758317E-1
116 136 1.831563888873418E-2
116 137 6.16392731327227E-1
116 138 2.0189651799465544E-1
116 139 2.3912992862805252E-2
116 140 2.4826503176680764E-1
116 141 4.926459082847017E-1
116 142 2.97565410147565E-1
116 144 1.0682544414371142E-1
116 145 3.944619643633242E-1
116 146 5.214390995756883E-1
116 147 1.831563888873413E-2
116 148 4.4932896411722184E-1
116 149 6.790253796134037E-1
116 150 4.5350533731266E-2
117 51 2.5633234514977298E-2
117 53 6.163552599817412E-2
117 77 2.2261911867824072E-2
117 78 1.39846048535348E-1
117 84 3.068838705604296E-2
117 87 1.831563888873418E-2
117 101 1.3689084417630507E-1
117 102 1.8315638888734165E-2
117 103 9.789992223181007E-2
117 104 7.026185226629956E-1
117 105 3.751639468835333E-1
117 106 3.287752496565739E-2
117 108 6.520893822149146E-2
117 109 2.4477706843938998E-1
117 110 2.7905056544536098E-2
117 111 2.0726222669376743E-1
117 112 3.858213068291245E-1
117 113 4.0196413729029395E-1
117 115 3.198069143927246E-2
117 116 1.6310953119364124E-1
117 118 2.568902188655988E-2
117 119 2.8892129791300483E-2
117 121 1.0237939908346291E-1
117 123 3.970976951159183E-2
117 124 4.023110790609055E-2
117 125 3.4226672492033927E-1
117 126 9.239527949897236E-2
117 128 3.304661741011954E-2
117 129 3.972947131977112E-1
117 130 1.3970056501293823E-1
117 131 5.381754828900692E-2
117 132 2.9853583930438986E-2
117 133 2.895472972347866E-1
117 134 1.148722742871573E-1
117 135 1.845831623865619E-1
117 136 3.143241443087449E-2
117 137 1.5902248408504557E-1
117 138 8.858460329277071E-1
117 140 2.971604215607211E-1
117 141 2.2611181086386767E-1
117 142 9.599738346733382E-2
117 143 1.8315638888734165E-2
117 144 9.802030330762172E-2
117 145 1.29184763015229E-1
117 146 1.707692821899428E-1
117 147 3.5673993347252325E-2
117 148 4.2636520280380585E-1
117 149 1.1152032841273743E-1
117 150 3.304661741011954E-2
118 101 6.227972154868959E-2
118 103 1.9363292629241433E-1
118 105 5.6381065747056064E-2
118 106 5.13417119032592E-1
118 108 2.770431276152253E-1
118 109 2.6205366923718013E-2
118 110 4.7887369171582556E-1
118 113 5.582284195620763E-2
118 116 1.831563888873418E-2
118 117 2.568902188655988E-2
118 119 2.50061970052302E-1
118 121 1.3533528323661276E-1
118 123 3.5528824165064127E-1
118 125 1.0553039968441036E-1
118 126 2.854377411243825E-1
118 129 2.0434160103700444E-2
118 130 1.287669311790279E-1
118 131 2.1602993164715525E-1
118 132 8.443786657876745E-1
118 133 2.0638500010379496E-2
118 136 3.6605374050520023E-1
118 137 3.49710804869178E-2
118 138 2.325595548514732E-2
118 140 5.9849607922031346E-2
118 141 6.545658639616656E-2
118 142 2.518285080339266E-2
118 144 1.63499511955352E-1
118 145 9.745561757685575E-2
118 146 2.0638500010379507E-2
118 149 1.674673041606164E-2
119 101 4.643195173024167E-2
119 103 2.3429769046256105E-1
119 104 2.443770855686401E-2
119 105 7.256621569934368E-2
119 106 7.564871232025192E-1
119 108 4.493289641172217E-1
119 109 1.0049227515117207E-1
119 110 1.6606951101660153E-1
119 112 1.6381085924842637E-2
119 113 6.311538639770696E-2
119 117 2.8892129791300483E-2
119 118 2.50061970052302E-1
119 121 1.0333620896543956E-1
119 123 8.537306484502739E-1
119 125 6.311538639770702E-2
119 126 2.1150886381292122E-1
119 129 4.001084841905297E-2
119 130 1.4046587564571358E-1
119 131 4.210025959908288E-1
119 132 1.8396251668134395E-1
119 133 4.1143156395813396E-2
119 136 4.7512086888262545E-1
119 137 1.831563888873418E-2
119 138 2.1058202731996004E-2
119 140 5.191541419732923E-2
119 141 6.430061736185569E-2
119 142 2.1453650424734638E-2
119 144 1.3284069492914458E-1
119 145 6.311538639770702E-2
119 146 2.3111109173288978E-2
120 55 5.4712647675070926E-2
120 56 6.127074272286638E-2
120 59 1.9020001348926913E-2
120 64 1.0391822955327466E-1
120 67 1.9020001348926913E-2
120 69 3.347606022926841E-1
120 73 4.882239169901485E-1
120 74 1.2549721672914851E-1
120 77 1.9020001348926945E-2
120 79 6.127074272286638E-2
120 84 3.610033920156004E-1
120 88 1.515571567613046E-1
120 91 3.895753707885377E-2
120 92 4.5304920927739474E-2
120 95 1.635523012991252E-2
120 98 1.831563888873418E-2
120 102 1.7625049009658628E-1
120 104 2.0511030736826884E-2
120 107 1.9723865575369065E-2
120 112 8.286304968503094E-2
120 114 1.9737663762171498E-1
120 115 1.831563888873418E-2
120 122 5.2686489295106095E-2
120 124 1.9006724307913014E-1
120 127 1.3533528323661276E-1
120 128 5.900172021911409E-2
120 134 1.7625049009658666E-1
120 135 1.5535088202167824E-1
120 139 5.4712647675070926E-2
120 143 1.7625049009658628E-1
120 147 2.771992082463746E-1
120 150 5.900172021911409E-2
121 78 1.3225858408238696E-2
121 101 3.189065573239701E-1
121 103 5.436096691977702E-1
121 104 3.679749225420713E-2
121 105 4.2200205383971334E-1
121 106 1.5296425376522135E-1
121 108 1.6200860625891336E-1
121 109 5.361502538049469E-2
121 110 3.877601032963254E-1
121 111 5.8588942055771906E-2
121 112 2.206078924998843E-2
121 113 5.46264950947821E-1
121 116 1.485287489006367E-1
121 117 1.0237939908346291E-1
121 118 1.3533528323661276E-1
121 119 1.0333620896543956E-1
121 123 1.2746091580451124E-1
121 125 6.899514676397545E-1
121 126 2.6901796983883136E-1
121 129 1.1770957893287445E-1
121 130 1.3533528323661284E-1
121 131 1.7403427889759646E-1
121 132 1.388231153905803E-1
121 133 1.353352832366122E-1
121 136 2.422653855980531E-1
121 137 2.579889022095301E-1
121 138 7.744869708785163E-2
121 140 5.3301085821083E-1
121 141 7.805257010449492E-1
121 142 2.242599307036492E-1
121 144 8.064980788999422E-1
121 145 7.564871232025191E-1
121 146 2.154807456137125E-1
121 148 8.113604973254766E-2
121 149 6.948345122280149E-2
122 56 6.029472620878712E-2
122 57 1.8315638888734206E-2
122 62 2.4670979143764572E-2
122 64 6.0294726208787175E-2
122 67 1.4735750808299125E-1
122 71 2.7898542332269793E-1
122 73 2.924885376431175E-2
122 74 1.9111848259884396E-2
122 79 8.474698518582044E-2
122 84 2.0711769237138927E-1
122 85 1.2429389670744763E-1
122 86 2.8030331560395513E-2
122 91 1.831563888873422E-2
122 92 4.2897738493249245E-2
122 95 1.4805360653922926E-2
122 102 6.534221277144163E-1
122 107 1.288143941092608E-1
122 112 3.0520347027747433E-2
122 114 6.382791246654353E-1
122 115 4.5526061403746343E-1
122 120 5.2686489295106095E-2
122 124 1.0047238750525414E-1
122 127 1.7470073562451677E-1
122 128 2.455498446523377E-1
122 134 3.618361321813415E-2
122 135 1.962336201975277E-2
122 139 3.451314958305499E-1
122 143 6.534221277144163E-1
122 147 7.78328664265455E-2
122 148 1.831563888873418E-2
122 150 4.091730851937949E-1
123 101 4.014494073637523E-2
123 103 3.184103978639217E-1
123 104 2.9910766351847647E-2
123 105 7.890509034606362E-2
123 106 9.265435051323817E-1
123 108 6.681318432615523E-1
123 109 1.207006920939639E-1
123 110 1.9497627700647358E-1
123 112 1.831563888873418E-2
123 113 8.152773669392165E-2
123 117 3.970976951159183E-2
123 118 3.5528824165064127E-1
123 119 8.537306484502739E-1
123 121 1.2746091580451124E-1
123 125 8.516069662027362E-2
123 126 3.5896759443605003E-1
123 129 4.1933840647684774E-2
123 130 2.5327054779834723E-1
123 131 6.057048863076502E-1
123 132 3.165964873653199E-1
123 133 4.058488091341424E-2
123 136 5.862201100539147E-1
123 137 1.7920707967108714E-2
123 138 2.8634771440635733E-2
123 140 7.07571730029073E-2
123 141 6.848100235367749E-2
123 142 2.5124201210578827E-2
123 144 1.567879481320841E-1
123 145 6.555959908737204E-2
123 146 2.5124201210578873E-2
124 51 4.244000423084952E-2
124 52 5.1999470708748066E-2
124 53 6.446885540666945E-2
124 55 2.3216256062952656E-1
124 57 6.119738655956248E-2
124 59 8.70251221593576E-2
124 64 1.1123853367110742E-1
124 66 6.197945121106562E-2
124 69 8.816268936235726E-2
124 71 1.0012159686714969E-1
124 73 4.380611241901165E-1
124 74 3.349944474400372E-2
124 75 1.831563888873418E-2
124 76 6.636113712145422E-2
124 77 1.2275546700138873E-1
124 78 1.5535088202167766E-1
124 79 5.077291901164865E-2
124 84 3.3394659515068814E-1
124 86 2.1240365984422103E-2
124 87 9.949058049485823E-2
124 88 3.6883167401239966E-2
124 92 5.0772919011648425E-2
124 102 2.0189651799465588E-1
124 104 4.426118996980703E-2
124 109 2.3736514014647873E-2
124 111 7.45346450047701E-2
124 112 3.189065573239712E-1
124 113 1.8315638888734213E-2
124 114 1.5933686121653348E-1
124 115 1.1487227428715781E-1
124 116 2.8062157082451626E-2
124 117 4.023110790609055E-2
124 120 1.9006724307913014E-1
124 122 1.0047238750525414E-1
124 127 7.939226578179515E-1
124 128 3.6787944117144233E-1
124 129 2.4914440787632847E-2
124 133 2.2945168504371442E-2
124 134 3.335244124065106E-1
124 135 8.947526116732796E-2
124 138 4.027109906373968E-2
124 139 2.4477706843938982E-1
124 140 2.0959389657950914E-2
124 142 3.790291440095842E-2
124 143 2.0189651799465588E-1
124 146 6.430061736185558E-2
124 147 6.951439283988787E-1
124 148 1.457407492241694E-1
124 150 1.4466517663899545E-1
125 53 1.1636503744124435E-2
125 78 4.728574553722233E-2
125 101 3.917455108070057E-1
125 103 3.312897513646576E-1
125 104 1.7693749172346873E-1
125 105 5.553063730019506E-1
125 106 9.763388999836699E-2
125 108 1.2836082276847086E-1
125 109 6.452253471698072E-2
125 110 2.492064314012817E-1
125 111 1.769374917234685E-1
125 112 6.853488651742655E-2
125 113 5.614011381978232E-1
125 116 2.90220760626212E-1
125 117 3.4226672492033927E-1
125 118 1.0553039968441036E-1
125 119 6.311538639770702E-2
125 121 6.899514676397545E-1
125 123 8.516069662027362E-2
125 126 2.609278229352769E-1
125 129 2.3614742918304016E-1
125 130 1.488580808033331E-1
125 131 1.0524155933390167E-1
125 132 1.0763519070225856E-1
125 133 2.2660744345956346E-1
125 136 1.1335676857487088E-1
125 137 4.185463083804127E-1
125 138 3.4226672492033944E-1
125 140 4.9607362397705335E-1
125 141 6.092203699917107E-1
125 142 1.437910694778405E-1
125 144 6.620785105893812E-1
125 145 6.088861156307176E-1
125 146 2.0866810381566414E-1
125 148 2.0023823973358082E-1
125 149 2.0023823973358104E-1
126 78 1.8883520870714564E-2
126 101 5.007238030199062E-2
126 103 6.325378190677049E-1
126 104 3.92956591119563E-2
126 105 1.0763519070225847E-1
126 106 4.12980979526623E-1
126 108 6.689028794477018E-1
126 109 9.23952794989724E-2
126 110 2.4920643140128165E-1
126 111 1.6712421169311542E-2
126 113 1.9226993904384987E-1
126 117 9.239527949897236E-2
126 118 2.854377411243825E-1
126 119 2.1150886381292122E-1
126 121 2.6901796983883136E-1
126 123 3.5896759443605003E-1
126 125 2.609278229352769E-1
126 129 4.0514033033569895E-2
126 130 6.93216988738012E-1
126 131 5.904052533502875E-1
126 132 3.4345393192256474E-1
126 133 3.2717429585157026E-2
126 136 3.9523686238441114E-1
126 138 6.404997742788476E-2
126 140 1.864878269680881E-1
126 141 9.239527949897249E-2
126 142 2.8955800485937006E-2
126 144 2.773589542199099E-1
126 145 7.69279894859621E-2
126 146 2.724041848006596E-2
126 148 2.485599051350493E-2
127 51 3.836904740146982E-2
127 52 1.1048245479967773E-1
127 53 4.7067159330645425E-2
127 55 2.4738105537725047E-1
127 56 2.222690886895959E-2
127 57 1.397005650129386E-1
127 59 9.166539070976515E-2
127 62 1.831563888873418E-2
127 64 2.3187926284819188E-1
127 66 8.092069206291473E-2
127 67 2.515899776155533E-2
127 69 7.642628699076819E-2
127 71 2.541417711096403E-1
127 73 2.8087620176428174E-1
127 74 5.6816725799464216E-2
127 75 3.5673993347252485E-2
127 76 9.155598849604304E-2
127 77 7.913615999649332E-2
127 78 9.586372893485963E-2
127 79 1.7046406460872834E-1
127 84 3.1308194343912854E-1
127 86 7.300086777195924E-2
127 87 1.0472574938742502E-1
127 88 3.508435410084509E-2
127 92 1.46156557071542E-1
127 98 2.790505654453601E-2
127 102 2.3692775868212182E-1
127 104 2.060229212491963E-2
127 111 6.948345122280167E-2
127 112 1.397005650129386E-1
127 114 1.8009231214795232E-1
127 115 1.3533528323661256E-1
127 116 2.3912992862805252E-2
127 120 1.3533528323661276E-1
127 122 1.7470073562451677E-1
127 124 7.939226578179515E-1
127 128 6.303131865967184E-1
127 134 2.318792628481925E-1
127 135 5.3341828391567175E-2
127 138 2.3340254280134642E-2
127 139 5.528920012788017E-1
127 142 2.4302605378233835E-2
127 143 2.3692775868212182E-1
127 146 3.854943044663195E-2
127 147 4.0289032152913307E-1
127 148 8.677432947392916E-2
127 149 1.542072321641286E-2
127 150 2.3069318225496266E-1
128 51 2.9322159123893743E-2
128 52 1.1048245479967739E-1
128 53 3.594221760226386E-2
128 55 8.957326253887948E-2
128 56 1.9536244018785107E-2
128 57 2.6359713811572677E-1
128 59 4.429501586802317E-2
128 64 1.9881418873807383E-1
128 66 5.1230072213984464E-2
128 67 4.1810692337960725E-2
128 71 6.106992389592896E-1
128 73 8.957326253887989E-2
128 74 3.612555689170117E-2
128 76 4.809953551255464E-2
128 77 3.288843685568828E-2
128 78 7.275267126594406E-2
128 79 1.2531520484413688E-1
128 84 3.130819434391293E-1
128 85 2.3592286985006178E-2
128 86 1.6086971039448691E-1
128 87 7.698824246074504E-2
128 92 1.461565570715418E-1
128 102 2.9326851192656334E-1
128 104 4.173268733758978E-2
128 111 1.4016818153107727E-1
128 112 1.0836802322189605E-1
128 114 1.529642537652212E-1
128 115 1.7592369694536952E-1
128 116 5.613476283413368E-2
128 117 3.304661741011954E-2
128 120 5.900172021911409E-2
128 122 2.455498446523377E-1
128 124 3.6787944117144233E-1
128 127 6.303131865967184E-1
128 134 1.9881418873807433E-1
128 135 6.1230891834695954E-2
128 137 3.380668299832738E-2
128 138 6.1551639619844466E-2
128 139 8.623033568332583E-1
128 142 2.2416011015397336E-2
128 143 2.9326851192656334E-1
128 146 3.8549430446631915E-2
128 147 1.5277517560171444E-1
128 148 1.1670006903291094E-1
128 149 5.6038269926527384E-2
128 150 5.866462195100336E-1
129 78 1.831563888873418E-2
129 101 2.6561316762317005E-1
129 102 2.959943516789196E-2
129 103 9.424054632727095E-2
129 104 5.235834657149967E-1
129 105 6.75598129471162E-1
129 106 3.424722772574426E-2
129 108 5.1665606878884676E-2
129 109 3.1722367703207827E-1
129 110 2.8498758990684835E-2
129 111 7.092347173402497E-2
129 112 4.225115642563838E-1
129 113 3.453174502957901E-1
129 114 2.0701460608393285E-2
129 115 1.0075313447618736E-1
129 116 2.1295664753950733E-1
129 117 3.972947131977112E-1
129 118 2.0434160103700444E-2
129 119 4.001084841905297E-2
129 121 1.1770957893287445E-1
129 123 4.1933840647684774E-2
129 124 2.4914440787632847E-2
129 125 2.3614742918304016E-1
129 126 4.0514033033569895E-2
129 130 4.5988446395061736E-2
129 131 4.551012914264277E-2
129 132 1.8883520870714536E-2
129 133 9.452195710415633E-1
129 134 2.20292400394237E-2
129 135 1.1789851882642247E-1
129 136 3.3064909317165325E-2
129 137 2.2675821354279907E-1
129 138 3.1615737996368565E-1
129 140 1.81252323043217E-1
129 141 3.845227929308427E-1
129 142 7.843739051713046E-2
129 143 2.959943516789196E-2
129 144 1.4435440301720165E-1
129 145 2.0568789151446915E-1
129 146 2.1548074561371314E-1
129 147 4.830099924173013E-2
129 148 2.5824509772196297E-1
129 149 1.268796691054283E-1
129 150 2.0714464037996195E-2
130 53 5.389945455805903E-2
130 77 1.951624786493416E-2
130 78 5.743261926761735E-2
130 101 1.831563888873418E-2
130 103 4.2437284567694944E-1
130 104 5.7432619267617196E-2
130 105 6.731227286463932E-2
130 106 2.396510364417759E-1
130 108 5.188789520390853E-1
130 109 1.8009231214795224E-1
130 110 7.046553323824527E-2
130 111 2.36112556569373E-2
130 112 3.347938519685237E-2
130 113 2.044766302978427E-1
130 117 1.3970056501293823E-1
130 118 1.287669311790279E-1
130 119 1.4046587564571358E-1
130 121 1.3533528323661284E-1
130 123 2.5327054779834723E-1
130 125 1.488580808033331E-1
130 126 6.93216988738012E-1
130 129 4.5988446395061736E-2
130 131 5.364647133523064E-1
130 132 1.864878269680877E-1
130 133 3.24332408947955E-2
130 136 2.4638895301852468E-1
130 138 8.40628558369376E-2
130 140 1.9808726381359884E-1
130 141 5.0583644603064255E-2
130 142 3.24332408947955E-2
130 144 1.0836802322189576E-1
130 145 2.740857866008953E-2
130 146 3.0437998755269622E-2
130 148 4.050421620952446E-2
131 78 1.4073339966629668E-2
131 103 6.047174154456482E-1
131 104 2.8871215616185896E-2
131 105 8.483340657814216E-2
131 106 6.044711348367515E-1
131 108 8.623033568332584E-1
131 109 1.9617610760689036E-1
131 110 1.1197566767288719E-1
131 112 1.9214389867761923E-2
131 113 1.4716988714058832E-1
131 117 5.381754828900692E-2
131 118 2.1602993164715525E-1
131 119 4.210025959908288E-1
131 121 1.7403427889759646E-1
131 123 6.057048863076502E-1
131 125 1.0524155933390167E-1
131 126 5.904052533502875E-1
131 129 4.551012914264277E-2
131 130 5.364647133523064E-1
131 132 2.5308097010222763E-1
131 133 4.037353276346747E-2
131 136 6.129625261583606E-1
131 138 3.0287930231406378E-2
131 140 1.244523539740004E-1
131 141 7.525850584128428E-2
131 142 2.752076767173659E-2
131 144 1.782530875812882E-1
131 145 4.890067534520516E-2
131 146 2.7520767671736664E-2
131 148 1.831563888873418E-2
132 53 1.7230594895872496E-2
132 101 3.772796472659054E-2
132 103 2.085805408160562E-1
132 105 4.7196520161339975E-2
132 106 4.5208135347961714E-1
132 108 2.8888393518330185E-1
132 109 2.7519090419886892E-2
132 110 4.125094422335998E-1
132 113 6.603586655512202E-2
132 116 1.869229698535351E-2
132 117 2.9853583930438986E-2
132 118 8.443786657876745E-1
132 119 1.8396251668134395E-1
132 121 1.388231153905803E-1
132 123 3.165964873653199E-1
132 125 1.0763519070225856E-1
132 126 3.4345393192256474E-1
132 129 1.8883520870714536E-2
132 130 1.864878269680877E-1
132 131 2.5308097010222763E-1
132 133 1.831563888873418E-2
132 136 4.1672945106150594E-1
132 137 2.78006131988057E-2
132 138 2.5888821122129414E-2
132 140 7.851000091742548E-2
132 141 6.2123809719194525E-2
132 142 3.5856003123574225E-2
132 144 1.431273685150062E-1
132 145 8.430766922320569E-2
132 146 2.5367149863898278E-2
133 78 1.5467502259060935E-2
133 101 3.1169993968436005E-1
133 102 2.2671046194675595E-2
133 103 9.071795328941283E-2
133 104 3.6273435862092307E-1
133 105 7.026185226629951E-1
133 106 3.378443444171147E-2
133 108 4.4551426244489746E-2
133 109 2.4477706843938998E-1
133 110 3.302381484596676E-2
133 111 7.490390184368319E-2
133 112 3.42863614857706E-1
133 113 3.2826828901282823E-1
133 114 1.831563888873418E-2
133 115 1.1870100140287497E-1
133 116 2.4990694093758317E-1
133 117 2.895472972347866E-1
133 118 2.0638500010379496E-2
133 119 4.1143156395813396E-2
133 121 1.353352832366122E-1
133 123 4.058488091341424E-2
133 124 2.2945168504371442E-2
133 125 2.2660744345956346E-1
133 126 3.2717429585157026E-2
133 129 9.452195710415633E-1
133 130 3.24332408947955E-2
133 131 4.037353276346747E-2
133 132 1.831563888873418E-2
133 135 7.028671922061294E-2
133 136 3.4782190549081174E-2
133 137 2.6644680930115183E-1
133 138 2.3112681592863518E-1
133 140 1.7328649932885104E-1
133 141 4.589742999209016E-1
133 142 8.854517331628863E-2
133 143 2.2671046194675595E-2
133 144 1.6423587653856184E-1
133 145 2.555490055282234E-1
133 146 2.477465980597752E-1
133 147 4.511269667818264E-2
133 148 2.445218264725E-1
133 149 1.4435440301720182E-1
133 150 1.9377126172442395E-2
134 51 6.352622151919987E-2
134 52 4.630692467231532E-2
134 53 1.1055444206202794E-1
134 55 1.586158811769975E-1
134 57 6.948345122280176E-2
134 59 1.318653403488648E-1
134 64 1.7808573344493725E-1
134 66 5.7432619267617425E-2
134 69 3.0924996428568233E-2
134 71 6.458803982274494E-2
134 73 4.3806112419011783E-1
134 74 1.1206466084736114E-1
134 76 5.521328280404355E-2
134 77 1.8135169383187022E-1
134 78 1.783267154561527E-1
134 79 2.3398062929951117E-2
134 84 4.918028179459459E-1
134 86 1.7433132511729448E-2
134 87 1.2214283961982725E-1
134 88 2.0241911445804506E-2
134 92 6.231767384583902E-2
134 102 1.0645850437925299E-1
134 104 1.276040039797951E-1
134 109 4.623241636230084E-2
134 111 4.251515251442982E-2
134 112 2.4738105537725058E-1
134 114 5.513562700418987E-2
134 115 3.0949147146926138E-2
134 117 1.148722742871573E-1
134 120 1.7625049009658666E-1
134 122 3.618361321813415E-2
134 124 3.335244124065106E-1
134 127 2.318792628481925E-1
134 128 1.9881418873807433E-1
134 129 2.20292400394237E-2
134 135 3.096186831166039E-1
134 138 1.1988622377030042E-1
134 139 1.0063086126975207E-1
134 140 1.7510688374699268E-2
134 143 1.0645850437925299E-1
134 146 1.9187651227677214E-2
134 147 2.068507881656024E-1
134 148 8.05788945064229E-2
134 150 1.4466517663899503E-1
135 64 4.489412783991971E-2
135 73 1.5008526333580205E-1
135 74 4.646920158923974E-2
135 77 1.7694830244964634E-2
135 78 3.5266295029166866E-2
135 84 3.433635374154085E-1
135 92 1.831563888873418E-2
135 102 1.2631638626303018E-1
135 104 3.6787944117144217E-1
135 105 3.180041744537976E-2
135 109 1.4008341093702925E-1
135 111 2.0311831623192302E-2
135 112 2.1931606305183093E-1
135 113 1.8958228095913666E-2
135 114 4.6469201589239686E-2
135 117 1.845831623865619E-1
135 120 1.5535088202167824E-1
135 122 1.962336201975277E-2
135 124 8.947526116732796E-2
135 127 5.3341828391567175E-2
135 128 6.1230891834695954E-2
135 129 1.1789851882642247E-1
135 133 7.028671922061294E-2
135 134 3.096186831166039E-1
135 138 1.7228233081618755E-1
135 139 3.526629502916694E-2
135 143 1.2631638626303018E-1
135 147 1.0270832859722374E-1
135 148 5.52132828040435E-2
135 150 1.220348919117707E-1
136 101 2.8888727915666535E-2
136 103 4.7586740058638344E-1
136 105 7.433628279331622E-2
136 106 6.648703197043957E-1
136 108 4.6007244718616974E-1
136 109 6.832057564654653E-2
136 110 3.338557005962265E-1
136 113 1.2974372856972888E-1
136 116 1.831563888873418E-2
136 117 3.143241443087449E-2
136 118 3.6605374050520023E-1
136 119 4.7512086888262545E-1
136 121 2.422653855980531E-1
136 123 5.862201100539147E-1
136 125 1.1335676857487088E-1
136 126 3.9523686238441114E-1
136 129 3.3064909317165325E-2
136 130 2.4638895301852468E-1
136 131 6.129625261583606E-1
136 132 4.1672945106150594E-1
136 133 3.4782190549081174E-2
136 137 1.8009108214848624E-2
136 138 2.0267550342246816E-2
136 140 1.364821855814928E-1
136 141 1.1724847060612584E-1
136 142 6.1740810856862234E-2
136 144 2.2265991762477155E-1
136 145 1.1335676857487079E-1
136 146 4.712968033579779E-2
136 148 1.926689215280535E-2
137 71 2.083819367045274E-2
137 78 2.2955595756409194E-2
137 101 6.627028552221845E-1
137 102 1.831563888873418E-2
137 103 4.237103349160359E-2
137 104 1.3977211459652863E-1
137 105 4.0526025778326935E-1
137 106 1.831563888873418E-2
137 110 9.663231158226941E-2
137 111 2.0584225390235988E-1
137 112 6.655827366327885E-2
137 113 1.9298143424568087E-1
137 115 6.239977880609862E-2
137 116 6.16392731327227E-1
137 117 1.5902248408504557E-1
137 118 3.49710804869178E-2
137 119 1.831563888873418E-2
137 121 2.579889022095301E-1
137 123 1.7920707967108714E-2
137 125 4.185463083804127E-1
137 128 3.380668299832738E-2
137 129 2.2675821354279907E-1
137 132 2.78006131988057E-2
137 133 2.6644680930115183E-1
137 136 1.8009108214848624E-2
137 138 2.1956015436004017E-1
137 140 1.539745820313563E-1
137 141 4.464393987758159E-1
137 142 1.0123380052152514E-1
137 143 1.831563888873418E-2
137 144 2.8420356593379853E-1
137 145 5.548001685037449E-1
137 146 2.0584225390235997E-1
137 148 1.8685556227318922E-1
137 149 8.240299628128854E-1
137 150 4.978706836786401E-2
138 51 1.9589273964603526E-2
138 53 4.3020978260636195E-2
138 78 1.1283618731705682E-1
138 84 4.2787248564730686E-2
138 87 1.4918873270394881E-2
138 101 1.643570167702384E-1
138 102 2.5222974835227143E-2
138 103 5.74326192676176E-2
138 104 7.026185226629952E-1
138 105 3.468636452568923E-1
138 106 2.3718579361920268E-2
138 108 4.27050049599672E-2
138 109 1.353352832366128E-1
138 110 2.5651380331060795E-2
138 111 2.635971381157264E-1
138 112 2.800667608216489E-1
138 113 2.6808379050389375E-1
138 115 4.157202271509246E-2
138 116 2.0189651799465544E-1
138 117 8.858460329277071E-1
138 118 2.325595548514732E-2
138 119 2.1058202731996004E-2
138 121 7.744869708785163E-2
138 123 2.8634771440635733E-2
138 124 4.027109906373968E-2
138 125 3.4226672492033944E-1
138 126 6.404997742788476E-2
138 127 2.3340254280134642E-2
138 128 6.1551639619844466E-2
138 129 3.1615737996368565E-1
138 130 8.40628558369376E-2
138 131 3.0287930231406378E-2
138 132 2.5888821122129414E-2
138 133 2.3112681592863518E-1
138 134 1.1988622377030042E-1
138 135 1.7228233081618755E-1
138 136 2.0267550342246816E-2
138 137 2.1956015436004017E-1
138 140 2.0741499044340092E-1
138 141 1.9625929035122433E-1
138 142 6.948345122280139E-2
138 143 2.5222974835227143E-2
138 144 8.252750428626432E-2
138 145 1.291847630152291E-1
138 146 1.2918476301522905E-1
138 147 2.1967705889435453E-2
138 148 4.028903215291333E-1
138 149 1.8685556227318922E-1
138 150 7.84373905171305E-2
139 52 1.1048245479967773E-1
139 55 6.948345122280145E-2
139 56 4.820666138260458E-2
139 57 2.3216256062952775E-1
139 59 3.2433240894795566E-2
139 62 4.190233217493265E-2
139 64 2.4477706843938965E-1
139 66 4.3989270643575606E-2
139 67 1.154716586562727E-1
139 69 1.6651781101095952E-2
139 71 7.603529065620016E-1
139 73 6.119738655956223E-2
139 74 4.4551426244489545E-2
139 75 1.7238568331591365E-2
139 76 4.38738511739165E-2
139 77 1.66131458954756E-2
139 78 2.4133896544913207E-2
139 79 2.4477706843938976E-1
139 84 2.418700117395731E-1
139 85 6.494742287901352E-2
139 86 2.3880719563755295E-1
139 87 4.6100887528345895E-2
139 92 2.1107208779108974E-1
139 97 1.831563888873418E-2
139 98 2.1075393100618782E-2
139 102 2.932685119265629E-1
139 107 2.124036598442216E-2
139 111 5.247762340746646E-2
139 112 3.9238564085158203E-2
139 114 1.8009231214795232E-1
139 115 1.7592369694536936E-1
139 116 2.3912992862805252E-2
139 120 5.4712647675070926E-2
139 122 3.451314958305499E-1
139 124 2.4477706843938982E-1
139 127 5.528920012788017E-1
139 128 8.623033568332583E-1
139 134 1.0063086126975207E-1
139 135 3.526629502916694E-2
139 143 2.932685119265629E-1
139 147 9.407750044007376E-2
139 148 3.5673993347252374E-2
139 149 3.0688387056042987E-2
139 150 5.134171190325922E-1
140 51 3.468858745838923E-2
140 53 6.446885540666958E-2
140 78 1.8958432847222328E-1
140 87 1.831563888873418E-2
140 101 1.2210705209016254E-1
140 103 3.18906557323971E-1
140 104 9.236358572362098E-2
140 105 2.635971381157268E-1
140 106 7.1400116191005E-2
140 108 9.748640680891238E-2
140 109 9.004845114906672E-2
140 110 1.244052961144754E-1
140 111 2.971604215607206E-1
140 112 1.2651230151849477E-1
140 113 8.73863179588636E-1
140 116 2.4826503176680764E-1
140 117 2.971604215607211E-1
140 118 5.9849607922031346E-2
140 119 5.191541419732923E-2
140 121 5.3301085821083E-1
140 123 7.07571730029073E-2
140 124 2.0959389657950914E-2
140 125 4.9607362397705335E-1
140 126 1.864878269680881E-1
140 129 1.81252323043217E-1
140 130 1.9808726381359884E-1
140 131 1.244523539740004E-1
140 132 7.851000091742548E-2
140 133 1.7328649932885104E-1
140 134 1.7510688374699268E-2
140 136 1.364821855814928E-1
140 137 1.539745820313563E-1
140 138 2.0741499044340092E-1
140 141 5.478411471586528E-1
140 142 5.91406000558905E-1
140 144 2.6359713811572677E-1
140 145 3.59422819274499E-1
140 146 5.575128854939408E-1
140 148 3.7203622703650435E-1
140 149 6.948345122280149E-2
141 78 4.763212799202855E-2
141 101 4.2925064108117517E-1
141 103 2.8969169184455323E-1
141 104 1.3775192107398096E-1
141 105 6.311719237754225E-1
141 106 7.437469947607575E-2
141 108 7.096967218625351E-2
141 109 6.786292027545388E-2
141 110 2.0189651799465552E-1
141 111 1.962592903512241E-1
141 112 1.2387335384978149E-1
141 113 6.539144404639472E-1
141 115 2.304072899426994E-2
141 116 4.926459082847017E-1
141 117 2.2611181086386767E-1
141 118 6.545658639616656E-2
141 119 6.430061736185569E-2
141 121 7.805257010449492E-1
141 123 6.848100235367749E-2
141 125 6.092203699917107E-1
141 126 9.239527949897249E-2
141 129 3.845227929308427E-1
141 130 5.0583644603064255E-2
141 131 7.525850584128428E-2
141 132 6.2123809719194525E-2
141 133 4.589742999209016E-1
141 136 1.1724847060612584E-1
141 137 4.464393987758159E-1
141 138 1.9625929035122433E-1
141 140 5.478411471586528E-1
141 142 3.4578195077546076E-1
141 144 6.539144404639459E-1
141 145 8.302349785034864E-1
141 146 5.287877578145117E-1
141 147 1.831563888873418E-2
141 148 2.698916995377073E-1
141 149 2.514450069850064E-1
142 51 3.5874408514571555E-2
142 53 6.408949920213616E-2
142 77 1.7590363761946802E-2
142 78 1.8323795010446808E-1
142 87 3.3576146358487546E-2
142 101 5.743261926761722E-2
142 103 6.197945121106565E-2
142 104 2.6347980814448606E-2
142 105 7.226242601634503E-2
142 106 2.246226772829291E-2
142 108 1.831563888873418E-2
142 110 5.473438492058368E-2
142 111 3.497610574970804E-1
142 112 8.503890131597766E-2
142 113 4.111122905071866E-1
142 116 2.97565410147565E-1
142 117 9.599738346733382E-2
142 118 2.518285080339266E-2
142 119 2.1453650424734638E-2
142 121 2.242599307036492E-1
142 123 2.5124201210578827E-2
142 124 3.790291440095842E-2
142 125 1.437910694778405E-1
142 126 2.8955800485937006E-2
142 127 2.4302605378233835E-2
142 128 2.2416011015397336E-2
142 129 7.843739051713046E-2
142 130 3.24332408947955E-2
142 131 2.752076767173659E-2
142 132 3.5856003123574225E-2
142 133 8.854517331628863E-2
142 136 6.1740810856862234E-2
142 137 1.0123380052152514E-1
142 138 6.948345122280139E-2
142 140 5.91406000558905E-1
142 141 3.4578195077546076E-1
142 144 6.948345122280106E-2
142 145 2.2573984004778053E-1
142 146 7.847231940537551E-1
142 147 2.7434344654582984E-2
142 148 3.3591098123916174E-1
142 149 6.673199825949591E-2
143 56 1.931899120415903E-2
143 64 5.6134762834133975E-2
143 67 3.1220927161231055E-2
143 71 1.466069621303503E-1
143 73 7.32898366888846E-2
143 74 1.831563888873428E-2
143 79 4.0762203978366426E-2
143 84 4.9990693227598243E-1
143 85 2.0267550342246914E-2
143 92 2.660471916620947E-2
143 102 1
143 104 5.321934433892163E-2
143 107 4.5665154610630324E-2
143 111 1.831563888873418E-2
143 112 1.1844182901380333E-1
143 114 7.51477293075286E-1
143 115 4.2636520280380574E-1
143 117 1.8315638888734165E-2
143 120 1.7625049009658628E-1
143 122 6.534221277144163E-1
143 124 2.0189651799465588E-1
143 127 2.3692775868212182E-1
143 128 2.9326851192656334E-1
143 129 2.959943516789196E-2
143 133 2.2671046194675595E-2
143 134 1.0645850437925299E-1
143 135 1.2631638626303018E-1
143 137 1.831563888873418E-2
143 138 2.5222974835227143E-2
143 139 2.932685119265629E-1
143 147 2.0189651799465544E-1
143 148 4.076220397836619E-2
143 149 2.0838193670452677E-2
143 150 5.561781253709419E-1
144 101 4.923470482312128E-1
144 103 5.232902237928329E-1
144 104 5.3679119844330964E-2
144 105 5.553063730019504E-1
144 106 1.9276980861250237E-1
144 108 2.0447663029784313E-1
144 109 5.9915813233781784E-2
144 110 4.308026151974353E-1
144 111 2.939643941132338E-2
144 112 1.831563888873418E-2
144 113 3.5620172529821914E-1
144 116 1.0682544414371142E-1
144 117 9.802030330762172E-2
144 118 1.63499511955352E-1
144 119 1.3284069492914458E-1
144 121 8.064980788999422E-1
144 123 1.567879481320841E-1
144 125 6.620785105893812E-1
144 126 2.773589542199099E-1
144 129 1.4435440301720165E-1
144 130 1.0836802322189576E-1
144 131 1.782530875812882E-1
144 132 1.431273685150062E-1
144 133 1.6423587653856184E-1
144 136 2.2265991762477155E-1
144 137 2.8420356593379853E-1
144 138 8.252750428626432E-2
144 140 2.6359713811572677E-1
144 141 6.539144404639459E-1
144 142 6.948345122280106E-2
144 145 7.333901020747713E-1
144 146 9.802030330762168E-2
144 148 4.7181026843412244E-2
144 149 6.1072174559176434E-2
145 78 2.2755560714670546E-2
145 101 5.647181220077591E-1
145 103 2.4774659805977525E-1
145 104 7.865880855101748E-2
145 105 4.900840879331295E-1
145 106 7.853446648311024E-2
145 108 5.505234057441335E-2
145 109 2.9162147739668354E-2
145 110 3.490180709313202E-1
145 111 1.2918476301522877E-1
145 112 4.9402614159271836E-2
145 113 3.944619643633247E-1
145 116 3.944619643633242E-1
145 117 1.29184763015229E-1
145 118 9.745561757685575E-2
145 119 6.311538639770702E-2
145 121 7.564871232025191E-1
145 123 6.555959908737204E-2
145 125 6.088861156307176E-1
145 126 7.69279894859621E-2
145 129 2.0568789151446915E-1
145 130 2.740857866008953E-2
145 131 4.890067534520516E-2
145 132 8.430766922320569E-2
145 133 2.555490055282234E-1
145 136 1.1335676857487079E-1
145 137 5.548001685037449E-1
145 138 1.291847630152291E-1
145 140 3.59422819274499E-1
145 141 8.302349785034864E-1
145 142 2.2573984004778053E-1
145 144 7.333901020747713E-1
145 146 3.0780322697178464E-1
145 148 1.4177863132802293E-1
145 149 2.9840539663402604E-1
146 51 1.831563888873418E-2
146 53 3.0028210849647945E-2
146 78 1.5560024132937256E-1
146 101 1.1934768946401304E-1
146 103 7.218150505502328E-2
146 104 6.73619865055597E-2
146 105 2.0031920950188117E-1
146 106 2.185929053500591E-2
146 108 2.079555799496735E-2
146 109 4.1370583872318956E-2
146 110 4.6250444210137465E-2
146 111 4.3291697962709846E-1
146 112 1.9634008874051204E-1
146 113 5.214390995756888E-1
146 115 5.770225548368865E-2
146 116 5.214390995756883E-1
146 117 1.707692821899428E-1
146 118 2.0638500010379507E-2
146 119 2.3111109173288978E-2
146 121 2.154807456137125E-1
146 123 2.5124201210578873E-2
146 124 6.430061736185558E-2
146 125 2.0866810381566414E-1
146 126 2.724041848006596E-2
146 127 3.854943044663195E-2
146 128 3.8549430446631915E-2
146 129 2.1548074561371314E-1
146 130 3.0437998755269622E-2
146 131 2.7520767671736664E-2
146 132 2.5367149863898278E-2
146 133 2.477465980597752E-1
146 134 1.9187651227677214E-2
146 136 4.712968033579779E-2
146 137 2.0584225390235997E-1
146 138 1.2918476301522905E-1
146 140 5.575128854939408E-1
146 141 5.287877578145117E-1
146 142 7.847231940537551E-1
146 144 9.802030330762168E-2
146 145 3.0780322697178464E-1
146 147 5.8588942055772114E-2
146 148 5.462649509478215E-1
146 149 1.4435440301720168E-1
147 53 1.831563888873418E-2
147 55 6.539740322986003E-2
147 59 1.831563888873418E-2
147 64 3.790291440095847E-2
147 69 8.816268936235747E-2
147 71 2.1588026679968866E-2
147 73 3.5689879303155103E-1
147 77 4.6274198931859675E-2
147 78 6.539740322986003E-2
147 79 1.831563888873418E-2
147 84 2.480960290287707E-1
147 87 1.9279403121296272E-2
147 88 2.237077185616564E-2
147 102 2.0189651799465544E-1
147 104 4.4261189969806894E-2
147 105 1.831563888873418E-2
147 109 4.9787068367863965E-2
147 111 3.567399334725231E-2
147 112 4.280630211831756E-1
147 113 1.831563888873418E-2
147 114 2.208648988904685E-1
147 115 1.3984604853534813E-1
147 116 1.831563888873413E-2
147 117 3.5673993347252325E-2
147 120 2.771992082463746E-1
147 122 7.78328664265455E-2
147 124 6.951439283988787E-1
147 127 4.0289032152913307E-1
147 128 1.5277517560171444E-1
147 129 4.830099924173013E-2
147 133 4.511269667818264E-2
147 134 2.068507881656024E-1
147 135 1.0270832859722374E-1
147 138 2.1967705889435453E-2
147 139 9.407750044007376E-2
147 141 1.831563888873418E-2
147 142 2.7434344654582984E-2
147 143 2.0189651799465544E-1
147 146 5.8588942055772114E-2
147 148 1.2737674846737743E-1
147 150 7.382479663392849E-2
148 51 4.854762111853604E-2
148 53 1.0105050562230375E-1
148 57 3.2433240894795566E-2
148 66 1.831563888873418E-2
148 71 3.7340706031090395E-2
148 73 1.831563888873418E-2
148 77 4.197287480504469E-2
148 78 3.096186831166032E-1
148 84 3.724183396351997E-2
148 87 5.957538339522333E-2
148 101 9.71568523992339E-2
148 102 4.076220397836619E-2
148 103 3.7771875933946576E-2
148 104 2.2979027467301746E-1
148 105 2.0833093062499142E-1
148 106 1.3213310156421272E-2
148 108 1.793207946628102E-2
148 109 7.7649081703476E-2
148 110 1.793407702442382E-2
148 111 7.040702133096358E-1
148 112 4.667764816516822E-1
148 113 3.8211819147794507E-1
148 114 2.246226772829291E-2
148 115 1.0075313447618746E-1
148 116 4.4932896411722184E-1
148 117 4.2636520280380585E-1
148 121 8.113604973254766E-2
148 122 1.831563888873418E-2
148 124 1.457407492241694E-1
148 125 2.0023823973358082E-1
148 126 2.485599051350493E-2
148 127 8.677432947392916E-2
148 128 1.1670006903291094E-1
148 129 2.5824509772196297E-1
148 130 4.050421620952446E-2
148 131 1.831563888873418E-2
148 133 2.445218264725E-1
148 134 8.05788945064229E-2
148 135 5.52132828040435E-2
148 136 1.926689215280535E-2
148 137 1.8685556227318922E-1
148 138 4.028903215291333E-1
148 139 3.5673993347252374E-2
148 140 3.7203622703650435E-1
148 141 2.698916995377073E-1
148 142 3.3591098123916174E-1
148 143 4.076220397836619E-2
148 144 4.7181026843412244E-2
148 145 1.4177863132802293E-1
148 146 5.462649509478215E-1
148 147 1.2737674846737743E-1
148 149 1.9506769981147226E-1
148 150 6.500225396303444E-2
149 71 4.146955651386068E-2
149 78 1.831563888873418E-2
149 101 3.828928859751124E-1
149 102 2.0838193670452677E-2
149 104 9.389375538049516E-2
149 105 1.9261559277384047E-1
149 110 3.668955541969817E-2
149 111 2.6359713811572655E-1
149 112 4.9254591456217654E-2
149 113 8.615451547953669E-2
149 115 1.3097001367260347E-1
149 116 6.790253796134037E-1
149 117 1.1152032841273743E-1
149 118 1.674673041606164E-2
149 121 6.948345122280149E-2
149 125 2.0023823973358104E-1
149 127 1.542072321641286E-2
149 128 5.6038269926527384E-2
149 129 1.268796691054283E-1
149 133 1.4435440301720182E-1
149 137 8.240299628128854E-1
149 138 1.8685556227318922E-1
149 139 3.0688387056042987E-2
149 140 6.948345122280149E-2
149 141 2.514450069850064E-1
149 142 6.673199825949591E-2
149 143 2.0838193670452677E-2
149 144 6.1072174559176434E-2
149 145 2.9840539663402604E-1
149 146 1.4435440301720168E-1
149 148 1.9506769981147226E-1
149 150 7.905318631078657E-2
150 57 5.743261926761773E-2
150 64 8.486727897001753E-2
150 67 3.243324089479555E-2
150 71 4.905006047149809E-1
150 73 3.2433240894795656E-2
150 74 1.831563888873418E-2
150 79 4.357231386892159E-2
150 84 4.052602577832698E-1
150 85 2.8888727915666712E-2
150 86 5.9915813233781805E-2
150 92 4.978706836786383E-2
150 101 2.893055017100333E-2
150 102 5.561781253709419E-1
150 104 8.453511783334196E-2
150 105 1.904816869120803E-2
150 107 1.8315638888734147E-2
150 111 5.3219344338921434E-2
150 112 8.406285583693764E-2
150 114 2.4963508136045068E-1
150 115 2.6073198019521054E-1
150 116 4.5350533731266E-2
150 117 3.304661741011954E-2
150 120 5.900172021911409E-2
150 122 4.091730851937949E-1
150 124 1.4466517663899545E-1
150 127 2.3069318225496266E-1
150 128 5.866462195100336E-1
150 129 2.0714464037996195E-2
150 133 1.9377126172442395E-2
150 134 1.4466517663899503E-1
150 135 1.220348919117707E-1
150 137 4.978706836786401E-2
150 138 7.84373905171305E-2
150 139 5.134171190325922E-1
150 143 5.561781253709419E-1
150 147 7.382479663392849E-2
150 148 6.500225396303444E-2
150 149 7.905318631078657E-2
