%%MatrixMarket matrix coordinate real general
%
198 198 5484
1 8 2
1 24 2
1 35 2
1 42 2
1 46 2
1 60 2
1 74 2
1 78 2
1 81 2
1 95 2
1 98 2
1 99 2
1 100 2
1 101 2
1 103 2
1 104 2
1 108 2
1 131 2
1 132 2
1 154 2
1 159 2
1 168 2
1 171 2
2 14 2
2 54 2
2 150 2
3 115 2
3 153 2
3 167 2
3 172 2
4 5 2
4 13 2
4 26 2
4 77 2
4 85 2
4 102 2
4 138 2
4 147 2
4 153 2
4 156 2
4 167 2
4 169 2
4 172 2
4 173 2
4 176 2
4 189 2
5 4 2
5 13 2
5 19 2
5 21 2
5 26 2
5 27 2
5 28 2
5 29 2
5 51 2
5 53 2
5 54 2
5 57 2
5 73 2
5 75 2
5 76 2
5 77 2
5 79 2
5 85 2
5 86 2
5 90 2
5 96 2
5 97 2
5 102 2
5 124 2
5 126 2
5 128 2
5 136 2
5 138 2
5 140 2
5 144 2
5 147 2
5 149 2
5 153 2
5 155 2
5 156 2
5 163 2
5 167 2
5 169 2
5 172 2
5 173 2
5 176 2
5 189 2
5 191 2
5 194 2
5 196 2
5 197 2
6 152 2
6 157 2
7 10 2
7 11 2
7 14 2
7 19 2
7 36 2
7 49 2
7 53 2
7 55 2
7 56 2
7 57 2
7 60 2
7 61 2
7 67 2
7 69 2
7 70 2
7 71 2
7 72 2
7 74 2
7 81 2
7 83 2
7 87 2
7 93 2
7 94 2
7 95 2
7 103 2
7 108 2
7 111 2
7 112 2
7 113 2
7 114 2
7 122 2
7 125 2
7 127 2
7 129 2
7 130 2
7 132 2
7 136 2
7 141 2
7 146 2
7 150 2
7 151 2
7 158 2
7 161 2
7 164 2
7 168 2
7 170 2
7 171 2
7 177 2
7 178 2
7 185 2
7 190 2
7 192 2
7 193 2
7 194 2
7 195 2
7 196 2
7 197 2
8 1 2
8 35 2
8 46 2
8 60 2
8 89 2
8 95 2
8 98 2
8 99 2
8 100 2
8 101 2
8 110 2
8 118 2
8 121 2
8 131 2
8 132 2
8 136 2
8 142 2
8 154 2
8 168 2
8 171 2
8 174 2
9 11 2
9 23 2
9 32 2
9 38 2
9 71 2
9 80 2
9 111 2
9 116 2
9 117 2
9 118 2
9 121 2
9 122 2
9 135 2
9 137 2
9 139 2
9 153 2
9 162 2
9 168 2
9 179 2
9 189 2
10 7 2
10 11 2
10 14 2
10 49 2
10 53 2
10 57 2
10 60 2
10 61 2
10 69 2
10 70 2
10 71 2
10 74 2
10 87 2
10 103 2
10 112 2
10 113 2
10 114 2
10 127 2
10 130 2
10 141 2
10 151 2
10 158 2
10 161 2
10 164 2
10 192 2
10 195 2
10 196 2
11 7 2
11 9 2
11 10 2
11 23 2
11 32 2
11 38 2
11 49 2
11 53 2
11 57 2
11 71 2
11 80 2
11 112 2
11 113 2
11 114 2
11 135 2
11 139 2
11 158 2
11 161 2
11 162 2
11 164 2
11 179 2
11 189 2
11 196 2
12 18 2
12 19 2
12 31 2
12 49 2
12 53 2
12 54 2
12 55 2
12 56 2
12 57 2
12 60 2
12 61 2
12 71 2
12 73 2
12 83 2
12 114 2
12 129 2
12 170 2
12 194 2
12 195 2
12 196 2
12 197 2
13 4 2
13 5 2
13 25 2
13 26 2
13 28 2
13 73 2
13 85 2
13 86 2
13 92 2
13 102 2
13 128 2
13 140 2
13 147 2
13 148 2
13 149 2
13 153 2
13 155 2
13 156 2
13 167 2
13 169 2
13 172 2
13 173 2
13 176 2
13 189 2
13 191 2
14 2 2
14 7 2
14 10 2
14 54 2
14 60 2
14 61 2
14 69 2
14 70 2
14 87 2
14 96 2
14 112 2
14 114 2
14 127 2
14 130 2
14 141 2
14 150 2
14 151 2
14 158 2
14 161 2
14 164 2
14 185 2
14 186 2
14 192 2
14 194 2
14 195 2
15 16 2
15 24 2
15 48 2
15 81 2
15 91 2
15 104 2
15 105 2
15 107 2
16 15 2
16 24 2
16 48 2
16 78 2
16 81 2
16 91 2
16 104 2
16 105 2
16 107 2
17 62 2
17 136 2
18 12 2
18 19 2
18 29 2
18 31 2
18 50 2
18 53 2
18 54 2
18 55 2
18 56 2
18 57 2
18 60 2
18 61 2
18 73 2
18 77 2
18 86 2
18 88 2
18 90 2
18 96 2
18 114 2
18 128 2
18 129 2
18 131 2
18 132 2
18 136 2
18 140 2
18 147 2
18 149 2
18 158 2
18 167 2
18 172 2
18 183 2
18 184 2
18 191 2
18 194 2
18 195 2
18 196 2
18 197 2
19 5 2
19 7 2
19 12 2
19 18 2
19 20 2
19 31 2
19 49 2
19 53 2
19 54 2
19 55 2
19 56 2
19 57 2
19 60 2
19 61 2
19 70 2
19 129 2
19 130 2
19 136 2
19 185 2
19 192 2
19 194 2
19 195 2
19 196 2
19 197 2
20 19 2
20 24 2
20 60 2
20 70 2
20 78 2
20 80 2
20 87 2
20 136 2
20 137 2
20 158 2
20 168 2
21 5 2
22 43 2
22 81 2
22 83 2
22 98 2
22 99 2
22 100 2
22 101 2
22 105 2
22 108 2
22 131 2
22 132 2
22 136 2
22 164 2
22 170 2
22 174 2
22 178 2
22 182 2
22 194 2
22 197 2
23 9 2
23 11 2
23 32 2
23 38 2
23 60 2
23 80 2
23 111 2
23 135 2
23 139 2
23 162 2
23 168 2
23 179 2
23 189 2
24 1 2
24 15 2
24 16 2
24 20 2
24 35 2
24 42 2
24 43 2
24 46 2
24 48 2
24 60 2
24 74 2
24 78 2
24 80 2
24 81 2
24 91 2
24 99 2
24 100 2
24 103 2
24 104 2
24 105 2
24 107 2
24 108 2
24 132 2
24 136 2
24 154 2
24 168 2
24 171 2
24 174 2
24 182 2
25 13 2
25 92 2
25 117 2
25 148 2
25 149 2
25 153 2
26 4 2
26 5 2
26 13 2
26 28 2
26 29 2
26 73 2
26 77 2
26 85 2
26 86 2
26 90 2
26 96 2
26 102 2
26 124 2
26 128 2
26 138 2
26 140 2
26 147 2
26 149 2
26 153 2
26 155 2
26 156 2
26 167 2
26 169 2
26 172 2
26 173 2
26 176 2
26 178 2
26 184 2
26 189 2
26 191 2
26 198 2
27 5 2
27 29 2
27 51 2
27 76 2
27 96 2
27 126 2
27 128 2
27 144 2
27 147 2
27 149 2
27 153 2
27 167 2
27 172 2
28 5 2
28 13 2
28 26 2
28 29 2
28 73 2
28 77 2
28 85 2
28 86 2
28 90 2
28 96 2
28 102 2
28 124 2
28 128 2
28 138 2
28 140 2
28 147 2
28 149 2
28 153 2
28 155 2
28 156 2
28 167 2
28 172 2
28 173 2
28 176 2
28 184 2
28 189 2
28 191 2
28 198 2
29 5 2
29 18 2
29 26 2
29 27 2
29 28 2
29 51 2
29 73 2
29 76 2
29 77 2
29 86 2
29 88 2
29 90 2
29 96 2
29 97 2
29 124 2
29 126 2
29 128 2
29 136 2
29 138 2
29 140 2
29 144 2
29 147 2
29 149 2
29 153 2
29 167 2
29 169 2
29 172 2
29 176 2
29 184 2
29 191 2
29 198 2
30 34 2
31 12 2
31 18 2
31 19 2
31 32 2
31 53 2
31 54 2
31 55 2
31 56 2
31 57 2
31 60 2
31 61 2
31 106 2
31 111 2
31 123 2
31 129 2
31 170 2
31 194 2
31 195 2
31 196 2
31 197 2
32 9 2
32 11 2
32 23 2
32 31 2
32 33 2
32 35 2
32 38 2
32 40 2
32 44 2
32 58 2
32 60 2
32 61 2
32 62 2
32 63 2
32 64 2
32 65 2
32 66 2
32 80 2
32 91 2
32 98 2
32 99 2
32 100 2
32 101 2
32 105 2
32 106 2
32 107 2
32 108 2
32 109 2
32 110 2
32 111 2
32 122 2
32 123 2
32 131 2
32 132 2
32 135 2
32 139 2
32 154 2
32 162 2
32 168 2
32 179 2
32 189 2
33 32 2
33 35 2
33 38 2
33 40 2
33 44 2
33 58 2
33 60 2
33 62 2
33 63 2
33 64 2
33 65 2
33 66 2
33 91 2
33 98 2
33 99 2
33 100 2
33 101 2
33 105 2
33 106 2
33 107 2
33 108 2
33 109 2
33 110 2
33 116 2
33 119 2
33 122 2
33 123 2
33 131 2
33 132 2
33 134 2
33 135 2
33 154 2
33 168 2
33 179 2
34 30 2
34 70 2
34 83 2
34 192 2
35 1 2
35 8 2
35 24 2
35 32 2
35 33 2
35 40 2
35 44 2
35 46 2
35 58 2
35 60 2
35 62 2
35 63 2
35 64 2
35 65 2
35 66 2
35 68 2
35 74 2
35 78 2
35 95 2
35 98 2
35 99 2
35 100 2
35 101 2
35 103 2
35 104 2
35 105 2
35 106 2
35 107 2
35 108 2
35 109 2
35 110 2
35 122 2
35 123 2
35 131 2
35 132 2
35 135 2
35 154 2
35 166 2
35 168 2
35 170 2
35 171 2
35 179 2
35 187 2
36 7 2
36 49 2
36 53 2
36 54 2
36 55 2
36 56 2
36 60 2
36 67 2
36 70 2
36 72 2
36 81 2
36 83 2
36 87 2
36 129 2
36 150 2
36 158 2
36 161 2
36 164 2
36 170 2
36 174 2
36 178 2
36 192 2
36 194 2
36 195 2
36 196 2
36 197 2
37 90 2
37 133 2
37 153 2
37 155 2
37 180 2
38 9 2
38 11 2
38 23 2
38 32 2
38 33 2
38 40 2
38 44 2
38 63 2
38 80 2
38 91 2
38 105 2
38 116 2
38 119 2
38 134 2
38 135 2
38 139 2
38 162 2
38 179 2
38 189 2
39 51 2
39 80 2
39 116 2
39 149 2
39 153 2
39 181 2
40 32 2
40 33 2
40 35 2
40 38 2
40 44 2
40 58 2
40 60 2
40 62 2
40 63 2
40 64 2
40 65 2
40 66 2
40 91 2
40 98 2
40 99 2
40 100 2
40 101 2
40 105 2
40 106 2
40 107 2
40 108 2
40 109 2
40 110 2
40 116 2
40 119 2
40 122 2
40 123 2
40 131 2
40 132 2
40 134 2
40 135 2
40 154 2
40 168 2
40 179 2
41 45 2
41 77 2
41 86 2
41 88 2
41 96 2
41 97 2
41 136 2
42 1 2
42 24 2
42 46 2
42 50 2
42 81 2
42 104 2
42 106 2
42 123 2
42 136 2
42 159 2
42 182 2
42 183 2
43 22 2
43 24 2
43 59 2
43 78 2
43 81 2
43 82 2
43 83 2
43 98 2
43 99 2
43 100 2
43 101 2
43 105 2
43 108 2
43 118 2
43 121 2
43 122 2
43 131 2
43 132 2
43 136 2
43 143 2
43 158 2
43 162 2
43 164 2
43 170 2
43 174 2
43 178 2
43 182 2
43 194 2
43 197 2
44 32 2
44 33 2
44 35 2
44 38 2
44 40 2
44 50 2
44 58 2
44 60 2
44 62 2
44 63 2
44 64 2
44 65 2
44 66 2
44 68 2
44 91 2
44 98 2
44 99 2
44 100 2
44 101 2
44 105 2
44 106 2
44 107 2
44 108 2
44 109 2
44 110 2
44 122 2
44 123 2
44 131 2
44 132 2
44 135 2
44 139 2
44 154 2
44 166 2
44 168 2
44 171 2
44 179 2
44 187 2
45 41 2
45 77 2
45 86 2
45 88 2
45 96 2
45 97 2
45 136 2
46 1 2
46 8 2
46 24 2
46 35 2
46 42 2
46 50 2
46 60 2
46 81 2
46 95 2
46 98 2
46 99 2
46 100 2
46 101 2
46 104 2
46 106 2
46 123 2
46 131 2
46 132 2
46 154 2
46 159 2
46 168 2
46 171 2
46 183 2
47 155 2
47 167 2
47 180 2
48 15 2
48 16 2
48 24 2
48 81 2
48 91 2
48 104 2
48 105 2
48 107 2
49 7 2
49 10 2
49 11 2
49 12 2
49 19 2
49 36 2
49 52 2
49 53 2
49 54 2
49 57 2
49 60 2
49 67 2
49 69 2
49 70 2
49 71 2
49 79 2
49 83 2
49 90 2
49 112 2
49 113 2
49 114 2
49 118 2
49 121 2
49 125 2
49 127 2
49 130 2
49 136 2
49 142 2
49 143 2
49 149 2
49 150 2
49 158 2
49 161 2
49 162 2
49 164 2
49 174 2
49 178 2
49 185 2
49 192 2
49 194 2
49 195 2
49 196 2
50 18 2
50 42 2
50 44 2
50 46 2
50 53 2
50 56 2
50 60 2
50 64 2
50 65 2
50 66 2
50 68 2
50 81 2
50 88 2
50 106 2
50 110 2
50 111 2
50 114 2
50 123 2
50 131 2
50 132 2
50 139 2
50 158 2
50 166 2
50 168 2
50 179 2
50 183 2
50 196 2
51 5 2
51 27 2
51 29 2
51 39 2
51 75 2
51 76 2
51 79 2
51 96 2
51 126 2
51 128 2
51 136 2
51 144 2
51 147 2
51 149 2
51 153 2
51 167 2
51 172 2
51 174 2
51 181 2
52 49 2
52 53 2
52 60 2
52 83 2
52 88 2
52 196 2
53 5 2
53 7 2
53 10 2
53 11 2
53 12 2
53 18 2
53 19 2
53 31 2
53 36 2
53 49 2
53 50 2
53 52 2
53 54 2
53 55 2
53 56 2
53 57 2
53 60 2
53 61 2
53 67 2
53 71 2
53 81 2
53 83 2
53 88 2
53 111 2
53 112 2
53 113 2
53 114 2
53 129 2
53 131 2
53 132 2
53 149 2
53 150 2
53 158 2
53 161 2
53 164 2
53 170 2
53 178 2
53 183 2
53 194 2
53 195 2
53 196 2
53 197 2
54 2 2
54 5 2
54 12 2
54 14 2
54 18 2
54 19 2
54 31 2
54 36 2
54 49 2
54 53 2
54 55 2
54 56 2
54 57 2
54 60 2
54 61 2
54 67 2
54 69 2
54 70 2
54 83 2
54 87 2
54 93 2
54 94 2
54 96 2
54 111 2
54 125 2
54 129 2
54 130 2
54 146 2
54 149 2
54 150 2
54 158 2
54 161 2
54 164 2
54 168 2
54 170 2
54 174 2
54 177 2
54 178 2
54 186 2
54 190 2
54 192 2
54 193 2
54 194 2
54 195 2
54 196 2
54 197 2
55 7 2
55 12 2
55 18 2
55 19 2
55 31 2
55 36 2
55 53 2
55 54 2
55 56 2
55 57 2
55 60 2
55 61 2
55 67 2
55 81 2
55 83 2
55 129 2
55 150 2
55 158 2
55 164 2
55 170 2
55 178 2
55 194 2
55 195 2
55 196 2
55 197 2
56 7 2
56 12 2
56 18 2
56 19 2
56 31 2
56 36 2
56 50 2
56 53 2
56 54 2
56 55 2
56 57 2
56 60 2
56 61 2
56 67 2
56 81 2
56 83 2
56 88 2
56 111 2
56 114 2
56 129 2
56 131 2
56 132 2
56 150 2
56 158 2
56 164 2
56 170 2
56 178 2
56 183 2
56 194 2
56 195 2
56 196 2
56 197 2
57 5 2
57 7 2
57 10 2
57 11 2
57 12 2
57 18 2
57 19 2
57 31 2
57 49 2
57 53 2
57 54 2
57 55 2
57 56 2
57 60 2
57 61 2
57 70 2
57 71 2
57 83 2
57 89 2
57 111 2
57 112 2
57 113 2
57 114 2
57 121 2
57 129 2
57 130 2
57 136 2
57 142 2
57 158 2
57 161 2
57 164 2
57 185 2
57 192 2
57 194 2
57 195 2
57 196 2
57 197 2
58 32 2
58 33 2
58 35 2
58 40 2
58 44 2
58 60 2
58 62 2
58 63 2
58 64 2
58 65 2
58 66 2
58 98 2
58 99 2
58 100 2
58 101 2
58 105 2
58 106 2
58 107 2
58 108 2
58 109 2
58 110 2
58 122 2
58 123 2
58 131 2
58 132 2
58 135 2
58 154 2
58 162 2
58 168 2
58 179 2
58 187 2
58 188 2
59 43 2
59 82 2
59 99 2
59 100 2
59 118 2
59 121 2
59 122 2
59 136 2
59 143 2
59 158 2
59 162 2
59 174 2
60 1 2
60 7 2
60 8 2
60 10 2
60 12 2
60 14 2
60 18 2
60 19 2
60 20 2
60 23 2
60 24 2
60 31 2
60 32 2
60 33 2
60 35 2
60 36 2
60 40 2
60 44 2
60 46 2
60 49 2
60 50 2
60 52 2
60 53 2
60 54 2
60 55 2
60 56 2
60 57 2
60 58 2
60 61 2
60 62 2
60 63 2
60 64 2
60 65 2
60 66 2
60 68 2
60 69 2
60 70 2
60 72 2
60 78 2
60 80 2
60 81 2
60 83 2
60 88 2
60 89 2
60 91 2
60 93 2
60 94 2
60 95 2
60 98 2
60 99 2
60 100 2
60 101 2
60 105 2
60 106 2
60 107 2
60 108 2
60 109 2
60 110 2
60 111 2
60 112 2
60 114 2
60 118 2
60 121 2
60 122 2
60 123 2
60 125 2
60 127 2
60 129 2
60 130 2
60 131 2
60 132 2
60 135 2
60 136 2
60 141 2
60 142 2
60 146 2
60 150 2
60 151 2
60 154 2
60 158 2
60 161 2
60 164 2
60 166 2
60 168 2
60 171 2
60 174 2
60 179 2
60 183 2
60 187 2
60 190 2
60 192 2
60 193 2
60 194 2
60 195 2
60 196 2
60 197 2
61 7 2
61 10 2
61 12 2
61 14 2
61 18 2
61 19 2
61 31 2
61 32 2
61 53 2
61 54 2
61 55 2
61 56 2
61 57 2
61 60 2
61 69 2
61 70 2
61 106 2
61 111 2
61 112 2
61 114 2
61 123 2
61 127 2
61 129 2
61 130 2
61 141 2
61 151 2
61 158 2
61 177 2
61 192 2
61 194 2
61 195 2
61 196 2
61 197 2
62 17 2
62 32 2
62 33 2
62 35 2
62 40 2
62 44 2
62 58 2
62 60 2
62 63 2
62 64 2
62 65 2
62 66 2
62 98 2
62 99 2
62 100 2
62 101 2
62 105 2
62 106 2
62 107 2
62 108 2
62 109 2
62 110 2
62 122 2
62 123 2
62 131 2
62 132 2
62 135 2
62 154 2
62 168 2
62 179 2
63 32 2
63 33 2
63 35 2
63 38 2
63 40 2
63 44 2
63 58 2
63 60 2
63 62 2
63 64 2
63 65 2
63 66 2
63 91 2
63 98 2
63 99 2
63 100 2
63 101 2
63 105 2
63 106 2
63 107 2
63 108 2
63 109 2
63 110 2
63 122 2
63 123 2
63 131 2
63 132 2
63 135 2
63 154 2
63 168 2
63 179 2
64 32 2
64 33 2
64 35 2
64 40 2
64 44 2
64 50 2
64 58 2
64 60 2
64 62 2
64 63 2
64 65 2
64 66 2
64 98 2
64 99 2
64 100 2
64 101 2
64 105 2
64 106 2
64 107 2
64 108 2
64 109 2
64 110 2
64 122 2
64 123 2
64 131 2
64 132 2
64 135 2
64 139 2
64 154 2
64 168 2
64 170 2
64 179 2
65 32 2
65 33 2
65 35 2
65 40 2
65 44 2
65 50 2
65 58 2
65 60 2
65 62 2
65 63 2
65 64 2
65 66 2
65 98 2
65 99 2
65 100 2
65 101 2
65 105 2
65 106 2
65 107 2
65 108 2
65 109 2
65 110 2
65 122 2
65 123 2
65 131 2
65 132 2
65 135 2
65 136 2
65 139 2
65 154 2
65 168 2
65 170 2
65 179 2
66 32 2
66 33 2
66 35 2
66 40 2
66 44 2
66 50 2
66 58 2
66 60 2
66 62 2
66 63 2
66 64 2
66 65 2
66 98 2
66 99 2
66 100 2
66 101 2
66 105 2
66 106 2
66 107 2
66 108 2
66 109 2
66 110 2
66 122 2
66 123 2
66 131 2
66 132 2
66 135 2
66 136 2
66 139 2
66 154 2
66 168 2
66 170 2
66 179 2
66 182 2
67 7 2
67 36 2
67 49 2
67 53 2
67 54 2
67 55 2
67 56 2
67 70 2
67 81 2
67 83 2
67 84 2
67 87 2
67 103 2
67 127 2
67 134 2
67 135 2
67 136 2
67 149 2
67 150 2
67 158 2
67 159 2
67 164 2
67 170 2
67 174 2
67 178 2
67 192 2
67 194 2
67 195 2
67 196 2
68 35 2
68 44 2
68 50 2
68 60 2
68 99 2
68 101 2
68 132 2
68 135 2
68 154 2
68 166 2
68 168 2
68 171 2
68 183 2
68 187 2
69 7 2
69 10 2
69 14 2
69 49 2
69 54 2
69 60 2
69 61 2
69 70 2
69 73 2
69 86 2
69 87 2
69 88 2
69 90 2
69 93 2
69 94 2
69 95 2
69 96 2
69 99 2
69 108 2
69 109 2
69 110 2
69 111 2
69 112 2
69 114 2
69 118 2
69 121 2
69 122 2
69 125 2
69 127 2
69 130 2
69 132 2
69 136 2
69 141 2
69 142 2
69 143 2
69 146 2
69 150 2
69 151 2
69 158 2
69 161 2
69 164 2
69 168 2
69 171 2
69 174 2
69 175 2
69 177 2
69 183 2
69 186 2
69 190 2
69 192 2
69 193 2
69 194 2
69 195 2
70 7 2
70 10 2
70 14 2
70 19 2
70 20 2
70 34 2
70 36 2
70 49 2
70 54 2
70 57 2
70 60 2
70 61 2
70 67 2
70 69 2
70 73 2
70 83 2
70 86 2
70 87 2
70 88 2
70 93 2
70 94 2
70 95 2
70 96 2
70 99 2
70 108 2
70 110 2
70 111 2
70 112 2
70 114 2
70 118 2
70 121 2
70 122 2
70 125 2
70 127 2
70 130 2
70 132 2
70 136 2
70 141 2
70 142 2
70 143 2
70 146 2
70 150 2
70 151 2
70 158 2
70 161 2
70 164 2
70 167 2
70 168 2
70 170 2
70 171 2
70 174 2
70 175 2
70 177 2
70 178 2
70 183 2
70 185 2
70 186 2
70 190 2
70 192 2
70 193 2
70 194 2
70 195 2
71 7 2
71 9 2
71 10 2
71 11 2
71 12 2
71 49 2
71 53 2
71 57 2
71 72 2
71 74 2
71 83 2
71 103 2
71 111 2
71 112 2
71 113 2
71 114 2
71 116 2
71 117 2
71 118 2
71 121 2
71 122 2
71 137 2
71 150 2
71 153 2
71 158 2
71 161 2
71 164 2
71 168 2
71 195 2
71 196 2
72 7 2
72 36 2
72 60 2
72 71 2
72 74 2
72 103 2
72 150 2
72 161 2
72 164 2
73 5 2
73 12 2
73 13 2
73 18 2
73 26 2
73 28 2
73 29 2
73 69 2
73 70 2
73 77 2
73 85 2
73 86 2
73 88 2
73 90 2
73 96 2
73 99 2
73 110 2
73 128 2
73 136 2
73 140 2
73 143 2
73 147 2
73 149 2
73 155 2
73 156 2
73 167 2
73 172 2
73 174 2
73 184 2
73 189 2
73 191 2
74 1 2
74 7 2
74 10 2
74 24 2
74 35 2
74 71 2
74 72 2
74 78 2
74 87 2
74 103 2
74 104 2
74 108 2
74 112 2
74 114 2
74 150 2
74 154 2
74 161 2
74 164 2
74 168 2
74 171 2
75 5 2
75 51 2
75 76 2
75 79 2
75 86 2
75 96 2
75 126 2
75 128 2
75 136 2
75 144 2
75 147 2
75 149 2
75 163 2
75 167 2
75 172 2
75 174 2
75 198 2
76 5 2
76 27 2
76 29 2
76 51 2
76 75 2
76 79 2
76 96 2
76 126 2
76 128 2
76 136 2
76 144 2
76 147 2
76 149 2
76 153 2
76 172 2
76 174 2
77 4 2
77 5 2
77 18 2
77 26 2
77 28 2
77 29 2
77 41 2
77 45 2
77 73 2
77 85 2
77 86 2
77 88 2
77 90 2
77 96 2
77 97 2
77 102 2
77 124 2
77 128 2
77 136 2
77 138 2
77 140 2
77 147 2
77 149 2
77 167 2
77 169 2
77 172 2
77 173 2
77 184 2
77 191 2
78 1 2
78 16 2
78 20 2
78 24 2
78 35 2
78 43 2
78 60 2
78 74 2
78 80 2
78 91 2
78 95 2
78 99 2
78 100 2
78 103 2
78 104 2
78 108 2
78 136 2
78 137 2
78 154 2
78 158 2
78 168 2
78 171 2
78 174 2
78 179 2
78 182 2
78 188 2
79 5 2
79 49 2
79 51 2
79 75 2
79 76 2
79 86 2
79 96 2
79 118 2
79 126 2
79 128 2
79 136 2
79 142 2
79 143 2
79 144 2
79 147 2
79 149 2
79 163 2
79 167 2
79 172 2
79 174 2
80 9 2
80 11 2
80 20 2
80 23 2
80 24 2
80 32 2
80 38 2
80 39 2
80 60 2
80 78 2
80 91 2
80 95 2
80 135 2
80 139 2
80 162 2
80 168 2
80 179 2
80 181 2
80 189 2
81 1 2
81 7 2
81 15 2
81 16 2
81 22 2
81 24 2
81 36 2
81 42 2
81 43 2
81 46 2
81 48 2
81 50 2
81 53 2
81 55 2
81 56 2
81 60 2
81 67 2
81 83 2
81 98 2
81 99 2
81 100 2
81 101 2
81 104 2
81 105 2
81 106 2
81 108 2
81 123 2
81 131 2
81 132 2
81 136 2
81 150 2
81 158 2
81 164 2
81 170 2
81 174 2
81 178 2
81 182 2
81 183 2
81 194 2
81 195 2
81 196 2
81 197 2
82 43 2
82 59 2
82 99 2
82 118 2
82 121 2
82 122 2
82 136 2
82 143 2
83 7 2
83 12 2
83 22 2
83 34 2
83 36 2
83 43 2
83 49 2
83 52 2
83 53 2
83 54 2
83 55 2
83 56 2
83 57 2
83 60 2
83 67 2
83 70 2
83 71 2
83 81 2
83 84 2
83 87 2
83 89 2
83 90 2
83 98 2
83 99 2
83 100 2
83 101 2
83 103 2
83 105 2
83 108 2
83 109 2
83 111 2
83 114 2
83 118 2
83 121 2
83 127 2
83 131 2
83 132 2
83 134 2
83 135 2
83 136 2
83 137 2
83 141 2
83 142 2
83 149 2
83 150 2
83 158 2
83 159 2
83 164 2
83 168 2
83 170 2
83 174 2
83 178 2
83 182 2
83 185 2
83 192 2
83 194 2
83 195 2
83 196 2
83 197 2
84 67 2
84 83 2
84 118 2
84 129 2
84 134 2
84 135 2
84 136 2
84 158 2
84 159 2
84 170 2
84 175 2
84 183 2
84 194 2
84 195 2
85 4 2
85 5 2
85 13 2
85 26 2
85 28 2
85 73 2
85 77 2
85 86 2
85 102 2
85 128 2
85 140 2
85 147 2
85 149 2
85 155 2
85 156 2
85 167 2
85 169 2
85 189 2
85 191 2
86 5 2
86 13 2
86 18 2
86 26 2
86 28 2
86 29 2
86 41 2
86 45 2
86 69 2
86 70 2
86 73 2
86 75 2
86 77 2
86 79 2
86 85 2
86 88 2
86 90 2
86 96 2
86 97 2
86 102 2
86 124 2
86 128 2
86 136 2
86 138 2
86 140 2
86 147 2
86 149 2
86 153 2
86 155 2
86 156 2
86 163 2
86 167 2
86 169 2
86 172 2
86 173 2
86 176 2
86 184 2
86 189 2
86 191 2
86 198 2
87 7 2
87 10 2
87 14 2
87 20 2
87 36 2
87 54 2
87 67 2
87 69 2
87 70 2
87 74 2
87 83 2
87 96 2
87 103 2
87 112 2
87 114 2
87 130 2
87 150 2
87 158 2
87 161 2
87 164 2
87 186 2
87 192 2
87 194 2
87 195 2
88 18 2
88 29 2
88 41 2
88 45 2
88 50 2
88 52 2
88 53 2
88 56 2
88 60 2
88 69 2
88 70 2
88 73 2
88 77 2
88 86 2
88 90 2
88 96 2
88 97 2
88 99 2
88 110 2
88 114 2
88 128 2
88 131 2
88 132 2
88 136 2
88 140 2
88 143 2
88 147 2
88 149 2
88 158 2
88 167 2
88 172 2
88 174 2
88 183 2
88 184 2
88 191 2
88 196 2
89 8 2
89 57 2
89 60 2
89 83 2
89 95 2
89 118 2
89 121 2
89 127 2
89 132 2
89 136 2
89 141 2
89 142 2
89 149 2
89 158 2
89 171 2
89 174 2
89 196 2
90 5 2
90 18 2
90 26 2
90 28 2
90 29 2
90 37 2
90 49 2
90 69 2
90 73 2
90 77 2
90 83 2
90 86 2
90 88 2
90 96 2
90 97 2
90 124 2
90 125 2
90 128 2
90 133 2
90 136 2
90 138 2
90 140 2
90 147 2
90 149 2
90 153 2
90 167 2
90 169 2
90 172 2
90 173 2
90 176 2
90 184 2
90 191 2
90 198 2
91 15 2
91 16 2
91 24 2
91 32 2
91 33 2
91 38 2
91 40 2
91 44 2
91 48 2
91 60 2
91 63 2
91 78 2
91 80 2
91 95 2
91 104 2
91 105 2
91 107 2
91 116 2
91 119 2
91 134 2
91 135 2
91 139 2
91 168 2
91 179 2
92 13 2
92 25 2
92 148 2
92 153 2
92 163 2
93 7 2
93 54 2
93 60 2
93 69 2
93 70 2
93 94 2
93 95 2
93 108 2
93 111 2
93 114 2
93 118 2
93 121 2
93 122 2
93 125 2
93 127 2
93 130 2
93 132 2
93 136 2
93 146 2
93 168 2
93 171 2
93 175 2
93 177 2
93 183 2
93 190 2
93 192 2
93 193 2
94 7 2
94 54 2
94 60 2
94 69 2
94 70 2
94 93 2
94 95 2
94 108 2
94 111 2
94 114 2
94 118 2
94 121 2
94 122 2
94 125 2
94 130 2
94 132 2
94 136 2
94 146 2
94 168 2
94 171 2
94 175 2
94 177 2
94 183 2
94 190 2
94 192 2
94 193 2
95 1 2
95 7 2
95 8 2
95 35 2
95 46 2
95 60 2
95 69 2
95 70 2
95 78 2
95 80 2
95 89 2
95 91 2
95 93 2
95 94 2
95 98 2
95 99 2
95 100 2
95 101 2
95 108 2
95 110 2
95 111 2
95 122 2
95 125 2
95 127 2
95 131 2
95 132 2
95 135 2
95 136 2
95 141 2
95 142 2
95 146 2
95 154 2
95 158 2
95 168 2
95 171 2
95 174 2
95 179 2
95 190 2
95 192 2
95 193 2
96 5 2
96 14 2
96 18 2
96 26 2
96 27 2
96 28 2
96 29 2
96 41 2
96 45 2
96 51 2
96 54 2
96 69 2
96 70 2
96 73 2
96 75 2
96 76 2
96 77 2
96 79 2
96 86 2
96 87 2
96 88 2
96 90 2
96 97 2
96 124 2
96 125 2
96 126 2
96 128 2
96 130 2
96 136 2
96 138 2
96 140 2
96 142 2
96 144 2
96 147 2
96 149 2
96 150 2
96 153 2
96 158 2
96 161 2
96 163 2
96 164 2
96 167 2
96 169 2
96 172 2
96 173 2
96 176 2
96 184 2
96 186 2
96 191 2
96 192 2
96 194 2
96 198 2
97 5 2
97 29 2
97 41 2
97 45 2
97 77 2
97 86 2
97 88 2
97 90 2
97 96 2
97 124 2
97 128 2
97 136 2
97 138 2
97 147 2
97 149 2
97 167 2
97 169 2
97 172 2
98 1 2
98 8 2
98 22 2
98 32 2
98 33 2
98 35 2
98 40 2
98 43 2
98 44 2
98 46 2
98 58 2
98 60 2
98 62 2
98 63 2
98 64 2
98 65 2
98 66 2
98 81 2
98 83 2
98 95 2
98 99 2
98 100 2
98 101 2
98 105 2
98 106 2
98 107 2
98 108 2
98 109 2
98 110 2
98 122 2
98 123 2
98 131 2
98 132 2
98 135 2
98 136 2
98 154 2
98 164 2
98 168 2
98 170 2
98 171 2
98 174 2
98 178 2
98 179 2
98 182 2
98 194 2
98 197 2
99 1 2
99 8 2
99 22 2
99 24 2
99 32 2
99 33 2
99 35 2
99 40 2
99 43 2
99 44 2
99 46 2
99 58 2
99 59 2
99 60 2
99 62 2
99 63 2
99 64 2
99 65 2
99 66 2
99 68 2
99 69 2
99 70 2
99 73 2
99 78 2
99 81 2
99 82 2
99 83 2
99 88 2
99 95 2
99 98 2
99 100 2
99 101 2
99 105 2
99 106 2
99 107 2
99 108 2
99 109 2
99 110 2
99 118 2
99 121 2
99 122 2
99 123 2
99 131 2
99 132 2
99 135 2
99 136 2
99 143 2
99 154 2
99 164 2
99 166 2
99 168 2
99 170 2
99 171 2
99 174 2
99 178 2
99 179 2
99 182 2
99 187 2
99 194 2
99 197 2
100 1 2
100 8 2
100 22 2
100 24 2
100 32 2
100 33 2
100 35 2
100 40 2
100 43 2
100 44 2
100 46 2
100 58 2
100 59 2
100 60 2
100 62 2
100 63 2
100 64 2
100 65 2
100 66 2
100 78 2
100 81 2
100 83 2
100 95 2
100 98 2
100 99 2
100 101 2
100 105 2
100 106 2
100 107 2
100 108 2
100 109 2
100 110 2
100 122 2
100 123 2
100 131 2
100 132 2
100 135 2
100 136 2
100 154 2
100 164 2
100 168 2
100 170 2
100 171 2
100 174 2
100 178 2
100 179 2
100 182 2
100 194 2
100 197 2
101 1 2
101 8 2
101 22 2
101 32 2
101 33 2
101 35 2
101 40 2
101 43 2
101 44 2
101 46 2
101 58 2
101 60 2
101 62 2
101 63 2
101 64 2
101 65 2
101 66 2
101 68 2
101 81 2
101 83 2
101 95 2
101 98 2
101 99 2
101 100 2
101 105 2
101 106 2
101 107 2
101 108 2
101 109 2
101 110 2
101 122 2
101 123 2
101 131 2
101 132 2
101 135 2
101 136 2
101 154 2
101 164 2
101 166 2
101 168 2
101 170 2
101 171 2
101 174 2
101 178 2
101 179 2
101 182 2
101 187 2
101 194 2
101 197 2
102 4 2
102 5 2
102 13 2
102 26 2
102 28 2
102 77 2
102 85 2
102 86 2
102 128 2
102 138 2
102 140 2
102 147 2
102 156 2
102 167 2
102 169 2
102 172 2
102 173 2
102 176 2
102 189 2
103 1 2
103 7 2
103 10 2
103 24 2
103 35 2
103 67 2
103 71 2
103 72 2
103 74 2
103 78 2
103 83 2
103 87 2
103 104 2
103 108 2
103 112 2
103 114 2
103 150 2
103 154 2
103 161 2
103 164 2
103 168 2
103 171 2
103 178 2
104 1 2
104 15 2
104 16 2
104 24 2
104 35 2
104 42 2
104 46 2
104 48 2
104 74 2
104 78 2
104 81 2
104 91 2
104 103 2
104 105 2
104 107 2
104 108 2
104 154 2
104 159 2
104 168 2
104 171 2
105 15 2
105 16 2
105 22 2
105 24 2
105 32 2
105 33 2
105 35 2
105 38 2
105 40 2
105 43 2
105 44 2
105 48 2
105 58 2
105 60 2
105 62 2
105 63 2
105 64 2
105 65 2
105 66 2
105 81 2
105 83 2
105 91 2
105 98 2
105 99 2
105 100 2
105 101 2
105 104 2
105 106 2
105 107 2
105 108 2
105 109 2
105 110 2
105 122 2
105 123 2
105 131 2
105 132 2
105 135 2
105 136 2
105 154 2
105 164 2
105 168 2
105 170 2
105 174 2
105 178 2
105 179 2
105 182 2
105 194 2
105 197 2
106 31 2
106 32 2
106 33 2
106 35 2
106 40 2
106 42 2
106 44 2
106 46 2
106 50 2
106 58 2
106 60 2
106 61 2
106 62 2
106 63 2
106 64 2
106 65 2
106 66 2
106 81 2
106 98 2
106 99 2
106 100 2
106 101 2
106 105 2
106 107 2
106 108 2
106 109 2
106 110 2
106 111 2
106 122 2
106 123 2
106 131 2
106 132 2
106 135 2
106 154 2
106 168 2
106 179 2
106 183 2
106 187 2
106 188 2
107 15 2
107 16 2
107 24 2
107 32 2
107 33 2
107 35 2
107 40 2
107 44 2
107 48 2
107 58 2
107 60 2
107 62 2
107 63 2
107 64 2
107 65 2
107 66 2
107 91 2
107 98 2
107 99 2
107 100 2
107 101 2
107 104 2
107 105 2
107 106 2
107 108 2
107 109 2
107 110 2
107 122 2
107 123 2
107 131 2
107 132 2
107 135 2
107 154 2
107 162 2
107 168 2
107 179 2
107 187 2
107 188 2
108 1 2
108 7 2
108 22 2
108 24 2
108 32 2
108 33 2
108 35 2
108 40 2
108 43 2
108 44 2
108 58 2
108 60 2
108 62 2
108 63 2
108 64 2
108 65 2
108 66 2
108 69 2
108 70 2
108 74 2
108 78 2
108 81 2
108 83 2
108 93 2
108 94 2
108 95 2
108 98 2
108 99 2
108 100 2
108 101 2
108 103 2
108 104 2
108 105 2
108 106 2
108 107 2
108 109 2
108 110 2
108 111 2
108 122 2
108 123 2
108 125 2
108 131 2
108 132 2
108 135 2
108 136 2
108 146 2
108 154 2
108 164 2
108 168 2
108 170 2
108 171 2
108 174 2
108 178 2
108 179 2
108 182 2
108 190 2
108 192 2
108 193 2
108 194 2
108 197 2
109 32 2
109 33 2
109 35 2
109 40 2
109 44 2
109 58 2
109 60 2
109 62 2
109 63 2
109 64 2
109 65 2
109 66 2
109 69 2
109 83 2
109 98 2
109 99 2
109 100 2
109 101 2
109 105 2
109 106 2
109 107 2
109 108 2
109 110 2
109 122 2
109 123 2
109 131 2
109 132 2
109 135 2
109 154 2
109 168 2
109 170 2
109 177 2
109 179 2
110 8 2
110 32 2
110 33 2
110 35 2
110 40 2
110 44 2
110 50 2
110 58 2
110 60 2
110 62 2
110 63 2
110 64 2
110 65 2
110 66 2
110 69 2
110 70 2
110 73 2
110 88 2
110 95 2
110 98 2
110 99 2
110 100 2
110 101 2
110 105 2
110 106 2
110 107 2
110 108 2
110 109 2
110 122 2
110 123 2
110 131 2
110 132 2
110 135 2
110 136 2
110 139 2
110 143 2
110 154 2
110 168 2
110 170 2
110 171 2
110 174 2
110 179 2
110 182 2
111 7 2
111 9 2
111 23 2
111 31 2
111 32 2
111 50 2
111 53 2
111 54 2
111 56 2
111 57 2
111 60 2
111 61 2
111 69 2
111 70 2
111 71 2
111 83 2
111 93 2
111 94 2
111 95 2
111 106 2
111 108 2
111 116 2
111 117 2
111 118 2
111 121 2
111 122 2
111 123 2
111 125 2
111 132 2
111 137 2
111 146 2
111 153 2
111 168 2
111 170 2
111 171 2
111 190 2
111 192 2
111 193 2
111 194 2
111 195 2
111 196 2
112 7 2
112 10 2
112 11 2
112 14 2
112 49 2
112 53 2
112 57 2
112 60 2
112 61 2
112 69 2
112 70 2
112 71 2
112 74 2
112 87 2
112 103 2
112 113 2
112 114 2
112 127 2
112 130 2
112 141 2
112 150 2
112 151 2
112 158 2
112 161 2
112 164 2
112 192 2
112 195 2
112 196 2
113 7 2
113 10 2
113 11 2
113 49 2
113 53 2
113 57 2
113 71 2
113 112 2
113 114 2
113 158 2
113 161 2
113 164 2
113 196 2
114 7 2
114 10 2
114 11 2
114 12 2
114 14 2
114 18 2
114 49 2
114 50 2
114 53 2
114 56 2
114 57 2
114 60 2
114 61 2
114 69 2
114 70 2
114 71 2
114 74 2
114 83 2
114 87 2
114 88 2
114 93 2
114 94 2
114 103 2
114 112 2
114 113 2
114 125 2
114 127 2
114 130 2
114 131 2
114 132 2
114 136 2
114 141 2
114 142 2
114 146 2
114 151 2
114 158 2
114 161 2
114 164 2
114 183 2
114 190 2
114 192 2
114 193 2
114 195 2
114 196 2
115 3 2
115 148 2
115 152 2
115 153 2
115 157 2
115 167 2
115 172 2
116 9 2
116 33 2
116 38 2
116 39 2
116 40 2
116 71 2
116 91 2
116 111 2
116 117 2
116 118 2
116 119 2
116 121 2
116 122 2
116 134 2
116 135 2
116 137 2
116 153 2
116 168 2
116 179 2
116 181 2
117 9 2
117 25 2
117 71 2
117 111 2
117 116 2
117 118 2
117 121 2
117 122 2
117 137 2
117 153 2
117 168 2
117 179 2
117 183 2
118 8 2
118 9 2
118 43 2
118 49 2
118 59 2
118 60 2
118 69 2
118 70 2
118 71 2
118 79 2
118 82 2
118 83 2
118 84 2
118 89 2
118 93 2
118 94 2
118 99 2
118 111 2
118 116 2
118 117 2
118 121 2
118 122 2
118 125 2
118 129 2
118 132 2
118 136 2
118 137 2
118 142 2
118 143 2
118 146 2
118 153 2
118 168 2
118 170 2
118 174 2
118 175 2
118 177 2
118 183 2
118 190 2
118 192 2
118 193 2
118 194 2
119 33 2
119 38 2
119 40 2
119 91 2
119 116 2
119 120 2
119 134 2
119 135 2
119 179 2
120 119 2
121 8 2
121 9 2
121 43 2
121 49 2
121 57 2
121 59 2
121 60 2
121 69 2
121 70 2
121 71 2
121 82 2
121 83 2
121 89 2
121 93 2
121 94 2
121 99 2
121 111 2
121 116 2
121 117 2
121 118 2
121 122 2
121 125 2
121 132 2
121 136 2
121 137 2
121 142 2
121 143 2
121 146 2
121 153 2
121 158 2
121 168 2
121 174 2
121 175 2
121 177 2
121 183 2
121 190 2
121 192 2
121 193 2
121 196 2
122 7 2
122 9 2
122 32 2
122 33 2
122 35 2
122 40 2
122 43 2
122 44 2
122 58 2
122 59 2
122 60 2
122 62 2
122 63 2
122 64 2
122 65 2
122 66 2
122 69 2
122 70 2
122 71 2
122 82 2
122 93 2
122 94 2
122 95 2
122 98 2
122 99 2
122 100 2
122 101 2
122 105 2
122 106 2
122 107 2
122 108 2
122 109 2
122 110 2
122 111 2
122 116 2
122 117 2
122 118 2
122 121 2
122 123 2
122 125 2
122 131 2
122 132 2
122 135 2
122 136 2
122 137 2
122 143 2
122 146 2
122 153 2
122 154 2
122 168 2
122 171 2
122 179 2
122 190 2
122 192 2
122 193 2
123 31 2
123 32 2
123 33 2
123 35 2
123 40 2
123 42 2
123 44 2
123 46 2
123 50 2
123 58 2
123 60 2
123 61 2
123 62 2
123 63 2
123 64 2
123 65 2
123 66 2
123 81 2
123 98 2
123 99 2
123 100 2
123 101 2
123 105 2
123 106 2
123 107 2
123 108 2
123 109 2
123 110 2
123 111 2
123 122 2
123 131 2
123 132 2
123 135 2
123 154 2
123 162 2
123 168 2
123 179 2
123 183 2
123 187 2
123 188 2
124 5 2
124 26 2
124 28 2
124 29 2
124 77 2
124 86 2
124 90 2
124 96 2
124 97 2
124 128 2
124 138 2
124 140 2
124 153 2
124 176 2
124 184 2
124 198 2
125 7 2
125 49 2
125 54 2
125 60 2
125 69 2
125 70 2
125 90 2
125 93 2
125 94 2
125 95 2
125 96 2
125 108 2
125 111 2
125 114 2
125 118 2
125 121 2
125 122 2
125 130 2
125 132 2
125 136 2
125 142 2
125 146 2
125 151 2
125 168 2
125 171 2
125 175 2
125 177 2
125 183 2
125 190 2
125 192 2
125 193 2
126 5 2
126 27 2
126 29 2
126 51 2
126 75 2
126 76 2
126 79 2
126 96 2
126 128 2
126 136 2
126 144 2
126 147 2
126 149 2
126 153 2
126 167 2
126 172 2
126 174 2
127 7 2
127 10 2
127 14 2
127 49 2
127 60 2
127 61 2
127 67 2
127 69 2
127 70 2
127 83 2
127 89 2
127 93 2
127 95 2
127 112 2
127 114 2
127 130 2
127 136 2
127 141 2
127 142 2
127 150 2
127 151 2
127 158 2
127 164 2
127 171 2
127 174 2
127 178 2
127 185 2
127 192 2
127 195 2
128 5 2
128 13 2
128 18 2
128 26 2
128 27 2
128 28 2
128 29 2
128 51 2
128 73 2
128 75 2
128 76 2
128 77 2
128 79 2
128 85 2
128 86 2
128 88 2
128 90 2
128 96 2
128 97 2
128 102 2
128 124 2
128 126 2
128 136 2
128 138 2
128 140 2
128 144 2
128 147 2
128 149 2
128 153 2
128 155 2
128 156 2
128 167 2
128 169 2
128 172 2
128 173 2
128 176 2
128 184 2
128 189 2
128 191 2
128 192 2
129 7 2
129 12 2
129 18 2
129 19 2
129 31 2
129 36 2
129 53 2
129 54 2
129 55 2
129 56 2
129 57 2
129 60 2
129 61 2
129 84 2
129 118 2
129 136 2
129 170 2
129 175 2
129 183 2
129 194 2
129 195 2
129 196 2
129 197 2
130 7 2
130 10 2
130 14 2
130 19 2
130 49 2
130 54 2
130 57 2
130 60 2
130 61 2
130 69 2
130 70 2
130 87 2
130 93 2
130 94 2
130 96 2
130 112 2
130 114 2
130 125 2
130 127 2
130 136 2
130 141 2
130 146 2
130 150 2
130 151 2
130 158 2
130 161 2
130 164 2
130 177 2
130 185 2
130 186 2
130 190 2
130 192 2
130 193 2
130 194 2
130 195 2
131 1 2
131 8 2
131 18 2
131 22 2
131 32 2
131 33 2
131 35 2
131 40 2
131 43 2
131 44 2
131 46 2
131 50 2
131 53 2
131 56 2
131 58 2
131 60 2
131 62 2
131 63 2
131 64 2
131 65 2
131 66 2
131 81 2
131 83 2
131 88 2
131 95 2
131 98 2
131 99 2
131 100 2
131 101 2
131 105 2
131 106 2
131 107 2
131 108 2
131 109 2
131 110 2
131 114 2
131 122 2
131 123 2
131 132 2
131 135 2
131 136 2
131 139 2
131 154 2
131 158 2
131 164 2
131 168 2
131 170 2
131 171 2
131 174 2
131 178 2
131 179 2
131 182 2
131 183 2
131 194 2
131 196 2
131 197 2
132 1 2
132 7 2
132 8 2
132 18 2
132 22 2
132 24 2
132 32 2
132 33 2
132 35 2
132 40 2
132 43 2
132 44 2
132 46 2
132 50 2
132 53 2
132 56 2
132 58 2
132 60 2
132 62 2
132 63 2
132 64 2
132 65 2
132 66 2
132 68 2
132 69 2
132 70 2
132 81 2
132 83 2
132 88 2
132 89 2
132 93 2
132 94 2
132 95 2
132 98 2
132 99 2
132 100 2
132 101 2
132 105 2
132 106 2
132 107 2
132 108 2
132 109 2
132 110 2
132 111 2
132 114 2
132 118 2
132 121 2
132 122 2
132 123 2
132 125 2
132 131 2
132 135 2
132 136 2
132 141 2
132 142 2
132 146 2
132 154 2
132 158 2
132 164 2
132 166 2
132 168 2
132 170 2
132 171 2
132 174 2
132 178 2
132 179 2
132 182 2
132 183 2
132 187 2
132 190 2
132 192 2
132 193 2
132 194 2
132 196 2
132 197 2
133 37 2
133 90 2
133 155 2
133 156 2
133 167 2
133 180 2
134 33 2
134 38 2
134 40 2
134 67 2
134 83 2
134 84 2
134 91 2
134 116 2
134 119 2
134 135 2
134 159 2
134 179 2
134 195 2
135 9 2
135 11 2
135 23 2
135 32 2
135 33 2
135 35 2
135 38 2
135 40 2
135 44 2
135 58 2
135 60 2
135 62 2
135 63 2
135 64 2
135 65 2
135 66 2
135 67 2
135 68 2
135 80 2
135 83 2
135 84 2
135 91 2
135 95 2
135 98 2
135 99 2
135 100 2
135 101 2
135 105 2
135 106 2
135 107 2
135 108 2
135 109 2
135 110 2
135 116 2
135 119 2
135 122 2
135 123 2
135 131 2
135 132 2
135 134 2
135 139 2
135 154 2
135 159 2
135 162 2
135 166 2
135 168 2
135 171 2
135 179 2
135 187 2
135 189 2
135 195 2
136 5 2
136 7 2
136 8 2
136 17 2
136 18 2
136 19 2
136 20 2
136 22 2
136 24 2
136 29 2
136 41 2
136 42 2
136 43 2
136 45 2
136 49 2
136 51 2
136 57 2
136 59 2
136 60 2
136 65 2
136 66 2
136 67 2
136 69 2
136 70 2
136 73 2
136 75 2
136 76 2
136 77 2
136 78 2
136 79 2
136 81 2
136 82 2
136 83 2
136 84 2
136 86 2
136 88 2
136 89 2
136 90 2
136 93 2
136 94 2
136 95 2
136 96 2
136 97 2
136 98 2
136 99 2
136 100 2
136 101 2
136 105 2
136 108 2
136 110 2
136 114 2
136 118 2
136 121 2
136 122 2
136 125 2
136 126 2
136 127 2
136 128 2
136 129 2
136 130 2
136 131 2
136 132 2
136 137 2
136 138 2
136 140 2
136 141 2
136 142 2
136 143 2
136 144 2
136 146 2
136 147 2
136 149 2
136 150 2
136 151 2
136 158 2
136 161 2
136 162 2
136 163 2
136 164 2
136 167 2
136 168 2
136 170 2
136 171 2
136 172 2
136 174 2
136 175 2
136 177 2
136 178 2
136 182 2
136 183 2
136 184 2
136 185 2
136 188 2
136 190 2
136 191 2
136 192 2
136 193 2
136 194 2
136 196 2
136 197 2
137 9 2
137 20 2
137 71 2
137 78 2
137 83 2
137 111 2
137 116 2
137 117 2
137 118 2
137 121 2
137 122 2
137 136 2
137 153 2
137 158 2
137 168 2
137 188 2
138 4 2
138 5 2
138 26 2
138 28 2
138 29 2
138 77 2
138 86 2
138 90 2
138 96 2
138 97 2
138 102 2
138 124 2
138 128 2
138 136 2
138 145 2
138 147 2
138 149 2
138 155 2
138 167 2
138 169 2
138 172 2
138 173 2
138 178 2
139 9 2
139 11 2
139 23 2
139 32 2
139 38 2
139 44 2
139 50 2
139 64 2
139 65 2
139 66 2
139 80 2
139 91 2
139 110 2
139 131 2
139 135 2
139 162 2
139 179 2
139 189 2
140 5 2
140 13 2
140 18 2
140 26 2
140 28 2
140 29 2
140 73 2
140 77 2
140 85 2
140 86 2
140 88 2
140 90 2
140 96 2
140 102 2
140 124 2
140 128 2
140 136 2
140 147 2
140 149 2
140 153 2
140 155 2
140 156 2
140 167 2
140 169 2
140 172 2
140 173 2
140 176 2
140 184 2
140 189 2
140 191 2
140 198 2
141 7 2
141 10 2
141 14 2
141 60 2
141 61 2
141 69 2
141 70 2
141 83 2
141 89 2
141 95 2
141 112 2
141 114 2
141 127 2
141 130 2
141 132 2
141 136 2
141 142 2
141 151 2
141 158 2
141 171 2
141 174 2
141 192 2
141 195 2
142 8 2
142 49 2
142 57 2
142 60 2
142 69 2
142 70 2
142 79 2
142 83 2
142 89 2
142 95 2
142 96 2
142 114 2
142 118 2
142 121 2
142 125 2
142 127 2
142 132 2
142 136 2
142 141 2
142 143 2
142 149 2
142 150 2
142 158 2
142 161 2
142 164 2
142 168 2
142 171 2
142 174 2
142 185 2
142 193 2
142 196 2
143 43 2
143 49 2
143 59 2
143 69 2
143 70 2
143 73 2
143 79 2
143 82 2
143 88 2
143 99 2
143 110 2
143 118 2
143 121 2
143 122 2
143 136 2
143 142 2
143 174 2
144 5 2
144 27 2
144 29 2
144 51 2
144 75 2
144 76 2
144 79 2
144 96 2
144 126 2
144 128 2
144 136 2
144 147 2
144 149 2
144 153 2
144 172 2
144 174 2
144 198 2
145 138 2
145 167 2
146 7 2
146 54 2
146 60 2
146 69 2
146 70 2
146 93 2
146 94 2
146 95 2
146 108 2
146 111 2
146 114 2
146 118 2
146 121 2
146 122 2
146 125 2
146 130 2
146 132 2
146 136 2
146 151 2
146 168 2
146 171 2
146 175 2
146 177 2
146 183 2
146 190 2
146 192 2
146 193 2
147 4 2
147 5 2
147 13 2
147 18 2
147 26 2
147 27 2
147 28 2
147 29 2
147 51 2
147 73 2
147 75 2
147 76 2
147 77 2
147 79 2
147 85 2
147 86 2
147 88 2
147 90 2
147 96 2
147 97 2
147 102 2
147 126 2
147 128 2
147 136 2
147 138 2
147 140 2
147 144 2
147 149 2
147 153 2
147 156 2
147 167 2
147 169 2
147 172 2
147 173 2
147 174 2
147 176 2
147 184 2
147 189 2
147 191 2
148 13 2
148 25 2
148 92 2
148 115 2
148 153 2
149 5 2
149 13 2
149 18 2
149 25 2
149 26 2
149 27 2
149 28 2
149 29 2
149 39 2
149 49 2
149 51 2
149 53 2
149 54 2
149 67 2
149 73 2
149 75 2
149 76 2
149 77 2
149 79 2
149 83 2
149 85 2
149 86 2
149 88 2
149 89 2
149 90 2
149 96 2
149 97 2
149 126 2
149 128 2
149 136 2
149 138 2
149 140 2
149 142 2
149 144 2
149 147 2
149 150 2
149 153 2
149 155 2
149 156 2
149 160 2
149 163 2
149 167 2
149 169 2
149 172 2
149 173 2
149 174 2
149 176 2
149 178 2
149 181 2
149 184 2
149 189 2
149 191 2
149 194 2
149 195 2
150 2 2
150 7 2
150 14 2
150 36 2
150 49 2
150 53 2
150 54 2
150 55 2
150 56 2
150 60 2
150 67 2
150 69 2
150 70 2
150 71 2
150 72 2
150 74 2
150 81 2
150 83 2
150 87 2
150 96 2
150 103 2
150 112 2
150 127 2
150 130 2
150 136 2
150 142 2
150 149 2
150 151 2
150 158 2
150 161 2
150 164 2
150 170 2
150 178 2
150 185 2
150 186 2
150 192 2
150 194 2
150 195 2
150 196 2
151 7 2
151 10 2
151 14 2
151 60 2
151 61 2
151 69 2
151 70 2
151 112 2
151 114 2
151 125 2
151 127 2
151 130 2
151 136 2
151 141 2
151 146 2
151 150 2
151 158 2
151 177 2
151 185 2
151 190 2
151 192 2
151 193 2
151 195 2
152 6 2
152 115 2
152 157 2
153 3 2
153 4 2
153 5 2
153 9 2
153 13 2
153 25 2
153 26 2
153 27 2
153 28 2
153 29 2
153 37 2
153 39 2
153 51 2
153 71 2
153 76 2
153 86 2
153 90 2
153 92 2
153 96 2
153 111 2
153 115 2
153 116 2
153 117 2
153 118 2
153 121 2
153 122 2
153 124 2
153 126 2
153 128 2
153 137 2
153 140 2
153 144 2
153 147 2
153 148 2
153 149 2
153 163 2
153 167 2
153 168 2
153 172 2
153 181 2
153 198 2
154 1 2
154 8 2
154 24 2
154 32 2
154 33 2
154 35 2
154 40 2
154 44 2
154 46 2
154 58 2
154 60 2
154 62 2
154 63 2
154 64 2
154 65 2
154 66 2
154 68 2
154 74 2
154 78 2
154 95 2
154 98 2
154 99 2
154 100 2
154 101 2
154 103 2
154 104 2
154 105 2
154 106 2
154 107 2
154 108 2
154 109 2
154 110 2
154 122 2
154 123 2
154 131 2
154 132 2
154 135 2
154 166 2
154 168 2
154 170 2
154 171 2
154 179 2
154 187 2
155 5 2
155 13 2
155 26 2
155 28 2
155 37 2
155 47 2
155 73 2
155 85 2
155 86 2
155 128 2
155 133 2
155 138 2
155 140 2
155 149 2
155 156 2
155 167 2
155 178 2
155 180 2
155 189 2
155 191 2
156 4 2
156 5 2
156 13 2
156 26 2
156 28 2
156 73 2
156 85 2
156 86 2
156 102 2
156 128 2
156 133 2
156 140 2
156 147 2
156 149 2
156 155 2
156 167 2
156 169 2
156 172 2
156 173 2
156 176 2
156 189 2
156 191 2
157 6 2
157 115 2
157 152 2
157 180 2
158 7 2
158 10 2
158 11 2
158 14 2
158 18 2
158 20 2
158 36 2
158 43 2
158 49 2
158 50 2
158 53 2
158 54 2
158 55 2
158 56 2
158 57 2
158 59 2
158 60 2
158 61 2
158 67 2
158 69 2
158 70 2
158 71 2
158 78 2
158 81 2
158 83 2
158 84 2
158 87 2
158 88 2
158 89 2
158 95 2
158 96 2
158 112 2
158 113 2
158 114 2
158 121 2
158 127 2
158 130 2
158 131 2
158 132 2
158 136 2
158 137 2
158 141 2
158 142 2
158 150 2
158 151 2
158 161 2
158 164 2
158 168 2
158 170 2
158 171 2
158 174 2
158 178 2
158 183 2
158 186 2
158 188 2
158 192 2
158 194 2
158 195 2
158 196 2
159 1 2
159 42 2
159 46 2
159 67 2
159 83 2
159 84 2
159 104 2
159 134 2
159 135 2
159 195 2
160 149 2
161 7 2
161 10 2
161 11 2
161 14 2
161 36 2
161 49 2
161 53 2
161 54 2
161 57 2
161 60 2
161 69 2
161 70 2
161 71 2
161 72 2
161 74 2
161 87 2
161 96 2
161 103 2
161 112 2
161 113 2
161 114 2
161 130 2
161 136 2
161 142 2
161 150 2
161 158 2
161 164 2
161 186 2
161 192 2
161 194 2
161 196 2
162 9 2
162 11 2
162 23 2
162 32 2
162 38 2
162 43 2
162 49 2
162 58 2
162 59 2
162 80 2
162 107 2
162 123 2
162 135 2
162 136 2
162 139 2
162 179 2
162 187 2
162 188 2
162 189 2
163 5 2
163 75 2
163 79 2
163 86 2
163 92 2
163 96 2
163 136 2
163 149 2
163 153 2
163 167 2
163 172 2
163 173 2
164 7 2
164 10 2
164 11 2
164 14 2
164 22 2
164 36 2
164 43 2
164 49 2
164 53 2
164 54 2
164 55 2
164 56 2
164 57 2
164 60 2
164 67 2
164 69 2
164 70 2
164 71 2
164 72 2
164 74 2
164 81 2
164 83 2
164 87 2
164 96 2
164 98 2
164 99 2
164 100 2
164 101 2
164 103 2
164 105 2
164 108 2
164 112 2
164 113 2
164 114 2
164 127 2
164 130 2
164 131 2
164 132 2
164 136 2
164 142 2
164 150 2
164 158 2
164 161 2
164 170 2
164 174 2
164 178 2
164 182 2
164 186 2
164 192 2
164 194 2
164 195 2
164 196 2
164 197 2
165 185 2
166 35 2
166 44 2
166 50 2
166 60 2
166 68 2
166 99 2
166 101 2
166 132 2
166 135 2
166 154 2
166 168 2
166 171 2
166 183 2
166 187 2
167 3 2
167 4 2
167 5 2
167 13 2
167 18 2
167 26 2
167 27 2
167 28 2
167 29 2
167 47 2
167 51 2
167 70 2
167 73 2
167 75 2
167 77 2
167 79 2
167 85 2
167 86 2
167 88 2
167 90 2
167 96 2
167 97 2
167 102 2
167 115 2
167 126 2
167 128 2
167 133 2
167 136 2
167 138 2
167 140 2
167 145 2
167 147 2
167 149 2
167 153 2
167 155 2
167 156 2
167 163 2
167 169 2
167 172 2
167 173 2
167 176 2
167 184 2
167 189 2
167 191 2
167 198 2
168 1 2
168 7 2
168 8 2
168 9 2
168 20 2
168 23 2
168 24 2
168 32 2
168 33 2
168 35 2
168 40 2
168 44 2
168 46 2
168 50 2
168 54 2
168 58 2
168 60 2
168 62 2
168 63 2
168 64 2
168 65 2
168 66 2
168 68 2
168 69 2
168 70 2
168 71 2
168 74 2
168 78 2
168 80 2
168 83 2
168 91 2
168 93 2
168 94 2
168 95 2
168 98 2
168 99 2
168 100 2
168 101 2
168 103 2
168 104 2
168 105 2
168 106 2
168 107 2
168 108 2
168 109 2
168 110 2
168 111 2
168 116 2
168 117 2
168 118 2
168 121 2
168 122 2
168 123 2
168 125 2
168 131 2
168 132 2
168 135 2
168 136 2
168 137 2
168 142 2
168 146 2
168 153 2
168 154 2
168 158 2
168 166 2
168 170 2
168 171 2
168 179 2
168 187 2
168 190 2
168 192 2
168 193 2
168 194 2
168 195 2
169 4 2
169 5 2
169 13 2
169 26 2
169 29 2
169 77 2
169 85 2
169 86 2
169 90 2
169 96 2
169 97 2
169 102 2
169 128 2
169 138 2
169 140 2
169 147 2
169 149 2
169 156 2
169 167 2
169 172 2
169 173 2
169 176 2
169 189 2
170 7 2
170 12 2
170 22 2
170 31 2
170 35 2
170 36 2
170 43 2
170 53 2
170 54 2
170 55 2
170 56 2
170 64 2
170 65 2
170 66 2
170 67 2
170 70 2
170 81 2
170 83 2
170 84 2
170 98 2
170 99 2
170 100 2
170 101 2
170 105 2
170 108 2
170 109 2
170 110 2
170 111 2
170 118 2
170 129 2
170 131 2
170 132 2
170 136 2
170 150 2
170 154 2
170 158 2
170 164 2
170 168 2
170 174 2
170 175 2
170 178 2
170 182 2
170 183 2
170 192 2
170 194 2
170 195 2
170 196 2
170 197 2
171 1 2
171 7 2
171 8 2
171 24 2
171 35 2
171 44 2
171 46 2
171 60 2
171 68 2
171 69 2
171 70 2
171 74 2
171 78 2
171 89 2
171 93 2
171 94 2
171 95 2
171 98 2
171 99 2
171 100 2
171 101 2
171 103 2
171 104 2
171 108 2
171 110 2
171 111 2
171 122 2
171 125 2
171 127 2
171 131 2
171 132 2
171 135 2
171 136 2
171 141 2
171 142 2
171 146 2
171 154 2
171 158 2
171 166 2
171 168 2
171 174 2
171 187 2
171 190 2
171 192 2
171 193 2
172 3 2
172 4 2
172 5 2
172 13 2
172 18 2
172 26 2
172 27 2
172 28 2
172 29 2
172 51 2
172 73 2
172 75 2
172 76 2
172 77 2
172 79 2
172 86 2
172 88 2
172 90 2
172 96 2
172 97 2
172 102 2
172 115 2
172 126 2
172 128 2
172 136 2
172 138 2
172 140 2
172 144 2
172 147 2
172 149 2
172 153 2
172 156 2
172 163 2
172 167 2
172 169 2
172 173 2
172 176 2
172 184 2
172 189 2
172 191 2
173 4 2
173 5 2
173 13 2
173 26 2
173 28 2
173 77 2
173 86 2
173 90 2
173 96 2
173 102 2
173 128 2
173 138 2
173 140 2
173 147 2
173 149 2
173 156 2
173 163 2
173 167 2
173 169 2
173 172 2
173 176 2
173 184 2
173 189 2
173 191 2
174 8 2
174 22 2
174 24 2
174 36 2
174 43 2
174 49 2
174 51 2
174 54 2
174 59 2
174 60 2
174 67 2
174 69 2
174 70 2
174 73 2
174 75 2
174 76 2
174 78 2
174 79 2
174 81 2
174 83 2
174 88 2
174 89 2
174 95 2
174 98 2
174 99 2
174 100 2
174 101 2
174 105 2
174 108 2
174 110 2
174 118 2
174 121 2
174 126 2
174 127 2
174 131 2
174 132 2
174 136 2
174 141 2
174 142 2
174 143 2
174 144 2
174 147 2
174 149 2
174 158 2
174 164 2
174 170 2
174 171 2
174 178 2
174 182 2
174 192 2
174 194 2
174 197 2
175 69 2
175 70 2
175 84 2
175 93 2
175 94 2
175 118 2
175 121 2
175 125 2
175 129 2
175 136 2
175 146 2
175 170 2
175 177 2
175 183 2
175 190 2
175 192 2
175 193 2
175 194 2
176 4 2
176 5 2
176 13 2
176 26 2
176 28 2
176 29 2
176 86 2
176 90 2
176 96 2
176 102 2
176 124 2
176 128 2
176 140 2
176 147 2
176 149 2
176 156 2
176 167 2
176 169 2
176 172 2
176 173 2
176 184 2
176 189 2
176 192 2
176 198 2
177 7 2
177 54 2
177 61 2
177 69 2
177 70 2
177 93 2
177 94 2
177 109 2
177 118 2
177 121 2
177 125 2
177 130 2
177 136 2
177 146 2
177 151 2
177 175 2
177 183 2
177 190 2
177 192 2
177 193 2
178 7 2
178 22 2
178 26 2
178 36 2
178 43 2
178 49 2
178 53 2
178 54 2
178 55 2
178 56 2
178 67 2
178 70 2
178 81 2
178 83 2
178 98 2
178 99 2
178 100 2
178 101 2
178 103 2
178 105 2
178 108 2
178 127 2
178 131 2
178 132 2
178 136 2
178 138 2
178 149 2
178 150 2
178 155 2
178 158 2
178 164 2
178 170 2
178 174 2
178 182 2
178 192 2
178 194 2
178 195 2
178 196 2
178 197 2
179 9 2
179 11 2
179 23 2
179 32 2
179 33 2
179 35 2
179 38 2
179 40 2
179 44 2
179 50 2
179 58 2
179 60 2
179 62 2
179 63 2
179 64 2
179 65 2
179 66 2
179 78 2
179 80 2
179 91 2
179 95 2
179 98 2
179 99 2
179 100 2
179 101 2
179 105 2
179 106 2
179 107 2
179 108 2
179 109 2
179 110 2
179 116 2
179 117 2
179 119 2
179 122 2
179 123 2
179 131 2
179 132 2
179 134 2
179 135 2
179 139 2
179 154 2
179 162 2
179 168 2
179 183 2
179 189 2
180 37 2
180 47 2
180 133 2
180 155 2
180 157 2
181 39 2
181 51 2
181 80 2
181 116 2
181 149 2
181 153 2
182 22 2
182 24 2
182 42 2
182 43 2
182 66 2
182 78 2
182 81 2
182 83 2
182 98 2
182 99 2
182 100 2
182 101 2
182 105 2
182 108 2
182 110 2
182 131 2
182 132 2
182 136 2
182 164 2
182 170 2
182 174 2
182 178 2
182 183 2
182 194 2
182 197 2
183 18 2
183 42 2
183 46 2
183 50 2
183 53 2
183 56 2
183 60 2
183 68 2
183 69 2
183 70 2
183 81 2
183 84 2
183 88 2
183 93 2
183 94 2
183 106 2
183 114 2
183 117 2
183 118 2
183 121 2
183 123 2
183 125 2
183 129 2
183 131 2
183 132 2
183 136 2
183 146 2
183 158 2
183 166 2
183 170 2
183 175 2
183 177 2
183 179 2
183 182 2
183 190 2
183 192 2
183 193 2
183 194 2
183 196 2
184 18 2
184 26 2
184 28 2
184 29 2
184 73 2
184 77 2
184 86 2
184 88 2
184 90 2
184 96 2
184 124 2
184 128 2
184 136 2
184 140 2
184 147 2
184 149 2
184 167 2
184 172 2
184 173 2
184 176 2
184 191 2
184 198 2
185 7 2
185 14 2
185 19 2
185 49 2
185 57 2
185 70 2
185 83 2
185 127 2
185 130 2
185 136 2
185 142 2
185 150 2
185 151 2
185 165 2
185 192 2
186 14 2
186 54 2
186 69 2
186 70 2
186 87 2
186 96 2
186 130 2
186 150 2
186 158 2
186 161 2
186 164 2
186 192 2
186 194 2
187 35 2
187 44 2
187 58 2
187 60 2
187 68 2
187 99 2
187 101 2
187 106 2
187 107 2
187 123 2
187 132 2
187 135 2
187 154 2
187 162 2
187 166 2
187 168 2
187 171 2
187 188 2
188 58 2
188 78 2
188 106 2
188 107 2
188 123 2
188 136 2
188 137 2
188 158 2
188 162 2
188 187 2
189 4 2
189 5 2
189 9 2
189 11 2
189 13 2
189 23 2
189 26 2
189 28 2
189 32 2
189 38 2
189 73 2
189 80 2
189 85 2
189 86 2
189 102 2
189 128 2
189 135 2
189 139 2
189 140 2
189 147 2
189 149 2
189 155 2
189 156 2
189 162 2
189 167 2
189 169 2
189 172 2
189 173 2
189 176 2
189 179 2
189 191 2
190 7 2
190 54 2
190 60 2
190 69 2
190 70 2
190 93 2
190 94 2
190 95 2
190 108 2
190 111 2
190 114 2
190 118 2
190 121 2
190 122 2
190 125 2
190 130 2
190 132 2
190 136 2
190 146 2
190 151 2
190 168 2
190 171 2
190 175 2
190 177 2
190 183 2
190 192 2
190 193 2
191 5 2
191 13 2
191 18 2
191 26 2
191 28 2
191 29 2
191 73 2
191 77 2
191 85 2
191 86 2
191 88 2
191 90 2
191 96 2
191 128 2
191 136 2
191 140 2
191 147 2
191 149 2
191 155 2
191 156 2
191 167 2
191 172 2
191 173 2
191 184 2
191 189 2
192 7 2
192 10 2
192 14 2
192 19 2
192 34 2
192 36 2
192 49 2
192 54 2
192 57 2
192 60 2
192 61 2
192 67 2
192 69 2
192 70 2
192 83 2
192 87 2
192 93 2
192 94 2
192 95 2
192 96 2
192 108 2
192 111 2
192 112 2
192 114 2
192 118 2
192 121 2
192 122 2
192 125 2
192 127 2
192 128 2
192 130 2
192 132 2
192 136 2
192 141 2
192 146 2
192 150 2
192 151 2
192 158 2
192 161 2
192 164 2
192 168 2
192 170 2
192 171 2
192 174 2
192 175 2
192 176 2
192 177 2
192 178 2
192 183 2
192 185 2
192 186 2
192 190 2
192 193 2
192 194 2
192 195 2
193 7 2
193 54 2
193 60 2
193 69 2
193 70 2
193 93 2
193 94 2
193 95 2
193 108 2
193 111 2
193 114 2
193 118 2
193 121 2
193 122 2
193 125 2
193 130 2
193 132 2
193 136 2
193 142 2
193 146 2
193 151 2
193 168 2
193 171 2
193 175 2
193 177 2
193 183 2
193 190 2
193 192 2
194 5 2
194 7 2
194 12 2
194 14 2
194 18 2
194 19 2
194 22 2
194 31 2
194 36 2
194 43 2
194 49 2
194 53 2
194 54 2
194 55 2
194 56 2
194 57 2
194 60 2
194 61 2
194 67 2
194 69 2
194 70 2
194 81 2
194 83 2
194 84 2
194 87 2
194 96 2
194 98 2
194 99 2
194 100 2
194 101 2
194 105 2
194 108 2
194 111 2
194 118 2
194 129 2
194 130 2
194 131 2
194 132 2
194 136 2
194 149 2
194 150 2
194 158 2
194 161 2
194 164 2
194 168 2
194 170 2
194 174 2
194 175 2
194 178 2
194 182 2
194 183 2
194 186 2
194 192 2
194 195 2
194 196 2
194 197 2
195 7 2
195 10 2
195 12 2
195 14 2
195 18 2
195 19 2
195 31 2
195 36 2
195 49 2
195 53 2
195 54 2
195 55 2
195 56 2
195 57 2
195 60 2
195 61 2
195 67 2
195 69 2
195 70 2
195 71 2
195 81 2
195 83 2
195 84 2
195 87 2
195 111 2
195 112 2
195 114 2
195 127 2
195 129 2
195 130 2
195 134 2
195 135 2
195 141 2
195 149 2
195 150 2
195 151 2
195 158 2
195 159 2
195 164 2
195 168 2
195 170 2
195 178 2
195 192 2
195 194 2
195 196 2
195 197 2
196 5 2
196 7 2
196 10 2
196 11 2
196 12 2
196 18 2
196 19 2
196 31 2
196 36 2
196 49 2
196 50 2
196 52 2
196 53 2
196 54 2
196 55 2
196 56 2
196 57 2
196 60 2
196 61 2
196 67 2
196 71 2
196 81 2
196 83 2
196 88 2
196 89 2
196 111 2
196 112 2
196 113 2
196 114 2
196 121 2
196 129 2
196 131 2
196 132 2
196 136 2
196 142 2
196 150 2
196 158 2
196 161 2
196 164 2
196 170 2
196 178 2
196 183 2
196 194 2
196 195 2
196 197 2
197 5 2
197 7 2
197 12 2
197 18 2
197 19 2
197 22 2
197 31 2
197 36 2
197 43 2
197 53 2
197 54 2
197 55 2
197 56 2
197 57 2
197 60 2
197 61 2
197 81 2
197 83 2
197 98 2
197 99 2
197 100 2
197 101 2
197 105 2
197 108 2
197 129 2
197 131 2
197 132 2
197 136 2
197 164 2
197 170 2
197 174 2
197 178 2
197 182 2
197 194 2
197 195 2
197 196 2
198 26 2
198 28 2
198 29 2
198 75 2
198 86 2
198 90 2
198 96 2
198 124 2
198 140 2
198 144 2
198 153 2
198 167 2
198 176 2
198 184 2
