%%MatrixMarket matrix coordinate real general
%
124 124 12068
1 1 2.0714E4
1 2 3.219E3
1 3 1.784E3
1 4 4.214E3
1 5 3.76E2
1 6 2.078E3
1 7 1.28E2
1 8 1.274E3
1 9 3.57E2
1 10 2.061E3
1 11 4.15E2
1 12 3.31E2
1 13 2.6E1
1 14 3.4E2
1 15 1.06E2
1 16 6.77E2
1 17 3.66E2
1 18 9.9E1
1 19 3.6E1
1 20 3.73E2
1 21 6.38E2
1 22 1.007E3
1 23 1.46E2
1 24 4.84E2
1 25 7.7E1
1 26 3.09E2
1 27 7.208E3
1 28 1.67E2
1 29 4.06E2
1 30 1.99E2
1 31 3.25E2
1 32 1.47E2
1 33 5.3E1
1 34 3.85E2
1 35 3.75E2
1 36 5.71E2
1 37 2.241E3
1 38 2.576E3
1 39 2.623E3
1 40 3.45E2
1 41 3.4E1
1 42 5.923E3
1 43 3.1E1
1 44 1.4E1
1 45 1.4E1
1 46 1.9E1
1 47 4.1E1
1 48 7E1
1 49 1.3E1
1 50 1
1 51 3.8E1
1 52 1.6E1
1 53 3.3E1
1 54 1.7E1
1 55 1.6E1
1 56 7.82E2
1 57 1.79E2
1 58 7.7E1
1 59 4.1E1
1 60 4.9E1
1 61 8.1E1
1 62 2.11E2
1 63 2.36E2
1 64 4.5E1
1 65 2.1E1
1 66 3.45E2
1 67 8.4E1
1 68 5.61E2
1 69 6.9E1
1 70 5.4E1
1 71 2.5E2
1 72 6.24E2
1 73 2.47E2
1 74 4.3E2
1 75 2.7E1
1 76 5.7E1
1 77 2.33E2
1 78 1.099E3
1 79 5.1E1
1 80 1.95E2
1 81 1.55E2
1 82 1.3E1
1 83 1.11E2
1 84 2.2E1
1 85 7.88E2
1 86 3.16E2
1 87 7.4E1
1 88 1.57E2
1 89 5.7E1
1 90 2.1E2
1 91 1.7E1
1 92 4.85E2
1 93 4.6E1
1 94 5.3E1
1 95 3.9E1
1 96 5.1E1
1 97 1.29E2
1 98 7.5E1
1 99 2.34E2
1 100 2E1
1 101 8.8E1
1 102 2.41E2
1 103 6.81E2
1 104 9.7E1
1 105 1.8E1
1 106 6.6E1
1 107 2.26E2
1 108 2.7E1
1 109 2.06E2
1 110 5.8E1
1 111 8.51E2
1 112 7.37E2
1 113 1.832E3
1 114 1.801E3
1 115 3.43E2
1 116 7.428E3
1 117 7.7E1
1 118 4.74E2
1 119 6.211E3
1 120 2.636E3
1 121 1.166E3
1 122 6.254E3
1 123 3.4E2
1 124 1.7E1
2 1 3.219E3
2 2 1.5992E4
2 3 5.52E2
2 4 3.642E3
2 5 2.75E2
2 6 1.028E3
2 7 4.5E1
2 8 4.63E2
2 9 1.45E2
2 10 7.47E2
2 11 1.64E2
2 12 3.55E2
2 13 1.4E1
2 14 1.12E2
2 15 3.2E1
2 16 4.79E2
2 17 1.7E2
2 18 4E1
2 19 2.3E1
2 20 2.92E2
2 21 2.8E2
2 22 3.74E2
2 23 9.5E1
2 24 2.88E2
2 25 4.9E1
2 26 1.45E2
2 27 2.313E3
2 28 6.3E1
2 29 1.427E3
2 30 1.05E2
2 31 1.74E2
2 32 6.6E1
2 33 3.3E1
2 34 1.9E2
2 35 1.29E2
2 36 3.65E2
2 37 1.089E3
2 38 1.066E3
2 39 3.977E3
2 40 1.67E2
2 41 1.1E1
2 42 1.646E3
2 43 1.4E1
2 44 1.7E1
2 45 1.9E1
2 46 1.4E1
2 47 4.9E1
2 48 4.3E1
2 49 9
2 50 1
2 51 3.5E1
2 52 2.8E1
2 53 2.1E1
2 54 9
2 55 6
2 56 5.28E2
2 57 1.3E2
2 58 5.1E1
2 59 3.6E1
2 60 2.3E1
2 61 5.2E1
2 62 1.42E2
2 63 1.72E2
2 64 2.3E1
2 65 2.8E1
2 66 3.36E2
2 67 3.7E1
2 68 6.58E2
2 69 5.6E1
2 70 5.9E1
2 71 2.06E2
2 72 5.67E2
2 73 1.86E2
2 74 4.48E2
2 75 1.3E1
2 76 2.6E1
2 77 1.11E2
2 78 3.76E2
2 79 2E1
2 80 3.4E1
2 81 8.6E1
2 82 1.5E1
2 83 4.8E1
2 84 3E1
2 85 3.63E2
2 86 6.57E2
2 87 6.9E1
2 88 9.6E1
2 89 5.7E1
2 90 1.41E2
2 91 1.1E1
2 92 3.66E2
2 93 2.9E1
2 94 2.3E1
2 95 2.3E1
2 96 2E1
2 97 1.55E2
2 98 1.11E2
2 99 8.2E1
2 100 2.6E1
2 101 1.9E1
2 102 2.53E2
2 103 3.06E2
2 104 5.9E1
2 105 2.9E1
2 106 7.1E1
2 107 1.67E2
2 108 3.2E1
2 109 1.67E2
2 110 2.5E1
2 111 5.2E2
2 112 5.01E2
2 113 4.405E3
2 114 1.388E3
2 115 1.25E2
2 116 2.313E3
2 117 4.2E1
2 118 4.62E2
2 119 5.119E3
2 120 2.727E3
2 121 9.09E2
2 122 2.106E3
2 123 2.12E2
2 124 1.1E1
3 1 1.784E3
3 2 5.52E2
3 3 1.8933E4
3 4 2.807E3
3 5 4.33E2
3 6 1.287E3
3 7 4.4E1
3 8 2.84E2
3 9 1.2E2
3 10 6.55E2
3 11 2.1E2
3 12 6.58E2
3 13 4.7E1
3 14 6.4E1
3 15 1.5E1
3 16 5.24E2
3 17 1.26E2
3 18 8E1
3 19 1.3E1
3 20 1.96E2
3 21 2.84E2
3 22 3.37E2
3 23 2.24E2
3 24 2.68E2
3 25 7.3E1
3 26 2.06E2
3 27 1.105E3
3 28 4.2E1
3 29 1.39E2
3 30 2.74E2
3 31 7.7E1
3 32 4.7E1
3 33 1.5E1
3 34 1.46E2
3 35 2.429E3
3 36 2.83E2
3 37 6.87E2
3 38 7.33E2
3 39 2.12E3
3 40 9.7E1
3 41 9.4E1
3 42 1.134E3
3 43 4.4E1
3 45 1
3 46 1
3 47 1
3 48 4
3 49 5
3 51 1
3 52 1.4E1
3 54 2.2E1
3 55 1E1
3 56 4.57E2
3 57 1.68E2
3 58 4.6E1
3 59 1.4E1
3 60 2.8E1
3 61 9.1E1
3 62 1.58E2
3 63 1.21E2
3 64 1.6E1
3 65 3.5E1
3 66 3.83E2
3 67 1.8E1
3 68 6.68E2
3 69 1.46E2
3 70 9.1E1
3 71 2.39E2
3 72 7.45E2
3 73 1.2E1
3 74 1.9E1
3 75 1.13E2
3 76 5.3E1
3 77 2.62E2
3 78 2.7E1
3 79 5.96E2
3 80 5.97E2
3 81 4.8E1
3 82 3.1E1
3 83 3.9E1
3 84 2.2E1
3 85 2.94E2
3 86 4.01E2
3 87 4.37E2
3 88 7.9E1
3 89 3.6E1
3 90 1.36E2
3 91 1.4E1
3 92 2.99E2
3 93 2.3E1
3 94 1.4E1
3 95 1.3E1
3 96 1E1
3 97 2.22E2
3 98 1.06E2
3 99 5.7E1
3 100 9.9E1
3 101 8
3 102 2.4E2
3 103 2.75E2
3 104 6.8E1
3 105 3.9E1
3 106 7.5E1
3 107 1.37E2
3 108 4.7E1
3 109 1.39E2
3 110 2.5E1
3 111 4.02E2
3 112 4.7E2
3 113 1.03E3
3 114 1.821E3
3 115 5.04E3
3 116 1.207E3
3 117 5
3 118 7.22E2
3 119 5.029E3
3 120 4.155E3
3 121 7.94E2
3 122 1.209E3
3 123 2.01E2
3 124 1.8E1
4 1 4.214E3
4 2 3.642E3
4 3 2.807E3
4 4 3.1997E4
4 5 5.58E2
4 6 2.094E3
4 7 4.9E1
4 8 3.24E2
4 9 1.63E2
4 10 6.65E2
4 11 1.52E2
4 12 1.242E3
4 13 5.7E1
4 14 6.9E1
4 15 2.1E1
4 16 9.69E2
4 17 1.58E2
4 18 5.9E1
4 19 2E1
4 20 4.6E2
4 21 3.55E2
4 22 4.06E2
4 23 2.25E2
4 24 4.75E2
4 25 1.48E2
4 26 1.95E2
4 27 7.3E3
4 28 6.9E1
4 29 6.47E2
4 30 1.94E2
4 31 2.22E2
4 32 1.06E2
4 33 4.8E1
4 34 2.35E2
4 35 5.19E2
4 36 5.64E2
4 37 1.339E3
4 38 8.72E2
4 39 5.534E3
4 40 3.25E2
4 41 2E1
4 42 1.368E3
4 43 9.6E1
4 44 3.7E1
4 45 2E1
4 46 2.8E1
4 47 5.8E1
4 48 8.4E1
4 49 1.1E1
4 50 3
4 51 5.4E1
4 52 2.9E1
4 53 4.2E1
4 54 5.2E1
4 55 1E1
4 56 1.032E3
4 57 2.38E2
4 58 7.7E1
4 59 6.8E1
4 60 3.6E1
4 61 1.39E2
4 62 2.14E2
4 63 2.52E2
4 64 3.7E1
4 65 4.6E1
4 66 9.11E2
4 67 4.3E1
4 68 1.662E3
4 69 2.55E2
4 70 1.4E2
4 71 4.05E2
4 72 1.577E3
4 73 9.59E2
4 74 8.38E2
4 75 9.7E1
4 76 1.63E2
4 77 7.44E2
4 78 1.267E3
4 79 1.99E2
4 80 4.77E2
4 81 9.5E1
4 82 4.2E1
4 83 6.2E1
4 84 4E1
4 85 3.84E2
4 86 9.96E2
4 87 2.59E2
4 88 1.25E2
4 89 8.1E1
4 90 2.13E2
4 91 2.2E1
4 92 7.05E2
4 93 4.8E1
4 94 3.7E1
4 95 2.2E1
4 96 1.4E1
4 97 3.17E2
4 98 1.86E2
4 99 7E1
4 100 1.21E2
4 101 3.8E1
4 102 3.03E2
4 103 3.87E2
4 104 9.7E1
4 105 8.1E1
4 106 1.13E2
4 107 3.17E2
4 108 9.1E1
4 109 2.4E2
4 110 3.1E1
4 111 7.28E2
4 112 6.84E2
4 113 3.38E3
4 114 2.749E3
4 115 5.79E2
4 116 9.128E3
4 117 1.09E2
4 118 1.251E3
4 119 9.412E3
4 120 6.953E3
4 121 1.337E3
4 122 7.503E3
4 123 2.49E2
4 124 2.8E1
5 1 3.76E2
5 2 2.75E2
5 3 4.33E2
5 4 5.58E2
5 5 1.933E3
5 6 1.04E2
5 7 3
5 8 3.8E1
5 9 7
5 10 5.2E1
5 11 1.4E1
5 12 1.2E1
5 13 2
5 14 7
5 15 2
5 16 3.6E1
5 17 1.4E1
5 18 7
5 19 1
5 20 9.1E1
5 21 2.8E1
5 22 4.1E1
5 23 5.1E1
5 24 4.6E1
5 25 2.1E1
5 26 1.6E1
5 27 1.93E2
5 28 1
5 29 4E1
5 30 6
5 31 8
5 32 9
5 34 7
5 35 7E1
5 36 1.3E1
5 37 1.13E2
5 38 1.19E2
5 39 2.62E2
5 40 1.6E1
5 41 1
5 42 1.46E2
5 43 2
5 44 2
5 47 3
5 48 4
5 49 1
5 51 1
5 52 4
5 53 4
5 54 3
5 56 9.1E1
5 57 2.4E1
5 58 4.5E1
5 59 8
5 60 3
5 61 6
5 62 1.8E1
5 63 1.5E1
5 64 1
5 65 6
5 66 4.8E1
5 67 1
5 68 9.6E1
5 69 1.7E1
5 70 7
5 71 3E1
5 72 8.5E1
5 73 1.9E1
5 74 2E1
5 75 3
5 76 9
5 77 3.3E1
5 78 9.9E1
5 79 1.3E1
5 80 5.4E1
5 82 2
5 83 4
5 85 2.2E1
5 86 5.9E1
5 87 1.3E1
5 88 6
5 89 2
5 90 6
5 92 1.4E1
5 93 3
5 94 2
5 95 1
5 96 1
5 97 1.5E1
5 98 6
5 99 7
5 100 9
5 101 1
5 102 8
5 103 3.7E1
5 104 1
5 105 4
5 106 1
5 107 7
5 108 3
5 109 1E1
5 110 1
5 111 2E1
5 112 1.8E1
5 113 2.48E2
5 114 1.76E2
5 115 1.4E2
5 116 4.39E2
5 117 1.7E1
5 118 2.9E1
5 119 2.71E2
5 120 2.47E2
5 121 1.7E1
5 122 1.63E2
5 123 6
6 1 2.078E3
6 2 1.028E3
6 3 1.287E3
6 4 2.094E3
6 5 1.04E2
6 6 6.025E3
6 7 3.7E1
6 8 2.93E2
6 9 7.3E1
6 10 4.1E2
6 11 9.7E1
6 12 1.54E2
6 13 1.2E1
6 14 5E1
6 15 8
6 16 1.94E2
6 17 6E1
6 18 5.3E1
6 19 1.2E1
6 20 6.4E1
6 21 1.21E2
6 22 1.64E2
6 23 3.3E1
6 24 8.2E1
6 25 1.9E1
6 26 4.7E1
6 27 1.525E3
6 28 4.2E1
6 29 1.82E2
6 30 7.3E1
6 31 7.9E1
6 32 3.8E1
6 33 9
6 34 8.3E1
6 35 2.69E2
6 36 1.86E2
6 37 4.61E2
6 38 4.53E2
6 39 1.336E3
6 40 1.01E2
6 41 5
6 42 9.04E2
6 43 2.6E1
6 44 1.2E1
6 45 3
6 46 1.1E1
6 47 1.6E1
6 48 3.1E1
6 49 4
6 50 1
6 51 1.3E1
6 52 6
6 53 1.6E1
6 54 4
6 55 4
6 56 1.99E2
6 57 6.2E1
6 58 2.4E1
6 59 6
6 60 6
6 61 3.8E1
6 62 7.7E1
6 63 6.2E1
6 64 1.4E1
6 65 1.1E1
6 66 1.32E2
6 67 1.8E1
6 68 1.52E2
6 69 1.2E1
6 70 1.8E1
6 71 4E1
6 72 1.25E2
6 73 1.13E2
6 74 1.44E2
6 75 2.1E1
6 76 3.2E1
6 77 1.02E2
6 78 3.32E2
6 79 3.7E1
6 80 1.35E2
6 81 4.2E1
6 82 9
6 83 3.4E1
6 84 8
6 85 1.57E2
6 86 2.04E2
6 87 3.9E1
6 88 5.4E1
6 89 1.5E1
6 90 6.9E1
6 91 7
6 92 2.04E2
6 93 7
6 94 9
6 95 1.6E1
6 96 1.3E1
6 97 8.5E1
6 98 4.6E1
6 99 4.7E1
6 100 2.5E1
6 101 2.9E1
6 102 1.11E2
6 103 1.14E2
6 104 3.3E1
6 105 7
6 106 2.7E1
6 107 7.1E1
6 108 1.6E1
6 109 7.6E1
6 110 1.4E1
6 111 2.16E2
6 112 2.43E2
6 113 7.9E2
6 114 5.42E2
6 115 3.23E2
6 116 1.532E3
6 117 3.5E1
6 118 3.26E2
6 119 1.967E3
6 120 1.03E3
6 121 3.46E2
6 122 1.569E3
6 123 9.9E1
6 124 5
7 1 1.28E2
7 2 4.5E1
7 3 4.4E1
7 4 4.9E1
7 5 3
7 6 3.7E1
7 7 2.12E2
7 8 6.4E1
7 9 1.1E1
7 10 7E1
7 11 2.5E1
7 14 6
7 16 2.8E1
7 17 1E1
7 18 1
7 21 4
7 22 8
7 26 4
7 27 9.3E1
7 29 7
7 30 4
7 31 8
7 32 6
7 33 2
7 34 6
7 35 1.2E1
7 36 6
7 37 3E1
7 38 2.4E1
7 39 2.6E1
7 40 5
7 42 4.6E1
7 56 3
7 62 2
7 63 1
7 68 6
7 71 1
7 72 3
7 73 1
7 74 4
7 77 4
7 78 8
7 79 3
7 80 1
7 81 3
7 85 5
7 86 2
7 87 2
7 88 3
7 90 4
7 92 7
7 95 2
7 99 1
7 102 3
7 103 3
7 104 4
7 106 2
7 107 2
7 108 1
7 109 2
7 110 5
7 111 1.3E1
7 112 1E1
7 113 2.1E1
7 114 2.2E1
7 115 1.2E1
7 116 7E1
7 117 1
7 118 8
7 119 9.9E1
7 120 4.8E1
7 121 2E1
7 122 7.9E1
7 123 1
7 124 1
8 1 1.274E3
8 2 4.63E2
8 3 2.84E2
8 4 3.24E2
8 5 3.8E1
8 6 2.93E2
8 7 6.4E1
8 8 1.82E3
8 9 8.4E1
8 10 7.65E2
8 11 2E2
8 12 1.9E1
8 13 2
8 14 1.09E2
8 15 2E1
8 16 1.19E2
8 17 9.6E1
8 18 5.1E1
8 20 1E1
8 21 4.9E1
8 22 6.6E1
8 23 5
8 24 3E1
8 25 3
8 26 1.3E1
8 27 7.25E2
8 28 2.5E1
8 29 4.8E1
8 30 2E1
8 31 4.4E1
8 32 1.7E1
8 33 6
8 34 4.3E1
8 35 4E1
8 36 4.4E1
8 37 2.84E2
8 38 2.92E2
8 39 2.59E2
8 40 2.9E1
8 41 4
8 42 5.71E2
8 43 2
8 44 1
8 45 5
8 46 1
8 47 6
8 48 5
8 49 2
8 51 3
8 52 1
8 53 2
8 54 7
8 55 1
8 56 7.7E1
8 57 2.4E1
8 58 6
8 60 2
8 61 5
8 62 1.6E1
8 63 2.4E1
8 64 2
8 65 1
8 66 2.9E1
8 67 7
8 68 2.6E1
8 69 2
8 70 2
8 71 1E1
8 72 1.5E1
8 73 2.2E1
8 74 4E1
8 75 2
8 76 2
8 77 2.1E1
8 78 8.4E1
8 79 2
8 80 9
8 81 1E1
8 82 2
8 83 2.1E1
8 84 1
8 85 5.1E1
8 86 3.3E1
8 87 7
8 88 1.2E1
8 89 5
8 90 1.8E1
8 91 1
8 92 3E1
8 93 1
8 94 2
8 95 4
8 96 2
8 97 6
8 98 1
8 99 2.2E1
8 100 6
8 101 5
8 102 1.1E1
8 103 3.9E1
8 104 4
8 105 1
8 106 9
8 107 2.4E1
8 109 1.7E1
8 110 1.5E1
8 111 9.1E1
8 112 6.1E1
8 113 1.76E2
8 114 1.66E2
8 115 7E1
8 116 5.98E2
8 117 6
8 118 5.2E1
8 119 5.98E2
8 120 2.55E2
8 121 9.8E1
8 122 6.14E2
8 123 2E1
8 124 1
9 1 3.57E2
9 2 1.45E2
9 3 1.2E2
9 4 1.63E2
9 5 7
9 6 7.3E1
9 7 1.1E1
9 8 8.4E1
9 9 6.78E2
9 10 1.25E2
9 11 2.6E1
9 12 1.3E1
9 13 1
9 14 2.6E1
9 15 1
9 16 1.48E2
9 17 5.5E1
9 18 6
9 20 5
9 21 1.3E1
9 22 3E1
9 23 1
9 24 1E1
9 25 4
9 26 1E1
9 27 2.24E2
9 28 1E1
9 29 1.7E1
9 30 8
9 31 1.3E1
9 32 8
9 33 2
9 34 1.6E1
9 35 2.1E1
9 36 1.7E1
9 37 7E1
9 38 7.4E1
9 39 1.11E2
9 40 1E1
9 41 2
9 42 1.62E2
9 43 3
9 44 2
9 45 1
9 47 2
9 48 3
9 52 1
9 54 5
9 55 1
9 56 1.9E1
9 57 3
9 58 1
9 59 6
9 60 2
9 61 4
9 62 1.2E1
9 63 1
9 64 1
9 66 1.7E1
9 67 4
9 68 1.6E1
9 69 2
9 70 1
9 71 5
9 72 7
9 73 4
9 74 2.1E1
9 76 3
9 77 1.2E1
9 78 4.3E1
9 79 3
9 80 3
9 81 6
9 82 1
9 83 6
9 85 1.5E1
9 86 9
9 87 4
9 88 3
9 89 5
9 90 8
9 91 1
9 92 1.2E1
9 93 1
9 95 1
9 96 2
9 97 2
9 99 5
9 100 2
9 101 2
9 102 4
9 103 2.3E1
9 104 4
9 105 2
9 106 4
9 107 1E1
9 108 2
9 109 9
9 110 4
9 111 2.9E1
9 112 2.7E1
9 113 6.5E1
9 114 4.7E1
9 115 3E1
9 116 2.01E2
9 117 5
9 118 1.5E1
9 119 2.01E2
9 120 1.07E2
9 121 3.2E1
9 122 1.98E2
9 123 1.3E1
10 1 2.061E3
10 2 7.47E2
10 3 6.55E2
10 4 6.65E2
10 5 5.2E1
10 6 4.1E2
10 7 7E1
10 8 7.65E2
10 9 1.25E2
10 10 3.347E3
10 11 2.06E2
10 12 5.2E1
10 13 1
10 14 2.35E2
10 15 4E1
10 16 2.65E2
10 17 1.81E2
10 18 5E1
10 19 6
10 20 1.7E1
10 21 1.17E2
10 22 1.63E2
10 23 9
10 24 6E1
10 25 6
10 26 3E1
10 27 1.162E3
10 28 3.5E1
10 29 1.07E2
10 30 4.3E1
10 31 5.4E1
10 32 2.9E1
10 33 1E1
10 34 8.1E1
10 35 1.3E2
10 36 6.5E1
10 37 4.57E2
10 38 4.55E2
10 39 4.69E2
10 40 5.7E1
10 41 9
10 42 9.31E2
10 43 7
10 44 3
10 45 6
10 46 3
10 47 6
10 48 9
10 49 3
10 51 8
10 52 1
10 53 2
10 54 3
10 55 2
10 56 1.28E2
10 57 3.6E1
10 58 9
10 59 7
10 60 1E1
10 61 1.8E1
10 62 4.1E1
10 63 3.3E1
10 64 3
10 65 4
10 66 5.6E1
10 67 1.9E1
10 68 7.2E1
10 69 2
10 70 3
10 71 2.5E1
10 72 3.4E1
10 73 4.4E1
10 74 8.1E1
10 75 5
10 76 9
10 77 3.7E1
10 78 1.61E2
10 79 1.5E1
10 80 2.6E1
10 81 1.9E1
10 82 5
10 83 2.5E1
10 84 6
10 85 1.05E2
10 86 5.1E1
10 87 1.9E1
10 88 2.2E1
10 89 9
10 90 2.6E1
10 91 4
10 92 6.6E1
10 93 4
10 94 5
10 95 5
10 96 6
10 97 1.4E1
10 98 1.1E1
10 99 3E1
10 100 7
10 101 1.4E1
10 102 2E1
10 103 7.2E1
10 104 1.9E1
10 105 6
10 106 1.3E1
10 107 4.1E1
10 108 3
10 109 2.5E1
10 110 4E1
10 111 1.61E2
10 112 1.38E2
10 113 3.58E2
10 114 3.02E2
10 115 1.66E2
10 116 1.001E3
10 117 1.4E1
10 118 9.9E1
10 119 1.125E3
10 120 4.67E2
10 121 1.59E2
10 122 9.61E2
10 123 5E1
10 124 2
11 1 4.15E2
11 2 1.64E2
11 3 2.1E2
11 4 1.52E2
11 5 1.4E1
11 6 9.7E1
11 7 2.5E1
11 8 2E2
11 9 2.6E1
11 10 2.06E2
11 11 7.21E2
11 12 6
11 14 3.7E1
11 15 9
11 16 6E1
11 17 4.4E1
11 18 1.9E1
11 19 1
11 20 3
11 21 1.9E1
11 22 3.5E1
11 23 4
11 24 1E1
11 25 3
11 26 1.4E1
11 27 2.35E2
11 28 9
11 29 2.1E1
11 30 1.4E1
11 31 1.8E1
11 32 4
11 33 2
11 34 2.9E1
11 35 4E1
11 36 1E1
11 37 1.12E2
11 38 1.12E2
11 39 6.9E1
11 40 7
11 42 1.88E2
11 47 2
11 48 2
11 51 2
11 52 1
11 56 4.1E1
11 57 1.1E1
11 58 4
11 59 3
11 60 1
11 61 1
11 62 1.1E1
11 63 5
11 64 2
11 66 1.8E1
11 67 8
11 68 1.3E1
11 71 2
11 72 8
11 73 7
11 74 2E1
11 75 1
11 76 1
11 77 5
11 78 2.7E1
11 79 3
11 80 3
11 81 7
11 82 1
11 83 5
11 84 2
11 85 2.1E1
11 86 1.1E1
11 87 4
11 88 2
11 89 3
11 90 5
11 92 7
11 97 3
11 98 1
11 99 7
11 100 2
11 101 4
11 102 6
11 103 1.5E1
11 104 3
11 106 2
11 107 1.2E1
11 108 1
11 109 1.3E1
11 111 4.4E1
11 112 2.6E1
11 113 6.2E1
11 114 6E1
11 115 5.6E1
11 116 1.95E2
11 117 2
11 118 2E1
11 119 2.03E2
11 120 1.12E2
11 121 3.3E1
11 122 1.86E2
11 123 6
11 124 2
12 1 3.31E2
12 2 3.55E2
12 3 6.58E2
12 4 1.242E3
12 5 1.2E1
12 6 1.54E2
12 8 1.9E1
12 9 1.3E1
12 10 5.2E1
12 11 6
12 12 4.237E3
12 13 1.18E2
12 14 3
12 15 1
12 16 6.4E1
12 17 6
12 18 1.1E1
12 19 1
12 20 6
12 21 1.2E1
12 22 1E1
12 23 2
12 24 9
12 25 5
12 26 6
12 27 2.85E2
12 28 2
12 29 4.1E1
12 30 1.2E1
12 32 3
12 33 1
12 34 6
12 35 9E1
12 36 5.99E2
12 37 8.1E1
12 38 3.8E1
12 39 7.65E2
12 40 1.5E1
12 41 1.2E1
12 42 1.29E2
12 43 5
12 45 5
12 47 1E1
12 48 6
12 51 1.3E1
12 52 6
12 53 5
12 55 1
12 56 3.1E1
12 57 1.8E1
12 58 5
12 59 1
12 60 2
12 61 4.3E1
12 62 1.4E1
12 63 2.4E1
12 64 2
12 65 1
12 66 9.9E1
12 68 9.4E1
12 69 9
12 70 1.5E1
12 71 3.4E1
12 72 2.9E1
12 73 2.07E2
12 74 1.56E2
12 75 3.1E1
12 76 3.3E1
12 77 1.69E2
12 78 1.21E2
12 79 8.5E1
12 80 1.03E2
12 81 4
12 82 8.2E1
12 83 1.5E1
12 84 2.2E1
12 85 3.7E1
12 86 4.9E1
12 87 1.7E1
12 88 5
12 89 2
12 90 8.3E1
12 92 4.54E2
12 93 2.5E1
12 95 5
12 96 1
12 97 1E1
12 98 8
12 99 1
12 101 1
12 102 5.8E1
12 103 4.7E1
12 104 2.1E1
12 105 6
12 106 5
12 107 2.2E1
12 108 4
12 109 2.1E1
12 110 1
12 111 3.3E1
12 112 6.7E1
12 113 2.99E2
12 114 1.33E2
12 115 1.65E2
12 116 3.13E2
12 117 3
12 118 3.7E1
12 119 7.13E2
12 120 4.07E2
12 121 2.05E2
12 122 2.27E2
12 123 2.5E1
12 124 4
13 1 2.6E1
13 2 1.4E1
13 3 4.7E1
13 4 5.7E1
13 5 2
13 6 1.2E1
13 8 2
13 9 1
13 10 1
13 12 1.18E2
13 13 2.03E2
13 16 4
13 17 1
13 20 2
13 21 3
13 26 1
13 27 2.7E1
13 28 1
13 30 2
13 35 4
13 36 3.2E1
13 37 1E1
13 38 3
13 39 2.7E1
13 40 1
13 42 1.5E1
13 56 5
13 57 1
13 58 1
13 61 6
13 62 1
13 63 2
13 66 4
13 71 2
13 73 1.6E1
13 74 1.2E1
13 75 1
13 76 1
13 77 1E1
13 78 3
13 79 6
13 80 8
13 82 1.4E1
13 84 3
13 85 3
13 86 2
13 90 1.1E1
13 92 3.2E1
13 93 2
13 96 1
13 99 2
13 101 2
13 102 3
13 103 6
13 104 1
13 107 3
13 109 2
13 112 3
13 113 1.6E1
13 114 4
13 115 9
13 116 1.8E1
13 117 1
13 118 3
13 119 3.9E1
13 120 1.6E1
13 121 5
13 122 1.8E1
13 123 3
14 1 3.4E2
14 2 1.12E2
14 3 6.4E1
14 4 6.9E1
14 5 7
14 6 5E1
14 7 6
14 8 1.09E2
14 9 2.6E1
14 10 2.35E2
14 11 3.7E1
14 12 3
14 14 4.59E2
14 15 1.2E1
14 16 2.1E1
14 17 5.5E1
14 18 9
14 20 5
14 21 2.3E1
14 22 3.3E1
14 24 1E1
14 25 3
14 26 7
14 27 1.91E2
14 28 5
14 29 2.2E1
14 30 7
14 31 1.2E1
14 32 6
14 34 1.8E1
14 35 1.7E1
14 36 9
14 37 7.4E1
14 38 6.9E1
14 39 4.7E1
14 40 5
14 41 1
14 42 1.68E2
14 43 1
14 44 1
14 47 1
14 48 3
14 51 1
14 55 1
14 56 1.8E1
14 57 5
14 58 2
14 59 1
14 61 1
14 62 5
14 63 5
14 66 4
14 67 7
14 68 7
14 69 1
14 71 3
14 72 5
14 73 4
14 74 8
14 76 1
14 77 6
14 78 1.3E1
14 79 1
14 80 6
14 81 3
14 83 1
14 84 1
14 85 1.4E1
14 86 9
14 87 1
14 88 5
14 89 1
14 90 3
14 91 1
14 92 7
14 94 1
14 96 1
14 97 2
14 98 1
14 99 3
14 101 2
14 102 1
14 103 1.2E1
14 104 2
14 105 1
14 106 1
14 107 9
14 109 5
14 110 1.3E1
14 111 3.1E1
14 112 2.2E1
14 113 3.3E1
14 114 5.1E1
14 115 1E1
14 116 1.8E2
14 118 7
14 119 1.44E2
14 120 4.7E1
14 121 2.3E1
14 122 1.4E2
14 123 4
15 1 1.06E2
15 2 3.2E1
15 3 1.5E1
15 4 2.1E1
15 5 2
15 6 8
15 8 2E1
15 9 1
15 10 4E1
15 11 9
15 12 1
15 14 1.2E1
15 15 1.39E2
15 16 3
15 17 1.2E1
15 18 3
15 19 1
15 20 2
15 21 8
15 22 1.3E1
15 23 1
15 24 2
15 27 6.4E1
15 28 4
15 29 4
15 30 3
15 31 5
15 32 1
15 34 4
15 35 2
15 37 2E1
15 38 3.4E1
15 39 1E1
15 40 4
15 42 5.1E1
15 46 1
15 47 1
15 48 1
15 51 1
15 56 9
15 57 1
15 59 1
15 62 3
15 66 2
15 67 1
15 73 2
15 74 4
15 76 1
15 78 5
15 80 2
15 81 2
15 83 2
15 85 4
15 86 1
15 88 2
15 90 1
15 94 4
15 97 1
15 98 1
15 99 4
15 101 2
15 102 1
15 103 4
15 106 1
15 107 2
15 109 2
15 111 1.1E1
15 112 2
15 113 1.5E1
15 114 1.9E1
15 115 7
15 116 6.2E1
15 118 2
15 119 3.9E1
15 120 1.2E1
15 121 4
15 122 5.8E1
15 123 1
16 1 6.77E2
16 2 4.79E2
16 3 5.24E2
16 4 9.69E2
16 5 3.6E1
16 6 1.94E2
16 7 2.8E1
16 8 1.19E2
16 9 1.48E2
16 10 2.65E2
16 11 6E1
16 12 6.4E1
16 13 4
16 14 2.1E1
16 15 3
16 16 2.542E3
16 17 1.42E2
16 18 2E1
16 19 1
16 20 8
16 21 2.2E1
16 22 4.2E1
16 23 7
16 24 3.5E1
16 25 1
16 26 2.2E1
16 27 5.68E2
16 28 1.5E1
16 29 8.4E1
16 30 3E1
16 31 2.2E1
16 32 2.2E1
16 33 4
16 34 4.9E1
16 35 8.6E1
16 36 8E1
16 37 2.04E2
16 38 1.09E2
16 39 4.7E2
16 40 3.8E1
16 41 5
16 42 2.78E2
16 43 5
16 44 7
16 46 7
16 47 5
16 48 7
16 49 1
16 51 4
16 52 4
16 53 1
16 54 2
16 55 3
16 56 1.17E2
16 57 3.5E1
16 58 6
16 59 6
16 60 1
16 61 2.5E1
16 62 4.1E1
16 63 2.4E1
16 65 5
16 66 1.19E2
16 67 1E1
16 68 8.8E1
16 69 9
16 70 6
16 71 1.2E1
16 72 5E1
16 73 5.6E1
16 74 7.1E1
16 75 9
16 76 3
16 77 6E1
16 78 1.9E2
16 79 1.6E1
16 80 3E1
16 81 1.2E1
16 82 5
16 83 1.1E1
16 84 3
16 85 5E1
16 86 5.6E1
16 87 2.2E1
16 88 1.3E1
16 89 1E1
16 90 3.2E1
16 91 1
16 92 7.5E1
16 93 7
16 94 1
16 95 4
16 96 2
16 97 1.8E1
16 98 1.3E1
16 99 1.2E1
16 100 8
16 101 3
16 102 1.8E1
16 103 5E1
16 104 1.4E1
16 105 1.1E1
16 106 7
16 107 3.6E1
16 108 4
16 109 3E1
16 110 1E1
16 111 9.5E1
16 112 7.4E1
16 113 3.1E2
16 114 2.31E2
16 115 1.51E2
16 116 5.03E2
16 117 2.2E1
16 118 8E1
16 119 8.39E2
16 120 4.76E2
16 121 1.24E2
16 122 4.65E2
16 123 3.2E1
16 124 2
17 1 3.66E2
17 2 1.7E2
17 3 1.26E2
17 4 1.58E2
17 5 1.4E1
17 6 6E1
17 7 1E1
17 8 9.6E1
17 9 5.5E1
17 10 1.81E2
17 11 4.4E1
17 12 6
17 13 1
17 14 5.5E1
17 15 1.2E1
17 16 1.42E2
17 17 6.73E2
17 18 8
17 19 1
17 20 4
17 21 2.3E1
17 22 3.9E1
17 23 2
17 24 4
17 25 2
17 26 1E1
17 27 2.36E2
17 28 8
17 29 2.5E1
17 30 1.1E1
17 31 1.2E1
17 32 9
17 33 3
17 34 2.6E1
17 35 2.3E1
17 36 1E1
17 37 1.03E2
17 38 7.4E1
17 39 7.5E1
17 40 7
17 41 1
17 42 1.68E2
17 44 1
17 47 1
17 48 2
17 51 1
17 52 1
17 53 1
17 54 1
17 56 4.2E1
17 57 9
17 58 2
17 59 5
17 60 2
17 61 3
17 62 1.4E1
17 63 6
17 64 1
17 65 1
17 66 1.4E1
17 67 6
17 68 2.2E1
17 69 1
17 70 1
17 71 1
17 72 8
17 73 3
17 74 2.1E1
17 76 1
17 77 1.3E1
17 78 2.2E1
17 79 2
17 80 6
17 81 6
17 82 1
17 83 4
17 84 1
17 85 1.9E1
17 86 5
17 87 6
17 88 3
17 89 3
17 90 5
17 92 8
17 94 2
17 95 1
17 96 1
17 98 2
17 99 5
17 100 3
17 101 1
17 102 1
17 103 2.1E1
17 104 2
17 105 1
17 106 4
17 107 2E1
17 109 1.2E1
17 110 7
17 111 4.6E1
17 112 3.4E1
17 113 6.3E1
17 114 5.1E1
17 115 3.5E1
17 116 2.04E2
17 117 1
17 118 1.2E1
17 119 2.04E2
17 120 1.01E2
17 121 3.2E1
17 122 1.96E2
17 123 8
18 1 9.9E1
18 2 4E1
18 3 8E1
18 4 5.9E1
18 5 7
18 6 5.3E1
18 7 1
18 8 5.1E1
18 9 6
18 10 5E1
18 11 1.9E1
18 12 1.1E1
18 14 9
18 15 3
18 16 2E1
18 17 8
18 18 2.5E2
18 20 4
18 21 1
18 22 7
18 23 2
18 24 5
18 26 1
18 27 6.4E1
18 28 2
18 29 8
18 30 2
18 31 1
18 32 2
18 34 3
18 35 1.2E1
18 36 1.1E1
18 37 2.6E1
18 38 2E1
18 39 4.7E1
18 40 5
18 42 4.4E1
18 43 1
18 48 2
18 55 1
18 56 1.3E1
18 57 5
18 58 1
18 61 1
18 62 3
18 63 2
18 66 1.1E1
18 67 2
18 68 6
18 70 1
18 71 2
18 72 2
18 73 1E1
18 74 4
18 76 2
18 77 4
18 78 1.3E1
18 79 2
18 80 3
18 81 1
18 83 1
18 85 4
18 86 2
18 87 2
18 88 1
18 89 1
18 90 5
18 92 7
18 94 1
18 96 1
18 97 3
18 100 1
18 101 1
18 102 3
18 103 3
18 104 3
18 106 1
18 107 2
18 108 1
18 109 1
18 110 1
18 111 1.1E1
18 112 7
18 113 3.4E1
18 114 1.9E1
18 115 1.8E1
18 116 5.6E1
18 118 8
18 119 7.5E1
18 120 4.7E1
18 121 1.9E1
18 122 4.8E1
18 123 3
18 124 1
19 1 3.6E1
19 2 2.3E1
19 3 1.3E1
19 4 2E1
19 5 1
19 6 1.2E1
19 10 6
19 11 1
19 12 1
19 15 1
19 16 1
19 17 1
19 19 7.8E1
19 20 1.2E1
19 21 1E1
19 22 1.2E1
19 23 5
19 24 1.8E1
19 25 4
19 26 1
19 27 1.5E1
19 28 1
19 29 2
19 31 1
19 34 1
19 36 2
19 37 1.4E1
19 38 9
19 39 1.6E1
19 40 3
19 42 1.2E1
19 52 1
19 56 1
19 57 2
19 59 1
19 62 1
19 66 3
19 68 4
19 69 1
19 71 1
19 72 4
19 73 1
19 74 2
19 78 1
19 86 3
19 87 1
19 92 2
19 94 3
19 97 1
19 98 3
19 99 1
19 103 2
19 109 1
19 111 1
19 112 3
19 113 1.3E1
19 114 1.2E1
19 115 2
19 116 2.7E1
19 117 1
19 118 1
19 119 1.8E1
19 120 1.1E1
19 121 1
19 122 1.5E1
19 124 1
20 1 3.73E2
20 2 2.92E2
20 3 1.96E2
20 4 4.6E2
20 5 9.1E1
20 6 6.4E1
20 8 1E1
20 9 5
20 10 1.7E1
20 11 3
20 12 6
20 13 2
20 14 5
20 15 2
20 16 8
20 17 4
20 18 4
20 19 1.2E1
20 20 1.348E3
20 21 1.1E2
20 22 1.92E2
20 23 1.83E2
20 24 2.45E2
20 25 6.9E1
20 26 8.5E1
20 27 1.79E2
20 28 2
20 29 1.3E1
20 30 6
20 31 6
20 32 4
20 34 8
20 35 2.8E1
20 36 2
20 37 7.7E1
20 38 9.1E1
20 39 1.63E2
20 40 6
20 42 9E1
20 44 1
20 45 1
20 46 1
20 47 3
20 48 5
20 51 3
20 53 2
20 55 1
20 56 8.2E1
20 57 1.6E1
20 58 7
20 59 7
20 60 7
20 61 2
20 62 9
20 63 2.4E1
20 64 3
20 66 4E1
20 67 3
20 68 7E1
20 69 1.6E1
20 70 1.1E1
20 71 5.2E1
20 72 9.6E1
20 73 5
20 74 1.3E1
20 75 2
20 76 6
20 77 1.1E1
20 78 4.4E1
20 80 7
20 81 3
20 82 1
20 83 1
20 85 3.5E1
20 86 4.1E1
20 87 1
20 88 6
20 89 3
20 90 3
20 92 9
20 93 2
20 94 1E1
20 96 2
20 97 7
20 98 3
20 99 9
20 100 2
20 101 1
20 102 2
20 103 5.4E1
20 106 3
20 107 4
20 109 3
20 111 1.7E1
20 112 8
20 113 2.94E2
20 114 1.46E2
20 115 7.3E1
20 116 4.62E2
20 117 9
20 118 1.4E1
20 119 1.51E2
20 120 1.09E2
20 121 9
20 122 1.42E2
20 123 4
20 124 1
21 1 6.38E2
21 2 2.8E2
21 3 2.84E2
21 4 3.55E2
21 5 2.8E1
21 6 1.21E2
21 7 4
21 8 4.9E1
21 9 1.3E1
21 10 1.17E2
21 11 1.9E1
21 12 1.2E1
21 13 3
21 14 2.3E1
21 15 8
21 16 2.2E1
21 17 2.3E1
21 18 1
21 19 1E1
21 20 1.1E2
21 21 1.301E3
21 22 3.31E2
21 23 4.4E1
21 24 1.17E2
21 25 1.8E1
21 26 1.03E2
21 27 3.39E2
21 28 8
21 29 5E1
21 30 2.4E1
21 31 8
21 32 5
21 33 5
21 34 1.9E1
21 35 4.7E1
21 36 1.3E1
21 37 1.01E2
21 38 1.43E2
21 39 1.94E2
21 40 1.8E1
21 41 2
21 42 2.69E2
21 43 3
21 44 1
21 45 1
21 46 3
21 47 4
21 48 5
21 51 5
21 52 2
21 53 1
21 54 3
21 55 1
21 56 1.17E2
21 57 2.8E1
21 58 5
21 59 4
21 60 7
21 61 7
21 62 1.4E1
21 63 3.7E1
21 64 8
21 66 3.8E1
21 67 6
21 68 3.1E1
21 70 2
21 71 1.3E1
21 72 1.5E1
21 73 1.8E1
21 74 1.6E1
21 75 3
21 76 4
21 77 1.2E1
21 78 4.7E1
21 79 5
21 80 9
21 81 7
21 82 1
21 83 3
21 84 1
21 85 4.1E1
21 86 2.1E1
21 87 7
21 88 1.1E1
21 89 5
21 90 1.8E1
21 91 1
21 92 2E1
21 94 4
21 95 3
21 96 2
21 97 5
21 98 6
21 99 1.5E1
21 100 3
21 101 2
21 102 4
21 103 8.8E1
21 104 3
21 105 1
21 106 3
21 107 1E1
21 108 4
21 109 8
21 110 2
21 111 4.4E1
21 112 3.2E1
21 113 1.65E2
21 114 1.37E2
21 115 7.2E1
21 116 3.64E2
21 117 8
21 118 3.2E1
21 119 2.51E2
21 120 1.23E2
21 121 3.5E1
21 122 2.23E2
21 123 1.7E1
21 124 1
22 1 1.007E3
22 2 3.74E2
22 3 3.37E2
22 4 4.06E2
22 5 4.1E1
22 6 1.64E2
22 7 8
22 8 6.6E1
22 9 3E1
22 10 1.63E2
22 11 3.5E1
22 12 1E1
22 14 3.3E1
22 15 1.3E1
22 16 4.2E1
22 17 3.9E1
22 18 7
22 19 1.2E1
22 20 1.92E2
22 21 3.31E2
22 22 1.862E3
22 23 7.4E1
22 24 2.94E2
22 25 3.8E1
22 26 2.48E2
22 27 5.07E2
22 28 1.4E1
22 29 3.7E1
22 30 2.3E1
22 31 2.5E1
22 32 6
22 33 2
22 34 1.8E1
22 35 4.8E1
22 36 2.6E1
22 37 1.8E2
22 38 2.69E2
22 39 2.1E2
22 40 1.2E1
22 42 4.53E2
22 43 1
22 44 3
22 47 5
22 48 4
22 51 5
22 52 3
22 53 5
22 54 2
22 55 1
22 56 1.17E2
22 57 2.2E1
22 58 9
22 59 6
22 60 6
22 61 2
22 62 2.9E1
22 63 3.7E1
22 64 6
22 66 3.8E1
22 67 1.3E1
22 68 4E1
22 69 9
22 70 1E1
22 71 2.3E1
22 72 2.9E1
22 73 9
22 74 3.6E1
22 75 1
22 76 4
22 77 1.5E1
22 78 7.2E1
22 79 1
22 80 1.1E1
22 81 1.2E1
22 83 3
22 84 1
22 85 5.6E1
22 86 1.7E1
22 87 4
22 88 8
22 89 1
22 90 1.4E1
22 91 2
22 92 2.8E1
22 93 3
22 94 8
22 95 1
22 96 6
22 97 7
22 98 8
22 99 2.1E1
22 101 6
22 102 4
22 103 1.46E2
22 104 8
22 106 4
22 107 1.5E1
22 108 4
22 109 1.3E1
22 110 2
22 111 5.1E1
22 112 4E1
22 113 2.75E2
22 114 1.47E2
22 115 9E1
22 116 6.17E2
22 117 9
22 118 2.2E1
22 119 2.86E2
22 120 1.15E2
22 121 4.1E1
22 122 3.31E2
22 123 1.9E1
22 124 1
23 1 1.46E2
23 2 9.5E1
23 3 2.24E2
23 4 2.25E2
23 5 5.1E1
23 6 3.3E1
23 8 5
23 9 1
23 10 9
23 11 4
23 12 2
23 15 1
23 16 7
23 17 2
23 18 2
23 19 5
23 20 1.83E2
23 21 4.4E1
23 22 7.4E1
23 23 7.27E2
23 24 1.29E2
23 25 7.3E1
23 26 6E1
23 27 6.5E1
23 28 2
23 29 1E1
23 30 1
23 31 3
23 34 4
23 35 2.9E1
23 36 6
23 37 3.2E1
23 38 2.7E1
23 39 7.2E1
23 41 1
23 42 4.1E1
23 43 5
23 47 1
23 48 2
23 51 2
23 52 1
23 54 3
23 56 3.5E1
23 57 1.1E1
23 58 5
23 59 2
23 60 4
23 62 5
23 63 8
23 66 1.6E1
23 67 2
23 68 2.8E1
23 69 6
23 70 1.3E1
23 71 6E1
23 72 3.1E1
23 73 7
23 74 1
23 75 5
23 76 3
23 77 1.2E1
23 78 2.2E1
23 79 4
23 80 9
23 81 3
23 83 1
23 85 2E1
23 86 1.4E1
23 87 3
23 88 3
23 89 5
23 90 2
23 92 3
23 94 4
23 96 1
23 97 6
23 98 4
23 99 4
23 100 4
23 101 2
23 102 1
23 103 1.6E1
23 106 2
23 108 2
23 109 3
23 111 6
23 112 1.1E1
23 113 1.42E2
23 114 6.3E1
23 115 8.6E1
23 116 1.6E2
23 117 4
23 118 1.1E1
23 119 8.4E1
23 120 6.2E1
23 121 7
23 122 5.5E1
23 123 3
24 1 4.84E2
24 2 2.88E2
24 3 2.68E2
24 4 4.75E2
24 5 4.6E1
24 6 8.2E1
24 8 3E1
24 9 1E1
24 10 6E1
24 11 1E1
24 12 9
24 14 1E1
24 15 2
24 16 3.5E1
24 17 4
24 18 5
24 19 1.8E1
24 20 2.45E2
24 21 1.17E2
24 22 2.94E2
24 23 1.29E2
24 24 1.464E3
24 25 9.7E1
24 26 1.72E2
24 27 2.86E2
24 28 5
24 29 2.7E1
24 30 1E1
24 31 1.5E1
24 32 5
24 33 3
24 34 1.1E1
24 35 4.8E1
24 36 1.1E1
24 37 1.01E2
24 38 1.48E2
24 39 1.9E2
24 40 7
24 41 1
24 42 1.75E2
24 43 1
24 45 1
24 47 2
24 48 4
24 51 1
24 52 3
24 53 3
24 54 1
24 55 1
24 56 8.8E1
24 57 2E1
24 58 5
24 59 5
24 60 6
24 61 1
24 62 1.5E1
24 63 2.4E1
24 64 3
24 65 2
24 66 3.6E1
24 67 3
24 68 6.7E1
24 69 1.7E1
24 70 1.8E1
24 71 5E1
24 72 9.1E1
24 73 1.3E1
24 74 2.4E1
24 75 4
24 76 4
24 77 2.3E1
24 78 6.1E1
24 79 3
24 80 1E1
24 81 7
24 83 2
24 85 4.6E1
24 86 3.6E1
24 87 5
24 88 4
24 89 8
24 90 7
24 91 3
24 92 2.1E1
24 93 3
24 94 1.1E1
24 96 4
24 97 1E1
24 98 5
24 99 9
24 100 2
24 101 3
24 102 2
24 103 6.1E1
24 104 4
24 106 4
24 107 7
24 109 6
24 111 2.5E1
24 112 2.4E1
24 113 2.7E2
24 114 1.54E2
24 115 1E2
24 116 4.67E2
24 117 9
24 118 2.1E1
24 119 2.08E2
24 120 1.52E2
24 121 3.8E1
24 122 1.99E2
24 123 8
25 1 7.7E1
25 2 4.9E1
25 3 7.3E1
25 4 1.48E2
25 5 2.1E1
25 6 1.9E1
25 8 3
25 9 4
25 10 6
25 11 3
25 12 5
25 14 3
25 16 1
25 17 2
25 19 4
25 20 6.9E1
25 21 1.8E1
25 22 3.8E1
25 23 7.3E1
25 24 9.7E1
25 25 3.6E2
25 26 4.7E1
25 27 4.9E1
25 29 3
25 30 2
25 33 1
25 34 1
25 35 1.8E1
25 36 2
25 37 1.5E1
25 38 1.4E1
25 39 3.9E1
25 42 2.8E1
25 45 2
25 47 1
25 48 1
25 51 1
25 53 4
25 54 1
25 55 1
25 56 2.3E1
25 57 5
25 58 2
25 59 1
25 60 3
25 62 4
25 63 4
25 64 1
25 66 8
25 67 1
25 68 1.3E1
25 69 1.1E1
25 70 6
25 71 2.3E1
25 72 2.3E1
25 73 2
25 74 5
25 75 1
25 76 1
25 77 6
25 78 1E1
25 80 1
25 81 1
25 85 1.3E1
25 86 9
25 87 1
25 88 1
25 89 1
25 90 2
25 92 5
25 94 1
25 97 3
25 98 5
25 99 5
25 100 3
25 101 2
25 103 6
25 106 1
25 107 1
25 108 2
25 109 1
25 111 1
25 112 4
25 113 6.3E1
25 114 2.6E1
25 115 2.1E1
25 116 1.1E2
25 117 3
25 118 9
25 119 4.7E1
25 120 3.8E1
25 121 5
25 122 4.9E1
26 1 3.09E2
26 2 1.45E2
26 3 2.06E2
26 4 1.95E2
26 5 1.6E1
26 6 4.7E1
26 7 4
26 8 1.3E1
26 9 1E1
26 10 3E1
26 11 1.4E1
26 12 6
26 13 1
26 14 7
26 16 2.2E1
26 17 1E1
26 18 1
26 19 1
26 20 8.5E1
26 21 1.03E2
26 22 2.48E2
26 23 6E1
26 24 1.72E2
26 25 4.7E1
26 26 7.63E2
26 27 1.7E2
26 28 1
26 29 1E1
26 30 1.4E1
26 31 7
26 32 3
26 33 2
26 34 4
26 35 3.8E1
26 36 7
26 37 6E1
26 38 6.8E1
26 39 1E2
26 40 9
26 41 1
26 42 1.15E2
26 43 2
26 45 1
26 46 1
26 48 1
26 51 3
26 52 1
26 53 1
26 54 1
26 56 4.5E1
26 57 1.2E1
26 58 3
26 60 2
26 62 1.1E1
26 63 1.5E1
26 64 1
26 66 2.1E1
26 67 5
26 68 2.3E1
26 69 1
26 70 5
26 71 1.2E1
26 72 2E1
26 73 9
26 74 9
26 76 5
26 77 7
26 78 2.9E1
26 79 3
26 80 8
26 81 3
26 83 2
26 84 1
26 85 3.6E1
26 86 1.1E1
26 87 5
26 88 7
26 89 2
26 90 6
26 91 2
26 92 1.1E1
26 93 1
26 94 2
26 95 1
26 96 2
26 97 2
26 98 3
26 99 8
26 100 4
26 101 2
26 102 1
26 103 4.5E1
26 104 2
26 106 4
26 107 6
26 109 5
26 110 2
26 111 1.3E1
26 112 1.3E1
26 113 1.07E2
26 114 8.3E1
26 115 5.6E1
26 116 2.06E2
26 117 4
26 118 6
26 119 1.15E2
26 120 6.4E1
26 121 1.7E1
26 122 9.5E1
26 123 1.1E1
26 124 1
27 1 7.208E3
27 2 2.313E3
27 3 1.105E3
27 4 7.3E3
27 5 1.93E2
27 6 1.525E3
27 7 9.3E1
27 8 7.25E2
27 9 2.24E2
27 10 1.162E3
27 11 2.35E2
27 12 2.85E2
27 13 2.7E1
27 14 1.91E2
27 15 6.4E1
27 16 5.68E2
27 17 2.36E2
27 18 6.4E1
27 19 1.5E1
27 20 1.79E2
27 21 3.39E2
27 22 5.07E2
27 23 6.5E1
27 24 2.86E2
27 25 4.9E1
27 26 1.7E2
27 27 1.4606E4
27 28 1.28E2
27 29 1.61E2
27 30 1.73E2
27 31 1.97E2
27 32 9.7E1
27 33 3E1
27 34 2.41E2
27 35 2.21E2
27 36 3.29E2
27 37 1.193E3
27 38 1.2E3
27 39 2.213E3
27 40 2.73E2
27 41 1.6E1
27 42 2.185E3
27 43 3.6E1
27 44 2.1E1
27 45 1.1E1
27 46 1.6E1
27 47 3.8E1
27 48 4.9E1
27 49 1E1
27 50 3
27 51 3.2E1
27 52 1.7E1
27 53 1.9E1
27 54 2.3E1
27 55 9
27 56 5.12E2
27 57 1.03E2
27 58 3.8E1
27 59 2.9E1
27 60 3.3E1
27 61 5.5E1
27 62 1.36E2
27 63 1.35E2
27 64 2.9E1
27 65 1.8E1
27 66 2.83E2
27 67 5.1E1
27 68 4.39E2
27 69 6.4E1
27 70 4.1E1
27 71 1.44E2
27 72 4.51E2
27 73 2.82E2
27 74 3.39E2
27 75 2.2E1
27 76 5.6E1
27 77 2.45E2
27 78 6.34E2
27 79 5.8E1
27 80 1.35E2
27 81 9.9E1
27 82 9
27 83 5.3E1
27 84 1.1E1
27 85 4.64E2
27 86 3.53E2
27 87 6.2E1
27 88 1.01E2
27 89 4.9E1
27 90 1.86E2
27 91 1.5E1
27 92 3.36E2
27 93 3.2E1
27 94 2.7E1
27 95 1.9E1
27 96 2E1
27 97 1.28E2
27 98 7.7E1
27 99 1.24E2
27 100 3.7E1
27 101 6.7E1
27 102 1.9E2
27 103 3.77E2
27 104 6.8E1
27 105 1.4E1
27 106 7.6E1
27 107 2.23E2
27 108 2.5E1
27 109 2E2
27 110 5E1
27 111 6.49E2
27 112 5.74E2
27 113 1.134E3
27 114 1.173E3
27 115 1.65E2
27 116 6.713E3
27 117 4.3E1
27 118 6.46E2
27 119 5.135E3
27 120 2.694E3
27 121 9.81E2
27 122 6.54E3
27 123 2.48E2
27 124 1E1
28 1 1.67E2
28 2 6.3E1
28 3 4.2E1
28 4 6.9E1
28 5 1
28 6 4.2E1
28 8 2.5E1
28 9 1E1
28 10 3.5E1
28 11 9
28 12 2
28 13 1
28 14 5
28 15 4
28 16 1.5E1
28 17 8
28 18 2
28 19 1
28 20 2
28 21 8
28 22 1.4E1
28 23 2
28 24 5
28 26 1
28 27 1.28E2
28 28 2.98E2
28 29 7
28 30 2.3E1
28 31 2E1
28 32 3E1
28 33 7
28 34 2.5E1
28 35 5
28 36 3
28 37 2.2E1
28 38 2.9E1
28 39 2.9E1
28 40 4
28 42 6.7E1
28 45 1
28 48 3
28 51 1
28 52 1
28 54 1
28 55 2
28 56 2.1E1
28 57 3
28 62 1
28 63 1
28 66 2
28 67 3
28 68 4
28 70 1
28 72 1.1E1
28 73 2
28 74 1
28 77 4
28 78 9
28 79 1
28 81 3
28 85 1E1
28 86 1E1
28 87 1
28 88 1
28 89 1
28 90 4
28 91 2
28 92 3
28 93 5
28 94 3
28 99 8
28 101 2
28 102 1
28 103 1E1
28 104 1.4E1
28 106 2
28 107 4
28 109 8
28 111 2.9E1
28 112 1.6E1
28 113 3.4E1
28 114 3.4E1
28 115 1.5E1
28 116 9.8E1
28 117 1
28 118 2.5E1
28 119 1.22E2
28 120 6.7E1
28 121 2.1E1
28 122 1.3E2
28 123 6
29 1 4.06E2
29 2 1.427E3
29 3 1.39E2
29 4 6.47E2
29 5 4E1
29 6 1.82E2
29 7 7
29 8 4.8E1
29 9 1.7E1
29 10 1.07E2
29 11 2.1E1
29 12 4.1E1
29 14 2.2E1
29 15 4
29 16 8.4E1
29 17 2.5E1
29 18 8
29 19 2
29 20 1.3E1
29 21 5E1
29 22 3.7E1
29 23 1E1
29 24 2.7E1
29 25 3
29 26 1E1
29 27 1.61E2
29 28 7
29 29 2.191E3
29 30 2.2E1
29 31 2.7E1
29 32 1.1E1
29 33 7
29 34 3.1E1
29 35 4.3E1
29 36 4.7E1
29 37 1.3E2
29 38 1.35E2
29 39 6.14E2
29 40 2.7E1
29 41 2
29 42 1.29E2
29 43 6
29 44 2
29 45 3
29 46 1
29 47 1.3E1
29 48 6
29 49 2
29 51 1.1E1
29 52 1
29 53 3
29 54 2
29 55 1
29 56 7.1E1
29 57 1.2E1
29 58 4
29 59 1
29 60 4
29 61 8
29 62 2.9E1
29 63 2.4E1
29 64 1
29 65 3
29 66 5.3E1
29 67 3
29 68 4.5E1
29 69 2
29 70 5
29 71 1.8E1
29 72 4.6E1
29 73 3.1E1
29 74 4.7E1
29 75 2
29 76 2
29 77 2.4E1
29 78 5.9E1
29 79 9
29 80 2.2E1
29 81 1.2E1
29 83 1E1
29 84 6
29 85 6.5E1
29 86 9.4E1
29 87 1.5E1
29 88 1.5E1
29 89 6
29 90 4.3E1
29 91 1
29 92 6.7E1
29 93 5
29 94 4
29 95 6
29 96 4
29 97 2.6E1
29 98 1.6E1
29 99 1.4E1
29 100 3
29 101 4
29 102 6.4E1
29 103 4.2E1
29 104 1.1E1
29 105 6
29 106 8
29 107 2.5E1
29 108 6
29 109 2.4E1
29 110 2
29 111 9E1
29 112 8.2E1
29 113 6.79E2
29 114 1.6E2
29 115 2.9E1
29 116 3.47E2
29 117 4
29 118 1.01E2
29 119 8.59E2
29 120 4.51E2
29 121 1.88E2
29 122 4.39E2
29 123 4.7E1
29 124 7
30 1 1.99E2
30 2 1.05E2
30 3 2.74E2
30 4 1.94E2
30 5 6
30 6 7.3E1
30 7 4
30 8 2E1
30 9 8
30 10 4.3E1
30 11 1.4E1
30 12 1.2E1
30 13 2
30 14 7
30 15 3
30 16 3E1
30 17 1.1E1
30 18 2
30 20 6
30 21 2.4E1
30 22 2.3E1
30 23 1
30 24 1E1
30 25 2
30 26 1.4E1
30 27 1.73E2
30 28 2.3E1
30 29 2.2E1
30 30 6.92E2
30 31 3
30 32 3
30 34 1E1
30 35 5.5E1
30 36 1.2E1
30 37 2.1E1
30 38 2.7E1
30 39 1E2
30 40 5
30 42 8.8E1
30 43 1
30 44 1
30 47 1
30 48 1
30 49 2
30 51 2
30 54 1
30 55 2
30 56 2.7E1
30 57 8
30 58 1
30 59 2
30 60 2
30 61 2
30 62 1.1E1
30 63 8
30 64 1
30 66 9
30 67 1
30 68 1.7E1
30 70 4
30 71 8
30 72 1E1
30 73 4
30 74 9
30 75 1
30 76 5
30 77 1.3E1
30 78 2.4E1
30 79 9
30 80 6
30 81 8
30 83 1
30 84 1
30 85 2.6E1
30 86 8
30 87 1.2E1
30 88 6
30 89 2
30 90 2.8E1
30 91 1
30 92 1.6E1
30 93 4
30 94 1
30 95 1
30 96 2
30 97 4
30 98 2
30 99 6
30 100 1
30 101 9
30 102 8
30 103 2.9E1
30 104 6
30 106 4
30 107 1.5E1
30 108 3
30 109 1.2E1
30 110 2
30 111 3E1
30 112 3.7E1
30 113 6E1
30 114 3.8E1
30 115 9.2E1
30 116 1.3E2
30 117 6
30 118 2.7E1
30 119 2.45E2
30 120 1.14E2
30 121 8.2E1
30 122 1.19E2
30 123 2.5E1
31 1 3.25E2
31 2 1.74E2
31 3 7.7E1
31 4 2.22E2
31 5 8
31 6 7.9E1
31 7 8
31 8 4.4E1
31 9 1.3E1
31 10 5.4E1
31 11 1.8E1
31 14 1.2E1
31 15 5
31 16 2.2E1
31 17 1.2E1
31 18 1
31 19 1
31 20 6
31 21 8
31 22 2.5E1
31 23 3
31 24 1.5E1
31 26 7
31 27 1.97E2
31 28 2E1
31 29 2.7E1
31 30 3
31 31 6.39E2
31 32 7.2E1
31 33 3.3E1
31 34 1.69E2
31 35 1.4E1
31 36 2
31 37 5.3E1
31 38 7.1E1
31 39 6.9E1
31 40 1E1
31 41 1
31 42 1.25E2
31 43 1
31 44 1
31 45 1
31 46 1
31 47 3
31 48 3
31 49 1
31 51 2
31 52 2
31 56 7
31 57 5
31 58 4
31 59 1
31 62 2
31 63 1
31 64 1
31 66 1.2E1
31 67 2
31 68 2.4E1
31 69 5
31 70 1
31 71 7
31 72 3.6E1
31 74 5
31 76 2
31 77 2
31 78 9
31 79 2
31 80 1
31 81 7
31 85 1.9E1
31 86 8
31 87 4
31 88 3
31 89 3
31 90 5
31 91 1
31 92 4
31 93 1
31 94 5
31 97 5
31 98 1
31 99 1E1
31 100 1
31 101 5
31 102 2
31 103 8
31 104 2
31 105 1
31 106 4
31 107 1.2E1
31 109 1E1
31 110 5
31 111 7.5E1
31 112 2.8E1
31 113 9.6E1
31 114 6.9E1
31 115 2.1E1
31 116 2.49E2
31 117 1
31 118 2.9E1
31 119 2.84E2
31 120 1.33E2
31 121 2.8E1
31 122 2.87E2
31 123 9
31 124 1
32 1 1.47E2
32 2 6.6E1
32 3 4.7E1
32 4 1.06E2
32 5 9
32 6 3.8E1
32 7 6
32 8 1.7E1
32 9 8
32 10 2.9E1
32 11 4
32 12 3
32 14 6
32 15 1
32 16 2.2E1
32 17 9
32 18 2
32 20 4
32 21 5
32 22 6
32 24 5
32 26 3
32 27 9.7E1
32 28 3E1
32 29 1.1E1
32 30 3
32 31 7.2E1
32 32 3.18E2
32 33 1.2E1
32 34 5.3E1
32 35 6
32 36 6
32 37 2.6E1
32 38 2.7E1
32 39 3.6E1
32 40 6
32 42 4.5E1
32 43 2
32 45 2
32 47 2
32 48 1
32 52 3
32 54 3
32 56 6
32 57 4
32 58 1
32 60 1
32 62 2
32 64 1
32 65 1
32 66 5
32 68 1.5E1
32 69 2
32 71 5
32 72 2.5E1
32 73 2
32 74 4
32 76 4
32 77 5
32 78 9
32 79 1
32 80 4
32 81 5
32 85 9
32 86 1.1E1
32 87 1
32 88 2
32 90 5
32 91 1
32 92 3
32 93 2
32 94 1
32 97 2
32 98 2
32 99 5
32 100 4
32 101 8
32 102 3
32 103 4
32 104 2
32 105 1
32 106 5
32 107 7
32 108 2
32 109 6
32 110 3
32 111 3.2E1
32 112 2E1
32 113 4.6E1
32 114 4.5E1
32 115 1.1E1
32 116 1.06E2
32 118 3E1
32 119 1.62E2
32 120 9.7E1
32 121 1.9E1
32 122 1.6E2
32 123 3
33 1 5.3E1
33 2 3.3E1
33 3 1.5E1
33 4 4.8E1
33 6 9
33 7 2
33 8 6
33 9 2
33 10 1E1
33 11 2
33 12 1
33 16 4
33 17 3
33 21 5
33 22 2
33 24 3
33 25 1
33 26 2
33 27 3E1
33 28 7
33 29 7
33 31 3.3E1
33 32 1.2E1
33 33 1.24E2
33 34 2.5E1
33 35 4
33 37 8
33 38 5
33 39 1.5E1
33 40 2
33 42 1.2E1
33 45 1
33 52 1
33 54 1
33 56 4
33 57 3
33 58 1
33 64 1
33 66 2
33 67 1
33 68 6
33 69 1
33 72 6
33 74 1
33 76 1
33 77 2
33 78 4
33 85 6
33 86 1
33 88 1
33 94 2
33 97 1
33 99 4
33 100 1
33 103 3
33 104 1
33 105 2
33 107 1
33 110 1
33 111 1.3E1
33 112 7
33 113 1.8E1
33 114 1.3E1
33 115 6
33 116 4.5E1
33 118 4
33 119 5.2E1
33 120 2.3E1
33 121 6
33 122 4.8E1
33 123 2
33 124 1
34 1 3.85E2
34 2 1.9E2
34 3 1.46E2
34 4 2.35E2
34 5 7
34 6 8.3E1
34 7 6
34 8 4.3E1
34 9 1.6E1
34 10 8.1E1
34 11 2.9E1
34 12 6
34 14 1.8E1
34 15 4
34 16 4.9E1
34 17 2.6E1
34 18 3
34 19 1
34 20 8
34 21 1.9E1
34 22 1.8E1
34 23 4
34 24 1.1E1
34 25 1
34 26 4
34 27 2.41E2
34 28 2.5E1
34 29 3.1E1
34 30 1E1
34 31 1.69E2
34 32 5.3E1
34 33 2.5E1
34 34 7.6E2
34 35 2.9E1
34 36 6
34 37 6.2E1
34 38 5.5E1
34 39 7.6E1
34 40 1.6E1
34 41 2
34 42 1.44E2
34 43 3
34 44 2
34 47 1
34 48 4
34 51 3
34 54 2
34 55 3
34 56 1.4E1
34 57 3
34 58 4
34 59 1
34 61 1
34 62 7
34 63 2
34 64 1
34 66 9
34 67 2
34 68 2.2E1
34 69 4
34 70 4
34 71 6
34 72 2.7E1
34 73 5
34 74 6
34 75 1
34 76 2
34 77 5
34 78 1.7E1
34 79 4
34 80 3
34 81 1.1E1
34 83 1
34 85 2.9E1
34 86 7
34 87 6
34 88 6
34 89 4
34 90 1E1
34 92 9
34 93 1
34 94 3
34 95 1
34 97 6
34 98 3
34 99 1.1E1
34 100 2
34 101 1
34 102 1E1
34 103 1.9E1
34 104 3
34 105 1
34 106 7
34 107 1E1
34 109 1.6E1
34 110 9
34 111 1.46E2
34 112 6.6E1
34 113 9.6E1
34 114 6.8E1
34 115 4.1E1
34 116 2.29E2
34 117 5
34 118 4.4E1
34 119 3.83E2
34 120 1.58E2
34 121 6.6E1
34 122 3.04E2
34 123 2.3E1
34 124 3
35 1 3.75E2
35 2 1.29E2
35 3 2.429E3
35 4 5.19E2
35 5 7E1
35 6 2.69E2
35 7 1.2E1
35 8 4E1
35 9 2.1E1
35 10 1.3E2
35 11 4E1
35 12 9E1
35 13 4
35 14 1.7E1
35 15 2
35 16 8.6E1
35 17 2.3E1
35 18 1.2E1
35 20 2.8E1
35 21 4.7E1
35 22 4.8E1
35 23 2.9E1
35 24 4.8E1
35 25 1.8E1
35 26 3.8E1
35 27 2.21E2
35 28 5
35 29 4.3E1
35 30 5.5E1
35 31 1.4E1
35 32 6
35 33 4
35 34 2.9E1
35 35 3.034E3
35 36 3.4E1
35 37 1.55E2
35 38 1.44E2
35 39 3.61E2
35 40 2.8E1
35 41 1.5E1
35 42 2.21E2
35 43 6
35 48 1
35 49 1
35 50 1
35 52 2
35 54 2
35 55 2
35 56 5E1
35 57 2.5E1
35 58 7
35 59 1
35 60 4
35 61 9
35 62 3E1
35 63 1.5E1
35 64 4
35 65 1
35 66 5.4E1
35 67 2
35 68 9.3E1
35 69 1.3E1
35 70 1.8E1
35 71 3E1
35 72 7.6E1
35 73 2
35 74 7
35 75 7
35 76 5
35 77 2.2E1
35 78 8
35 79 6.6E1
35 80 3.6E1
35 81 1.3E1
35 82 3
35 83 5
35 84 5
35 85 4.8E1
35 86 6.8E1
35 87 1.19E2
35 88 1.6E1
35 89 1E1
35 90 2E1
35 91 4
35 92 4.2E1
35 93 2
35 95 1
35 96 2
35 97 3.2E1
35 98 1.9E1
35 99 8
35 100 1.6E1
35 101 3
35 102 4E1
35 103 5.4E1
35 104 8
35 105 8
35 106 1.6E1
35 107 1.5E1
35 108 3
35 109 1.3E1
35 110 4
35 111 7.1E1
35 112 9.5E1
35 113 1.61E2
35 114 3.11E2
35 115 7.75E2
35 116 2.38E2
35 117 2
35 118 1.01E2
35 119 9.53E2
35 120 6.76E2
35 121 1.25E2
35 122 2.54E2
35 123 2.9E1
35 124 2
36 1 5.71E2
36 2 3.65E2
36 3 2.83E2
36 4 5.64E2
36 5 1.3E1
36 6 1.86E2
36 7 6
36 8 4.4E1
36 9 1.7E1
36 10 6.5E1
36 11 1E1
36 12 5.99E2
36 13 3.2E1
36 14 9
36 16 8E1
36 17 1E1
36 18 1.1E1
36 19 2
36 20 2
36 21 1.3E1
36 22 2.6E1
36 23 6
36 24 1.1E1
36 25 2
36 26 7
36 27 3.29E2
36 28 3
36 29 4.7E1
36 30 1.2E1
36 31 2
36 32 6
36 34 6
36 35 3.4E1
36 36 2.684E3
36 37 2.38E2
36 38 5.5E1
36 39 5.43E2
36 40 2.2E1
36 41 5
36 42 2.45E2
36 43 7
36 45 5
36 46 2
36 47 8
36 48 7
36 49 2
36 51 3
36 53 1
36 54 3
36 55 4
36 56 2.6E1
36 57 1.1E1
36 58 1
36 59 5
36 61 1.7E1
36 62 1.7E1
36 63 1.4E1
36 64 4
36 65 3
36 66 1.7E1
36 68 3.3E1
36 69 4
36 70 8
36 71 2.7E1
36 72 1.8E1
36 73 1.19E2
36 74 1.32E2
36 75 1.9E1
36 76 2.1E1
36 77 7.5E1
36 78 1.46E2
36 79 5.6E1
36 80 6.8E1
36 81 9
36 82 4.2E1
36 83 8.9E1
36 84 1.5E1
36 85 5.6E1
36 86 3E1
36 87 6
36 88 9
36 89 5
36 90 4.7E1
36 92 1.229E3
36 93 8
36 94 1
36 95 1E1
36 96 4
36 97 1.1E1
36 98 6
36 99 6
36 100 2
36 101 2
36 102 6.4E1
36 103 4.3E1
36 104 2.7E1
36 105 3
36 106 4
36 107 2.1E1
36 108 2
36 109 1.6E1
36 110 1
36 111 2.5E1
36 112 8.8E1
36 113 2.23E2
36 114 6.2E1
36 115 6.8E1
36 116 2.89E2
36 117 1.6E1
36 118 4.1E1
36 119 5.51E2
36 120 2.14E2
36 121 1.84E2
36 122 2.63E2
36 123 6.1E1
36 124 7
37 1 2.241E3
37 2 1.089E3
37 3 6.87E2
37 4 1.339E3
37 5 1.13E2
37 6 4.61E2
37 7 3E1
37 8 2.84E2
37 9 7E1
37 10 4.57E2
37 11 1.12E2
37 12 8.1E1
37 13 1E1
37 14 7.4E1
37 15 2E1
37 16 2.04E2
37 17 1.03E2
37 18 2.6E1
37 19 1.4E1
37 20 7.7E1
37 21 1.01E2
37 22 1.8E2
37 23 3.2E1
37 24 1.01E2
37 25 1.5E1
37 26 6E1
37 27 1.193E3
37 28 2.2E1
37 29 1.3E2
37 30 2.1E1
37 31 5.3E1
37 32 2.6E1
37 33 8
37 34 6.2E1
37 35 1.55E2
37 36 2.38E2
37 37 4.442E3
37 38 1.157E3
37 39 5.23E2
37 40 5.7E1
37 41 5
37 42 1.083E3
37 43 6
37 45 4
37 46 4
37 47 9
37 48 8
37 49 1
37 51 2
37 52 6
37 53 2
37 54 6
37 55 3
37 56 1.7E2
37 57 2.6E1
37 58 1.4E1
37 59 5
37 60 6
37 61 1E1
37 62 3.9E1
37 63 8.3E1
37 64 1.3E1
37 65 4
37 66 6.7E1
37 67 9
37 68 1.3E2
37 69 7
37 70 5
37 71 2.9E1
37 72 4.8E1
37 73 3.9E1
37 74 9.3E1
37 75 6
37 76 7
37 77 4E1
37 78 1.87E2
37 79 1E1
37 80 1.8E1
37 81 2.6E1
37 82 2
37 83 1.15E2
37 84 3
37 85 9.9E1
37 86 1.02E2
37 87 3.4E1
37 88 2.8E1
37 89 1.5E1
37 90 3.1E1
37 91 2
37 92 1.49E2
37 93 8
37 94 1E1
37 95 6
37 96 5
37 97 1.5E1
37 98 8
37 99 2.9E1
37 100 6
37 101 1.6E1
37 102 2.7E1
37 103 1.18E2
37 104 1.3E1
37 106 9
37 107 3.2E1
37 108 6
37 109 3.1E1
37 110 4
37 111 1.23E2
37 112 1.06E2
37 113 5.14E2
37 114 4.23E2
37 115 1.97E2
37 116 1.281E3
37 117 1.3E1
37 118 7.1E1
37 119 1.225E3
37 120 5.21E2
37 121 1.45E2
37 122 1.011E3
37 123 3.1E1
37 124 1
38 1 2.576E3
38 2 1.066E3
38 3 7.33E2
38 4 8.72E2
38 5 1.19E2
38 6 4.53E2
38 7 2.4E1
38 8 2.92E2
38 9 7.4E1
38 10 4.55E2
38 11 1.12E2
38 12 3.8E1
38 13 3
38 14 6.9E1
38 15 3.4E1
38 16 1.09E2
38 17 7.4E1
38 18 2E1
38 19 9
38 20 9.1E1
38 21 1.43E2
38 22 2.69E2
38 23 2.7E1
38 24 1.48E2
38 25 1.4E1
38 26 6.8E1
38 27 1.2E3
38 28 2.9E1
38 29 1.35E2
38 30 2.7E1
38 31 7.1E1
38 32 2.7E1
38 33 5
38 34 5.5E1
38 35 1.44E2
38 36 5.5E1
38 37 1.157E3
38 38 4.196E3
38 39 4.8E2
38 40 5.8E1
38 41 1.4E1
38 42 1.365E3
38 43 4
38 44 4
38 45 3
38 46 4
38 47 1.4E1
38 48 1.7E1
38 49 4
38 51 3
38 52 6
38 53 5
38 54 8
38 55 2
38 56 1.25E2
38 57 2.4E1
38 58 1.3E1
38 59 2
38 60 1.4E1
38 61 1.3E1
38 62 2.4E1
38 63 7.6E1
38 64 1.8E1
38 65 3
38 66 3.4E1
38 67 1.7E1
38 68 1.03E2
38 69 5
38 70 3
38 71 2E1
38 72 6E1
38 73 2.5E1
38 74 5.3E1
38 75 4
38 76 4
38 77 2.1E1
38 78 1.69E2
38 79 1.1E1
38 80 2.7E1
38 81 1.8E1
38 82 1
38 83 2.1E1
38 85 1.35E2
38 86 6E1
38 87 1.3E1
38 88 2.6E1
38 89 5
38 90 2.4E1
38 91 3
38 92 3.1E1
38 93 5
38 94 2.6E1
38 95 7
38 96 1E1
38 97 1.5E1
38 98 7
38 99 6.5E1
38 100 4
38 101 1.4E1
38 102 2E1
38 103 1.2E2
38 104 1.7E1
38 105 2
38 106 6
38 107 2E1
38 108 3
38 109 2E1
38 110 4
38 111 1.16E2
38 112 8E1
38 113 4.77E2
38 114 3.34E2
38 115 1.87E2
38 116 1.344E3
38 117 2.1E1
38 118 5.4E1
38 119 9.54E2
38 120 3.33E2
38 121 1.13E2
38 122 1.165E3
38 123 4.6E1
38 124 1
39 1 2.623E3
39 2 3.977E3
39 3 2.12E3
39 4 5.534E3
39 5 2.62E2
39 6 1.336E3
39 7 2.6E1
39 8 2.59E2
39 9 1.11E2
39 10 4.69E2
39 11 6.9E1
39 12 7.65E2
39 13 2.7E1
39 14 4.7E1
39 15 1E1
39 16 4.7E2
39 17 7.5E1
39 18 4.7E1
39 19 1.6E1
39 20 1.63E2
39 21 1.94E2
39 22 2.1E2
39 23 7.2E1
39 24 1.9E2
39 25 3.9E1
39 26 1E2
39 27 2.213E3
39 28 2.9E1
39 29 6.14E2
39 30 1E2
39 31 6.9E1
39 32 3.6E1
39 33 1.5E1
39 34 7.6E1
39 35 3.61E2
39 36 5.43E2
39 37 5.23E2
39 38 4.8E2
39 39 1.6596E4
39 40 2.26E2
39 41 2.2E1
39 42 1.016E3
39 43 4.6E1
39 44 1.6E1
39 45 1.6E1
39 46 1.8E1
39 47 4.7E1
39 48 3.5E1
39 49 7
39 50 2
39 51 3.5E1
39 52 2.7E1
39 53 2.4E1
39 54 1.8E1
39 55 6
39 56 3E2
39 57 9.5E1
39 58 3.5E1
39 59 1.9E1
39 60 1.5E1
39 61 9.7E1
39 62 1.05E2
39 63 1.13E2
39 64 1.7E1
39 65 2.2E1
39 66 2.85E2
39 67 1E1
39 68 4.92E2
39 69 7E1
39 70 5.9E1
39 71 1.36E2
39 72 4.07E2
39 73 4.93E2
39 74 6.22E2
39 75 5.4E1
39 76 1.04E2
39 77 4.27E2
39 78 7.37E2
39 79 1.42E2
39 80 1.93E2
39 81 5.9E1
39 82 2.6E1
39 83 4.3E1
39 84 2.3E1
39 85 2E2
39 86 6.53E2
39 87 1.01E2
39 88 9.1E1
39 89 4.2E1
39 90 1.8E2
39 91 9
39 92 5.98E2
39 93 1.7E1
39 94 2.1E1
39 95 1.4E1
39 96 8
39 97 2.03E2
39 98 1.15E2
39 99 3.5E1
39 100 2.3E1
39 101 1.6E1
39 102 4.02E2
39 103 2.23E2
39 104 4.3E1
39 105 3E1
39 106 6.4E1
39 107 1.39E2
39 108 4.2E1
39 109 1.24E2
39 110 1E1
39 111 3.44E2
39 112 4.45E2
39 113 5.181E3
39 114 9.37E2
39 115 5.06E2
39 116 2.15E3
39 117 4.2E1
39 118 5.23E2
39 119 4.79E3
39 120 2.786E3
39 121 8.96E2
39 122 2.116E3
39 123 1.64E2
39 124 1.1E1
40 1 3.45E2
40 2 1.67E2
40 3 9.7E1
40 4 3.25E2
40 5 1.6E1
40 6 1.01E2
40 7 5
40 8 2.9E1
40 9 1E1
40 10 5.7E1
40 11 7
40 12 1.5E1
40 13 1
40 14 5
40 15 4
40 16 3.8E1
40 17 7
40 18 5
40 19 3
40 20 6
40 21 1.8E1
40 22 1.2E1
40 24 7
40 26 9
40 27 2.73E2
40 28 4
40 29 2.7E1
40 30 5
40 31 1E1
40 32 6
40 33 2
40 34 1.6E1
40 35 2.8E1
40 36 2.2E1
40 37 5.7E1
40 38 5.8E1
40 39 2.26E2
40 40 7.62E2
40 41 1
40 42 1.68E2
40 43 1
40 46 2
40 47 2
40 48 3
40 51 1
40 52 2
40 53 1
40 54 2
40 56 2.2E1
40 57 7
40 58 2
40 60 1
40 61 2
40 62 7
40 63 5
40 64 1
40 65 2
40 66 1E1
40 67 2
40 68 2.1E1
40 70 3
40 71 6
40 72 2.8E1
40 73 1.6E1
40 74 2.6E1
40 76 2
40 77 8
40 78 6.1E1
40 79 4
40 80 1.9E1
40 81 5
40 83 1
40 84 2
40 85 2.6E1
40 86 3.4E1
40 87 2
40 88 1.1E1
40 89 6
40 90 1E1
40 91 1
40 92 1.1E1
40 94 1
40 95 1
40 96 2
40 97 1.3E1
40 98 1.2E1
40 99 4
40 100 1
40 101 3
40 102 1.7E1
40 103 1.1E1
40 104 5
40 105 3
40 106 6
40 107 4
40 109 6
40 111 2.3E1
40 112 2.2E1
40 113 1.04E2
40 114 6.9E1
40 115 2.1E1
40 116 2.85E2
40 117 6
40 118 2.4E1
40 119 2.4E2
40 120 1.2E2
40 121 4.3E1
40 122 2.52E2
40 123 8
40 124 1
41 1 3.4E1
41 2 1.1E1
41 3 9.4E1
41 4 2E1
41 5 1
41 6 5
41 8 4
41 9 2
41 10 9
41 12 1.2E1
41 14 1
41 16 5
41 17 1
41 21 2
41 23 1
41 24 1
41 26 1
41 27 1.6E1
41 29 2
41 31 1
41 34 2
41 35 1.5E1
41 36 5
41 37 5
41 38 1.4E1
41 39 2.2E1
41 40 1
41 41 1.49E2
41 42 2.3E1
41 56 3
41 57 1
41 62 2
41 64 1
41 65 1
41 66 2
41 68 4
41 71 2
41 72 2
41 73 1
41 74 2
41 75 6
41 77 1
41 78 5
41 79 1
41 81 1
41 83 1
41 85 4
41 86 1
41 87 1
41 88 1
41 92 3
41 97 1
41 98 1
41 99 1
41 101 1
41 102 5
41 103 1
41 107 1
41 108 1
41 109 1
41 111 1
41 112 3
41 113 1E1
41 114 1.1E1
41 115 2.4E1
41 116 1.3E1
41 118 5
41 119 3.9E1
41 120 2.5E1
41 121 5
41 122 1.6E1
41 123 2
42 1 5.923E3
42 2 1.646E3
42 3 1.134E3
42 4 1.368E3
42 5 1.46E2
42 6 9.04E2
42 7 4.6E1
42 8 5.71E2
42 9 1.62E2
42 10 9.31E2
42 11 1.88E2
42 12 1.29E2
42 13 1.5E1
42 14 1.68E2
42 15 5.1E1
42 16 2.78E2
42 17 1.68E2
42 18 4.4E1
42 19 1.2E1
42 20 9E1
42 21 2.69E2
42 22 4.53E2
42 23 4.1E1
42 24 1.75E2
42 25 2.8E1
42 26 1.15E2
42 27 2.185E3
42 28 6.7E1
42 29 1.29E2
42 30 8.8E1
42 31 1.25E2
42 32 4.5E1
42 33 1.2E1
42 34 1.44E2
42 35 2.21E2
42 36 2.45E2
42 37 1.083E3
42 38 1.365E3
42 39 1.016E3
42 40 1.68E2
42 41 2.3E1
42 42 7.976E3
42 43 1.3E1
42 44 6
42 45 3
42 46 5
42 47 1.6E1
42 48 2.6E1
42 49 6
42 50 1
42 51 1.2E1
42 52 1.1E1
42 53 9
42 54 4
42 55 5
42 56 3.08E2
42 57 8.4E1
42 58 2.7E1
42 59 8
42 60 2.4E1
42 61 3.4E1
42 62 8.3E1
42 63 1.07E2
42 64 2E1
42 65 5
42 66 1.12E2
42 67 4.1E1
42 68 1.41E2
42 69 1.5E1
42 70 1.9E1
42 71 5.3E1
42 72 9.9E1
42 73 7.9E1
42 74 1.75E2
42 75 7
42 76 2.7E1
42 77 6E1
42 78 4.46E2
42 79 2.5E1
42 80 6.2E1
42 81 6.5E1
42 82 9
42 83 6.3E1
42 84 1E1
42 85 3.44E2
42 86 1.27E2
42 87 3.7E1
42 88 7.9E1
42 89 2E1
42 90 1.03E2
42 91 5
42 92 1.83E2
42 93 8
42 94 1.9E1
42 95 2E1
42 96 2.3E1
42 97 5.5E1
42 98 3.5E1
42 99 9.3E1
42 100 8
42 101 3.4E1
42 102 1.13E2
42 103 3.25E2
42 104 3.9E1
42 105 3
42 106 2.1E1
42 107 8.1E1
42 108 4
42 109 8.4E1
42 110 1.2E1
42 111 3.18E2
42 112 2.93E2
42 113 3.65E2
42 114 6.59E2
42 115 1.76E2
42 116 2.089E3
42 117 2.8E1
42 118 1.52E2
42 119 2.25E3
42 120 8.78E2
42 121 4.16E2
42 122 1.809E3
42 123 1.52E2
42 124 6
43 1 3.1E1
43 2 1.4E1
43 3 4.4E1
43 4 9.6E1
43 5 2
43 6 2.6E1
43 8 2
43 9 3
43 10 7
43 12 5
43 14 1
43 16 5
43 18 1
43 21 3
43 22 1
43 23 5
43 24 1
43 26 2
43 27 3.6E1
43 29 6
43 30 1
43 31 1
43 32 2
43 34 3
43 35 6
43 36 7
43 37 6
43 38 4
43 39 4.6E1
43 40 1
43 42 1.3E1
43 43 1.96E2
43 50 1
43 54 7
43 56 2
43 57 1
43 59 1
43 66 1.2E1
43 68 6
43 69 3
43 71 3
43 72 6
43 75 2
43 76 4
43 77 5.8E1
43 81 1
43 83 1
43 85 7
43 86 6
43 87 1
43 88 3
43 89 2
43 90 1
43 92 8
43 97 2
43 98 3
43 99 1
43 101 1
43 102 3
43 103 2
43 106 3
43 107 3
43 108 5
43 109 2
43 111 3
43 112 4
43 113 2.2E1
43 114 1.8E1
43 115 6
43 116 4.5E1
43 118 1.8E1
43 119 6.1E1
43 120 4E1
43 121 1E1
43 122 5.2E1
44 1 1.4E1
44 2 1.7E1
44 4 3.7E1
44 5 2
44 6 1.2E1
44 8 1
44 9 2
44 10 3
44 14 1
44 16 7
44 17 1
44 20 1
44 21 1
44 22 3
44 27 2.1E1
44 29 2
44 30 1
44 31 1
44 34 2
44 38 4
44 39 1.6E1
44 42 6
44 44 7.2E1
44 48 2
44 56 2
44 57 1
44 62 2
44 66 3
44 68 3
44 71 1
44 72 2
44 74 1E1
44 81 1
44 85 3
44 86 2
44 88 1
44 89 1
44 92 2
44 98 1
44 99 1
44 101 1
44 102 1
44 104 1
44 107 3
44 109 2
44 111 3
44 112 1
44 113 1E1
44 114 8
44 116 2.1E1
44 118 9
44 119 1.2E1
44 120 1.2E1
44 121 3
44 122 2.4E1
45 1 1.4E1
45 2 1.9E1
45 3 1
45 4 2E1
45 6 3
45 8 5
45 9 1
45 10 6
45 12 5
45 20 1
45 21 1
45 24 1
45 25 2
45 26 1
45 27 1.1E1
45 28 1
45 29 3
45 31 1
45 32 2
45 33 1
45 36 5
45 37 4
45 38 3
45 39 1.6E1
45 42 3
45 45 4.8E1
45 56 1
45 57 1
45 62 1
45 63 1
45 66 1
45 68 4
45 69 1
45 72 2
45 73 1
45 82 1
45 83 1
45 85 1
45 86 1
45 92 4
45 101 1
45 107 1
45 111 3
45 112 3
45 113 1.3E1
45 114 2
45 115 1
45 116 1.7E1
45 118 6
45 119 1.8E1
45 120 9
45 121 2
45 122 1.7E1
46 1 1.9E1
46 2 1.4E1
46 3 1
46 4 2.8E1
46 6 1.1E1
46 8 1
46 10 3
46 15 1
46 16 7
46 20 1
46 21 3
46 26 1
46 27 1.6E1
46 29 1
46 31 1
46 36 2
46 37 4
46 38 4
46 39 1.8E1
46 40 2
46 42 5
46 46 5.9E1
46 47 3
46 56 2
46 63 1
46 66 1
46 67 1
46 68 1
46 69 1
46 71 3
46 72 3
46 73 3
46 83 1
46 86 9
46 90 1
46 92 1
46 93 1
46 97 3
46 98 2
46 100 3
46 101 2
46 103 1
46 104 2
46 106 1
46 107 1
46 108 1
46 109 1
46 111 3
46 112 1
46 113 7
46 114 3
46 116 1.3E1
46 118 1E1
46 119 2E1
46 120 1E1
46 121 1
46 122 2.1E1
46 123 1
47 1 4.1E1
47 2 4.9E1
47 3 1
47 4 5.8E1
47 5 3
47 6 1.6E1
47 8 6
47 9 2
47 10 6
47 11 2
47 12 1E1
47 14 1
47 15 1
47 16 5
47 17 1
47 20 3
47 21 4
47 22 5
47 23 1
47 24 2
47 25 1
47 27 3.8E1
47 29 1.3E1
47 30 1
47 31 3
47 32 2
47 34 1
47 36 8
47 37 9
47 38 1.4E1
47 39 4.7E1
47 40 2
47 42 1.6E1
47 46 3
47 47 1.4E2
47 56 3
47 57 2
47 58 2
47 63 1
47 66 6
47 68 1
47 71 2
47 72 5
47 81 1
47 83 1
47 85 3
47 86 7
47 88 2
47 89 1
47 90 2
47 92 9
47 97 5
47 98 1
47 99 3
47 102 1
47 103 1
47 104 1
47 105 1
47 107 4
47 108 1
47 109 2
47 110 2
47 111 3
47 112 4
47 113 2.3E1
47 114 1E1
47 116 4.3E1
47 118 9
47 119 4.8E1
47 120 3E1
47 121 8
47 122 4.2E1
47 123 3
48 1 7E1
48 2 4.3E1
48 3 4
48 4 8.4E1
48 5 4
48 6 3.1E1
48 8 5
48 9 3
48 10 9
48 11 2
48 12 6
48 14 3
48 15 1
48 16 7
48 17 2
48 18 2
48 20 5
48 21 5
48 22 4
48 23 2
48 24 4
48 25 1
48 26 1
48 27 4.9E1
48 28 3
48 29 6
48 30 1
48 31 3
48 32 1
48 34 4
48 35 1
48 36 7
48 37 8
48 38 1.7E1
48 39 3.5E1
48 40 3
48 42 2.6E1
48 44 2
48 48 2.05E2
48 55 2
48 56 7
48 57 3
48 59 3
48 60 1
48 63 1
48 66 5
48 67 1
48 68 9
48 69 2
48 71 5
48 72 1.5E1
48 74 5.4E1
48 75 2
48 77 2
48 81 4
48 83 1
48 85 1.2E1
48 86 8
48 88 3
48 89 1
48 90 1
48 91 1
48 92 6
48 93 3
48 95 1
48 97 7
48 99 3
48 100 1
48 101 1
48 102 8
48 103 3
48 104 1
48 105 1
48 106 1
48 107 2
48 109 2
48 110 1
48 111 5
48 112 1
48 113 2.8E1
48 114 1.9E1
48 116 5.1E1
48 118 1.6E1
48 119 5.1E1
48 120 3.4E1
48 121 1.5E1
48 122 7.5E1
48 123 2
49 1 1.3E1
49 2 9
49 3 5
49 4 1.1E1
49 5 1
49 6 4
49 8 2
49 10 3
49 16 1
49 27 1E1
49 29 2
49 30 2
49 31 1
49 35 1
49 36 2
49 37 1
49 38 4
49 39 7
49 42 6
49 49 4.1E1
49 55 5
49 56 2
49 61 1
49 63 1
49 66 3
49 69 1
49 71 1
49 72 2
49 73 1
49 74 1
49 76 1
49 77 1
49 78 3
49 85 4
49 86 1
49 90 1
49 92 2
49 103 2
49 107 2
49 109 1
49 111 2
49 112 1
49 113 7
49 114 3
49 115 1
49 116 1.3E1
49 118 6
49 119 1.4E1
49 120 9
49 121 6
49 122 1.4E1
49 123 1
50 1 1
50 2 1
50 4 3
50 6 1
50 27 3
50 35 1
50 39 2
50 42 1
50 43 1
50 50 7
50 58 1
50 73 1
50 78 1
50 102 1
50 112 1
50 113 3
50 114 3
50 119 4
50 121 1
51 1 3.8E1
51 2 3.5E1
51 3 1
51 4 5.4E1
51 5 1
51 6 1.3E1
51 8 3
51 10 8
51 11 2
51 12 1.3E1
51 14 1
51 15 1
51 16 4
51 17 1
51 20 3
51 21 5
51 22 5
51 23 2
51 24 1
51 25 1
51 26 3
51 27 3.2E1
51 28 1
51 29 1.1E1
51 30 2
51 31 2
51 34 3
51 36 3
51 37 2
51 38 3
51 39 3.5E1
51 40 1
51 42 1.2E1
51 51 1.14E2
51 56 6
51 57 4
51 63 1
51 66 6
51 68 4
51 71 1
51 72 1
51 84 1
51 85 3
51 86 6
51 92 5
51 93 1
51 98 1
51 99 1
51 102 1
51 103 1
51 104 2
51 105 1
51 107 2
51 109 3
51 111 7
51 112 6
51 113 2.3E1
51 114 1E1
51 116 2.3E1
51 118 9
51 119 4.1E1
51 120 2.2E1
51 121 8
51 122 4.1E1
51 123 2
52 1 1.6E1
52 2 2.8E1
52 3 1.4E1
52 4 2.9E1
52 5 4
52 6 6
52 8 1
52 9 1
52 10 1
52 11 1
52 12 6
52 16 4
52 17 1
52 19 1
52 21 2
52 22 3
52 23 1
52 24 3
52 26 1
52 27 1.7E1
52 28 1
52 29 1
52 31 2
52 32 3
52 33 1
52 35 2
52 37 6
52 38 6
52 39 2.7E1
52 40 2
52 42 1.1E1
52 52 9.5E1
52 56 4
52 57 1
52 58 1
52 60 1
52 61 1
52 63 3
52 64 1
52 65 1
52 66 1
52 68 1
52 71 3
52 72 3
52 73 3
52 74 2
52 76 2
52 77 2
52 78 4
52 79 1
52 80 2
52 85 1
52 86 2
52 87 1
52 90 1
52 91 1
52 92 2
52 97 4
52 98 2
52 99 1
52 103 2
52 108 1
52 112 1
52 113 1.4E1
52 114 5
52 115 1
52 116 1.2E1
52 118 8
52 119 2.9E1
52 120 2.1E1
52 121 1
52 122 1.6E1
52 123 1
53 1 3.3E1
53 2 2.1E1
53 4 4.2E1
53 5 4
53 6 1.6E1
53 8 2
53 10 2
53 12 5
53 16 1
53 17 1
53 20 2
53 21 1
53 22 5
53 24 3
53 25 4
53 26 1
53 27 1.9E1
53 29 3
53 36 1
53 37 2
53 38 5
53 39 2.4E1
53 40 1
53 42 9
53 53 9.2E1
53 57 1
53 61 5
53 66 3
53 68 7
53 71 1
53 72 5
53 78 1.8E1
53 81 1
53 84 3
53 85 4
53 86 2
53 92 3
53 103 1
53 104 3
53 107 3
53 109 1
53 112 1
53 113 1E1
53 114 1E1
53 116 2.4E1
53 117 1
53 118 7
53 119 3.2E1
53 120 2E1
53 121 3
53 122 2.7E1
53 123 3
53 124 2
54 1 1.7E1
54 2 9
54 3 2.2E1
54 4 5.2E1
54 5 3
54 6 4
54 8 7
54 9 5
54 10 3
54 16 2
54 17 1
54 21 3
54 22 2
54 23 3
54 24 1
54 25 1
54 26 1
54 27 2.3E1
54 28 1
54 29 2
54 30 1
54 32 3
54 33 1
54 34 2
54 35 2
54 36 3
54 37 6
54 38 8
54 39 1.8E1
54 40 2
54 42 4
54 43 7
54 54 1.02E2
54 56 1
54 57 1
54 61 1
54 65 3
54 66 5
54 68 2
54 69 3
54 72 7
54 76 3
54 77 1.8E1
54 82 1
54 83 1
54 85 1
54 86 2
54 90 3
54 91 1
54 92 5
54 97 2
54 98 1
54 99 1
54 102 1
54 103 3
54 104 1
54 107 1
54 111 3
54 112 2
54 113 8
54 114 1E1
54 115 1
54 116 2.4E1
54 118 7
54 119 3.2E1
54 120 1.6E1
54 121 2
54 122 2.1E1
54 123 1
55 1 1.6E1
55 2 6
55 3 1E1
55 4 1E1
55 6 4
55 8 1
55 9 1
55 10 2
55 12 1
55 14 1
55 16 3
55 18 1
55 20 1
55 21 1
55 22 1
55 24 1
55 25 1
55 27 9
55 28 2
55 29 1
55 30 2
55 34 3
55 35 2
55 36 4
55 37 3
55 38 2
55 39 6
55 42 5
55 48 2
55 49 5
55 55 4.2E1
55 56 1
55 61 1
55 66 1
55 71 2
55 72 1
55 73 1
55 77 1
55 78 3
55 79 1
55 80 1
55 85 3
55 86 1
55 90 2
55 92 5
55 93 1
55 96 1
55 103 1
55 110 1
55 111 2
55 112 1
55 113 8
55 114 7
55 115 3
55 116 8
55 118 1
55 119 1.2E1
55 120 9
55 121 4
55 122 1.1E1
55 123 2
56 1 7.82E2
56 2 5.28E2
56 3 4.57E2
56 4 1.032E3
56 5 9.1E1
56 6 1.99E2
56 7 3
56 8 7.7E1
56 9 1.9E1
56 10 1.28E2
56 11 4.1E1
56 12 3.1E1
56 13 5
56 14 1.8E1
56 15 9
56 16 1.17E2
56 17 4.2E1
56 18 1.3E1
56 19 1
56 20 8.2E1
56 21 1.17E2
56 22 1.17E2
56 23 3.5E1
56 24 8.8E1
56 25 2.3E1
56 26 4.5E1
56 27 5.12E2
56 28 2.1E1
56 29 7.1E1
56 30 2.7E1
56 31 7
56 32 6
56 33 4
56 34 1.4E1
56 35 5E1
56 36 2.6E1
56 37 1.7E2
56 38 1.25E2
56 39 3E2
56 40 2.2E1
56 41 3
56 42 3.08E2
56 43 2
56 44 2
56 45 1
56 46 2
56 47 3
56 48 7
56 49 2
56 51 6
56 52 4
56 54 1
56 55 1
56 56 2.515E3
56 57 1.5E2
56 58 2E1
56 59 5.6E1
56 60 1.5E1
56 61 8
56 62 1.16E2
56 63 5.3E1
56 64 1.2E1
56 65 5
56 66 1.92E2
56 67 2.4E1
56 68 6.6E1
56 69 1
56 70 8
56 71 2.1E1
56 72 2.5E1
56 73 1.9E1
56 74 5.5E1
56 75 3
56 76 1E1
56 77 2.5E1
56 78 1.14E2
56 79 1.1E1
56 80 2.3E1
56 81 8
56 82 1
56 83 5
56 84 2
56 85 3.8E1
56 86 3.6E1
56 87 1.1E1
56 88 9
56 89 5
56 90 1.4E1
56 91 4
56 92 3.1E1
56 93 8
56 94 4
56 95 2
56 96 2
56 97 1.7E1
56 98 1.8E1
56 99 1.6E1
56 100 1
56 101 8
56 102 1.1E1
56 103 1.04E2
56 104 7
56 106 5
56 107 8
56 108 1
56 109 1E1
56 111 3.2E1
56 112 3E1
56 113 3.47E2
56 114 1.76E2
56 115 1.49E2
56 116 6.94E2
56 117 8
56 118 3.2E1
56 119 4.1E2
56 120 2.24E2
56 121 4.4E1
56 122 3.25E2
56 123 9
56 124 2
57 1 1.79E2
57 2 1.3E2
57 3 1.68E2
57 4 2.38E2
57 5 2.4E1
57 6 6.2E1
57 8 2.4E1
57 9 3
57 10 3.6E1
57 11 1.1E1
57 12 1.8E1
57 13 1
57 14 5
57 15 1
57 16 3.5E1
57 17 9
57 18 5
57 19 2
57 20 1.6E1
57 21 2.8E1
57 22 2.2E1
57 23 1.1E1
57 24 2E1
57 25 5
57 26 1.2E1
57 27 1.03E2
57 28 3
57 29 1.2E1
57 30 8
57 31 5
57 32 4
57 33 3
57 34 3
57 35 2.5E1
57 36 1.1E1
57 37 2.6E1
57 38 2.4E1
57 39 9.5E1
57 40 7
57 41 1
57 42 8.4E1
57 43 1
57 44 1
57 45 1
57 47 2
57 48 3
57 51 4
57 52 1
57 53 1
57 54 1
57 56 1.5E2
57 57 6.47E2
57 58 2
57 59 1.5E1
57 60 3
57 61 1E1
57 62 2.8E1
57 63 1.2E1
57 64 1
57 65 1
57 66 5.3E1
57 67 5
57 68 1.3E1
57 69 1
57 70 1
57 71 7
57 72 8
57 73 1.1E1
57 74 1.6E1
57 75 1
57 77 5
57 78 4.7E1
57 79 1
57 80 7
57 81 3
57 82 2
57 83 2
57 84 1
57 85 1.7E1
57 86 9
57 87 3
57 88 4
57 89 1
57 90 4
57 92 1E1
57 93 3
57 95 2
57 97 4
57 98 5
57 99 9
57 100 3
57 101 6
57 102 1.3E1
57 103 2.4E1
57 104 4
57 105 1
57 106 3
57 107 4
57 109 2
57 111 1.1E1
57 112 2E1
57 113 7.7E1
57 114 3.4E1
57 115 5.4E1
57 116 1.2E2
57 117 3
57 118 9
57 119 9.7E1
57 120 5.7E1
57 121 2E1
57 122 9.9E1
57 123 4
58 1 7.7E1
58 2 5.1E1
58 3 4.6E1
58 4 7.7E1
58 5 4.5E1
58 6 2.4E1
58 8 6
58 9 1
58 10 9
58 11 4
58 12 5
58 13 1
58 14 2
58 16 6
58 17 2
58 18 1
58 20 7
58 21 5
58 22 9
58 23 5
58 24 5
58 25 2
58 26 3
58 27 3.8E1
58 29 4
58 30 1
58 31 4
58 32 1
58 33 1
58 34 4
58 35 7
58 36 1
58 37 1.4E1
58 38 1.3E1
58 39 3.5E1
58 40 2
58 42 2.7E1
58 47 2
58 50 1
58 52 1
58 56 2E1
58 57 2
58 58 2.63E2
58 62 3
58 63 6
58 64 2
58 66 6
58 67 1
58 68 8
58 69 1
58 70 2
58 71 5
58 72 5
58 73 8
58 74 2
58 77 1
58 78 1.2E1
58 80 3
58 81 1
58 85 1
58 86 4
58 87 2
58 88 3
58 89 1
58 90 1
58 92 1
58 93 1
58 98 2
58 99 2
58 100 1
58 101 1
58 102 1
58 103 4
58 106 1
58 107 2
58 109 1
58 111 5
58 112 9
58 113 4.5E1
58 114 1.7E1
58 115 2.1E1
58 116 5.1E1
58 118 3
58 119 2.2E1
58 120 2E1
58 122 2.3E1
58 123 2
59 1 4.1E1
59 2 3.6E1
59 3 1.4E1
59 4 6.8E1
59 5 8
59 6 6
59 9 6
59 10 7
59 11 3
59 12 1
59 14 1
59 15 1
59 16 6
59 17 5
59 19 1
59 20 7
59 21 4
59 22 6
59 23 2
59 24 5
59 25 1
59 27 2.9E1
59 29 1
59 30 2
59 31 1
59 34 1
59 35 1
59 36 5
59 37 5
59 38 2
59 39 1.9E1
59 42 8
59 43 1
59 48 3
59 56 5.6E1
59 57 1.5E1
59 59 1.47E2
59 61 1
59 62 1.1E1
59 63 3
59 66 3
59 68 5
59 69 1
59 70 1
59 72 3
59 73 2
59 74 2
59 77 3
59 78 7
59 79 1
59 80 2
59 85 4
59 86 1
59 92 4
59 97 1
59 98 1
59 99 2
59 103 6
59 108 1
59 111 1
59 113 3E1
59 114 8
59 115 7
59 116 3.8E1
59 117 1
59 119 1E1
59 120 1.1E1
59 121 2
59 122 2.4E1
59 124 1
60 1 4.9E1
60 2 2.3E1
60 3 2.8E1
60 4 3.6E1
60 5 3
60 6 6
60 8 2
60 9 2
60 10 1E1
60 11 1
60 12 2
60 16 1
60 17 2
60 20 7
60 21 7
60 22 6
60 23 4
60 24 6
60 25 3
60 26 2
60 27 3.3E1
60 29 4
60 30 2
60 32 1
60 35 4
60 37 6
60 38 1.4E1
60 39 1.5E1
60 40 1
60 42 2.4E1
60 48 1
60 52 1
60 56 1.5E1
60 57 3
60 60 1.21E2
60 61 4
60 62 2
60 63 3.8E1
60 64 2
60 65 1
60 66 7
60 67 5
60 68 1
60 70 1
60 72 1
60 73 2
60 74 2
60 77 2
60 78 2
60 79 1
60 84 1
60 85 6
60 86 1
60 88 2
60 90 2
60 92 2
60 96 2
60 97 1
60 99 1
60 102 1
60 103 2E1
60 111 1
60 112 2
60 113 1.8E1
60 114 3
60 115 7
60 116 3.8E1
60 118 2
60 119 7
60 120 3
60 121 2
60 122 3.1E1
60 123 1
61 1 8.1E1
61 2 5.2E1
61 3 9.1E1
61 4 1.39E2
61 5 6
61 6 3.8E1
61 8 5
61 9 4
61 10 1.8E1
61 11 1
61 12 4.3E1
61 13 6
61 14 1
61 16 2.5E1
61 17 3
61 18 1
61 20 2
61 21 7
61 22 2
61 24 1
61 27 5.5E1
61 29 8
61 30 2
61 34 1
61 35 9
61 36 1.7E1
61 37 1E1
61 38 1.3E1
61 39 9.7E1
61 40 2
61 42 3.4E1
61 49 1
61 52 1
61 53 5
61 54 1
61 55 1
61 56 8
61 57 1E1
61 59 1
61 60 4
61 61 4.24E2
61 62 5
61 63 2.5E1
61 64 2
61 65 2.1E1
61 66 5
61 67 2
61 68 8
61 70 2
61 71 7
61 72 4
61 73 2.3E1
61 74 1.3E1
61 75 6
61 76 1
61 77 6
61 78 3.1E1
61 79 9
61 80 9
61 82 3
61 84 9
61 85 1.1E1
61 86 3
61 87 2
61 88 3
61 90 1.4E1
61 91 2
61 92 2.5E1
61 93 4
61 95 4
61 96 1
61 97 4
61 98 1
61 101 1
61 102 2.3E1
61 103 9
61 104 4
61 108 1
61 110 1
61 111 3
61 112 1.5E1
61 113 3.7E1
61 114 1.2E1
61 115 1.9E1
61 116 4.3E1
61 117 1
61 118 8
61 119 7E1
61 120 2.9E1
61 121 2.8E1
61 122 3.6E1
61 123 3
62 1 2.11E2
62 2 1.42E2
62 3 1.58E2
62 4 2.14E2
62 5 1.8E1
62 6 7.7E1
62 7 2
62 8 1.6E1
62 9 1.2E1
62 10 4.1E1
62 11 1.1E1
62 12 1.4E1
62 13 1
62 14 5
62 15 3
62 16 4.1E1
62 17 1.4E1
62 18 3
62 19 1
62 20 9
62 21 1.4E1
62 22 2.9E1
62 23 5
62 24 1.5E1
62 25 4
62 26 1.1E1
62 27 1.36E2
62 28 1
62 29 2.9E1
62 30 1.1E1
62 31 2
62 32 2
62 34 7
62 35 3E1
62 36 1.7E1
62 37 3.9E1
62 38 2.4E1
62 39 1.05E2
62 40 7
62 41 2
62 42 8.3E1
62 44 2
62 45 1
62 56 1.16E2
62 57 2.8E1
62 58 3
62 59 1.1E1
62 60 2
62 61 5
62 62 6.73E2
62 63 1.6E1
62 64 2
62 65 3
62 66 3.3E1
62 67 5
62 68 1E1
62 69 1
62 71 9
62 72 8
62 73 1.1E1
62 74 1.7E1
62 76 1
62 77 6
62 78 4.2E1
62 79 8
62 80 8
62 81 2
62 83 5
62 84 1
62 85 1.8E1
62 86 1.3E1
62 87 3
62 88 6
62 90 1.3E1
62 92 1.3E1
62 93 1
62 94 2
62 95 3
62 97 4
62 98 6
62 99 5
62 101 9
62 102 2.3E1
62 103 2E1
62 104 2
62 106 4
62 107 6
62 108 1
62 109 4
62 111 1.3E1
62 112 3.1E1
62 113 1.05E2
62 114 3.9E1
62 115 5.8E1
62 116 1.41E2
62 117 6
62 118 1.3E1
62 119 1.27E2
62 120 5.6E1
62 121 3.1E1
62 122 9.8E1
62 123 1.1E1
63 1 2.36E2
63 2 1.72E2
63 3 1.21E2
63 4 2.52E2
63 5 1.5E1
63 6 6.2E1
63 7 1
63 8 2.4E1
63 9 1
63 10 3.3E1
63 11 5
63 12 2.4E1
63 13 2
63 14 5
63 16 2.4E1
63 17 6
63 18 2
63 20 2.4E1
63 21 3.7E1
63 22 3.7E1
63 23 8
63 24 2.4E1
63 25 4
63 26 1.5E1
63 27 1.35E2
63 28 1
63 29 2.4E1
63 30 8
63 31 1
63 34 2
63 35 1.5E1
63 36 1.4E1
63 37 8.3E1
63 38 7.6E1
63 39 1.13E2
63 40 5
63 42 1.07E2
63 45 1
63 46 1
63 47 1
63 48 1
63 49 1
63 51 1
63 52 3
63 56 5.3E1
63 57 1.2E1
63 58 6
63 59 3
63 60 3.8E1
63 61 2.5E1
63 62 1.6E1
63 63 6.53E2
63 64 9
63 65 1
63 66 2.2E1
63 67 4
63 68 1.3E1
63 70 3
63 71 7
63 72 3
63 73 1.2E1
63 74 5
63 76 2
63 77 1.2E1
63 78 2.8E1
63 79 1
63 80 4
63 81 1
63 82 2
63 83 4
63 84 2
63 85 2.1E1
63 86 8
63 87 5
63 88 4
63 89 2
63 90 1.1E1
63 92 1.5E1
63 93 1
63 94 4
63 95 1
63 96 1
63 97 1
63 98 3
63 99 4
63 101 1
63 102 1.2E1
63 103 5E1
63 104 2
63 106 4
63 107 3
63 109 1
63 111 6
63 112 1.5E1
63 113 1.2E2
63 114 2.7E1
63 115 3.3E1
63 116 1.87E2
63 117 2
63 119 7.2E1
63 120 3.7E1
63 121 1.5E1
63 122 7.9E1
63 123 8
64 1 4.5E1
64 2 2.3E1
64 3 1.6E1
64 4 3.7E1
64 5 1
64 6 1.4E1
64 8 2
64 9 1
64 10 3
64 11 2
64 12 2
64 17 1
64 20 3
64 21 8
64 22 6
64 24 3
64 25 1
64 26 1
64 27 2.9E1
64 29 1
64 30 1
64 31 1
64 32 1
64 33 1
64 34 1
64 35 4
64 36 4
64 37 1.3E1
64 38 1.8E1
64 39 1.7E1
64 40 1
64 41 1
64 42 2E1
64 52 1
64 56 1.2E1
64 57 1
64 58 2
64 60 2
64 61 2
64 62 2
64 63 9
64 64 1.11E2
64 67 1
64 68 1
64 71 1
64 77 1
64 78 9
64 80 4
64 82 1
64 85 4
64 86 3
64 87 1
64 88 4
64 92 4
64 95 1
64 99 4
64 103 1.8E1
64 111 2
64 112 2
64 113 9
64 114 8
64 115 3
64 116 2.2E1
64 118 3
64 119 2E1
64 120 7
64 121 3
64 122 2.7E1
64 123 1
65 1 2.1E1
65 2 2.8E1
65 3 3.5E1
65 4 4.6E1
65 5 6
65 6 1.1E1
65 8 1
65 10 4
65 12 1
65 16 5
65 17 1
65 24 2
65 27 1.8E1
65 29 3
65 32 1
65 35 1
65 36 3
65 37 4
65 38 3
65 39 2.2E1
65 40 2
65 41 1
65 42 5
65 52 1
65 54 3
65 56 5
65 57 1
65 60 1
65 61 2.1E1
65 62 3
65 63 1
65 65 1.35E2
65 66 3
65 71 1
65 73 5
65 74 1
65 76 1
65 78 3
65 79 2
65 80 3
65 84 4
65 85 2
65 86 5
65 89 1
65 90 3
65 92 4
65 98 2
65 102 8
65 112 4
65 113 1.7E1
65 114 4
65 115 1E1
65 116 1.7E1
65 117 1
65 118 2
65 119 1.9E1
65 120 9
65 121 5
65 122 9
66 1 3.45E2
66 2 3.36E2
66 3 3.83E2
66 4 9.11E2
66 5 4.8E1
66 6 1.32E2
66 8 2.9E1
66 9 1.7E1
66 10 5.6E1
66 11 1.8E1
66 12 9.9E1
66 13 4
66 14 4
66 15 2
66 16 1.19E2
66 17 1.4E1
66 18 1.1E1
66 19 3
66 20 4E1
66 21 3.8E1
66 22 3.8E1
66 23 1.6E1
66 24 3.6E1
66 25 8
66 26 2.1E1
66 27 2.83E2
66 28 2
66 29 5.3E1
66 30 9
66 31 1.2E1
66 32 5
66 33 2
66 34 9
66 35 5.4E1
66 36 1.7E1
66 37 6.7E1
66 38 3.4E1
66 39 2.85E2
66 40 1E1
66 41 2
66 42 1.12E2
66 43 1.2E1
66 44 3
66 45 1
66 46 1
66 47 6
66 48 5
66 49 3
66 51 6
66 52 1
66 53 3
66 54 5
66 55 1
66 56 1.92E2
66 57 5.3E1
66 58 6
66 59 3
66 60 7
66 61 5
66 62 3.3E1
66 63 2.2E1
66 65 3
66 66 1.96E3
66 67 9
66 68 1.08E2
66 69 7
66 70 3
66 71 2E1
66 72 4.1E1
66 73 5.1E1
66 74 5.5E1
66 75 7
66 76 1.3E1
66 77 4.1E1
66 78 9.9E1
66 79 1.5E1
66 80 2.2E1
66 81 3
66 83 8
66 85 1.3E1
66 86 3.9E1
66 87 2.3E1
66 88 1E1
66 89 3
66 90 4
66 91 2
66 92 2.4E1
66 93 7
66 94 3
66 95 1
66 96 2
66 97 5.1E1
66 98 2.6E1
66 99 5
66 100 3
66 101 1
66 102 1.1E1
66 103 3E1
66 104 6
66 105 6
66 106 5
66 107 1E1
66 108 2
66 109 1E1
66 110 2
66 111 2.3E1
66 112 1.7E1
66 113 2.52E2
66 114 1.3E2
66 115 1.11E2
66 116 4.06E2
66 117 7
66 118 3.3E1
66 119 2.95E2
66 120 2.37E2
66 121 4.3E1
66 122 2.12E2
66 123 6
67 1 8.4E1
67 2 3.7E1
67 3 1.8E1
67 4 4.3E1
67 5 1
67 6 1.8E1
67 8 7
67 9 4
67 10 1.9E1
67 11 8
67 14 7
67 15 1
67 16 1E1
67 17 6
67 18 2
67 20 3
67 21 6
67 22 1.3E1
67 23 2
67 24 3
67 25 1
67 26 5
67 27 5.1E1
67 28 3
67 29 3
67 30 1
67 31 2
67 33 1
67 34 2
67 35 2
67 37 9
67 38 1.7E1
67 39 1E1
67 40 2
67 42 4.1E1
67 46 1
67 48 1
67 56 2.4E1
67 57 5
67 58 1
67 60 5
67 61 2
67 62 5
67 63 4
67 64 1
67 66 9
67 67 1.41E2
67 68 1
67 71 1
67 72 1
67 73 2
67 74 2
67 78 6
67 80 1
67 85 1E1
67 86 1
67 93 2
67 95 1
67 99 4
67 103 1.4E1
67 106 3
67 107 4
67 109 2
67 110 2
67 111 3
67 112 1
67 113 1.5E1
67 114 7
67 115 4
67 116 5.1E1
67 117 2
67 118 2
67 119 1.9E1
67 120 8
67 121 4
67 122 3.3E1
67 123 1
68 1 5.61E2
68 2 6.58E2
68 3 6.68E2
68 4 1.662E3
68 5 9.6E1
68 6 1.52E2
68 7 6
68 8 2.6E1
68 9 1.6E1
68 10 7.2E1
68 11 1.3E1
68 12 9.4E1
68 14 7
68 16 8.8E1
68 17 2.2E1
68 18 6
68 19 4
68 20 7E1
68 21 3.1E1
68 22 4E1
68 23 2.8E1
68 24 6.7E1
68 25 1.3E1
68 26 2.3E1
68 27 4.39E2
68 28 4
68 29 4.5E1
68 30 1.7E1
68 31 2.4E1
68 32 1.5E1
68 33 6
68 34 2.2E1
68 35 9.3E1
68 36 3.3E1
68 37 1.3E2
68 38 1.03E2
68 39 4.92E2
68 40 2.1E1
68 41 4
68 42 1.41E2
68 43 6
68 44 3
68 45 4
68 46 1
68 47 1
68 48 9
68 51 4
68 52 1
68 53 7
68 54 2
68 56 6.6E1
68 57 1.3E1
68 58 8
68 59 5
68 60 1
68 61 8
68 62 1E1
68 63 1.3E1
68 64 1
68 66 1.08E2
68 67 1
68 68 3.618E3
68 69 1.26E2
68 70 2.9E1
68 71 7.6E1
68 72 7.22E2
68 73 5.6E1
68 74 5.1E1
68 75 4
68 76 1.6E1
68 77 5.3E1
68 78 1.48E2
68 79 2.9E1
68 80 2E1
68 81 1
68 82 2
68 83 4
68 84 1
68 85 3.8E1
68 86 1.4E2
68 87 6E1
68 88 1.7E1
68 89 3
68 90 8
68 92 5.3E1
68 93 4
68 94 9
68 95 1
68 97 2.8E1
68 98 1.8E1
68 99 4
68 100 2.4E1
68 102 1.5E1
68 103 2.9E1
68 104 1.4E1
68 105 3.9E1
68 106 1.1E1
68 107 2.6E1
68 108 2.8E1
68 109 2.1E1
68 110 4
68 111 5.5E1
68 112 4.1E1
68 113 6.29E2
68 114 6.32E2
68 115 2.33E2
68 116 8.11E2
68 117 1.9E1
68 118 8.3E1
68 119 1.18E3
68 120 1.048E3
68 121 1.04E2
68 122 4.73E2
68 123 2E1
69 1 6.9E1
69 2 5.6E1
69 3 1.46E2
69 4 2.55E2
69 5 1.7E1
69 6 1.2E1
69 8 2
69 9 2
69 10 2
69 12 9
69 14 1
69 16 9
69 17 1
69 19 1
69 20 1.6E1
69 22 9
69 23 6
69 24 1.7E1
69 25 1.1E1
69 26 1
69 27 6.4E1
69 29 2
69 31 5
69 32 2
69 33 1
69 34 4
69 35 1.3E1
69 36 4
69 37 7
69 38 5
69 39 7E1
69 42 1.5E1
69 43 3
69 45 1
69 46 1
69 48 2
69 49 1
69 54 3
69 56 1
69 57 1
69 58 1
69 59 1
69 62 1
69 66 7
69 68 1.26E2
69 69 6.55E2
69 70 6
69 71 5.2E1
69 72 4.51E2
69 73 4
69 74 3
69 75 2
69 76 3
69 77 1E1
69 78 2.4E1
69 79 1
69 80 2
69 83 1
69 85 1E1
69 86 2.3E1
69 87 1
69 88 1
69 89 1
69 91 1
69 92 4
69 94 2
69 97 1
69 98 1
69 99 3
69 100 2
69 101 1
69 102 2
69 103 2
69 104 3
69 105 1
69 106 3
69 108 2
69 111 1.1E1
69 112 2
69 113 1.27E2
69 114 5.2E1
69 115 5.2E1
69 116 1.48E2
69 117 6
69 118 3E1
69 119 1.04E2
69 120 1.22E2
69 121 6
69 122 1.22E2
69 123 1
70 1 5.4E1
70 2 5.9E1
70 3 9.1E1
70 4 1.4E2
70 5 7
70 6 1.8E1
70 8 2
70 9 1
70 10 3
70 12 1.5E1
70 16 6
70 17 1
70 18 1
70 20 1.1E1
70 21 2
70 22 1E1
70 23 1.3E1
70 24 1.8E1
70 25 6
70 26 5
70 27 4.1E1
70 28 1
70 29 5
70 30 4
70 31 1
70 34 4
70 35 1.8E1
70 36 8
70 37 5
70 38 3
70 39 5.9E1
70 40 3
70 42 1.9E1
70 56 8
70 57 1
70 58 2
70 59 1
70 60 1
70 61 2
70 63 3
70 66 3
70 68 2.9E1
70 69 6
70 70 4.93E2
70 71 1.96E2
70 72 9E1
70 73 1E1
70 74 8
70 75 1
70 76 3
70 77 1E1
70 78 1.4E1
70 79 4
70 80 2
70 81 1
70 85 4.2E1
70 86 1.4E1
70 87 1
70 89 2
70 90 6
70 92 1E1
70 97 3
70 98 1
70 101 1
70 102 1
70 103 7
70 104 2.7E1
70 105 2
70 106 2
70 107 1
70 108 1
70 111 3
70 112 6
70 113 8.8E1
70 114 3.4E1
70 115 3.4E1
70 116 9.1E1
70 117 3
70 118 7
70 119 7.3E1
70 120 5.4E1
70 121 6
70 122 2.3E1
70 123 5
71 1 2.5E2
71 2 2.06E2
71 3 2.39E2
71 4 4.05E2
71 5 3E1
71 6 4E1
71 7 1
71 8 1E1
71 9 5
71 10 2.5E1
71 11 2
71 12 3.4E1
71 13 2
71 14 3
71 16 1.2E1
71 17 1
71 18 2
71 19 1
71 20 5.2E1
71 21 1.3E1
71 22 2.3E1
71 23 6E1
71 24 5E1
71 25 2.3E1
71 26 1.2E1
71 27 1.44E2
71 29 1.8E1
71 30 8
71 31 7
71 32 5
71 34 6
71 35 3E1
71 36 2.7E1
71 37 2.9E1
71 38 2E1
71 39 1.36E2
71 40 6
71 41 2
71 42 5.3E1
71 43 3
71 44 1
71 46 3
71 47 2
71 48 5
71 49 1
71 51 1
71 52 3
71 53 1
71 55 2
71 56 2.1E1
71 57 7
71 58 5
71 61 7
71 62 9
71 63 7
71 64 1
71 65 1
71 66 2E1
71 67 1
71 68 7.6E1
71 69 5.2E1
71 70 1.96E2
71 71 1.454E3
71 72 3.11E2
71 73 1.6E1
71 74 2.2E1
71 75 2
71 76 5
71 77 1.7E1
71 78 3.1E1
71 79 1E1
71 80 8
71 81 3
71 82 1
71 83 2
71 84 3
71 85 2.26E2
71 86 3E1
71 87 7
71 88 4
71 89 3
71 90 1.4E1
71 91 1
71 92 2.5E1
71 93 4
71 95 1
71 96 5
71 97 2E1
71 98 3
71 99 4
71 101 1
71 102 3
71 103 2.4E1
71 104 5.5E1
71 105 2
71 106 1.3E1
71 107 1
71 108 1
71 109 1
71 111 1.5E1
71 112 1.3E1
71 113 3.14E2
71 114 9.9E1
71 115 8E1
71 116 3.32E2
71 117 5
71 118 2.6E1
71 119 2.21E2
71 120 1.71E2
71 121 3.9E1
71 122 1.42E2
71 123 2.6E1
72 1 6.24E2
72 2 5.67E2
72 3 7.45E2
72 4 1.577E3
72 5 8.5E1
72 6 1.25E2
72 7 3
72 8 1.5E1
72 9 7
72 10 3.4E1
72 11 8
72 12 2.9E1
72 14 5
72 16 5E1
72 17 8
72 18 2
72 19 4
72 20 9.6E1
72 21 1.5E1
72 22 2.9E1
72 23 3.1E1
72 24 9.1E1
72 25 2.3E1
72 26 2E1
72 27 4.51E2
72 28 1.1E1
72 29 4.6E1
72 30 1E1
72 31 3.6E1
72 32 2.5E1
72 33 6
72 34 2.7E1
72 35 7.6E1
72 36 1.8E1
72 37 4.8E1
72 38 6E1
72 39 4.07E2
72 40 2.8E1
72 41 2
72 42 9.9E1
72 43 6
72 44 2
72 45 2
72 46 3
72 47 5
72 48 1.5E1
72 49 2
72 51 1
72 52 3
72 53 5
72 54 7
72 55 1
72 56 2.5E1
72 57 8
72 58 5
72 59 3
72 60 1
72 61 4
72 62 8
72 63 3
72 66 4.1E1
72 67 1
72 68 7.22E2
72 69 4.51E2
72 70 9E1
72 71 3.11E2
72 72 4.128E3
72 73 2E1
72 74 4.8E1
72 75 9
72 76 1E1
72 77 5.1E1
72 78 1.04E2
72 79 1.5E1
72 80 2.5E1
72 81 5
72 83 1
72 85 8.6E1
72 86 1.15E2
72 87 8
72 88 2
72 89 4
72 91 2
72 92 2.9E1
72 93 5
72 94 9
72 96 1
72 97 2.6E1
72 98 1E1
72 99 1.2E1
72 100 2.2E1
72 102 4
72 103 3.3E1
72 104 9
72 105 1.4E1
72 106 4E1
72 107 4
72 108 9
72 109 4
72 110 1
72 111 7.9E1
72 112 2.4E1
72 113 8.76E2
72 114 4.4E2
72 115 2.82E2
72 116 1.135E3
72 117 1.9E1
72 118 1.77E2
72 119 1.072E3
72 120 1.101E3
72 121 8.5E1
72 122 7.63E2
72 123 1.6E1
73 1 2.47E2
73 2 1.86E2
73 3 1.2E1
73 4 9.59E2
73 5 1.9E1
73 6 1.13E2
73 7 1
73 8 2.2E1
73 9 4
73 10 4.4E1
73 11 7
73 12 2.07E2
73 13 1.6E1
73 14 4
73 15 2
73 16 5.6E1
73 17 3
73 18 1E1
73 19 1
73 20 5
73 21 1.8E1
73 22 9
73 23 7
73 24 1.3E1
73 25 2
73 26 9
73 27 2.82E2
73 28 2
73 29 3.1E1
73 30 4
73 32 2
73 34 5
73 35 2
73 36 1.19E2
73 37 3.9E1
73 38 2.5E1
73 39 4.93E2
73 40 1.6E1
73 41 1
73 42 7.9E1
73 45 1
73 46 3
73 49 1
73 50 1
73 52 3
73 55 1
73 56 1.9E1
73 57 1.1E1
73 58 8
73 59 2
73 60 2
73 61 2.3E1
73 62 1.1E1
73 63 1.2E1
73 65 5
73 66 5.1E1
73 67 2
73 68 5.6E1
73 69 4
73 70 1E1
73 71 1.6E1
73 72 2E1
73 73 1.936E3
73 74 3
73 76 2
73 77 2
73 78 4
73 79 1
73 80 3
73 81 5
73 82 2E1
73 83 6
73 84 2
73 85 1.8E1
73 86 2.3E1
73 87 3
73 88 5
73 89 2
73 90 1.7E1
73 92 1.13E2
73 93 7
73 95 2
73 97 1.4E1
73 98 1
73 99 2
73 100 2
73 101 1
73 102 5.9E1
73 103 1.3E1
73 104 9
73 105 5
73 106 8
73 107 1.7E1
73 108 4
73 109 1.2E1
73 110 2
73 111 1.6E1
73 112 2.5E1
73 113 1.94E2
73 114 7.5E1
73 116 2.86E2
73 118 4.5E1
73 119 4.19E2
73 120 1.83E2
73 121 8.9E1
73 122 2.38E2
73 123 2E1
73 124 2
74 1 4.3E2
74 2 4.48E2
74 3 1.9E1
74 4 8.38E2
74 5 2E1
74 6 1.44E2
74 7 4
74 8 4E1
74 9 2.1E1
74 10 8.1E1
74 11 2E1
74 12 1.56E2
74 13 1.2E1
74 14 8
74 15 4
74 16 7.1E1
74 17 2.1E1
74 18 4
74 19 2
74 20 1.3E1
74 21 1.6E1
74 22 3.6E1
74 23 1
74 24 2.4E1
74 25 5
74 26 9
74 27 3.39E2
74 28 1
74 29 4.7E1
74 30 9
74 31 5
74 32 4
74 33 1
74 34 6
74 35 7
74 36 1.32E2
74 37 9.3E1
74 38 5.3E1
74 39 6.22E2
74 40 2.6E1
74 41 2
74 42 1.75E2
74 44 1E1
74 48 5.4E1
74 49 1
74 52 2
74 56 5.5E1
74 57 1.6E1
74 58 2
74 59 2
74 60 2
74 61 1.3E1
74 62 1.7E1
74 63 5
74 65 1
74 66 5.5E1
74 67 2
74 68 5.1E1
74 69 3
74 70 8
74 71 2.2E1
74 72 4.8E1
74 73 3
74 74 2.327E3
74 75 3
74 77 1
74 78 1E1
74 79 1
74 80 1
74 81 9
74 82 7
74 83 1.4E1
74 84 1
74 85 4.2E1
74 86 5.7E1
74 87 2
74 88 1.1E1
74 89 3
74 90 2.2E1
74 91 1
74 92 1.35E2
74 93 7
74 94 4
74 95 6
74 96 2
74 97 2.2E1
74 98 7
74 99 8
74 100 1
74 101 7
74 102 4.1E1
74 103 4.3E1
74 104 1E1
74 105 3
74 106 6
74 107 2E1
74 108 5
74 109 1.1E1
74 110 4
74 111 4.1E1
74 112 5.1E1
74 113 2.96E2
74 114 1.49E2
74 115 6
74 116 4.04E2
74 117 1
74 118 4.9E1
74 119 4.76E2
74 120 2.59E2
74 121 1.38E2
74 122 3.13E2
74 123 2.3E1
74 124 1
75 1 2.7E1
75 2 1.3E1
75 3 1.13E2
75 4 9.7E1
75 5 3
75 6 2.1E1
75 8 2
75 10 5
75 11 1
75 12 3.1E1
75 13 1
75 16 9
75 20 2
75 21 3
75 22 1
75 23 5
75 24 4
75 25 1
75 27 2.2E1
75 29 2
75 30 1
75 34 1
75 35 7
75 36 1.9E1
75 37 6
75 38 4
75 39 5.4E1
75 41 6
75 42 7
75 43 2
75 48 2
75 56 3
75 57 1
75 61 6
75 66 7
75 68 4
75 69 2
75 70 1
75 71 2
75 72 9
75 74 3
75 75 2.97E2
75 76 2
75 77 1.9E1
75 78 1
75 79 1
75 81 3
75 83 1
75 84 1
75 85 2
75 86 4
75 87 2
75 88 3
75 90 2
75 91 1
75 92 1.2E1
75 93 2
75 97 6
75 98 1
75 99 1
75 102 8
75 103 5
75 104 1
75 105 2
75 108 1
75 109 1
75 110 1
75 111 4
75 112 4
75 113 2.2E1
75 114 2.3E1
75 115 2.3E1
75 116 3.4E1
75 118 1E1
75 119 4E1
75 120 5.3E1
75 121 8
75 122 2.1E1
75 123 1
75 124 1
76 1 5.7E1
76 2 2.6E1
76 3 5.3E1
76 4 1.63E2
76 5 9
76 6 3.2E1
76 8 2
76 9 3
76 10 9
76 11 1
76 12 3.3E1
76 13 1
76 14 1
76 15 1
76 16 3
76 17 1
76 18 2
76 20 6
76 21 4
76 22 4
76 23 3
76 24 4
76 25 1
76 26 5
76 27 5.6E1
76 29 2
76 30 5
76 31 2
76 32 4
76 33 1
76 34 2
76 35 5
76 36 2.1E1
76 37 7
76 38 4
76 39 1.04E2
76 40 2
76 42 2.7E1
76 43 4
76 49 1
76 52 2
76 54 3
76 56 1E1
76 61 1
76 62 1
76 63 2
76 65 1
76 66 1.3E1
76 68 1.6E1
76 69 3
76 70 3
76 71 5
76 72 1E1
76 73 2
76 75 2
76 76 4.19E2
76 77 1.9E1
76 78 1
76 79 1
76 81 1
76 83 1
76 85 9
76 86 8
76 87 4
76 88 3
76 89 1
76 90 4
76 92 2E1
76 96 1
76 97 2
76 99 1
76 101 1
76 102 1.4E1
76 103 6
76 104 1
76 107 8
76 108 1
76 109 3
76 111 5
76 112 5
76 113 3.5E1
76 114 2.6E1
76 115 1.6E1
76 116 5.1E1
76 117 1
76 118 5
76 119 9.6E1
76 120 5.6E1
76 121 2.3E1
76 122 5.1E1
76 123 3
76 124 2
77 1 2.33E2
77 2 1.11E2
77 3 2.62E2
77 4 7.44E2
77 5 3.3E1
77 6 1.02E2
77 7 4
77 8 2.1E1
77 9 1.2E1
77 10 3.7E1
77 11 5
77 12 1.69E2
77 13 1E1
77 14 6
77 16 6E1
77 17 1.3E1
77 18 4
77 20 1.1E1
77 21 1.2E1
77 22 1.5E1
77 23 1.2E1
77 24 2.3E1
77 25 6
77 26 7
77 27 2.45E2
77 28 4
77 29 2.4E1
77 30 1.3E1
77 31 2
77 32 5
77 33 2
77 34 5
77 35 2.2E1
77 36 7.5E1
77 37 4E1
77 38 2.1E1
77 39 4.27E2
77 40 8
77 41 1
77 42 6E1
77 43 5.8E1
77 48 2
77 49 1
77 52 2
77 54 1.8E1
77 55 1
77 56 2.5E1
77 57 5
77 58 1
77 59 3
77 60 2
77 61 6
77 62 6
77 63 1.2E1
77 64 1
77 66 4.1E1
77 68 5.3E1
77 69 1E1
77 70 1E1
77 71 1.7E1
77 72 5.1E1
77 73 2
77 74 1
77 75 1.9E1
77 76 1.9E1
77 77 1.892E3
77 78 5
77 79 3
77 80 2
77 81 4
77 82 2
77 83 6
77 84 3
77 85 1.9E1
77 86 3.4E1
77 87 1.8E1
77 88 4
77 89 4
77 90 2.2E1
77 91 1
77 92 8.3E1
77 94 1
77 95 3
77 96 1
77 97 1.1E1
77 98 3
77 99 2
77 102 3.4E1
77 103 1.3E1
77 104 7
77 105 6
77 106 2
77 107 1.1E1
77 108 1.1E1
77 109 1E1
77 110 4
77 111 1.9E1
77 112 3.2E1
77 113 1.54E2
77 114 1.18E2
77 115 5.1E1
77 116 2.43E2
77 117 1
77 118 5.2E1
77 119 4.49E2
77 120 3.2E2
77 121 7.8E1
77 122 2.3E2
77 123 2E1
77 124 1
78 1 1.099E3
78 2 3.76E2
78 3 2.7E1
78 4 1.267E3
78 5 9.9E1
78 6 3.32E2
78 7 8
78 8 8.4E1
78 9 4.3E1
78 10 1.61E2
78 11 2.7E1
78 12 1.21E2
78 13 3
78 14 1.3E1
78 15 5
78 16 1.9E2
78 17 2.2E1
78 18 1.3E1
78 19 1
78 20 4.4E1
78 21 4.7E1
78 22 7.2E1
78 23 2.2E1
78 24 6.1E1
78 25 1E1
78 26 2.9E1
78 27 6.34E2
78 28 9
78 29 5.9E1
78 30 2.4E1
78 31 9
78 32 9
78 33 4
78 34 1.7E1
78 35 8
78 36 1.46E2
78 37 1.87E2
78 38 1.69E2
78 39 7.37E2
78 40 6.1E1
78 41 5
78 42 4.46E2
78 49 3
78 50 1
78 52 4
78 53 1.8E1
78 55 3
78 56 1.14E2
78 57 4.7E1
78 58 1.2E1
78 59 7
78 60 2
78 61 3.1E1
78 62 4.2E1
78 63 2.8E1
78 64 9
78 65 3
78 66 9.9E1
78 67 6
78 68 1.48E2
78 69 2.4E1
78 70 1.4E1
78 71 3.1E1
78 72 1.04E2
78 73 4
78 74 1E1
78 75 1
78 76 1
78 77 5
78 78 4.211E3
78 79 1
78 80 5
78 81 1.7E1
78 82 3
78 83 1.3E1
78 84 6
78 85 8.9E1
78 86 6.9E1
78 87 3
78 88 1.8E1
78 89 1.4E1
78 90 2.6E1
78 92 1.6E2
78 93 7
78 94 3
78 95 4
78 96 2
78 97 4.6E1
78 98 1.4E1
78 99 2.1E1
78 100 4
78 101 4
78 102 7.2E1
78 103 8.4E1
78 104 1.5E1
78 105 6
78 106 1.1E1
78 107 3.9E1
78 108 9
78 109 2.6E1
78 110 1
78 111 1.23E2
78 112 1.23E2
78 113 3E2
78 114 1.84E2
78 115 3
78 116 6.42E2
78 117 2.15E2
78 118 1.07E2
78 119 1.236E3
78 120 4.87E2
78 121 1.89E2
78 122 5.28E2
78 123 5.1E1
79 1 5.1E1
79 2 2E1
79 3 5.96E2
79 4 1.99E2
79 5 1.3E1
79 6 3.7E1
79 7 3
79 8 2
79 9 3
79 10 1.5E1
79 11 3
79 12 8.5E1
79 13 6
79 14 1
79 16 1.6E1
79 17 2
79 18 2
79 21 5
79 22 1
79 23 4
79 24 3
79 26 3
79 27 5.8E1
79 28 1
79 29 9
79 30 9
79 31 2
79 32 1
79 34 4
79 35 6.6E1
79 36 5.6E1
79 37 1E1
79 38 1.1E1
79 39 1.42E2
79 40 4
79 41 1
79 42 2.5E1
79 52 1
79 55 1
79 56 1.1E1
79 57 1
79 59 1
79 60 1
79 61 9
79 62 8
79 63 1
79 65 2
79 66 1.5E1
79 68 2.9E1
79 69 1
79 70 4
79 71 1E1
79 72 1.5E1
79 73 1
79 74 1
79 75 1
79 76 1
79 77 3
79 78 1
79 79 1.034E3
79 80 8
79 81 1
79 82 1
79 83 1
79 84 1
79 85 5
79 86 5
79 87 8
79 88 2
79 90 1.1E1
79 92 3.9E1
79 94 3
79 95 2
79 97 1.2E1
79 98 4
79 99 1
79 100 1
79 102 3.1E1
79 103 7
79 104 3
79 105 1
79 106 1
79 107 6
79 108 1
79 109 5
79 111 1.5E1
79 112 1E1
79 113 3.3E1
79 114 7.6E1
79 115 1.54E2
79 116 6.4E1
79 117 2
79 118 2.1E1
79 119 1.89E2
79 120 1.75E2
79 121 3.2E1
79 122 5.8E1
79 123 5
80 1 1.95E2
80 2 3.4E1
80 3 5.97E2
80 4 4.77E2
80 5 5.4E1
80 6 1.35E2
80 7 1
80 8 9
80 9 3
80 10 2.6E1
80 11 3
80 12 1.03E2
80 13 8
80 14 6
80 15 2
80 16 3E1
80 17 6
80 18 3
80 20 7
80 21 9
80 22 1.1E1
80 23 9
80 24 1E1
80 25 1
80 26 8
80 27 1.35E2
80 29 2.2E1
80 30 6
80 31 1
80 32 4
80 34 3
80 35 3.6E1
80 36 6.8E1
80 37 1.8E1
80 38 2.7E1
80 39 1.93E2
80 40 1.9E1
80 42 6.2E1
80 52 2
80 55 1
80 56 2.3E1
80 57 7
80 58 3
80 59 2
80 61 9
80 62 8
80 63 4
80 64 4
80 65 3
80 66 2.2E1
80 67 1
80 68 2E1
80 69 2
80 70 2
80 71 8
80 72 2.5E1
80 73 3
80 74 1
80 77 2
80 78 5
80 79 8
80 80 1.617E3
80 81 3
80 82 1.1E1
80 83 6
80 85 1E1
80 86 1.3E1
80 87 1E1
80 88 7
80 89 1
80 90 1.7E1
80 92 7.1E1
80 93 1
80 95 1
80 96 1
80 97 1.6E1
80 98 7
80 99 1
80 100 4
80 101 1
80 102 2.6E1
80 103 1.2E1
80 104 3
80 105 3
80 106 1
80 107 3
80 108 2
80 109 3
80 111 1.2E1
80 112 3E1
80 113 7.1E1
80 114 1.54E2
80 115 1.09E2
80 116 1.65E2
80 118 5.2E1
80 119 2.5E2
80 120 2.35E2
80 121 6.2E1
80 122 1.28E2
80 123 1.6E1
80 124 1
81 1 1.55E2
81 2 8.6E1
81 3 4.8E1
81 4 9.5E1
81 6 4.2E1
81 7 3
81 8 1E1
81 9 6
81 10 1.9E1
81 11 7
81 12 4
81 14 3
81 15 2
81 16 1.2E1
81 17 6
81 18 1
81 20 3
81 21 7
81 22 1.2E1
81 23 3
81 24 7
81 25 1
81 26 3
81 27 9.9E1
81 28 3
81 29 1.2E1
81 30 8
81 31 7
81 32 5
81 34 1.1E1
81 35 1.3E1
81 36 9
81 37 2.6E1
81 38 1.8E1
81 39 5.9E1
81 40 5
81 41 1
81 42 6.5E1
81 43 1
81 44 1
81 47 1
81 48 4
81 53 1
81 56 8
81 57 3
81 58 1
81 62 2
81 63 1
81 66 3
81 68 1
81 70 1
81 71 3
81 72 5
81 73 5
81 74 9
81 75 3
81 76 1
81 77 4
81 78 1.7E1
81 79 1
81 80 3
81 81 3.76E2
81 83 5
81 85 2.1E1
81 86 4
81 87 1
81 88 1
81 89 5.9E1
81 90 7
81 91 1
81 92 4
81 93 1
81 94 2
81 95 1
81 97 2
81 98 1
81 99 3
81 101 2
81 102 8
81 103 1.4E1
81 104 2
81 105 1
81 106 3
81 107 3
81 108 2
81 109 7
81 111 4.2E1
81 112 4.9E1
81 113 5.3E1
81 114 2.2E1
81 115 1.5E1
81 116 7.3E1
81 117 4
81 118 8
81 119 1.15E2
81 120 3.3E1
81 121 2.7E1
81 122 9.6E1
81 123 1.1E1
82 1 1.3E1
82 2 1.5E1
82 3 3.1E1
82 4 4.2E1
82 5 2
82 6 9
82 8 2
82 9 1
82 10 5
82 11 1
82 12 8.2E1
82 13 1.4E1
82 16 5
82 17 1
82 20 1
82 21 1
82 27 9
82 35 3
82 36 4.2E1
82 37 2
82 38 1
82 39 2.6E1
82 42 9
82 45 1
82 54 1
82 56 1
82 57 2
82 61 3
82 63 2
82 64 1
82 68 2
82 71 1
82 73 2E1
82 74 7
82 77 2
82 78 3
82 79 1
82 80 1.1E1
82 82 1.56E2
82 83 1
82 84 2
82 86 1
82 87 1
82 90 1
82 92 3.5E1
82 102 3
82 103 3
82 111 1
82 112 3
82 113 7
82 114 6
82 115 4
82 116 9
82 118 1
82 119 3.2E1
82 120 1.6E1
82 121 1.2E1
82 122 1.5E1
82 123 1
83 1 1.11E2
83 2 4.8E1
83 3 3.9E1
83 4 6.2E1
83 5 4
83 6 3.4E1
83 8 2.1E1
83 9 6
83 10 2.5E1
83 11 5
83 12 1.5E1
83 14 1
83 15 2
83 16 1.1E1
83 17 4
83 18 1
83 20 1
83 21 3
83 22 3
83 23 1
83 24 2
83 26 2
83 27 5.3E1
83 29 1E1
83 30 1
83 34 1
83 35 5
83 36 8.9E1
83 37 1.15E2
83 38 2.1E1
83 39 4.3E1
83 40 1
83 41 1
83 42 6.3E1
83 43 1
83 45 1
83 46 1
83 47 1
83 48 1
83 54 1
83 56 5
83 57 2
83 62 5
83 63 4
83 66 8
83 68 4
83 69 1
83 71 2
83 72 1
83 73 6
83 74 1.4E1
83 75 1
83 76 1
83 77 6
83 78 1.3E1
83 79 1
83 80 6
83 81 5
83 82 1
83 83 3.14E2
83 85 8
83 86 3
83 87 2
83 88 2
83 89 3
83 90 3
83 92 4.8E1
83 98 1
83 99 1
83 101 1
83 102 6
83 103 2
83 104 4
83 107 1
83 109 2
83 111 5
83 112 6
83 113 1.5E1
83 114 8
83 115 1.6E1
83 116 5E1
83 118 4
83 119 4.6E1
83 120 2E1
83 121 1E1
83 122 4.5E1
83 123 3
83 124 1
84 1 2.2E1
84 2 3E1
84 3 2.2E1
84 4 4E1
84 6 8
84 8 1
84 10 6
84 11 2
84 12 2.2E1
84 13 3
84 14 1
84 16 3
84 17 1
84 21 1
84 22 1
84 26 1
84 27 1.1E1
84 29 6
84 30 1
84 35 5
84 36 1.5E1
84 37 3
84 39 2.3E1
84 40 2
84 42 1E1
84 51 1
84 53 3
84 56 2
84 57 1
84 60 1
84 61 9
84 62 1
84 63 2
84 65 4
84 68 1
84 71 3
84 73 2
84 74 1
84 75 1
84 77 3
84 78 6
84 79 1
84 82 2
84 84 1.04E2
84 86 2
84 87 1
84 90 5
84 92 1.3E1
84 95 1
84 97 1
84 98 2
84 102 9
84 103 4
84 107 5
84 109 3
84 111 3
84 112 2
84 113 1E1
84 114 2
84 115 6
84 116 1.4E1
84 117 1
84 118 2
84 119 2E1
84 120 9
84 121 8
84 122 9
84 123 1
85 1 7.88E2
85 2 3.63E2
85 3 2.94E2
85 4 3.84E2
85 5 2.2E1
85 6 1.57E2
85 7 5
85 8 5.1E1
85 9 1.5E1
85 10 1.05E2
85 11 2.1E1
85 12 3.7E1
85 13 3
85 14 1.4E1
85 15 4
85 16 5E1
85 17 1.9E1
85 18 4
85 20 3.5E1
85 21 4.1E1
85 22 5.6E1
85 23 2E1
85 24 4.6E1
85 25 1.3E1
85 26 3.6E1
85 27 4.64E2
85 28 1E1
85 29 6.5E1
85 30 2.6E1
85 31 1.9E1
85 32 9
85 33 6
85 34 2.9E1
85 35 4.8E1
85 36 5.6E1
85 37 9.9E1
85 38 1.35E2
85 39 2E2
85 40 2.6E1
85 41 4
85 42 3.44E2
85 43 7
85 44 3
85 45 1
85 47 3
85 48 1.2E1
85 49 4
85 51 3
85 52 1
85 53 4
85 54 1
85 55 3
85 56 3.8E1
85 57 1.7E1
85 58 1
85 59 4
85 60 6
85 61 1.1E1
85 62 1.8E1
85 63 2.1E1
85 64 4
85 65 2
85 66 1.3E1
85 67 1E1
85 68 3.8E1
85 69 1E1
85 70 4.2E1
85 71 2.26E2
85 72 8.6E1
85 73 1.8E1
85 74 4.2E1
85 75 2
85 76 9
85 77 1.9E1
85 78 8.9E1
85 79 5
85 80 1E1
85 81 2.1E1
85 83 8
85 85 1.788E3
85 86 2.8E1
85 87 4
85 88 1.1E1
85 89 1.7E1
85 90 5.7E1
85 91 4
85 92 7.6E1
85 93 8
85 94 3
85 95 1.1E1
85 96 4.4E1
85 97 1.3E1
85 98 5
85 99 1.04E2
85 100 1
85 101 6
85 102 2.9E1
85 103 1.5E2
85 104 4.7E1
85 106 1.1E1
85 107 2.5E1
85 108 1
85 109 1.8E1
85 110 3
85 111 8.4E1
85 112 8.2E1
85 113 2.42E2
85 114 1.12E2
85 115 9.9E1
85 116 5.02E2
85 117 1E1
85 118 3.8E1
85 119 4.13E2
85 120 1.61E2
85 121 1.22E2
85 122 4.18E2
85 123 8.4E1
85 124 2
86 1 3.16E2
86 2 6.57E2
86 3 4.01E2
86 4 9.96E2
86 5 5.9E1
86 6 2.04E2
86 7 2
86 8 3.3E1
86 9 9
86 10 5.1E1
86 11 1.1E1
86 12 4.9E1
86 13 2
86 14 9
86 15 1
86 16 5.6E1
86 17 5
86 18 2
86 19 3
86 20 4.1E1
86 21 2.1E1
86 22 1.7E1
86 23 1.4E1
86 24 3.6E1
86 25 9
86 26 1.1E1
86 27 3.53E2
86 28 1E1
86 29 9.4E1
86 30 8
86 31 8
86 32 1.1E1
86 33 1
86 34 7
86 35 6.8E1
86 36 3E1
86 37 1.02E2
86 38 6E1
86 39 6.53E2
86 40 3.4E1
86 41 1
86 42 1.27E2
86 43 6
86 44 2
86 45 1
86 46 9
86 47 7
86 48 8
86 49 1
86 51 6
86 52 2
86 53 2
86 54 2
86 55 1
86 56 3.6E1
86 57 9
86 58 4
86 59 1
86 60 1
86 61 3
86 62 1.3E1
86 63 8
86 64 3
86 65 5
86 66 3.9E1
86 67 1
86 68 1.4E2
86 69 2.3E1
86 70 1.4E1
86 71 3E1
86 72 1.15E2
86 73 2.3E1
86 74 5.7E1
86 75 4
86 76 8
86 77 3.4E1
86 78 6.9E1
86 79 5
86 80 1.3E1
86 81 4
86 82 1
86 83 3
86 84 2
86 85 2.8E1
86 86 2.274E3
86 87 4.4E1
86 88 1.9E1
86 89 7
86 90 1.5E1
86 91 7
86 92 3E1
86 93 4
86 94 2
86 95 1
86 97 4.1E1
86 98 2.4E1
86 99 2
86 100 2.4E1
86 101 4
86 102 3.1E1
86 103 1.7E1
86 104 8
86 105 7
86 106 1.7E1
86 107 1.8E1
86 108 1.9E1
86 109 1.2E1
86 110 3
86 111 2.9E1
86 112 4.1E1
86 113 4.52E2
86 114 2.4E2
86 115 1.17E2
86 116 4.47E2
86 117 9
86 118 1.41E2
86 119 7.2E2
86 120 7.6E2
86 121 8.6E1
86 122 3.98E2
86 123 1.3E1
86 124 2
87 1 7.4E1
87 2 6.9E1
87 3 4.37E2
87 4 2.59E2
87 5 1.3E1
87 6 3.9E1
87 7 2
87 8 7
87 9 4
87 10 1.9E1
87 11 4
87 12 1.7E1
87 14 1
87 16 2.2E1
87 17 6
87 18 2
87 19 1
87 20 1
87 21 7
87 22 4
87 23 3
87 24 5
87 25 1
87 26 5
87 27 6.2E1
87 28 1
87 29 1.5E1
87 30 1.2E1
87 31 4
87 32 1
87 34 6
87 35 1.19E2
87 36 6
87 37 3.4E1
87 38 1.3E1
87 39 1.01E2
87 40 2
87 41 1
87 42 3.7E1
87 43 1
87 52 1
87 56 1.1E1
87 57 3
87 58 2
87 61 2
87 62 3
87 63 5
87 64 1
87 66 2.3E1
87 68 6E1
87 69 1
87 70 1
87 71 7
87 72 8
87 73 3
87 74 2
87 75 2
87 76 4
87 77 1.8E1
87 78 3
87 79 8
87 80 1E1
87 81 1
87 82 1
87 83 2
87 84 1
87 85 4
87 86 4.4E1
87 87 7.39E2
87 88 5
87 90 2
87 92 3
87 97 1.9E1
87 98 1.1E1
87 99 1
87 100 1E1
87 102 3
87 103 7
87 104 4
87 105 2
87 106 2
87 107 6
87 108 4
87 109 6
87 110 3
87 111 1.1E1
87 112 9
87 113 5.9E1
87 114 8.3E1
87 115 1.91E2
87 116 9.6E1
87 117 1
87 118 7
87 119 2.23E2
87 120 2.38E2
87 121 2.4E1
87 122 5.3E1
87 123 4
88 1 1.57E2
88 2 9.6E1
88 3 7.9E1
88 4 1.25E2
88 5 6
88 6 5.4E1
88 7 3
88 8 1.2E1
88 9 3
88 10 2.2E1
88 11 2
88 12 5
88 14 5
88 15 2
88 16 1.3E1
88 17 3
88 18 1
88 20 6
88 21 1.1E1
88 22 8
88 23 3
88 24 4
88 25 1
88 26 7
88 27 1.01E2
88 28 1
88 29 1.5E1
88 30 6
88 31 3
88 32 2
88 33 1
88 34 6
88 35 1.6E1
88 36 9
88 37 2.8E1
88 38 2.6E1
88 39 9.1E1
88 40 1.1E1
88 41 1
88 42 7.9E1
88 43 3
88 44 1
88 47 2
88 48 3
88 56 9
88 57 4
88 58 3
88 60 2
88 61 3
88 62 6
88 63 4
88 64 4
88 66 1E1
88 68 1.7E1
88 69 1
88 71 4
88 72 2
88 73 5
88 74 1.1E1
88 75 3
88 76 3
88 77 4
88 78 1.8E1
88 79 2
88 80 7
88 81 1
88 83 2
88 85 1.1E1
88 86 1.9E1
88 87 5
88 88 4.15E2
88 90 2
88 92 5
88 93 2
88 94 1
88 97 8.3E1
88 98 4.4E1
88 99 3
88 100 2
88 101 3
88 102 1E1
88 103 8
88 104 2
88 106 3
88 107 2
88 108 1
88 109 2
88 110 1
88 111 1.2E1
88 112 1.1E1
88 113 6.6E1
88 114 3.8E1
88 115 2.5E1
88 116 1.03E2
88 117 1
88 118 1.2E1
88 119 1.18E2
88 120 5.4E1
88 121 1.7E1
88 122 9.1E1
88 123 6
89 1 5.7E1
89 2 5.7E1
89 3 3.6E1
89 4 8.1E1
89 5 2
89 6 1.5E1
89 8 5
89 9 5
89 10 9
89 11 3
89 12 2
89 14 1
89 16 1E1
89 17 3
89 18 1
89 20 3
89 21 5
89 22 1
89 23 5
89 24 8
89 25 1
89 26 2
89 27 4.9E1
89 28 1
89 29 6
89 30 2
89 31 3
89 34 4
89 35 1E1
89 36 5
89 37 1.5E1
89 38 5
89 39 4.2E1
89 40 6
89 42 2E1
89 43 2
89 44 1
89 47 1
89 48 1
89 56 5
89 57 1
89 58 1
89 63 2
89 65 1
89 66 3
89 68 3
89 69 1
89 70 2
89 71 3
89 72 4
89 73 2
89 74 3
89 76 1
89 77 4
89 78 1.4E1
89 80 1
89 81 5.9E1
89 83 3
89 85 1.7E1
89 86 7
89 89 2.17E2
89 90 2
89 91 1
89 92 4
89 94 1
89 97 1
89 99 4
89 100 2
89 102 5
89 103 1E1
89 105 2
89 106 2
89 107 2
89 109 4
89 110 2
89 111 2E1
89 112 3.5E1
89 113 3.6E1
89 114 2.1E1
89 115 9
89 116 4.3E1
89 117 1
89 118 9
89 119 6.1E1
89 120 3E1
89 121 8
89 122 4.6E1
89 123 2
90 1 2.1E2
90 2 1.41E2
90 3 1.36E2
90 4 2.13E2
90 5 6
90 6 6.9E1
90 7 4
90 8 1.8E1
90 9 8
90 10 2.6E1
90 11 5
90 12 8.3E1
90 13 1.1E1
90 14 3
90 15 1
90 16 3.2E1
90 17 5
90 18 5
90 20 3
90 21 1.8E1
90 22 1.4E1
90 23 2
90 24 7
90 25 2
90 26 6
90 27 1.86E2
90 28 4
90 29 4.3E1
90 30 2.8E1
90 31 5
90 32 5
90 34 1E1
90 35 2E1
90 36 4.7E1
90 37 3.1E1
90 38 2.4E1
90 39 1.8E2
90 40 1E1
90 42 1.03E2
90 43 1
90 46 1
90 47 2
90 48 1
90 49 1
90 52 1
90 54 3
90 55 2
90 56 1.4E1
90 57 4
90 58 1
90 60 2
90 61 1.4E1
90 62 1.3E1
90 63 1.1E1
90 65 3
90 66 4
90 68 8
90 70 6
90 71 1.4E1
90 73 1.7E1
90 74 2.2E1
90 75 2
90 76 4
90 77 2.2E1
90 78 2.6E1
90 79 1.1E1
90 80 1.7E1
90 81 7
90 82 1
90 83 3
90 84 5
90 85 5.7E1
90 86 1.5E1
90 87 2
90 88 2
90 89 2
90 90 7.67E2
90 91 7
90 92 5.2E1
90 93 9
90 95 2
90 96 5
90 97 3
90 98 1
90 99 3
90 101 6
90 102 5E1
90 103 2.4E1
90 104 7
90 105 2
90 106 6
90 107 1.2E1
90 108 1
90 109 9
90 110 3
90 111 2.9E1
90 112 5.6E1
90 113 9.7E1
90 114 3.1E1
90 115 3.4E1
90 116 1.5E2
90 117 1
90 118 3.2E1
90 119 2.16E2
90 120 7.9E1
90 121 1.22E2
90 122 1.42E2
90 123 2.7E1
91 1 1.7E1
91 2 1.1E1
91 3 1.4E1
91 4 2.2E1
91 6 7
91 8 1
91 9 1
91 10 4
91 14 1
91 16 1
91 21 1
91 22 2
91 24 3
91 26 2
91 27 1.5E1
91 28 2
91 29 1
91 30 1
91 31 1
91 32 1
91 35 4
91 37 2
91 38 3
91 39 9
91 40 1
91 42 5
91 48 1
91 52 1
91 54 1
91 56 4
91 61 2
91 66 2
91 69 1
91 71 1
91 72 2
91 74 1
91 75 1
91 77 1
91 81 1
91 85 4
91 86 7
91 89 1
91 90 7
91 91 5.3E1
91 92 1
91 93 1
91 96 1
91 97 1
91 99 2
91 103 2
91 106 7
91 109 1
91 111 4
91 112 2
91 113 9
91 114 4
91 115 1
91 116 1.6E1
91 118 7
91 119 1.3E1
91 120 7
91 121 4
91 122 1.9E1
92 1 4.85E2
92 2 3.66E2
92 3 2.99E2
92 4 7.05E2
92 5 1.4E1
92 6 2.04E2
92 7 7
92 8 3E1
92 9 1.2E1
92 10 6.6E1
92 11 7
92 12 4.54E2
92 13 3.2E1
92 14 7
92 16 7.5E1
92 17 8
92 18 7
92 19 2
92 20 9
92 21 2E1
92 22 2.8E1
92 23 3
92 24 2.1E1
92 25 5
92 26 1.1E1
92 27 3.36E2
92 28 3
92 29 6.7E1
92 30 1.6E1
92 31 4
92 32 3
92 34 9
92 35 4.2E1
92 36 1.229E3
92 37 1.49E2
92 38 3.1E1
92 39 5.98E2
92 40 1.1E1
92 41 3
92 42 1.83E2
92 43 8
92 44 2
92 45 4
92 46 1
92 47 9
92 48 6
92 49 2
92 51 5
92 52 2
92 53 3
92 54 5
92 55 5
92 56 3.1E1
92 57 1E1
92 58 1
92 59 4
92 60 2
92 61 2.5E1
92 62 1.3E1
92 63 1.5E1
92 64 4
92 65 4
92 66 2.4E1
92 68 5.3E1
92 69 4
92 70 1E1
92 71 2.5E1
92 72 2.9E1
92 73 1.13E2
92 74 1.35E2
92 75 1.2E1
92 76 2E1
92 77 8.3E1
92 78 1.6E2
92 79 3.9E1
92 80 7.1E1
92 81 4
92 82 3.5E1
92 83 4.8E1
92 84 1.3E1
92 85 7.6E1
92 86 3E1
92 87 3
92 88 5
92 89 4
92 90 5.2E1
92 91 1
92 92 2.71E3
92 93 4
92 94 1
92 95 1.4E1
92 96 4
92 97 2.6E1
92 98 1E1
92 99 6
92 101 3
92 102 9E1
92 103 5.1E1
92 104 2.9E1
92 105 8
92 106 5
92 107 2.5E1
92 108 8
92 109 2.3E1
92 110 2
92 111 2.8E1
92 112 1.1E2
92 113 3.16E2
92 114 7.9E1
92 115 7.6E1
92 116 3.04E2
92 117 1.7E1
92 118 6.2E1
92 119 7.16E2
92 120 2.74E2
92 121 2.42E2
92 122 2.89E2
92 123 7.5E1
92 124 3
93 1 4.6E1
93 2 2.9E1
93 3 2.3E1
93 4 4.8E1
93 5 3
93 6 7
93 8 1
93 9 1
93 10 4
93 12 2.5E1
93 13 2
93 16 7
93 20 2
93 22 3
93 24 3
93 26 1
93 27 3.2E1
93 28 5
93 29 5
93 30 4
93 31 1
93 32 2
93 34 1
93 35 2
93 36 8
93 37 8
93 38 5
93 39 1.7E1
93 42 8
93 46 1
93 48 3
93 51 1
93 55 1
93 56 8
93 57 3
93 58 1
93 61 4
93 62 1
93 63 1
93 66 7
93 67 2
93 68 4
93 71 4
93 72 5
93 73 7
93 74 7
93 75 2
93 78 7
93 80 1
93 81 1
93 85 8
93 86 4
93 88 2
93 90 9
93 91 1
93 92 4
93 93 1.39E2
93 97 2
93 98 1
93 102 4
93 103 3
93 104 1
93 106 4
93 107 1
93 109 2
93 110 1
93 111 2
93 112 1
93 113 2.3E1
93 114 7
93 115 6
93 116 2.7E1
93 118 4
93 119 2.5E1
93 120 9
93 121 8
93 122 2.9E1
93 123 1
94 1 5.3E1
94 2 2.3E1
94 3 1.4E1
94 4 3.7E1
94 5 2
94 6 9
94 8 2
94 10 5
94 14 1
94 15 4
94 16 1
94 17 2
94 18 1
94 19 3
94 20 1E1
94 21 4
94 22 8
94 23 4
94 24 1.1E1
94 25 1
94 26 2
94 27 2.7E1
94 28 3
94 29 4
94 30 1
94 31 5
94 32 1
94 33 2
94 34 3
94 36 1
94 37 1E1
94 38 2.6E1
94 39 2.1E1
94 40 1
94 42 1.9E1
94 56 4
94 62 2
94 63 4
94 66 3
94 68 9
94 69 2
94 72 9
94 74 4
94 77 1
94 78 3
94 79 3
94 81 2
94 85 3
94 86 2
94 88 1
94 89 1
94 92 1
94 94 1.12E2
94 97 3
94 98 2
94 99 1
94 100 1
94 101 1
94 103 3
94 106 1
94 111 5
94 112 3
94 113 3E1
94 114 2.6E1
94 115 3
94 116 5.6E1
94 117 1
94 118 1
94 119 2.4E1
94 120 1.3E1
94 121 3
94 122 2.4E1
94 123 3
95 1 3.9E1
95 2 2.3E1
95 3 1.3E1
95 4 2.2E1
95 5 1
95 6 1.6E1
95 7 2
95 8 4
95 9 1
95 10 5
95 12 5
95 16 4
95 17 1
95 21 3
95 22 1
95 26 1
95 27 1.9E1
95 29 6
95 30 1
95 34 1
95 35 1
95 36 1E1
95 37 6
95 38 7
95 39 1.4E1
95 40 1
95 42 2E1
95 48 1
95 56 2
95 57 2
95 61 4
95 62 3
95 63 1
95 64 1
95 66 1
95 67 1
95 68 1
95 71 1
95 73 2
95 74 6
95 77 3
95 78 4
95 79 2
95 80 1
95 81 1
95 84 1
95 85 1.1E1
95 86 1
95 90 2
95 92 1.4E1
95 95 8.8E1
95 96 3
95 99 3
95 101 1
95 102 4
95 103 5
95 104 1
95 107 1
95 109 1
95 111 1
95 112 6
95 113 7
95 114 3
95 115 1
95 116 1.9E1
95 117 1
95 118 2
95 119 2.2E1
95 120 4
95 121 9
95 122 1.7E1
95 123 4
96 1 5.1E1
96 2 2E1
96 3 1E1
96 4 1.4E1
96 5 1
96 6 1.3E1
96 8 2
96 9 2
96 10 6
96 12 1
96 13 1
96 14 1
96 16 2
96 17 1
96 18 1
96 20 2
96 21 2
96 22 6
96 23 1
96 24 4
96 26 2
96 27 2E1
96 29 4
96 30 2
96 35 2
96 36 4
96 37 5
96 38 1E1
96 39 8
96 40 2
96 42 2.3E1
96 55 1
96 56 2
96 60 2
96 61 1
96 63 1
96 66 2
96 71 5
96 72 1
96 74 2
96 76 1
96 77 1
96 78 2
96 80 1
96 85 4.4E1
96 90 5
96 91 1
96 92 4
96 95 3
96 96 8.3E1
96 97 3
96 99 7
96 103 1.3E1
96 104 3
96 107 1
96 111 3
96 112 5
96 113 1.1E1
96 114 2
96 115 2
96 116 2.5E1
96 118 1
96 119 1.5E1
96 120 6
96 121 4
96 122 2.4E1
96 123 8
97 1 1.29E2
97 2 1.55E2
97 3 2.22E2
97 4 3.17E2
97 5 1.5E1
97 6 8.5E1
97 8 6
97 9 2
97 10 1.4E1
97 11 3
97 12 1E1
97 14 2
97 15 1
97 16 1.8E1
97 18 3
97 19 1
97 20 7
97 21 5
97 22 7
97 23 6
97 24 1E1
97 25 3
97 26 2
97 27 1.28E2
97 29 2.6E1
97 30 4
97 31 5
97 32 2
97 33 1
97 34 6
97 35 3.2E1
97 36 1.1E1
97 37 1.5E1
97 38 1.5E1
97 39 2.03E2
97 40 1.3E1
97 41 1
97 42 5.5E1
97 43 2
97 46 3
97 47 5
97 48 7
97 52 4
97 54 2
97 56 1.7E1
97 57 4
97 59 1
97 60 1
97 61 4
97 62 4
97 63 1
97 66 5.1E1
97 68 2.8E1
97 69 1
97 70 3
97 71 2E1
97 72 2.6E1
97 73 1.4E1
97 74 2.2E1
97 75 6
97 76 2
97 77 1.1E1
97 78 4.6E1
97 79 1.2E1
97 80 1.6E1
97 81 2
97 84 1
97 85 1.3E1
97 86 4.1E1
97 87 1.9E1
97 88 8.3E1
97 89 1
97 90 3
97 91 1
97 92 2.6E1
97 93 2
97 94 3
97 96 3
97 97 8.43E2
97 98 1.14E2
97 99 4
97 100 5
97 101 1
97 102 1.4E1
97 103 8
97 104 6
97 105 4
97 106 2
97 107 7
97 108 5
97 109 5
97 111 1.2E1
97 112 2E1
97 113 1.59E2
97 114 7E1
97 115 7.3E1
97 116 1.79E2
97 117 2
97 118 3.3E1
97 119 1.95E2
97 120 1.72E2
97 121 4.2E1
97 122 1.38E2
97 123 9
98 1 7.5E1
98 2 1.11E2
98 3 1.06E2
98 4 1.86E2
98 5 6
98 6 4.6E1
98 8 1
98 10 1.1E1
98 11 1
98 12 8
98 14 1
98 15 1
98 16 1.3E1
98 17 2
98 19 3
98 20 3
98 21 6
98 22 8
98 23 4
98 24 5
98 25 5
98 26 3
98 27 7.7E1
98 29 1.6E1
98 30 2
98 31 1
98 32 2
98 34 3
98 35 1.9E1
98 36 6
98 37 8
98 38 7
98 39 1.15E2
98 40 1.2E1
98 41 1
98 42 3.5E1
98 43 3
98 44 1
98 46 2
98 47 1
98 51 1
98 52 2
98 54 1
98 56 1.8E1
98 57 5
98 58 2
98 59 1
98 61 1
98 62 6
98 63 3
98 65 2
98 66 2.6E1
98 68 1.8E1
98 69 1
98 70 1
98 71 3
98 72 1E1
98 73 1
98 74 7
98 75 1
98 77 3
98 78 1.4E1
98 79 4
98 80 7
98 81 1
98 83 1
98 84 2
98 85 5
98 86 2.4E1
98 87 1.1E1
98 88 4.4E1
98 90 1
98 92 1E1
98 93 1
98 94 2
98 97 1.14E2
98 98 4.43E2
98 99 1
98 100 2
98 102 1.5E1
98 103 2
98 106 1
98 107 2
98 108 2
98 109 2
98 111 7
98 112 1E1
98 113 7.3E1
98 114 3.1E1
98 115 4.1E1
98 116 8.1E1
98 117 2
98 118 2E1
98 119 1.01E2
98 120 9E1
98 121 1.6E1
98 122 7.6E1
98 123 3
99 1 2.34E2
99 2 8.2E1
99 3 5.7E1
99 4 7E1
99 5 7
99 6 4.7E1
99 7 1
99 8 2.2E1
99 9 5
99 10 3E1
99 11 7
99 12 1
99 13 2
99 14 3
99 15 4
99 16 1.2E1
99 17 5
99 19 1
99 20 9
99 21 1.5E1
99 22 2.1E1
99 23 4
99 24 9
99 25 5
99 26 8
99 27 1.24E2
99 28 8
99 29 1.4E1
99 30 6
99 31 1E1
99 32 5
99 33 4
99 34 1.1E1
99 35 8
99 36 6
99 37 2.9E1
99 38 6.5E1
99 39 3.5E1
99 40 4
99 41 1
99 42 9.3E1
99 43 1
99 44 1
99 47 3
99 48 3
99 51 1
99 52 1
99 54 1
99 56 1.6E1
99 57 9
99 58 2
99 59 2
99 60 1
99 62 5
99 63 4
99 64 4
99 66 5
99 67 4
99 68 4
99 69 3
99 71 4
99 72 1.2E1
99 73 2
99 74 8
99 75 1
99 76 1
99 77 2
99 78 2.1E1
99 79 1
99 80 1
99 81 3
99 83 1
99 85 1.04E2
99 86 2
99 87 1
99 88 3
99 89 4
99 90 3
99 91 2
99 92 6
99 94 1
99 95 3
99 96 7
99 97 4
99 98 1
99 99 3.94E2
99 102 5
99 103 3E1
99 104 3
99 106 3
99 107 1
99 109 4
99 111 2.1E1
99 112 8
99 113 4.4E1
99 114 2E1
99 115 1.5E1
99 116 1.39E2
99 117 4
99 118 7
99 119 7.4E1
99 120 2.4E1
99 121 2.3E1
99 122 1.32E2
99 123 7
100 1 2E1
100 2 2.6E1
100 3 9.9E1
100 4 1.21E2
100 5 9
100 6 2.5E1
100 8 6
100 9 2
100 10 7
100 11 2
100 16 8
100 17 3
100 18 1
100 20 2
100 21 3
100 23 4
100 24 2
100 25 3
100 26 4
100 27 3.7E1
100 29 3
100 30 1
100 31 1
100 32 4
100 33 1
100 34 2
100 35 1.6E1
100 36 2
100 37 6
100 38 4
100 39 2.3E1
100 40 1
100 42 8
100 46 3
100 48 1
100 56 1
100 57 3
100 58 1
100 66 3
100 68 2.4E1
100 69 2
100 72 2.2E1
100 73 2
100 74 1
100 78 4
100 79 1
100 80 4
100 85 1
100 86 2.4E1
100 87 1E1
100 88 2
100 89 2
100 94 1
100 97 5
100 98 2
100 100 2.39E2
100 101 1
100 102 2
100 103 2
100 104 3
100 106 1
100 108 2
100 109 2
100 111 1E1
100 112 6
100 113 3.1E1
100 114 3.1E1
100 115 2.8E1
100 116 5.8E1
100 118 1.6E1
100 119 9E1
100 120 1.79E2
100 121 5
100 122 5.1E1
100 123 1
100 124 1
101 1 8.8E1
101 2 1.9E1
101 3 8
101 4 3.8E1
101 5 1
101 6 2.9E1
101 8 5
101 9 2
101 10 1.4E1
101 11 4
101 12 1
101 13 2
101 14 2
101 15 2
101 16 3
101 17 1
101 18 1
101 20 1
101 21 2
101 22 6
101 23 2
101 24 3
101 25 2
101 26 2
101 27 6.7E1
101 28 2
101 29 4
101 30 9
101 31 5
101 32 8
101 34 1
101 35 3
101 36 2
101 37 1.6E1
101 38 1.4E1
101 39 1.6E1
101 40 3
101 41 1
101 42 3.4E1
101 43 1
101 44 1
101 45 1
101 46 2
101 48 1
101 56 8
101 57 6
101 58 1
101 61 1
101 62 9
101 63 1
101 66 1
101 69 1
101 70 1
101 71 1
101 73 1
101 74 7
101 76 1
101 78 4
101 80 1
101 81 2
101 83 1
101 85 6
101 86 4
101 88 3
101 90 6
101 92 3
101 94 1
101 95 1
101 97 1
101 100 1
101 101 1.33E2
101 102 9
101 103 1.1E1
101 104 1
101 106 6
101 107 3
101 109 3
101 111 7
101 112 1E1
101 113 9
101 114 1.5E1
101 115 3
101 116 5.7E1
101 118 4
101 119 3.4E1
101 120 2.3E1
101 121 1E1
101 122 5.9E1
101 123 3
102 1 2.41E2
102 2 2.53E2
102 3 2.4E2
102 4 3.03E2
102 5 8
102 6 1.11E2
102 7 3
102 8 1.1E1
102 9 4
102 10 2E1
102 11 6
102 12 5.8E1
102 13 3
102 14 1
102 15 1
102 16 1.8E1
102 17 1
102 18 3
102 20 2
102 21 4
102 22 4
102 23 1
102 24 2
102 26 1
102 27 1.9E2
102 28 1
102 29 6.4E1
102 30 8
102 31 2
102 32 3
102 34 1E1
102 35 4E1
102 36 6.4E1
102 37 2.7E1
102 38 2E1
102 39 4.02E2
102 40 1.7E1
102 41 5
102 42 1.13E2
102 43 3
102 44 1
102 47 1
102 48 8
102 50 1
102 51 1
102 54 1
102 56 1.1E1
102 57 1.3E1
102 58 1
102 60 1
102 61 2.3E1
102 62 2.3E1
102 63 1.2E1
102 65 8
102 66 1.1E1
102 68 1.5E1
102 69 2
102 70 1
102 71 3
102 72 4
102 73 5.9E1
102 74 4.1E1
102 75 8
102 76 1.4E1
102 77 3.4E1
102 78 7.2E1
102 79 3.1E1
102 80 2.6E1
102 81 8
102 82 3
102 83 6
102 84 9
102 85 2.9E1
102 86 3.1E1
102 87 3
102 88 1E1
102 89 5
102 90 5E1
102 92 9E1
102 93 4
102 95 4
102 97 1.4E1
102 98 1.5E1
102 99 5
102 100 2
102 101 9
102 102 1.261E3
102 103 1.3E1
102 104 6
102 106 3
102 107 2
102 108 3
102 109 2
102 110 1
102 111 3.3E1
102 112 8.1E1
102 113 1.79E2
102 114 4.5E1
102 115 7.5E1
102 116 1.45E2
102 117 6
102 118 3.3E1
102 119 3.3E2
102 120 1.31E2
102 121 1.63E2
102 122 1.7E2
102 123 1.3E1
102 124 1
103 1 6.81E2
103 2 3.06E2
103 3 2.75E2
103 4 3.87E2
103 5 3.7E1
103 6 1.14E2
103 7 3
103 8 3.9E1
103 9 2.3E1
103 10 7.2E1
103 11 1.5E1
103 12 4.7E1
103 13 6
103 14 1.2E1
103 15 4
103 16 5E1
103 17 2.1E1
103 18 3
103 19 2
103 20 5.4E1
103 21 8.8E1
103 22 1.46E2
103 23 1.6E1
103 24 6.1E1
103 25 6
103 26 4.5E1
103 27 3.77E2
103 28 1E1
103 29 4.2E1
103 30 2.9E1
103 31 8
103 32 4
103 33 3
103 34 1.9E1
103 35 5.4E1
103 36 4.3E1
103 37 1.18E2
103 38 1.2E2
103 39 2.23E2
103 40 1.1E1
103 41 1
103 42 3.25E2
103 43 2
103 46 1
103 47 1
103 48 3
103 49 2
103 51 1
103 52 2
103 53 1
103 54 3
103 55 1
103 56 1.04E2
103 57 2.4E1
103 58 4
103 59 6
103 60 2E1
103 61 9
103 62 2E1
103 63 5E1
103 64 1.8E1
103 66 3E1
103 67 1.4E1
103 68 2.9E1
103 69 2
103 70 7
103 71 2.4E1
103 72 3.3E1
103 73 1.3E1
103 74 4.3E1
103 75 5
103 76 6
103 77 1.3E1
103 78 8.4E1
103 79 7
103 80 1.2E1
103 81 1.4E1
103 82 3
103 83 2
103 84 4
103 85 1.5E2
103 86 1.7E1
103 87 7
103 88 8
103 89 1E1
103 90 2.4E1
103 91 2
103 92 5.1E1
103 93 3
103 94 3
103 95 5
103 96 1.3E1
103 97 8
103 98 2
103 99 3E1
103 100 2
103 101 1.1E1
103 102 1.3E1
103 103 1.528E3
103 104 9
103 106 4
103 107 1.5E1
103 109 1.6E1
103 110 1
103 111 3.7E1
103 112 5.2E1
103 113 2.08E2
103 114 8.9E1
103 115 7.7E1
103 116 4.06E2
103 117 7
103 118 1.5E1
103 119 2.41E2
103 120 1.09E2
103 121 6.3E1
103 122 2.32E2
103 123 2.8E1
104 1 9.7E1
104 2 5.9E1
104 3 6.8E1
104 4 9.7E1
104 5 1
104 6 3.3E1
104 7 4
104 8 4
104 9 4
104 10 1.9E1
104 11 3
104 12 2.1E1
104 13 1
104 14 2
104 16 1.4E1
104 17 2
104 18 3
104 21 3
104 22 8
104 24 4
104 26 2
104 27 6.8E1
104 28 1.4E1
104 29 1.1E1
104 30 6
104 31 2
104 32 2
104 33 1
104 34 3
104 35 8
104 36 2.7E1
104 37 1.3E1
104 38 1.7E1
104 39 4.3E1
104 40 5
104 42 3.9E1
104 44 1
104 46 2
104 47 1
104 48 1
104 51 2
104 53 3
104 54 1
104 56 7
104 57 4
104 61 4
104 62 2
104 63 2
104 66 6
104 68 1.4E1
104 69 3
104 70 2.7E1
104 71 5.5E1
104 72 9
104 73 9
104 74 1E1
104 75 1
104 76 1
104 77 7
104 78 1.5E1
104 79 3
104 80 3
104 81 2
104 83 4
104 85 4.7E1
104 86 8
104 87 4
104 88 2
104 90 7
104 92 2.9E1
104 93 1
104 95 1
104 96 3
104 97 6
104 99 3
104 100 3
104 101 1
104 102 6
104 103 9
104 104 3.17E2
104 105 3
104 106 2
104 107 1.7E1
104 108 1
104 109 1E1
104 111 1E1
104 112 1.4E1
104 113 4.7E1
104 114 2.2E1
104 115 1.7E1
104 116 6.1E1
104 117 3
104 118 1.8E1
104 119 1.18E2
104 120 5.3E1
104 121 2.7E1
104 122 7.4E1
104 123 4.3E1
105 1 1.8E1
105 2 2.9E1
105 3 3.9E1
105 4 8.1E1
105 5 4
105 6 7
105 8 1
105 9 2
105 10 6
105 12 6
105 14 1
105 16 1.1E1
105 17 1
105 21 1
105 27 1.4E1
105 29 6
105 31 1
105 32 1
105 33 2
105 34 1
105 35 8
105 36 3
105 38 2
105 39 3E1
105 40 3
105 42 3
105 47 1
105 48 1
105 51 1
105 57 1
105 66 6
105 68 3.9E1
105 69 1
105 70 2
105 71 2
105 72 1.4E1
105 73 5
105 74 3
105 75 2
105 77 6
105 78 6
105 79 1
105 80 3
105 81 1
105 86 7
105 87 2
105 89 2
105 90 2
105 92 8
105 97 4
105 104 3
105 105 1.78E2
105 107 6
105 108 6
105 109 1
105 110 1
105 111 4
105 112 2
105 113 2.9E1
105 114 2E1
105 115 1.2E1
105 116 4.1E1
105 117 2
105 118 8
105 119 7.6E1
105 120 7.8E1
105 121 4
105 122 3E1
105 123 3
106 1 6.6E1
106 2 7.1E1
106 3 7.5E1
106 4 1.13E2
106 5 1
106 6 2.7E1
106 7 2
106 8 9
106 9 4
106 10 1.3E1
106 11 2
106 12 5
106 14 1
106 15 1
106 16 7
106 17 4
106 18 1
106 20 3
106 21 3
106 22 4
106 23 2
106 24 4
106 25 1
106 26 4
106 27 7.6E1
106 28 2
106 29 8
106 30 4
106 31 4
106 32 5
106 34 7
106 35 1.6E1
106 36 4
106 37 9
106 38 6
106 39 6.4E1
106 40 6
106 42 2.1E1
106 43 3
106 46 1
106 48 1
106 56 5
106 57 3
106 58 1
106 62 4
106 63 4
106 66 5
106 67 3
106 68 1.1E1
106 69 3
106 70 2
106 71 1.3E1
106 72 4E1
106 73 8
106 74 6
106 77 2
106 78 1.1E1
106 79 1
106 80 1
106 81 3
106 85 1.1E1
106 86 1.7E1
106 87 2
106 88 3
106 89 2
106 90 6
106 91 7
106 92 5
106 93 4
106 94 1
106 97 2
106 98 1
106 99 3
106 100 1
106 101 6
106 102 3
106 103 4
106 104 2
106 106 3.36E2
106 107 3
106 108 2
106 109 4
106 110 3
106 111 8
106 112 9
106 113 6.8E1
106 114 3.2E1
106 115 2.2E1
106 116 8.2E1
106 117 1
106 118 3.5E1
106 119 1.49E2
106 120 1.18E2
106 121 1.5E1
106 122 7.1E1
106 123 6
106 124 2
107 1 2.26E2
107 2 1.67E2
107 3 1.37E2
107 4 3.17E2
107 5 7
107 6 7.1E1
107 7 2
107 8 2.4E1
107 9 1E1
107 10 4.1E1
107 11 1.2E1
107 12 2.2E1
107 13 3
107 14 9
107 15 2
107 16 3.6E1
107 17 2E1
107 18 2
107 20 4
107 21 1E1
107 22 1.5E1
107 24 7
107 25 1
107 26 6
107 27 2.23E2
107 28 4
107 29 2.5E1
107 30 1.5E1
107 31 1.2E1
107 32 7
107 33 1
107 34 1E1
107 35 1.5E1
107 36 2.1E1
107 37 3.2E1
107 38 2E1
107 39 1.39E2
107 40 4
107 41 1
107 42 8.1E1
107 43 3
107 44 3
107 45 1
107 46 1
107 47 4
107 48 2
107 49 2
107 51 2
107 53 3
107 54 1
107 56 8
107 57 4
107 58 2
107 62 6
107 63 3
107 66 1E1
107 67 4
107 68 2.6E1
107 70 1
107 71 1
107 72 4
107 73 1.7E1
107 74 2E1
107 76 8
107 77 1.1E1
107 78 3.9E1
107 79 6
107 80 3
107 81 3
107 83 1
107 84 5
107 85 2.5E1
107 86 1.8E1
107 87 6
107 88 2
107 89 2
107 90 1.2E1
107 92 2.5E1
107 93 1
107 95 1
107 96 1
107 97 7
107 98 2
107 99 1
107 101 3
107 102 2
107 103 1.5E1
107 104 1.7E1
107 105 6
107 106 3
107 107 8.41E2
107 108 4
107 109 3.05E2
107 111 5.5E1
107 112 5.9E1
107 113 1.3E2
107 114 7.9E1
107 115 3.6E1
107 116 2.12E2
107 117 5
107 118 5.7E1
107 119 3.47E2
107 120 2.02E2
107 121 5.2E1
107 122 2.07E2
107 123 6.7E1
107 124 1.4E1
108 1 2.7E1
108 2 3.2E1
108 3 4.7E1
108 4 9.1E1
108 5 3
108 6 1.6E1
108 7 1
108 9 2
108 10 3
108 11 1
108 12 4
108 16 4
108 18 1
108 21 4
108 22 4
108 23 2
108 25 2
108 27 2.5E1
108 29 6
108 30 3
108 32 2
108 35 3
108 36 2
108 37 6
108 38 3
108 39 4.2E1
108 41 1
108 42 4
108 43 5
108 46 1
108 47 1
108 52 1
108 56 1
108 59 1
108 61 1
108 62 1
108 66 2
108 68 2.8E1
108 69 2
108 70 1
108 71 1
108 72 9
108 73 4
108 74 5
108 75 1
108 76 1
108 77 1.1E1
108 78 9
108 79 1
108 80 2
108 81 2
108 85 1
108 86 1.9E1
108 87 4
108 88 1
108 90 1
108 92 8
108 97 5
108 98 2
108 100 2
108 102 3
108 104 1
108 105 6
108 106 2
108 107 4
108 108 1.89E2
108 109 1
108 111 5
108 112 7
108 113 3.8E1
108 114 1.9E1
108 115 1.4E1
108 116 2.4E1
108 118 1.3E1
108 119 8E1
108 120 8.1E1
108 121 1E1
108 122 3.7E1
108 123 2
109 1 2.06E2
109 2 1.67E2
109 3 1.39E2
109 4 2.4E2
109 5 1E1
109 6 7.6E1
109 7 2
109 8 1.7E1
109 9 9
109 10 2.5E1
109 11 1.3E1
109 12 2.1E1
109 13 2
109 14 5
109 15 2
109 16 3E1
109 17 1.2E1
109 18 1
109 19 1
109 20 3
109 21 8
109 22 1.3E1
109 23 3
109 24 6
109 25 1
109 26 5
109 27 2E2
109 28 8
109 29 2.4E1
109 30 1.2E1
109 31 1E1
109 32 6
109 34 1.6E1
109 35 1.3E1
109 36 1.6E1
109 37 3.1E1
109 38 2E1
109 39 1.24E2
109 40 6
109 41 1
109 42 8.4E1
109 43 2
109 44 2
109 46 1
109 47 2
109 48 2
109 49 1
109 51 3
109 53 1
109 56 1E1
109 57 2
109 58 1
109 62 4
109 63 1
109 66 1E1
109 67 2
109 68 2.1E1
109 71 1
109 72 4
109 73 1.2E1
109 74 1.1E1
109 75 1
109 76 3
109 77 1E1
109 78 2.6E1
109 79 5
109 80 3
109 81 7
109 83 2
109 84 3
109 85 1.8E1
109 86 1.2E1
109 87 6
109 88 2
109 89 4
109 90 9
109 91 1
109 92 2.3E1
109 93 2
109 95 1
109 97 5
109 98 2
109 99 4
109 100 2
109 101 3
109 102 2
109 103 1.6E1
109 104 1E1
109 105 1
109 106 4
109 107 3.05E2
109 108 1
109 109 7.59E2
109 110 2
109 111 5.4E1
109 112 6E1
109 113 1.12E2
109 114 6.9E1
109 115 4.5E1
109 116 1.88E2
109 117 2
109 118 3.5E1
109 119 3.3E2
109 120 1.69E2
109 121 6.4E1
109 122 1.97E2
109 123 8.7E1
109 124 1E1
110 1 5.8E1
110 2 2.5E1
110 3 2.5E1
110 4 3.1E1
110 5 1
110 6 1.4E1
110 7 5
110 8 1.5E1
110 9 4
110 10 4E1
110 12 1
110 14 1.3E1
110 16 1E1
110 17 7
110 18 1
110 21 2
110 22 2
110 26 2
110 27 5E1
110 29 2
110 30 2
110 31 5
110 32 3
110 33 1
110 34 9
110 35 4
110 36 1
110 37 4
110 38 4
110 39 1E1
110 42 1.2E1
110 47 2
110 48 1
110 55 1
110 61 1
110 66 2
110 67 2
110 68 4
110 72 1
110 73 2
110 74 4
110 75 1
110 77 4
110 78 1
110 85 3
110 86 3
110 87 3
110 88 1
110 89 2
110 90 3
110 92 2
110 93 1
110 102 1
110 103 1
110 105 1
110 106 3
110 109 2
110 110 1.08E2
110 111 8
110 112 9
110 113 7
110 114 1.2E1
110 115 7
110 116 4.4E1
110 118 1.2E1
110 119 5.5E1
110 120 2.6E1
110 121 1.1E1
110 122 4.6E1
110 123 4
111 1 8.51E2
111 2 5.2E2
111 3 4.02E2
111 4 7.28E2
111 5 2E1
111 6 2.16E2
111 7 1.3E1
111 8 9.1E1
111 9 2.9E1
111 10 1.61E2
111 11 4.4E1
111 12 3.3E1
111 14 3.1E1
111 15 1.1E1
111 16 9.5E1
111 17 4.6E1
111 18 1.1E1
111 19 1
111 20 1.7E1
111 21 4.4E1
111 22 5.1E1
111 23 6
111 24 2.5E1
111 25 1
111 26 1.3E1
111 27 6.49E2
111 28 2.9E1
111 29 9E1
111 30 3E1
111 31 7.5E1
111 32 3.2E1
111 33 1.3E1
111 34 1.46E2
111 35 7.1E1
111 36 2.5E1
111 37 1.23E2
111 38 1.16E2
111 39 3.44E2
111 40 2.3E1
111 41 1
111 42 3.18E2
111 43 3
111 44 3
111 45 3
111 46 3
111 47 3
111 48 5
111 49 2
111 51 7
111 54 3
111 55 2
111 56 3.2E1
111 57 1.1E1
111 58 5
111 59 1
111 60 1
111 61 3
111 62 1.3E1
111 63 6
111 64 2
111 66 2.3E1
111 67 3
111 68 5.5E1
111 69 1.1E1
111 70 3
111 71 1.5E1
111 72 7.9E1
111 73 1.6E1
111 74 4.1E1
111 75 4
111 76 5
111 77 1.9E1
111 78 1.23E2
111 79 1.5E1
111 80 1.2E1
111 81 4.2E1
111 82 1
111 83 5
111 84 3
111 85 8.4E1
111 86 2.9E1
111 87 1.1E1
111 88 1.2E1
111 89 2E1
111 90 2.9E1
111 91 4
111 92 2.8E1
111 93 2
111 94 5
111 95 1
111 96 3
111 97 1.2E1
111 98 7
111 99 2.1E1
111 100 1E1
111 101 7
111 102 3.3E1
111 103 3.7E1
111 104 1E1
111 105 4
111 106 8
111 107 5.5E1
111 108 5
111 109 5.4E1
111 110 8
111 111 2.21E3
111 112 3.97E2
111 113 3.24E2
111 114 1.65E2
111 115 1.08E2
111 116 5.75E2
111 117 9
111 118 1.22E2
111 119 1.026E3
111 120 4.38E2
111 121 2.48E2
111 122 6.89E2
111 123 6.9E1
111 124 4
112 1 7.37E2
112 2 5.01E2
112 3 4.7E2
112 4 6.84E2
112 5 1.8E1
112 6 2.43E2
112 7 1E1
112 8 6.1E1
112 9 2.7E1
112 10 1.38E2
112 11 2.6E1
112 12 6.7E1
112 13 3
112 14 2.2E1
112 15 2
112 16 7.4E1
112 17 3.4E1
112 18 7
112 19 3
112 20 8
112 21 3.2E1
112 22 4E1
112 23 1.1E1
112 24 2.4E1
112 25 4
112 26 1.3E1
112 27 5.74E2
112 28 1.6E1
112 29 8.2E1
112 30 3.7E1
112 31 2.8E1
112 32 2E1
112 33 7
112 34 6.6E1
112 35 9.5E1
112 36 8.8E1
112 37 1.06E2
112 38 8E1
112 39 4.45E2
112 40 2.2E1
112 41 3
112 42 2.93E2
112 43 4
112 44 1
112 45 3
112 46 1
112 47 4
112 48 1
112 49 1
112 50 1
112 51 6
112 52 1
112 53 1
112 54 2
112 55 1
112 56 3E1
112 57 2E1
112 58 9
112 60 2
112 61 1.5E1
112 62 3.1E1
112 63 1.5E1
112 64 2
112 65 4
112 66 1.7E1
112 67 1
112 68 4.1E1
112 69 2
112 70 6
112 71 1.3E1
112 72 2.4E1
112 73 2.5E1
112 74 5.1E1
112 75 4
112 76 5
112 77 3.2E1
112 78 1.23E2
112 79 1E1
112 80 3E1
112 81 4.9E1
112 82 3
112 83 6
112 84 2
112 85 8.2E1
112 86 4.1E1
112 87 9
112 88 1.1E1
112 89 3.5E1
112 90 5.6E1
112 91 2
112 92 1.1E2
112 93 1
112 94 3
112 95 6
112 96 5
112 97 2E1
112 98 1E1
112 99 8
112 100 6
112 101 1E1
112 102 8.1E1
112 103 5.2E1
112 104 1.4E1
112 105 2
112 106 9
112 107 5.9E1
112 108 7
112 109 6E1
112 110 9
112 111 3.97E2
112 112 2.282E3
112 113 3.04E2
112 114 1.28E2
112 115 1.38E2
112 116 4.42E2
112 117 1.4E1
112 118 1.07E2
112 119 1.046E3
112 120 3.84E2
112 121 3.47E2
112 122 5.41E2
112 123 1.02E2
112 124 1.1E1
113 1 1.832E3
113 2 4.405E3
113 3 1.03E3
113 4 3.38E3
113 5 2.48E2
113 6 7.9E2
113 7 2.1E1
113 8 1.76E2
113 9 6.5E1
113 10 3.58E2
113 11 6.2E1
113 12 2.99E2
113 13 1.6E1
113 14 3.3E1
113 15 1.5E1
113 16 3.1E2
113 17 6.3E1
113 18 3.4E1
113 19 1.3E1
113 20 2.94E2
113 21 1.65E2
113 22 2.75E2
113 23 1.42E2
113 24 2.7E2
113 25 6.3E1
113 26 1.07E2
113 27 1.134E3
113 28 3.4E1
113 29 6.79E2
113 30 6E1
113 31 9.6E1
113 32 4.6E1
113 33 1.8E1
113 34 9.6E1
113 35 1.61E2
113 36 2.23E2
113 37 5.14E2
113 38 4.77E2
113 39 5.181E3
113 40 1.04E2
113 41 1E1
113 42 3.65E2
113 43 2.2E1
113 44 1E1
113 45 1.3E1
113 46 7
113 47 2.3E1
113 48 2.8E1
113 49 7
113 50 3
113 51 2.3E1
113 52 1.4E1
113 53 1E1
113 54 8
113 55 8
113 56 3.47E2
113 57 7.7E1
113 58 4.5E1
113 59 3E1
113 60 1.8E1
113 61 3.7E1
113 62 1.05E2
113 63 1.2E2
113 64 9
113 65 1.7E1
113 66 2.52E2
113 67 1.5E1
113 68 6.29E2
113 69 1.27E2
113 70 8.8E1
113 71 3.14E2
113 72 8.76E2
113 73 1.94E2
113 74 2.96E2
113 75 2.2E1
113 76 3.5E1
113 77 1.54E2
113 78 3E2
113 79 3.3E1
113 80 7.1E1
113 81 5.3E1
113 82 7
113 83 1.5E1
113 84 1E1
113 85 2.42E2
113 86 4.52E2
113 87 5.9E1
113 88 6.6E1
113 89 3.6E1
113 90 9.7E1
113 91 9
113 92 3.16E2
113 93 2.3E1
113 94 3E1
113 95 7
113 96 1.1E1
113 97 1.59E2
113 98 7.3E1
113 99 4.4E1
113 100 3.1E1
113 101 9
113 102 1.79E2
113 103 2.08E2
113 104 4.7E1
113 105 2.9E1
113 106 6.8E1
113 107 1.3E2
113 108 3.8E1
113 109 1.12E2
113 110 7
113 111 3.24E2
113 112 3.04E2
113 113 1.1327E4
113 114 9.96E2
113 115 1.7E2
113 116 1.855E3
113 117 3.6E1
113 118 3.6E2
113 119 3.42E3
113 120 2.272E3
113 121 5.82E2
113 122 1.164E3
113 123 1.36E2
113 124 6
114 1 1.801E3
114 2 1.388E3
114 3 1.821E3
114 4 2.749E3
114 5 1.76E2
114 6 5.42E2
114 7 2.2E1
114 8 1.66E2
114 9 4.7E1
114 10 3.02E2
114 11 6E1
114 12 1.33E2
114 13 4
114 14 5.1E1
114 15 1.9E1
114 16 2.31E2
114 17 5.1E1
114 18 1.9E1
114 19 1.2E1
114 20 1.46E2
114 21 1.37E2
114 22 1.47E2
114 23 6.3E1
114 24 1.54E2
114 25 2.6E1
114 26 8.3E1
114 27 1.173E3
114 28 3.4E1
114 29 1.6E2
114 30 3.8E1
114 31 6.9E1
114 32 4.5E1
114 33 1.3E1
114 34 6.8E1
114 35 3.11E2
114 36 6.2E1
114 37 4.23E2
114 38 3.34E2
114 39 9.37E2
114 40 6.9E1
114 41 1.1E1
114 42 6.59E2
114 43 1.8E1
114 44 8
114 45 2
114 46 3
114 47 1E1
114 48 1.9E1
114 49 3
114 50 3
114 51 1E1
114 52 5
114 53 1E1
114 54 1E1
114 55 7
114 56 1.76E2
114 57 3.4E1
114 58 1.7E1
114 59 8
114 60 3
114 61 1.2E1
114 62 3.9E1
114 63 2.7E1
114 64 8
114 65 4
114 66 1.3E2
114 67 7
114 68 6.32E2
114 69 5.2E1
114 70 3.4E1
114 71 9.9E1
114 72 4.4E2
114 73 7.5E1
114 74 1.49E2
114 75 2.3E1
114 76 2.6E1
114 77 1.18E2
114 78 1.84E2
114 79 7.6E1
114 80 1.54E2
114 81 2.2E1
114 82 6
114 83 8
114 84 2
114 85 1.12E2
114 86 2.4E2
114 87 8.3E1
114 88 3.8E1
114 89 2.1E1
114 90 3.1E1
114 91 4
114 92 7.9E1
114 93 7
114 94 2.6E1
114 95 3
114 96 2
114 97 7E1
114 98 3.1E1
114 99 2E1
114 100 3.1E1
114 101 1.5E1
114 102 4.5E1
114 103 8.9E1
114 104 2.2E1
114 105 2E1
114 106 3.2E1
114 107 7.9E1
114 108 1.9E1
114 109 6.9E1
114 110 1.2E1
114 111 1.65E2
114 112 1.28E2
114 113 9.96E2
114 114 7.544E3
114 115 5.64E2
114 116 1.709E3
114 117 1.7E1
114 118 2.7E2
114 119 2.477E3
114 120 2.031E3
114 121 2.23E2
114 122 1.209E3
114 123 4.7E1
115 1 3.43E2
115 2 1.25E2
115 3 5.04E3
115 4 5.79E2
115 5 1.4E2
115 6 3.23E2
115 7 1.2E1
115 8 7E1
115 9 3E1
115 10 1.66E2
115 11 5.6E1
115 12 1.65E2
115 13 9
115 14 1E1
115 15 7
115 16 1.51E2
115 17 3.5E1
115 18 1.8E1
115 19 2
115 20 7.3E1
115 21 7.2E1
115 22 9E1
115 23 8.6E1
115 24 1E2
115 25 2.1E1
115 26 5.6E1
115 27 1.65E2
115 28 1.5E1
115 29 2.9E1
115 30 9.2E1
115 31 2.1E1
115 32 1.1E1
115 33 6
115 34 4.1E1
115 35 7.75E2
115 36 6.8E1
115 37 1.97E2
115 38 1.87E2
115 39 5.06E2
115 40 2.1E1
115 41 2.4E1
115 42 1.76E2
115 43 6
115 45 1
115 49 1
115 52 1
115 54 1
115 55 3
115 56 1.49E2
115 57 5.4E1
115 58 2.1E1
115 59 7
115 60 7
115 61 1.9E1
115 62 5.8E1
115 63 3.3E1
115 64 3
115 65 1E1
115 66 1.11E2
115 67 4
115 68 2.33E2
115 69 5.2E1
115 70 3.4E1
115 71 8E1
115 72 2.82E2
115 74 6
115 75 2.3E1
115 76 1.6E1
115 77 5.1E1
115 78 3
115 79 1.54E2
115 80 1.09E2
115 81 1.5E1
115 82 4
115 83 1.6E1
115 84 6
115 85 9.9E1
115 86 1.17E2
115 87 1.91E2
115 88 2.5E1
115 89 9
115 90 3.4E1
115 91 1
115 92 7.6E1
115 93 6
115 94 3
115 95 1
115 96 2
115 97 7.3E1
115 98 4.1E1
115 99 1.5E1
115 100 2.8E1
115 101 3
115 102 7.5E1
115 103 7.7E1
115 104 1.7E1
115 105 1.2E1
115 106 2.2E1
115 107 3.6E1
115 108 1.4E1
115 109 4.5E1
115 110 7
115 111 1.08E2
115 112 1.38E2
115 113 1.7E2
115 114 5.64E2
115 115 5.463E3
115 116 1.85E2
115 117 6
115 118 1.67E2
115 119 1.497E3
115 120 1.352E3
115 121 2.27E2
115 122 1.75E2
115 123 6E1
115 124 2
116 1 7.428E3
116 2 2.313E3
116 3 1.207E3
116 4 9.128E3
116 5 4.39E2
116 6 1.532E3
116 7 7E1
116 8 5.98E2
116 9 2.01E2
116 10 1.001E3
116 11 1.95E2
116 12 3.13E2
116 13 1.8E1
116 14 1.8E2
116 15 6.2E1
116 16 5.03E2
116 17 2.04E2
116 18 5.6E1
116 19 2.7E1
116 20 4.62E2
116 21 3.64E2
116 22 6.17E2
116 23 1.6E2
116 24 4.67E2
116 25 1.1E2
116 26 2.06E2
116 27 6.713E3
116 28 9.8E1
116 29 3.47E2
116 30 1.3E2
116 31 2.49E2
116 32 1.06E2
116 33 4.5E1
116 34 2.29E2
116 35 2.38E2
116 36 2.89E2
116 37 1.281E3
116 38 1.344E3
116 39 2.15E3
116 40 2.85E2
116 41 1.3E1
116 42 2.089E3
116 43 4.5E1
116 44 2.1E1
116 45 1.7E1
116 46 1.3E1
116 47 4.3E1
116 48 5.1E1
116 49 1.3E1
116 51 2.3E1
116 52 1.2E1
116 53 2.4E1
116 54 2.4E1
116 55 8
116 56 6.94E2
116 57 1.2E2
116 58 5.1E1
116 59 3.8E1
116 60 3.8E1
116 61 4.3E1
116 62 1.41E2
116 63 1.87E2
116 64 2.2E1
116 65 1.7E1
116 66 4.06E2
116 67 5.1E1
116 68 8.11E2
116 69 1.48E2
116 70 9.1E1
116 71 3.32E2
116 72 1.135E3
116 73 2.86E2
116 74 4.04E2
116 75 3.4E1
116 76 5.1E1
116 77 2.43E2
116 78 6.42E2
116 79 6.4E1
116 80 1.65E2
116 81 7.3E1
116 82 9
116 83 5E1
116 84 1.4E1
116 85 5.02E2
116 86 4.47E2
116 87 9.6E1
116 88 1.03E2
116 89 4.3E1
116 90 1.5E2
116 91 1.6E1
116 92 3.04E2
116 93 2.7E1
116 94 5.6E1
116 95 1.9E1
116 96 2.5E1
116 97 1.79E2
116 98 8.1E1
116 99 1.39E2
116 100 5.8E1
116 101 5.7E1
116 102 1.45E2
116 103 4.06E2
116 104 6.1E1
116 105 4.1E1
116 106 8.2E1
116 107 2.12E2
116 108 2.4E1
116 109 1.88E2
116 110 4.4E1
116 111 5.75E2
116 112 4.42E2
116 113 1.855E3
116 114 1.709E3
116 115 1.85E2
116 116 1.7122E4
116 117 5.8E1
116 118 5.82E2
116 119 5.128E3
116 120 3.377E3
116 121 7.9E2
116 122 5.85E3
116 123 2.11E2
116 124 1.8E1
117 1 7.7E1
117 2 4.2E1
117 3 5
117 4 1.09E2
117 5 1.7E1
117 6 3.5E1
117 7 1
117 8 6
117 9 5
117 10 1.4E1
117 11 2
117 12 3
117 13 1
117 16 2.2E1
117 17 1
117 19 1
117 20 9
117 21 8
117 22 9
117 23 4
117 24 9
117 25 3
117 26 4
117 27 4.3E1
117 28 1
117 29 4
117 30 6
117 31 1
117 34 5
117 35 2
117 36 1.6E1
117 37 1.3E1
117 38 2.1E1
117 39 4.2E1
117 40 6
117 42 2.8E1
117 53 1
117 56 8
117 57 3
117 59 1
117 61 1
117 62 6
117 63 2
117 65 1
117 66 7
117 67 2
117 68 1.9E1
117 69 6
117 70 3
117 71 5
117 72 1.9E1
117 74 1
117 76 1
117 77 1
117 78 2.15E2
117 79 2
117 81 4
117 84 1
117 85 1E1
117 86 9
117 87 1
117 88 1
117 89 1
117 90 1
117 92 1.7E1
117 94 1
117 95 1
117 97 2
117 98 2
117 99 4
117 102 6
117 103 7
117 104 3
117 105 2
117 106 1
117 107 5
117 109 2
117 111 9
117 112 1.4E1
117 113 3.6E1
117 114 1.7E1
117 115 6
117 116 5.8E1
117 117 3.96E2
117 118 1.6E1
117 119 1.1E2
117 120 6.4E1
117 121 1.8E1
117 122 4.3E1
117 123 5
118 1 4.74E2
118 2 4.62E2
118 3 7.22E2
118 4 1.251E3
118 5 2.9E1
118 6 3.26E2
118 7 8
118 8 5.2E1
118 9 1.5E1
118 10 9.9E1
118 11 2E1
118 12 3.7E1
118 13 3
118 14 7
118 15 2
118 16 8E1
118 17 1.2E1
118 18 8
118 19 1
118 20 1.4E1
118 21 3.2E1
118 22 2.2E1
118 23 1.1E1
118 24 2.1E1
118 25 9
118 26 6
118 27 6.46E2
118 28 2.5E1
118 29 1.01E2
118 30 2.7E1
118 31 2.9E1
118 32 3E1
118 33 4
118 34 4.4E1
118 35 1.01E2
118 36 4.1E1
118 37 7.1E1
118 38 5.4E1
118 39 5.23E2
118 40 2.4E1
118 41 5
118 42 1.52E2
118 43 1.8E1
118 44 9
118 45 6
118 46 1E1
118 47 9
118 48 1.6E1
118 49 6
118 51 9
118 52 8
118 53 7
118 54 7
118 55 1
118 56 3.2E1
118 57 9
118 58 3
118 60 2
118 61 8
118 62 1.3E1
118 64 3
118 65 2
118 66 3.3E1
118 67 2
118 68 8.3E1
118 69 3E1
118 70 7
118 71 2.6E1
118 72 1.77E2
118 73 4.5E1
118 74 4.9E1
118 75 1E1
118 76 5
118 77 5.2E1
118 78 1.07E2
118 79 2.1E1
118 80 5.2E1
118 81 8
118 82 1
118 83 4
118 84 2
118 85 3.8E1
118 86 1.41E2
118 87 7
118 88 1.2E1
118 89 9
118 90 3.2E1
118 91 7
118 92 6.2E1
118 93 4
118 94 1
118 95 2
118 96 1
118 97 3.3E1
118 98 2E1
118 99 7
118 100 1.6E1
118 101 4
118 102 3.3E1
118 103 1.5E1
118 104 1.8E1
118 105 8
118 106 3.5E1
118 107 5.7E1
118 108 1.3E1
118 109 3.5E1
118 110 1.2E1
118 111 1.22E2
118 112 1.07E2
118 113 3.6E2
118 114 2.7E2
118 115 1.67E2
118 116 5.82E2
118 117 1.6E1
118 118 2.87E3
118 119 1.546E3
118 120 1.159E3
118 121 2.17E2
118 122 9.33E2
118 123 3.3E1
118 124 8
119 1 6.211E3
119 2 5.119E3
119 3 5.029E3
119 4 9.412E3
119 5 2.71E2
119 6 1.967E3
119 7 9.9E1
119 8 5.98E2
119 9 2.01E2
119 10 1.125E3
119 11 2.03E2
119 12 7.13E2
119 13 3.9E1
119 14 1.44E2
119 15 3.9E1
119 16 8.39E2
119 17 2.04E2
119 18 7.5E1
119 19 1.8E1
119 20 1.51E2
119 21 2.51E2
119 22 2.86E2
119 23 8.4E1
119 24 2.08E2
119 25 4.7E1
119 26 1.15E2
119 27 5.135E3
119 28 1.22E2
119 29 8.59E2
119 30 2.45E2
119 31 2.84E2
119 32 1.62E2
119 33 5.2E1
119 34 3.83E2
119 35 9.53E2
119 36 5.51E2
119 37 1.225E3
119 38 9.54E2
119 39 4.79E3
119 40 2.4E2
119 41 3.9E1
119 42 2.25E3
119 43 6.1E1
119 44 1.2E1
119 45 1.8E1
119 46 2E1
119 47 4.8E1
119 48 5.1E1
119 49 1.4E1
119 50 4
119 51 4.1E1
119 52 2.9E1
119 53 3.2E1
119 54 3.2E1
119 55 1.2E1
119 56 4.1E2
119 57 9.7E1
119 58 2.2E1
119 59 1E1
119 60 7
119 61 7E1
119 62 1.27E2
119 63 7.2E1
119 64 2E1
119 65 1.9E1
119 66 2.95E2
119 67 1.9E1
119 68 1.18E3
119 69 1.04E2
119 70 7.3E1
119 71 2.21E2
119 72 1.072E3
119 73 4.19E2
119 74 4.76E2
119 75 4E1
119 76 9.6E1
119 77 4.49E2
119 78 1.236E3
119 79 1.89E2
119 80 2.5E2
119 81 1.15E2
119 82 3.2E1
119 83 4.6E1
119 84 2E1
119 85 4.13E2
119 86 7.2E2
119 87 2.23E2
119 88 1.18E2
119 89 6.1E1
119 90 2.16E2
119 91 1.3E1
119 92 7.16E2
119 93 2.5E1
119 94 2.4E1
119 95 2.2E1
119 96 1.5E1
119 97 1.95E2
119 98 1.01E2
119 99 7.4E1
119 100 9E1
119 101 3.4E1
119 102 3.3E2
119 103 2.41E2
119 104 1.18E2
119 105 7.6E1
119 106 1.49E2
119 107 3.47E2
119 108 8E1
119 109 3.3E2
119 110 5.5E1
119 111 1.026E3
119 112 1.046E3
119 113 3.42E3
119 114 2.477E3
119 115 1.497E3
119 116 5.128E3
119 117 1.1E2
119 118 1.546E3
119 119 2.4674E4
119 120 8.332E3
119 121 2.167E3
119 122 5.624E3
119 123 3.86E2
119 124 2.8E1
120 1 2.636E3
120 2 2.727E3
120 3 4.155E3
120 4 6.953E3
120 5 2.47E2
120 6 1.03E3
120 7 4.8E1
120 8 2.55E2
120 9 1.07E2
120 10 4.67E2
120 11 1.12E2
120 12 4.07E2
120 13 1.6E1
120 14 4.7E1
120 15 1.2E1
120 16 4.76E2
120 17 1.01E2
120 18 4.7E1
120 19 1.1E1
120 20 1.09E2
120 21 1.23E2
120 22 1.15E2
120 23 6.2E1
120 24 1.52E2
120 25 3.8E1
120 26 6.4E1
120 27 2.694E3
120 28 6.7E1
120 29 4.51E2
120 30 1.14E2
120 31 1.33E2
120 32 9.7E1
120 33 2.3E1
120 34 1.58E2
120 35 6.76E2
120 36 2.14E2
120 37 5.21E2
120 38 3.33E2
120 39 2.786E3
120 40 1.2E2
120 41 2.5E1
120 42 8.78E2
120 43 4E1
120 44 1.2E1
120 45 9
120 46 1E1
120 47 3E1
120 48 3.4E1
120 49 9
120 51 2.2E1
120 52 2.1E1
120 53 2E1
120 54 1.6E1
120 55 9
120 56 2.24E2
120 57 5.7E1
120 58 2E1
120 59 1.1E1
120 60 3
120 61 2.9E1
120 62 5.6E1
120 63 3.7E1
120 64 7
120 65 9
120 66 2.37E2
120 67 8
120 68 1.048E3
120 69 1.22E2
120 70 5.4E1
120 71 1.71E2
120 72 1.101E3
120 73 1.83E2
120 74 2.59E2
120 75 5.3E1
120 76 5.6E1
120 77 3.2E2
120 78 4.87E2
120 79 1.75E2
120 80 2.35E2
120 81 3.3E1
120 82 1.6E1
120 83 2E1
120 84 9
120 85 1.61E2
120 86 7.6E2
120 87 2.38E2
120 88 5.4E1
120 89 3E1
120 90 7.9E1
120 91 7
120 92 2.74E2
120 93 9
120 94 1.3E1
120 95 4
120 96 6
120 97 1.72E2
120 98 9E1
120 99 2.4E1
120 100 1.79E2
120 101 2.3E1
120 102 1.31E2
120 103 1.09E2
120 104 5.3E1
120 105 7.8E1
120 106 1.18E2
120 107 2.02E2
120 108 8.1E1
120 109 1.69E2
120 110 2.6E1
120 111 4.38E2
120 112 3.84E2
120 113 2.272E3
120 114 2.031E3
120 115 1.352E3
120 116 3.377E3
120 117 6.4E1
120 118 1.159E3
120 119 8.332E3
120 120 1.6225E4
120 121 7.84E2
120 122 3.361E3
120 123 1.18E2
120 124 2.1E1
121 1 1.166E3
121 2 9.09E2
121 3 7.94E2
121 4 1.337E3
121 5 1.7E1
121 6 3.46E2
121 7 2E1
121 8 9.8E1
121 9 3.2E1
121 10 1.59E2
121 11 3.3E1
121 12 2.05E2
121 13 5
121 14 2.3E1
121 15 4
121 16 1.24E2
121 17 3.2E1
121 18 1.9E1
121 19 1
121 20 9
121 21 3.5E1
121 22 4.1E1
121 23 7
121 24 3.8E1
121 25 5
121 26 1.7E1
121 27 9.81E2
121 28 2.1E1
121 29 1.88E2
121 30 8.2E1
121 31 2.8E1
121 32 1.9E1
121 33 6
121 34 6.6E1
121 35 1.25E2
121 36 1.84E2
121 37 1.45E2
121 38 1.13E2
121 39 8.96E2
121 40 4.3E1
121 41 5
121 42 4.16E2
121 43 1E1
121 44 3
121 45 2
121 46 1
121 47 8
121 48 1.5E1
121 49 6
121 50 1
121 51 8
121 52 1
121 53 3
121 54 2
121 55 4
121 56 4.4E1
121 57 2E1
121 59 2
121 60 2
121 61 2.8E1
121 62 3.1E1
121 63 1.5E1
121 64 3
121 65 5
121 66 4.3E1
121 67 4
121 68 1.04E2
121 69 6
121 70 6
121 71 3.9E1
121 72 8.5E1
121 73 8.9E1
121 74 1.38E2
121 75 8
121 76 2.3E1
121 77 7.8E1
121 78 1.89E2
121 79 3.2E1
121 80 6.2E1
121 81 2.7E1
121 82 1.2E1
121 83 1E1
121 84 8
121 85 1.22E2
121 86 8.6E1
121 87 2.4E1
121 88 1.7E1
121 89 8
121 90 1.22E2
121 91 4
121 92 2.42E2
121 93 8
121 94 3
121 95 9
121 96 4
121 97 4.2E1
121 98 1.6E1
121 99 2.3E1
121 100 5
121 101 1E1
121 102 1.63E2
121 103 6.3E1
121 104 2.7E1
121 105 4
121 106 1.5E1
121 107 5.2E1
121 108 1E1
121 109 6.4E1
121 110 1.1E1
121 111 2.48E2
121 112 3.47E2
121 113 5.82E2
121 114 2.23E2
121 115 2.27E2
121 116 7.9E2
121 117 1.8E1
121 118 2.17E2
121 119 2.167E3
121 120 7.84E2
121 121 4.176E3
121 122 9.28E2
121 123 1.55E2
121 124 1.4E1
122 1 6.254E3
122 2 2.106E3
122 3 1.209E3
122 4 7.503E3
122 5 1.63E2
122 6 1.569E3
122 7 7.9E1
122 8 6.14E2
122 9 1.98E2
122 10 9.61E2
122 11 1.86E2
122 12 2.27E2
122 13 1.8E1
122 14 1.4E2
122 15 5.8E1
122 16 4.65E2
122 17 1.96E2
122 18 4.8E1
122 19 1.5E1
122 20 1.42E2
122 21 2.23E2
122 22 3.31E2
122 23 5.5E1
122 24 1.99E2
122 25 4.9E1
122 26 9.5E1
122 27 6.54E3
122 28 1.3E2
122 29 4.39E2
122 30 1.19E2
122 31 2.87E2
122 32 1.6E2
122 33 4.8E1
122 34 3.04E2
122 35 2.54E2
122 36 2.63E2
122 37 1.011E3
122 38 1.165E3
122 39 2.116E3
122 40 2.52E2
122 41 1.6E1
122 42 1.809E3
122 43 5.2E1
122 44 2.4E1
122 45 1.7E1
122 46 2.1E1
122 47 4.2E1
122 48 7.5E1
122 49 1.4E1
122 51 4.1E1
122 52 1.6E1
122 53 2.7E1
122 54 2.1E1
122 55 1.1E1
122 56 3.25E2
122 57 9.9E1
122 58 2.3E1
122 59 2.4E1
122 60 3.1E1
122 61 3.6E1
122 62 9.8E1
122 63 7.9E1
122 64 2.7E1
122 65 9
122 66 2.12E2
122 67 3.3E1
122 68 4.73E2
122 69 1.22E2
122 70 2.3E1
122 71 1.42E2
122 72 7.63E2
122 73 2.38E2
122 74 3.13E2
122 75 2.1E1
122 76 5.1E1
122 77 2.3E2
122 78 5.28E2
122 79 5.8E1
122 80 1.28E2
122 81 9.6E1
122 82 1.5E1
122 83 4.5E1
122 84 9
122 85 4.18E2
122 86 3.98E2
122 87 5.3E1
122 88 9.1E1
122 89 4.6E1
122 90 1.42E2
122 91 1.9E1
122 92 2.89E2
122 93 2.9E1
122 94 2.4E1
122 95 1.7E1
122 96 2.4E1
122 97 1.38E2
122 98 7.6E1
122 99 1.32E2
122 100 5.1E1
122 101 5.9E1
122 102 1.7E2
122 103 2.32E2
122 104 7.4E1
122 105 3E1
122 106 7.1E1
122 107 2.07E2
122 108 3.7E1
122 109 1.97E2
122 110 4.6E1
122 111 6.89E2
122 112 5.41E2
122 113 1.164E3
122 114 1.209E3
122 115 1.75E2
122 116 5.85E3
122 117 4.3E1
122 118 9.33E2
122 119 5.624E3
122 120 3.361E3
122 121 9.28E2
122 122 1.4066E4
122 123 2.5E2
122 124 2.2E1
123 1 3.4E2
123 2 2.12E2
123 3 2.01E2
123 4 2.49E2
123 5 6
123 6 9.9E1
123 7 1
123 8 2E1
123 9 1.3E1
123 10 5E1
123 11 6
123 12 2.5E1
123 13 3
123 14 4
123 15 1
123 16 3.2E1
123 17 8
123 18 3
123 20 4
123 21 1.7E1
123 22 1.9E1
123 23 3
123 24 8
123 26 1.1E1
123 27 2.48E2
123 28 6
123 29 4.7E1
123 30 2.5E1
123 31 9
123 32 3
123 33 2
123 34 2.3E1
123 35 2.9E1
123 36 6.1E1
123 37 3.1E1
123 38 4.6E1
123 39 1.64E2
123 40 8
123 41 2
123 42 1.52E2
123 46 1
123 47 3
123 48 2
123 49 1
123 51 2
123 52 1
123 53 3
123 54 1
123 55 2
123 56 9
123 57 4
123 58 2
123 60 1
123 61 3
123 62 1.1E1
123 63 8
123 64 1
123 66 6
123 67 1
123 68 2E1
123 69 1
123 70 5
123 71 2.6E1
123 72 1.6E1
123 73 2E1
123 74 2.3E1
123 75 1
123 76 3
123 77 2E1
123 78 5.1E1
123 79 5
123 80 1.6E1
123 81 1.1E1
123 82 1
123 83 3
123 84 1
123 85 8.4E1
123 86 1.3E1
123 87 4
123 88 6
123 89 2
123 90 2.7E1
123 92 7.5E1
123 93 1
123 94 3
123 95 4
123 96 8
123 97 9
123 98 3
123 99 7
123 100 1
123 101 3
123 102 1.3E1
123 103 2.8E1
123 104 4.3E1
123 105 3
123 106 6
123 107 6.7E1
123 108 2
123 109 8.7E1
123 110 4
123 111 6.9E1
123 112 1.02E2
123 113 1.36E2
123 114 4.7E1
123 115 6E1
123 116 2.11E2
123 117 5
123 118 3.3E1
123 119 3.86E2
123 120 1.18E2
123 121 1.55E2
123 122 2.5E2
123 123 9.61E2
123 124 7
124 1 1.7E1
124 2 1.1E1
124 3 1.8E1
124 4 2.8E1
124 6 5
124 7 1
124 8 1
124 10 2
124 11 2
124 12 4
124 16 2
124 18 1
124 19 1
124 20 1
124 21 1
124 22 1
124 26 1
124 27 1E1
124 29 7
124 31 1
124 33 1
124 34 3
124 35 2
124 36 7
124 37 1
124 38 1
124 39 1.1E1
124 40 1
124 42 6
124 53 2
124 56 2
124 59 1
124 73 2
124 74 1
124 75 1
124 76 2
124 77 1
124 80 1
124 83 1
124 85 2
124 86 2
124 92 3
124 100 1
124 102 1
124 106 2
124 107 1.4E1
124 109 1E1
124 111 4
124 112 1.1E1
124 113 6
124 115 2
124 116 1.8E1
124 118 8
124 119 2.8E1
124 120 2.1E1
124 121 1.4E1
124 122 2.2E1
124 123 7
124 124 6.7E1
