%%MatrixMarket matrix coordinate real general
%
956 956 3640
1 15 1
1 18 1
2 5 1
2 6 1
3 627 1
3 628 1
4 948 1
4 949 1
5 2 1
5 30 1
5 31 1
6 2 1
6 603 1
6 604 1
7 639 1
7 640 1
7 927 1
8 330 1
8 331 1
8 665 1
9 230 1
9 231 1
9 376 1
9 379 1
10 15 1
10 16 1
10 30 1
11 40 1
11 41 1
11 95 1
12 327 1
12 328 1
12 348 1
12 671 1
13 17 1
13 18 1
13 331 1
14 26 1
14 27 1
14 56 1
14 68 1
15 1 1
15 10 1
15 19 1
16 10 1
16 20 1
16 21 1
16 48 1
17 13 1
17 22 1
17 23 1
17 334 1
18 1 1
18 13 1
18 19 1
19 15 1
19 18 1
19 20 1
19 23 1
20 16 1
20 19 1
20 24 1
21 16 1
21 25 1
21 26 1
21 55 1
22 17 1
22 27 1
22 28 1
22 337 1
23 17 1
23 19 1
23 24 1
24 20 1
24 23 1
24 25 1
24 28 1
25 21 1
25 24 1
25 29 1
26 14 1
26 21 1
26 29 1
26 57 1
27 14 1
27 22 1
27 29 1
27 338 1
28 22 1
28 24 1
28 29 1
29 25 1
29 26 1
29 27 1
29 28 1
30 5 1
30 10 1
30 33 1
31 5 1
31 34 1
31 35 1
32 45 1
32 46 1
32 52 1
32 70 1
33 30 1
33 34 1
33 37 1
33 48 1
34 31 1
34 33 1
34 38 1
35 31 1
35 39 1
35 40 1
36 41 1
36 42 1
36 45 1
36 92 1
37 33 1
37 44 1
37 46 1
37 51 1
38 34 1
38 39 1
38 42 1
38 44 1
39 35 1
39 38 1
39 43 1
40 11 1
40 35 1
40 43 1
41 11 1
41 36 1
41 43 1
41 97 1
42 36 1
42 38 1
42 43 1
42 47 1
43 39 1
43 40 1
43 41 1
43 42 1
44 37 1
44 38 1
44 47 1
45 32 1
45 36 1
45 47 1
45 94 1
46 32 1
46 37 1
46 47 1
46 54 1
47 42 1
47 44 1
47 45 1
47 46 1
48 16 1
48 33 1
48 50 1
49 52 1
49 53 1
49 56 1
49 66 1
50 48 1
50 51 1
50 53 1
50 55 1
51 37 1
51 50 1
51 54 1
52 32 1
52 49 1
52 54 1
52 72 1
53 49 1
53 50 1
53 54 1
53 57 1
54 46 1
54 51 1
54 52 1
54 53 1
55 21 1
55 50 1
55 57 1
56 14 1
56 49 1
56 57 1
56 69 1
57 26 1
57 53 1
57 55 1
57 56 1
58 103 1
58 104 1
58 157 1
59 288 1
59 289 1
59 321 1
59 706 1
60 86 1
60 87 1
60 296 1
60 339 1
61 78 1
61 79 1
61 118 1
61 130 1
62 70 1
62 71 1
62 73 1
62 93 1
63 83 1
63 84 1
63 86 1
63 302 1
64 67 1
64 68 1
64 87 1
64 336 1
65 66 1
65 67 1
65 71 1
65 75 1
66 49 1
66 65 1
66 69 1
66 72 1
67 64 1
67 65 1
67 69 1
67 88 1
68 14 1
68 64 1
68 69 1
68 338 1
69 56 1
69 66 1
69 67 1
69 68 1
70 32 1
70 62 1
70 72 1
70 94 1
71 62 1
71 65 1
71 72 1
71 76 1
72 52 1
72 66 1
72 70 1
72 71 1
73 62 1
73 77 1
73 78 1
73 117 1
74 79 1
74 80 1
74 83 1
74 300 1
75 65 1
75 82 1
75 84 1
75 88 1
76 71 1
76 77 1
76 80 1
76 82 1
77 73 1
77 76 1
77 81 1
78 61 1
78 73 1
78 81 1
78 119 1
79 61 1
79 74 1
79 81 1
79 305 1
80 74 1
80 76 1
80 81 1
80 85 1
81 77 1
81 78 1
81 79 1
81 80 1
82 75 1
82 76 1
82 85 1
83 63 1
83 74 1
83 85 1
83 303 1
84 63 1
84 75 1
84 85 1
85 80 1
85 82 1
85 83 1
85 84 1
86 60 1
86 63 1
86 88 1
86 297 1
87 60 1
87 64 1
87 88 1
87 341 1
88 67 1
88 75 1
88 86 1
88 87 1
89 95 1
89 96 1
89 98 1
90 108 1
90 109 1
90 114 1
90 132 1
91 92 1
91 93 1
91 96 1
91 100 1
92 36 1
92 91 1
92 94 1
92 97 1
93 62 1
93 91 1
93 94 1
93 112 1
94 45 1
94 70 1
94 92 1
94 93 1
95 11 1
95 89 1
95 97 1
96 89 1
96 91 1
96 97 1
96 101 1
97 41 1
97 92 1
97 95 1
97 96 1
98 89 1
98 102 1
98 103 1
99 104 1
99 105 1
99 108 1
99 154 1
100 91 1
100 107 1
100 109 1
100 113 1
101 96 1
101 102 1
101 105 1
101 107 1
102 98 1
102 101 1
102 106 1
103 58 1
103 98 1
103 106 1
104 58 1
104 99 1
104 106 1
104 159 1
105 99 1
105 101 1
105 106 1
105 110 1
106 102 1
106 103 1
106 104 1
106 105 1
107 100 1
107 101 1
107 110 1
108 90 1
108 99 1
108 110 1
108 156 1
109 90 1
109 100 1
109 110 1
109 116 1
110 105 1
110 107 1
110 108 1
110 109 1
111 114 1
111 115 1
111 118 1
111 128 1
112 93 1
112 113 1
112 115 1
112 117 1
113 100 1
113 112 1
113 116 1
114 90 1
114 111 1
114 116 1
114 134 1
115 111 1
115 112 1
115 116 1
115 119 1
116 109 1
116 113 1
116 114 1
116 115 1
117 73 1
117 112 1
117 119 1
118 61 1
118 111 1
118 119 1
118 131 1
119 78 1
119 115 1
119 117 1
119 118 1
120 165 1
120 166 1
120 210 1
121 249 1
121 250 1
121 282 1
121 751 1
122 148 1
122 149 1
122 257 1
122 306 1
123 140 1
123 141 1
123 180 1
123 192 1
124 132 1
124 133 1
124 135 1
124 155 1
125 145 1
125 146 1
125 148 1
125 263 1
126 129 1
126 130 1
126 149 1
126 304 1
127 128 1
127 129 1
127 133 1
127 137 1
128 111 1
128 127 1
128 131 1
128 134 1
129 126 1
129 127 1
129 131 1
129 150 1
130 61 1
130 126 1
130 131 1
130 305 1
131 118 1
131 128 1
131 129 1
131 130 1
132 90 1
132 124 1
132 134 1
132 156 1
133 124 1
133 127 1
133 134 1
133 138 1
134 114 1
134 128 1
134 132 1
134 133 1
135 124 1
135 139 1
135 140 1
135 179 1
136 141 1
136 142 1
136 145 1
136 261 1
137 127 1
137 144 1
137 146 1
137 150 1
138 133 1
138 139 1
138 142 1
138 144 1
139 135 1
139 138 1
139 143 1
140 123 1
140 135 1
140 143 1
140 181 1
141 123 1
141 136 1
141 143 1
141 266 1
142 136 1
142 138 1
142 143 1
142 147 1
143 139 1
143 140 1
143 141 1
143 142 1
144 137 1
144 138 1
144 147 1
145 125 1
145 136 1
145 147 1
145 264 1
146 125 1
146 137 1
146 147 1
147 142 1
147 144 1
147 145 1
147 146 1
148 122 1
148 125 1
148 150 1
148 258 1
149 122 1
149 126 1
149 150 1
149 308 1
150 129 1
150 137 1
150 148 1
150 149 1
151 157 1
151 158 1
151 160 1
152 170 1
152 171 1
152 176 1
152 194 1
153 154 1
153 155 1
153 158 1
153 162 1
154 99 1
154 153 1
154 156 1
154 159 1
155 124 1
155 153 1
155 156 1
155 174 1
156 108 1
156 132 1
156 154 1
156 155 1
157 58 1
157 151 1
157 159 1
158 151 1
158 153 1
158 159 1
158 163 1
159 104 1
159 154 1
159 157 1
159 158 1
160 151 1
160 164 1
160 165 1
161 166 1
161 167 1
161 170 1
161 207 1
162 153 1
162 169 1
162 171 1
162 175 1
163 158 1
163 164 1
163 167 1
163 169 1
164 160 1
164 163 1
164 168 1
165 120 1
165 160 1
165 168 1
166 120 1
166 161 1
166 168 1
166 212 1
167 161 1
167 163 1
167 168 1
167 172 1
168 164 1
168 165 1
168 166 1
168 167 1
169 162 1
169 163 1
169 172 1
170 152 1
170 161 1
170 172 1
170 209 1
171 152 1
171 162 1
171 172 1
171 178 1
172 167 1
172 169 1
172 170 1
172 171 1
173 176 1
173 177 1
173 180 1
173 190 1
174 155 1
174 175 1
174 177 1
174 179 1
175 162 1
175 174 1
175 178 1
176 152 1
176 173 1
176 178 1
176 196 1
177 173 1
177 174 1
177 178 1
177 181 1
178 171 1
178 175 1
178 176 1
178 177 1
179 135 1
179 174 1
179 181 1
180 123 1
180 173 1
180 181 1
180 193 1
181 140 1
181 177 1
181 179 1
181 180 1
182 213 1
182 214 1
182 227 1
183 234 1
183 235 1
183 246 1
183 789 1
184 201 1
184 202 1
184 242 1
184 267 1
185 197 1
185 198 1
185 217 1
185 225 1
186 194 1
186 195 1
186 197 1
186 208 1
187 198 1
187 199 1
187 201 1
187 240 1
188 191 1
188 192 1
188 202 1
188 265 1
189 190 1
189 191 1
189 195 1
189 199 1
190 173 1
190 189 1
190 193 1
190 196 1
191 188 1
191 189 1
191 193 1
191 203 1
192 123 1
192 188 1
192 193 1
192 266 1
193 180 1
193 190 1
193 191 1
193 192 1
194 152 1
194 186 1
194 196 1
194 209 1
195 186 1
195 189 1
195 196 1
195 200 1
196 176 1
196 190 1
196 194 1
196 195 1
197 185 1
197 186 1
197 200 1
197 218 1
198 185 1
198 187 1
198 200 1
198 245 1
199 187 1
199 189 1
199 200 1
199 203 1
200 195 1
200 197 1
200 198 1
200 199 1
201 184 1
201 187 1
201 203 1
201 243 1
202 184 1
202 188 1
202 203 1
202 269 1
203 191 1
203 199 1
203 201 1
203 202 1
204 210 1
204 211 1
204 213 1
205 214 1
205 215 1
205 217 1
205 223 1
206 207 1
206 208 1
206 211 1
206 215 1
207 161 1
207 206 1
207 209 1
207 212 1
208 186 1
208 206 1
208 209 1
208 218 1
209 170 1
209 194 1
209 207 1
209 208 1
210 120 1
210 204 1
210 212 1
211 204 1
211 206 1
211 212 1
211 216 1
212 166 1
212 207 1
212 210 1
212 211 1
213 182 1
213 204 1
213 216 1
214 182 1
214 205 1
214 216 1
214 229 1
215 205 1
215 206 1
215 216 1
215 218 1
216 211 1
216 213 1
216 214 1
216 215 1
217 185 1
217 205 1
217 218 1
217 226 1
218 197 1
218 208 1
218 215 1
218 217 1
219 227 1
219 228 1
219 230 1
220 231 1
220 232 1
220 234 1
220 800 1
221 224 1
221 225 1
221 235 1
221 244 1
222 223 1
222 224 1
222 228 1
222 232 1
223 205 1
223 222 1
223 226 1
223 229 1
224 221 1
224 222 1
224 226 1
224 236 1
225 185 1
225 221 1
225 226 1
225 245 1
226 217 1
226 223 1
226 224 1
226 225 1
227 182 1
227 219 1
227 229 1
228 219 1
228 222 1
228 229 1
228 233 1
229 214 1
229 223 1
229 227 1
229 228 1
230 9 1
230 219 1
230 233 1
231 9 1
231 220 1
231 233 1
231 804 1
232 220 1
232 222 1
232 233 1
232 236 1
233 228 1
233 230 1
233 231 1
233 232 1
234 183 1
234 220 1
234 236 1
234 802 1
235 183 1
235 221 1
235 236 1
235 248 1
236 224 1
236 232 1
236 234 1
236 235 1
237 246 1
237 247 1
237 249 1
237 786 1
238 241 1
238 242 1
238 250 1
238 280 1
239 240 1
239 241 1
239 244 1
239 247 1
240 187 1
240 239 1
240 243 1
240 245 1
241 238 1
241 239 1
241 243 1
241 251 1
242 184 1
242 238 1
242 243 1
242 281 1
243 201 1
243 240 1
243 241 1
243 242 1
244 221 1
244 239 1
244 245 1
244 248 1
245 198 1
245 225 1
245 240 1
245 244 1
246 183 1
246 237 1
246 248 1
246 791 1
247 237 1
247 239 1
247 248 1
247 251 1
248 235 1
248 244 1
248 246 1
248 247 1
249 121 1
249 237 1
249 251 1
249 788 1
250 121 1
250 238 1
250 251 1
250 284 1
251 241 1
251 247 1
251 249 1
251 250 1
252 285 1
252 286 1
252 288 1
252 749 1
253 256 1
253 257 1
253 289 1
253 319 1
254 256 1
254 270 1
254 271 1
254 278 1
255 258 1
255 262 1
255 263 1
255 271 1
256 253 1
256 254 1
256 258 1
256 290 1
257 122 1
257 253 1
257 258 1
257 320 1
258 148 1
258 255 1
258 256 1
258 257 1
259 267 1
259 268 1
259 270 1
259 276 1
260 261 1
260 262 1
260 265 1
260 268 1
261 136 1
261 260 1
261 264 1
261 266 1
262 255 1
262 260 1
262 264 1
262 272 1
263 125 1
263 255 1
263 264 1
264 145 1
264 261 1
264 262 1
264 263 1
265 188 1
265 260 1
265 266 1
265 269 1
266 141 1
266 192 1
266 261 1
266 265 1
267 184 1
267 259 1
267 269 1
267 281 1
268 259 1
268 260 1
268 269 1
268 272 1
269 202 1
269 265 1
269 267 1
269 268 1
270 254 1
270 259 1
270 272 1
270 279 1
271 254 1
271 255 1
271 272 1
272 262 1
272 268 1
272 270 1
272 271 1
273 282 1
273 283 1
273 285 1
273 747 1
274 277 1
274 278 1
274 286 1
274 290 1
275 276 1
275 277 1
275 280 1
275 283 1
276 259 1
276 275 1
276 279 1
276 281 1
277 274 1
277 275 1
277 279 1
277 287 1
278 254 1
278 274 1
278 279 1
279 270 1
279 276 1
279 277 1
279 278 1
280 238 1
280 275 1
280 281 1
280 284 1
281 242 1
281 267 1
281 276 1
281 280 1
282 121 1
282 273 1
282 284 1
282 753 1
283 273 1
283 275 1
283 284 1
283 287 1
284 250 1
284 280 1
284 282 1
284 283 1
285 252 1
285 273 1
285 287 1
285 750 1
286 252 1
286 274 1
286 287 1
287 277 1
287 283 1
287 285 1
287 286 1
288 59 1
288 252 1
288 290 1
288 743 1
289 59 1
289 253 1
289 290 1
289 323 1
290 256 1
290 274 1
290 288 1
290 289 1
291 324 1
291 325 1
291 327 1
291 704 1
292 295 1
292 296 1
292 328 1
292 345 1
293 295 1
293 309 1
293 310 1
293 317 1
294 297 1
294 301 1
294 302 1
294 310 1
295 292 1
295 293 1
295 297 1
295 329 1
296 60 1
296 292 1
296 297 1
296 347 1
297 86 1
297 294 1
297 295 1
297 296 1
298 306 1
298 307 1
298 309 1
298 315 1
299 300 1
299 301 1
299 304 1
299 307 1
300 74 1
300 299 1
300 303 1
300 305 1
301 294 1
301 299 1
301 303 1
301 311 1
302 63 1
302 294 1
302 303 1
303 83 1
303 300 1
303 301 1
303 302 1
304 126 1
304 299 1
304 305 1
304 308 1
305 79 1
305 130 1
305 300 1
305 304 1
306 122 1
306 298 1
306 308 1
306 320 1
307 298 1
307 299 1
307 308 1
307 311 1
308 149 1
308 304 1
308 306 1
308 307 1
309 293 1
309 298 1
309 311 1
309 318 1
310 293 1
310 294 1
310 311 1
311 301 1
311 307 1
311 309 1
311 310 1
312 321 1
312 322 1
312 324 1
312 702 1
313 316 1
313 317 1
313 325 1
313 329 1
314 315 1
314 316 1
314 319 1
314 322 1
315 298 1
315 314 1
315 318 1
315 320 1
316 313 1
316 314 1
316 318 1
316 326 1
317 293 1
317 313 1
317 318 1
318 309 1
318 315 1
318 316 1
318 317 1
319 253 1
319 314 1
319 320 1
319 323 1
320 257 1
320 306 1
320 315 1
320 319 1
321 59 1
321 312 1
321 323 1
321 708 1
322 312 1
322 314 1
322 323 1
322 326 1
323 289 1
323 319 1
323 321 1
323 322 1
324 291 1
324 312 1
324 326 1
324 705 1
325 291 1
325 313 1
325 326 1
326 316 1
326 322 1
326 324 1
326 325 1
327 12 1
327 291 1
327 329 1
327 698 1
328 12 1
328 292 1
328 329 1
328 350 1
329 295 1
329 313 1
329 327 1
329 328 1
330 8 1
330 342 1
330 343 1
330 669 1
331 8 1
331 13 1
331 332 1
332 331 1
332 333 1
332 334 1
332 343 1
333 332 1
333 339 1
333 340 1
333 346 1
334 17 1
334 332 1
334 335 1
335 334 1
335 336 1
335 337 1
335 340 1
336 64 1
336 335 1
336 338 1
336 341 1
337 22 1
337 335 1
337 338 1
338 27 1
338 68 1
338 336 1
338 337 1
339 60 1
339 333 1
339 341 1
339 347 1
340 333 1
340 335 1
340 341 1
341 87 1
341 336 1
341 339 1
341 340 1
342 330 1
342 348 1
342 349 1
342 673 1
343 330 1
343 332 1
343 344 1
344 343 1
344 345 1
344 346 1
344 349 1
345 292 1
345 344 1
345 347 1
345 350 1
346 333 1
346 344 1
346 347 1
347 296 1
347 339 1
347 345 1
347 346 1
348 12 1
348 342 1
348 350 1
348 674 1
349 342 1
349 344 1
349 350 1
350 328 1
350 345 1
350 348 1
350 349 1
351 538 1
351 539 1
351 611 1
352 604 1
352 605 1
352 627 1
353 628 1
353 629 1
353 639 1
354 600 1
354 601 1
354 648 1
354 903 1
355 569 1
355 570 1
355 625 1
355 637 1
356 458 1
356 459 1
356 531 1
357 542 1
357 543 1
357 566 1
357 616 1
358 573 1
358 574 1
358 597 1
358 650 1
359 520 1
359 521 1
359 585 1
359 858 1
360 489 1
360 490 1
360 552 1
360 564 1
361 400 1
361 401 1
361 451 1
362 462 1
362 463 1
362 486 1
362 536 1
363 493 1
363 494 1
363 517 1
363 587 1
364 440 1
364 441 1
364 505 1
364 819 1
365 421 1
365 422 1
365 472 1
365 484 1
366 381 1
366 382 1
366 396 1
367 404 1
367 405 1
367 418 1
367 456 1
368 425 1
368 426 1
368 437 1
368 507 1
369 389 1
369 390 1
369 433 1
369 805 1
370 385 1
370 386 1
370 408 1
370 416 1
371 376 1
371 377 1
371 381 1
372 382 1
372 383 1
372 385 1
372 398 1
373 386 1
373 387 1
373 389 1
373 431 1
374 378 1
374 379 1
374 390 1
374 803 1
375 377 1
375 378 1
375 383 1
375 387 1
376 9 1
376 371 1
376 380 1
377 371 1
377 375 1
377 380 1
377 384 1
378 374 1
378 375 1
378 380 1
378 391 1
379 9 1
379 374 1
379 380 1
379 804 1
380 376 1
380 377 1
380 378 1
380 379 1
381 366 1
381 371 1
381 384 1
382 366 1
382 372 1
382 384 1
382 399 1
383 372 1
383 375 1
383 384 1
383 388 1
384 377 1
384 381 1
384 382 1
384 383 1
385 370 1
385 372 1
385 388 1
385 409 1
386 370 1
386 373 1
386 388 1
386 436 1
387 373 1
387 375 1
387 388 1
387 391 1
388 383 1
388 385 1
388 386 1
388 387 1
389 369 1
389 373 1
389 391 1
389 434 1
390 369 1
390 374 1
390 391 1
390 807 1
391 378 1
391 387 1
391 389 1
391 390 1
392 396 1
392 397 1
392 400 1
393 401 1
393 402 1
393 404 1
393 453 1
394 405 1
394 406 1
394 408 1
394 414 1
395 397 1
395 398 1
395 402 1
395 406 1
396 366 1
396 392 1
396 399 1
397 392 1
397 395 1
397 399 1
397 403 1
398 372 1
398 395 1
398 399 1
398 409 1
399 382 1
399 396 1
399 397 1
399 398 1
400 361 1
400 392 1
400 403 1
401 361 1
401 393 1
401 403 1
401 454 1
402 393 1
402 395 1
402 403 1
402 407 1
403 397 1
403 400 1
403 401 1
403 402 1
404 367 1
404 393 1
404 407 1
404 457 1
405 367 1
405 394 1
405 407 1
405 420 1
406 394 1
406 395 1
406 407 1
406 409 1
407 402 1
407 404 1
407 405 1
407 406 1
408 370 1
408 394 1
408 409 1
408 417 1
409 385 1
409 398 1
409 406 1
409 408 1
410 418 1
410 419 1
410 421 1
410 469 1
411 422 1
411 423 1
411 425 1
411 512 1
412 415 1
412 416 1
412 426 1
412 435 1
413 414 1
413 415 1
413 419 1
413 423 1
414 394 1
414 413 1
414 417 1
414 420 1
415 412 1
415 413 1
415 417 1
415 427 1
416 370 1
416 412 1
416 417 1
416 436 1
417 408 1
417 414 1
417 415 1
417 416 1
418 367 1
418 410 1
418 420 1
418 470 1
419 410 1
419 413 1
419 420 1
419 424 1
420 405 1
420 414 1
420 418 1
420 419 1
421 365 1
421 410 1
421 424 1
421 473 1
422 365 1
422 411 1
422 424 1
422 516 1
423 411 1
423 413 1
423 424 1
423 427 1
424 419 1
424 421 1
424 422 1
424 423 1
425 368 1
425 411 1
425 427 1
425 514 1
426 368 1
426 412 1
426 427 1
426 439 1
427 415 1
427 423 1
427 425 1
427 426 1
428 437 1
428 438 1
428 440 1
428 503 1
429 432 1
429 433 1
429 441 1
429 817 1
430 431 1
430 432 1
430 435 1
430 438 1
431 373 1
431 430 1
431 434 1
431 436 1
432 429 1
432 430 1
432 434 1
432 442 1
433 369 1
433 429 1
433 434 1
433 818 1
434 389 1
434 431 1
434 432 1
434 433 1
435 412 1
435 430 1
435 436 1
435 439 1
436 386 1
436 416 1
436 431 1
436 435 1
437 368 1
437 428 1
437 439 1
437 509 1
438 428 1
438 430 1
438 439 1
438 442 1
439 426 1
439 435 1
439 437 1
439 438 1
440 364 1
440 428 1
440 442 1
440 506 1
441 364 1
441 429 1
441 442 1
441 821 1
442 432 1
442 438 1
442 440 1
442 441 1
443 447 1
443 448 1
443 458 1
444 459 1
444 460 1
444 462 1
444 533 1
445 463 1
445 464 1
445 466 1
445 478 1
446 448 1
446 449 1
446 460 1
446 464 1
447 443 1
447 451 1
447 452 1
448 443 1
448 446 1
448 450 1
448 461 1
449 446 1
449 455 1
449 456 1
449 468 1
450 448 1
450 452 1
450 453 1
450 455 1
451 361 1
451 447 1
451 454 1
452 447 1
452 450 1
452 454 1
453 393 1
453 450 1
453 454 1
453 457 1
454 401 1
454 451 1
454 452 1
454 453 1
455 449 1
455 450 1
455 457 1
456 367 1
456 449 1
456 457 1
456 470 1
457 404 1
457 453 1
457 455 1
457 456 1
458 356 1
458 443 1
458 461 1
459 356 1
459 444 1
459 461 1
459 534 1
460 444 1
460 446 1
460 461 1
460 465 1
461 448 1
461 458 1
461 459 1
461 460 1
462 362 1
462 444 1
462 465 1
462 537 1
463 362 1
463 445 1
463 465 1
463 488 1
464 445 1
464 446 1
464 465 1
464 467 1
465 460 1
465 462 1
465 463 1
465 464 1
466 445 1
466 471 1
466 472 1
466 482 1
467 464 1
467 468 1
467 469 1
467 471 1
468 449 1
468 467 1
468 470 1
469 410 1
469 467 1
469 470 1
469 473 1
470 418 1
470 456 1
470 468 1
470 469 1
471 466 1
471 467 1
471 473 1
472 365 1
472 466 1
472 473 1
472 485 1
473 421 1
473 469 1
473 471 1
473 472 1
474 486 1
474 487 1
474 489 1
474 549 1
475 490 1
475 491 1
475 493 1
475 592 1
476 479 1
476 480 1
476 494 1
476 510 1
477 478 1
477 479 1
477 487 1
477 491 1
478 445 1
478 477 1
478 481 1
478 488 1
479 476 1
479 477 1
479 481 1
479 495 1
480 476 1
480 483 1
480 484 1
480 515 1
481 478 1
481 479 1
481 482 1
481 483 1
482 466 1
482 481 1
482 485 1
483 480 1
483 481 1
483 485 1
484 365 1
484 480 1
484 485 1
484 516 1
485 472 1
485 482 1
485 483 1
485 484 1
486 362 1
486 474 1
486 488 1
486 550 1
487 474 1
487 477 1
487 488 1
487 492 1
488 463 1
488 478 1
488 486 1
488 487 1
489 360 1
489 474 1
489 492 1
489 553 1
490 360 1
490 475 1
490 492 1
490 596 1
491 475 1
491 477 1
491 492 1
491 495 1
492 487 1
492 489 1
492 490 1
492 491 1
493 363 1
493 475 1
493 495 1
493 594 1
494 363 1
494 476 1
494 495 1
494 519 1
495 479 1
495 491 1
495 493 1
495 494 1
496 517 1
496 518 1
496 520 1
496 583 1
497 500 1
497 501 1
497 521 1
497 851 1
498 499 1
498 500 1
498 510 1
498 518 1
499 498 1
499 507 1
499 508 1
499 513 1
500 497 1
500 498 1
500 502 1
500 522 1
501 497 1
501 504 1
501 505 1
501 856 1
502 500 1
502 503 1
502 504 1
502 508 1
503 428 1
503 502 1
503 506 1
503 509 1
504 501 1
504 502 1
504 506 1
505 364 1
505 501 1
505 506 1
505 857 1
506 440 1
506 503 1
506 504 1
506 505 1
507 368 1
507 499 1
507 509 1
507 514 1
508 499 1
508 502 1
508 509 1
509 437 1
509 503 1
509 507 1
509 508 1
510 476 1
510 498 1
510 511 1
510 519 1
511 510 1
511 512 1
511 513 1
511 515 1
512 411 1
512 511 1
512 514 1
512 516 1
513 499 1
513 511 1
513 514 1
514 425 1
514 507 1
514 512 1
514 513 1
515 480 1
515 511 1
515 516 1
516 422 1
516 484 1
516 512 1
516 515 1
517 363 1
517 496 1
517 519 1
517 589 1
518 496 1
518 498 1
518 519 1
518 522 1
519 494 1
519 510 1
519 517 1
519 518 1
520 359 1
520 496 1
520 522 1
520 586 1
521 359 1
521 497 1
521 522 1
521 860 1
522 500 1
522 518 1
522 520 1
522 521 1
523 527 1
523 528 1
523 538 1
524 539 1
524 540 1
524 542 1
524 613 1
525 543 1
525 544 1
525 546 1
525 558 1
526 528 1
526 529 1
526 540 1
526 544 1
527 523 1
527 531 1
527 532 1
528 523 1
528 526 1
528 530 1
528 541 1
529 526 1
529 535 1
529 536 1
529 548 1
530 528 1
530 532 1
530 533 1
530 535 1
531 356 1
531 527 1
531 534 1
532 527 1
532 530 1
532 534 1
533 444 1
533 530 1
533 534 1
533 537 1
534 459 1
534 531 1
534 532 1
534 533 1
535 529 1
535 530 1
535 537 1
536 362 1
536 529 1
536 537 1
536 550 1
537 462 1
537 533 1
537 535 1
537 536 1
538 351 1
538 523 1
538 541 1
539 351 1
539 524 1
539 541 1
539 614 1
540 524 1
540 526 1
540 541 1
540 545 1
541 528 1
541 538 1
541 539 1
541 540 1
542 357 1
542 524 1
542 545 1
542 617 1
543 357 1
543 525 1
543 545 1
543 568 1
544 525 1
544 526 1
544 545 1
544 547 1
545 540 1
545 542 1
545 543 1
545 544 1
546 525 1
546 551 1
546 552 1
546 562 1
547 544 1
547 548 1
547 549 1
547 551 1
548 529 1
548 547 1
548 550 1
549 474 1
549 547 1
549 550 1
549 553 1
550 486 1
550 536 1
550 548 1
550 549 1
551 546 1
551 547 1
551 553 1
552 360 1
552 546 1
552 553 1
552 565 1
553 489 1
553 549 1
553 551 1
553 552 1
554 566 1
554 567 1
554 569 1
554 622 1
555 570 1
555 571 1
555 573 1
555 655 1
556 559 1
556 560 1
556 574 1
556 590 1
557 558 1
557 559 1
557 567 1
557 571 1
558 525 1
558 557 1
558 561 1
558 568 1
559 556 1
559 557 1
559 561 1
559 575 1
560 556 1
560 563 1
560 564 1
560 595 1
561 558 1
561 559 1
561 562 1
561 563 1
562 546 1
562 561 1
562 565 1
563 560 1
563 561 1
563 565 1
564 360 1
564 560 1
564 565 1
564 596 1
565 552 1
565 562 1
565 563 1
565 564 1
566 357 1
566 554 1
566 568 1
566 623 1
567 554 1
567 557 1
567 568 1
567 572 1
568 543 1
568 558 1
568 566 1
568 567 1
569 355 1
569 554 1
569 572 1
569 626 1
570 355 1
570 555 1
570 572 1
570 659 1
571 555 1
571 557 1
571 572 1
571 575 1
572 567 1
572 569 1
572 570 1
572 571 1
573 358 1
573 555 1
573 575 1
573 657 1
574 358 1
574 556 1
574 575 1
574 599 1
575 559 1
575 571 1
575 573 1
575 574 1
576 597 1
576 598 1
576 600 1
576 646 1
577 580 1
577 581 1
577 601 1
577 896 1
578 579 1
578 580 1
578 590 1
578 598 1
579 578 1
579 587 1
579 588 1
579 593 1
580 577 1
580 578 1
580 582 1
580 602 1
581 577 1
581 584 1
581 585 1
581 901 1
582 580 1
582 583 1
582 584 1
582 588 1
583 496 1
583 582 1
583 586 1
583 589 1
584 581 1
584 582 1
584 586 1
585 359 1
585 581 1
585 586 1
585 902 1
586 520 1
586 583 1
586 584 1
586 585 1
587 363 1
587 579 1
587 589 1
587 594 1
588 579 1
588 582 1
588 589 1
589 517 1
589 583 1
589 587 1
589 588 1
590 556 1
590 578 1
590 591 1
590 599 1
591 590 1
591 592 1
591 593 1
591 595 1
592 475 1
592 591 1
592 594 1
592 596 1
593 579 1
593 591 1
593 594 1
594 493 1
594 587 1
594 592 1
594 593 1
595 560 1
595 591 1
595 596 1
596 490 1
596 564 1
596 592 1
596 595 1
597 358 1
597 576 1
597 599 1
597 652 1
598 576 1
598 578 1
598 599 1
598 602 1
599 574 1
599 590 1
599 597 1
599 598 1
600 354 1
600 576 1
600 602 1
600 649 1
601 354 1
601 577 1
601 602 1
601 905 1
602 580 1
602 598 1
602 600 1
602 601 1
603 6 1
603 607 1
603 608 1
604 6 1
604 352 1
604 606 1
605 352 1
605 618 1
605 619 1
605 631 1
606 604 1
606 608 1
606 609 1
606 618 1
607 603 1
607 611 1
607 612 1
608 603 1
608 606 1
608 610 1
609 606 1
609 615 1
609 616 1
609 621 1
610 608 1
610 612 1
610 613 1
610 615 1
611 351 1
611 607 1
611 614 1
612 607 1
612 610 1
612 614 1
613 524 1
613 610 1
613 614 1
613 617 1
614 539 1
614 611 1
614 612 1
614 613 1
615 609 1
615 610 1
615 617 1
616 357 1
616 609 1
616 617 1
616 623 1
617 542 1
617 613 1
617 615 1
617 616 1
618 605 1
618 606 1
618 620 1
619 605 1
619 624 1
619 625 1
619 635 1
620 618 1
620 621 1
620 622 1
620 624 1
621 609 1
621 620 1
621 623 1
622 554 1
622 620 1
622 623 1
622 626 1
623 566 1
623 616 1
623 621 1
623 622 1
624 619 1
624 620 1
624 626 1
625 355 1
625 619 1
625 626 1
625 638 1
626 569 1
626 622 1
626 624 1
626 625 1
627 3 1
627 352 1
627 630 1
628 3 1
628 353 1
628 630 1
629 353 1
629 632 1
629 633 1
629 653 1
630 627 1
630 628 1
630 631 1
630 632 1
631 605 1
631 630 1
631 634 1
632 629 1
632 630 1
632 634 1
633 629 1
633 636 1
633 637 1
633 658 1
634 631 1
634 632 1
634 635 1
634 636 1
635 619 1
635 634 1
635 638 1
636 633 1
636 634 1
636 638 1
637 355 1
637 633 1
637 638 1
637 659 1
638 625 1
638 635 1
638 636 1
638 637 1
639 7 1
639 353 1
639 641 1
640 7 1
640 643 1
640 644 1
640 941 1
641 639 1
641 642 1
641 643 1
641 653 1
642 641 1
642 650 1
642 651 1
642 656 1
643 640 1
643 641 1
643 645 1
644 640 1
644 647 1
644 648 1
644 946 1
645 643 1
645 646 1
645 647 1
645 651 1
646 576 1
646 645 1
646 649 1
646 652 1
647 644 1
647 645 1
647 649 1
648 354 1
648 644 1
648 649 1
648 947 1
649 600 1
649 646 1
649 647 1
649 648 1
650 358 1
650 642 1
650 652 1
650 657 1
651 642 1
651 645 1
651 652 1
652 597 1
652 646 1
652 650 1
652 651 1
653 629 1
653 641 1
653 654 1
654 653 1
654 655 1
654 656 1
654 658 1
655 555 1
655 654 1
655 657 1
655 659 1
656 642 1
656 654 1
656 657 1
657 573 1
657 650 1
657 655 1
657 656 1
658 633 1
658 654 1
658 659 1
659 570 1
659 637 1
659 655 1
659 658 1
660 927 1
660 928 1
660 948 1
661 664 1
661 665 1
661 949 1
662 687 1
662 688 1
662 925 1
662 936 1
663 675 1
663 676 1
663 683 1
663 734 1
664 661 1
664 680 1
664 681 1
664 952 1
665 8 1
665 661 1
665 666 1
666 665 1
666 668 1
666 669 1
666 681 1
667 671 1
667 672 1
667 675 1
667 697 1
668 666 1
668 676 1
668 677 1
668 685 1
669 330 1
669 666 1
669 670 1
670 669 1
670 672 1
670 673 1
670 677 1
671 12 1
671 667 1
671 674 1
671 698 1
672 667 1
672 670 1
672 674 1
672 678 1
673 342 1
673 670 1
673 674 1
674 348 1
674 671 1
674 672 1
674 673 1
675 663 1
675 667 1
675 678 1
675 735 1
676 663 1
676 668 1
676 678 1
676 686 1
677 668 1
677 670 1
677 678 1
678 672 1
678 675 1
678 676 1
678 677 1
679 683 1
679 684 1
679 687 1
679 912 1
680 664 1
680 688 1
680 689 1
680 955 1
681 664 1
681 666 1
681 682 1
682 681 1
682 684 1
682 685 1
682 689 1
683 663 1
683 679 1
683 686 1
683 913 1
684 679 1
684 682 1
684 686 1
684 690 1
685 668 1
685 682 1
685 686 1
686 676 1
686 683 1
686 684 1
686 685 1
687 662 1
687 679 1
687 690 1
687 926 1
688 662 1
688 680 1
688 690 1
688 956 1
689 680 1
689 682 1
689 690 1
690 684 1
690 687 1
690 688 1
690 689 1
691 906 1
691 907 1
691 922 1
691 938 1
692 727 1
692 728 1
692 880 1
692 891 1
693 709 1
693 710 1
693 724 1
693 779 1
694 731 1
694 732 1
694 734 1
694 918 1
695 697 1
695 713 1
695 714 1
695 722 1
696 698 1
696 703 1
696 704 1
696 714 1
697 667 1
697 695 1
697 698 1
697 735 1
698 327 1
698 671 1
698 696 1
698 697 1
699 706 1
699 707 1
699 709 1
699 742 1
700 710 1
700 711 1
700 713 1
700 720 1
701 702 1
701 703 1
701 707 1
701 711 1
702 312 1
702 701 1
702 705 1
702 708 1
703 696 1
703 701 1
703 705 1
703 715 1
704 291 1
704 696 1
704 705 1
705 324 1
705 702 1
705 703 1
705 704 1
706 59 1
706 699 1
706 708 1
706 743 1
707 699 1
707 701 1
707 708 1
707 712 1
708 321 1
708 702 1
708 706 1
708 707 1
709 693 1
709 699 1
709 712 1
709 780 1
710 693 1
710 700 1
710 712 1
710 726 1
711 700 1
711 701 1
711 712 1
711 715 1
712 707 1
712 709 1
712 710 1
712 711 1
713 695 1
713 700 1
713 715 1
713 723 1
714 695 1
714 696 1
714 715 1
715 703 1
715 711 1
715 713 1
715 714 1
716 724 1
716 725 1
716 727 1
716 867 1
717 728 1
717 729 1
717 731 1
717 916 1
718 721 1
718 722 1
718 732 1
718 735 1
719 720 1
719 721 1
719 725 1
719 729 1
720 700 1
720 719 1
720 723 1
720 726 1
721 718 1
721 719 1
721 723 1
721 733 1
722 695 1
722 718 1
722 723 1
723 713 1
723 720 1
723 721 1
723 722 1
724 693 1
724 716 1
724 726 1
724 868 1
725 716 1
725 719 1
725 726 1
725 730 1
726 710 1
726 720 1
726 724 1
726 725 1
727 692 1
727 716 1
727 730 1
727 881 1
728 692 1
728 717 1
728 730 1
728 921 1
729 717 1
729 719 1
729 730 1
729 733 1
730 725 1
730 727 1
730 728 1
730 729 1
731 694 1
731 717 1
731 733 1
731 919 1
732 694 1
732 718 1
732 733 1
733 721 1
733 729 1
733 731 1
733 732 1
734 663 1
734 694 1
734 735 1
734 913 1
735 675 1
735 697 1
735 718 1
735 734 1
736 861 1
736 862 1
736 877 1
736 893 1
737 772 1
737 773 1
737 835 1
737 846 1
738 754 1
738 755 1
738 769 1
738 796 1
739 776 1
739 777 1
739 779 1
739 873 1
740 742 1
740 758 1
740 759 1
740 767 1
741 743 1
741 748 1
741 749 1
741 759 1
742 699 1
742 740 1
742 743 1
742 780 1
743 288 1
743 706 1
743 741 1
743 742 1
744 751 1
744 752 1
744 754 1
744 787 1
745 755 1
745 756 1
745 758 1
745 765 1
746 747 1
746 748 1
746 752 1
746 756 1
747 273 1
747 746 1
747 750 1
747 753 1
748 741 1
748 746 1
748 750 1
748 760 1
749 252 1
749 741 1
749 750 1
750 285 1
750 747 1
750 748 1
750 749 1
751 121 1
751 744 1
751 753 1
751 788 1
752 744 1
752 746 1
752 753 1
752 757 1
753 282 1
753 747 1
753 751 1
753 752 1
754 738 1
754 744 1
754 757 1
754 797 1
755 738 1
755 745 1
755 757 1
755 771 1
756 745 1
756 746 1
756 757 1
756 760 1
757 752 1
757 754 1
757 755 1
757 756 1
758 740 1
758 745 1
758 760 1
758 768 1
759 740 1
759 741 1
759 760 1
760 748 1
760 756 1
760 758 1
760 759 1
761 769 1
761 770 1
761 772 1
761 828 1
762 773 1
762 774 1
762 776 1
762 871 1
763 766 1
763 767 1
763 777 1
763 780 1
764 765 1
764 766 1
764 770 1
764 774 1
765 745 1
765 764 1
765 768 1
765 771 1
766 763 1
766 764 1
766 768 1
766 778 1
767 740 1
767 763 1
767 768 1
768 758 1
768 765 1
768 766 1
768 767 1
769 738 1
769 761 1
769 771 1
769 829 1
770 761 1
770 764 1
770 771 1
770 775 1
771 755 1
771 765 1
771 769 1
771 770 1
772 737 1
772 761 1
772 775 1
772 836 1
773 737 1
773 762 1
773 775 1
773 876 1
774 762 1
774 764 1
774 775 1
774 778 1
775 770 1
775 772 1
775 773 1
775 774 1
776 739 1
776 762 1
776 778 1
776 874 1
777 739 1
777 763 1
777 778 1
778 766 1
778 774 1
778 776 1
778 777 1
779 693 1
779 739 1
779 780 1
779 868 1
780 709 1
780 742 1
780 763 1
780 779 1
781 822 1
781 823 1
781 832 1
781 848 1
782 792 1
782 793 1
782 808 1
782 815 1
783 789 1
783 790 1
783 792 1
783 801 1
784 793 1
784 794 1
784 796 1
784 827 1
785 786 1
785 787 1
785 790 1
785 794 1
786 237 1
786 785 1
786 788 1
786 791 1
787 744 1
787 785 1
787 788 1
787 797 1
788 249 1
788 751 1
788 786 1
788 787 1
789 183 1
789 783 1
789 791 1
789 802 1
790 783 1
790 785 1
790 791 1
790 795 1
791 246 1
791 786 1
791 789 1
791 790 1
792 782 1
792 783 1
792 795 1
792 809 1
793 782 1
793 784 1
793 795 1
793 831 1
794 784 1
794 785 1
794 795 1
794 797 1
795 790 1
795 792 1
795 793 1
795 794 1
796 738 1
796 784 1
796 797 1
796 829 1
797 754 1
797 787 1
797 794 1
797 796 1
798 805 1
798 806 1
798 808 1
798 813 1
799 800 1
799 801 1
799 803 1
799 806 1
800 220 1
800 799 1
800 802 1
800 804 1
801 783 1
801 799 1
801 802 1
801 809 1
802 234 1
802 789 1
802 800 1
802 801 1
803 374 1
803 799 1
803 804 1
803 807 1
804 231 1
804 379 1
804 800 1
804 803 1
805 369 1
805 798 1
805 807 1
805 818 1
806 798 1
806 799 1
806 807 1
806 809 1
807 390 1
807 803 1
807 805 1
807 806 1
808 782 1
808 798 1
808 809 1
808 816 1
809 792 1
809 801 1
809 806 1
809 808 1
810 819 1
810 820 1
810 822 1
810 853 1
811 814 1
811 815 1
811 823 1
811 830 1
812 813 1
812 814 1
812 817 1
812 820 1
813 798 1
813 812 1
813 816 1
813 818 1
814 811 1
814 812 1
814 816 1
814 824 1
815 782 1
815 811 1
815 816 1
815 831 1
816 808 1
816 813 1
816 814 1
816 815 1
817 429 1
817 812 1
817 818 1
817 821 1
818 433 1
818 805 1
818 813 1
818 817 1
819 364 1
819 810 1
819 821 1
819 857 1
820 810 1
820 812 1
820 821 1
820 824 1
821 441 1
821 817 1
821 819 1
821 820 1
822 781 1
822 810 1
822 824 1
822 855 1
823 781 1
823 811 1
823 824 1
823 834 1
824 814 1
824 820 1
824 822 1
824 823 1
825 832 1
825 833 1
825 835 1
825 844 1
826 827 1
826 828 1
826 830 1
826 833 1
827 784 1
827 826 1
827 829 1
827 831 1
828 761 1
828 826 1
828 829 1
828 836 1
829 769 1
829 796 1
829 827 1
829 828 1
830 811 1
830 826 1
830 831 1
830 834 1
831 793 1
831 815 1
831 827 1
831 830 1
832 781 1
832 825 1
832 834 1
832 850 1
833 825 1
833 826 1
833 834 1
833 836 1
834 823 1
834 830 1
834 832 1
834 833 1
835 737 1
835 825 1
835 836 1
835 847 1
836 772 1
836 828 1
836 833 1
836 835 1
837 858 1
837 859 1
837 861 1
837 898 1
838 841 1
838 842 1
838 862 1
838 869 1
839 840 1
839 841 1
839 851 1
839 859 1
840 839 1
840 848 1
840 849 1
840 854 1
841 838 1
841 839 1
841 843 1
841 863 1
842 838 1
842 845 1
842 846 1
842 875 1
843 841 1
843 844 1
843 845 1
843 849 1
844 825 1
844 843 1
844 847 1
844 850 1
845 842 1
845 843 1
845 847 1
846 737 1
846 842 1
846 847 1
846 876 1
847 835 1
847 844 1
847 845 1
847 846 1
848 781 1
848 840 1
848 850 1
848 855 1
849 840 1
849 843 1
849 850 1
850 832 1
850 844 1
850 848 1
850 849 1
851 497 1
851 839 1
851 852 1
851 860 1
852 851 1
852 853 1
852 854 1
852 856 1
853 810 1
853 852 1
853 855 1
853 857 1
854 840 1
854 852 1
854 855 1
855 822 1
855 848 1
855 853 1
855 854 1
856 501 1
856 852 1
856 857 1
857 505 1
857 819 1
857 853 1
857 856 1
858 359 1
858 837 1
858 860 1
858 902 1
859 837 1
859 839 1
859 860 1
859 863 1
860 521 1
860 851 1
860 858 1
860 859 1
861 736 1
861 837 1
861 863 1
861 900 1
862 736 1
862 838 1
862 863 1
862 879 1
863 841 1
863 859 1
863 861 1
863 862 1
864 877 1
864 878 1
864 880 1
864 889 1
865 866 1
865 867 1
865 869 1
865 878 1
866 865 1
866 868 1
866 872 1
866 873 1
867 716 1
867 865 1
867 868 1
867 881 1
868 724 1
868 779 1
868 866 1
868 867 1
869 838 1
869 865 1
869 870 1
869 879 1
870 869 1
870 871 1
870 872 1
870 875 1
871 762 1
871 870 1
871 874 1
871 876 1
872 866 1
872 870 1
872 874 1
873 739 1
873 866 1
873 874 1
874 776 1
874 871 1
874 872 1
874 873 1
875 842 1
875 870 1
875 876 1
876 773 1
876 846 1
876 871 1
876 875 1
877 736 1
877 864 1
877 879 1
877 895 1
878 864 1
878 865 1
878 879 1
878 881 1
879 862 1
879 869 1
879 877 1
879 878 1
880 692 1
880 864 1
880 881 1
880 892 1
881 727 1
881 867 1
881 878 1
881 880 1
882 903 1
882 904 1
882 906 1
882 943 1
883 886 1
883 887 1
883 907 1
883 914 1
884 885 1
884 886 1
884 896 1
884 904 1
885 884 1
885 893 1
885 894 1
885 899 1
886 883 1
886 884 1
886 888 1
886 908 1
887 883 1
887 890 1
887 891 1
887 920 1
888 886 1
888 889 1
888 890 1
888 894 1
889 864 1
889 888 1
889 892 1
889 895 1
890 887 1
890 888 1
890 892 1
891 692 1
891 887 1
891 892 1
891 921 1
892 880 1
892 889 1
892 890 1
892 891 1
893 736 1
893 885 1
893 895 1
893 900 1
894 885 1
894 888 1
894 895 1
895 877 1
895 889 1
895 893 1
895 894 1
896 577 1
896 884 1
896 897 1
896 905 1
897 896 1
897 898 1
897 899 1
897 901 1
898 837 1
898 897 1
898 900 1
898 902 1
899 885 1
899 897 1
899 900 1
900 861 1
900 893 1
900 898 1
900 899 1
901 581 1
901 897 1
901 902 1
902 585 1
902 858 1
902 898 1
902 901 1
903 354 1
903 882 1
903 905 1
903 947 1
904 882 1
904 884 1
904 905 1
904 908 1
905 601 1
905 896 1
905 903 1
905 904 1
906 691 1
906 882 1
906 908 1
906 945 1
907 691 1
907 883 1
907 908 1
907 924 1
908 886 1
908 904 1
908 906 1
908 907 1
909 922 1
909 923 1
909 925 1
909 934 1
910 911 1
910 912 1
910 914 1
910 923 1
911 910 1
911 913 1
911 917 1
911 918 1
912 679 1
912 910 1
912 913 1
912 926 1
913 683 1
913 734 1
913 911 1
913 912 1
914 883 1
914 910 1
914 915 1
914 924 1
915 914 1
915 916 1
915 917 1
915 920 1
916 717 1
916 915 1
916 919 1
916 921 1
917 911 1
917 915 1
917 919 1
918 694 1
918 911 1
918 919 1
919 731 1
919 916 1
919 917 1
919 918 1
920 887 1
920 915 1
920 921 1
921 728 1
921 891 1
921 916 1
921 920 1
922 691 1
922 909 1
922 924 1
922 940 1
923 909 1
923 910 1
923 924 1
923 926 1
924 907 1
924 914 1
924 922 1
924 923 1
925 662 1
925 909 1
925 926 1
925 937 1
926 687 1
926 912 1
926 923 1
926 925 1
927 7 1
927 660 1
927 929 1
928 660 1
928 931 1
928 932 1
928 951 1
929 927 1
929 930 1
929 931 1
929 941 1
930 929 1
930 938 1
930 939 1
930 944 1
931 928 1
931 929 1
931 933 1
932 928 1
932 935 1
932 936 1
932 954 1
933 931 1
933 934 1
933 935 1
933 939 1
934 909 1
934 933 1
934 937 1
934 940 1
935 932 1
935 933 1
935 937 1
936 662 1
936 932 1
936 937 1
936 956 1
937 925 1
937 934 1
937 935 1
937 936 1
938 691 1
938 930 1
938 940 1
938 945 1
939 930 1
939 933 1
939 940 1
940 922 1
940 934 1
940 938 1
940 939 1
941 640 1
941 929 1
941 942 1
942 941 1
942 943 1
942 944 1
942 946 1
943 882 1
943 942 1
943 945 1
943 947 1
944 930 1
944 942 1
944 945 1
945 906 1
945 938 1
945 943 1
945 944 1
946 644 1
946 942 1
946 947 1
947 648 1
947 903 1
947 943 1
947 946 1
948 4 1
948 660 1
948 950 1
949 4 1
949 661 1
949 950 1
950 948 1
950 949 1
950 951 1
950 952 1
951 928 1
951 950 1
951 953 1
952 664 1
952 950 1
952 953 1
953 951 1
953 952 1
953 954 1
953 955 1
954 932 1
954 953 1
954 956 1
955 680 1
955 953 1
955 956 1
956 688 1
956 936 1
956 954 1
956 955 1
