%%MatrixMarket matrix coordinate real symmetric
%
25 25 97
1 1 1
2 1 1
2 2 1
3 2 1
3 3 1
4 3 1
4 4 1
5 4 1
5 5 1
6 1 1
6 2 1
6 6 1
7 1 1
7 2 1
7 3 1
7 6 1
7 7 1
8 2 1
8 3 1
8 4 1
8 7 1
8 8 1
9 3 1
9 4 1
9 5 1
9 8 1
9 9 1
10 4 1
10 5 1
10 9 1
10 10 1
11 6 1
11 7 1
11 11 1
12 6 1
12 7 1
12 8 1
12 11 1
12 12 1
13 7 1
13 8 1
13 9 1
13 12 1
13 13 1
14 8 1
14 9 1
14 10 1
14 13 1
14 14 1
15 9 1
15 10 1
15 14 1
15 15 1
16 11 1
16 12 1
16 16 1
17 11 1
17 12 1
17 13 1
17 16 1
17 17 1
18 12 1
18 13 1
18 14 1
18 17 1
18 18 1
19 13 1
19 14 1
19 15 1
19 18 1
19 19 1
20 14 1
20 15 1
20 19 1
20 20 1
21 16 1
21 17 1
21 21 1
22 16 1
22 17 1
22 18 1
22 21 1
22 22 1
23 17 1
23 18 1
23 19 1
23 22 1
23 23 1
24 18 1
24 19 1
24 20 1
24 23 1
24 24 1
25 19 1
25 20 1
25 24 1
25 25 1
