%%MatrixMarket matrix coordinate real general
%
289 289 1377
1 1 3
1 2 5E-1
1 64 5E-1
1 282 1
2 1 5E-1
2 2 3
2 3 5E-1
2 281 1
3 2 5E-1
3 3 3
3 4 5E-1
3 280 1
4 3 5E-1
4 4 3
4 5 5E-1
4 279 1
5 4 5E-1
5 5 3
5 6 5E-1
5 278 1
6 5 5E-1
6 6 3
6 7 5E-1
6 277 1
7 6 5E-1
7 7 3
7 8 5E-1
7 276 1
8 7 5E-1
8 8 3
8 9 5E-1
8 275 1
9 8 5E-1
9 9 2
9 10 5E-1
10 9 5E-1
10 10 3
10 11 5E-1
10 275 1
11 10 5E-1
11 11 3
11 12 5E-1
11 260 1
12 11 5E-1
12 12 3
12 13 5E-1
12 245 1
13 12 5E-1
13 13 3
13 14 5E-1
13 230 1
14 13 5E-1
14 14 3
14 15 5E-1
14 215 1
15 14 5E-1
15 15 3
15 16 5E-1
15 200 1
16 15 5E-1
16 16 3
16 17 5E-1
16 185 1
17 16 5E-1
17 17 3
17 18 5E-1
17 170 1
18 17 5E-1
18 18 3
18 19 5E-1
18 155 1
19 18 5E-1
19 19 3
19 20 5E-1
19 140 1
20 19 5E-1
20 20 3
20 21 5E-1
20 125 1
21 20 5E-1
21 21 3
21 22 5E-1
21 110 1
22 21 5E-1
22 22 3
22 23 5E-1
22 95 1
23 22 5E-1
23 23 3
23 24 5E-1
23 80 1
24 23 5E-1
24 24 3
24 25 5E-1
24 65 1
25 24 5E-1
25 25 2
25 26 5E-1
26 25 5E-1
26 26 3
26 27 5E-1
26 65 1
27 26 5E-1
27 27 3
27 28 5E-1
27 66 1
28 27 5E-1
28 28 3
28 29 5E-1
28 67 1
29 28 5E-1
29 29 3
29 30 5E-1
29 68 1
30 29 5E-1
30 30 3
30 31 5E-1
30 69 1
31 30 5E-1
31 31 3
31 32 5E-1
31 70 1
32 31 5E-1
32 32 3
32 33 5E-1
32 71 1
33 32 5E-1
33 33 3
33 34 5E-1
33 72 1
34 33 5E-1
34 34 3
34 35 5E-1
34 73 1
35 34 5E-1
35 35 3
35 36 5E-1
35 74 1
36 35 5E-1
36 36 3
36 37 5E-1
36 75 1
37 36 5E-1
37 37 3
37 38 5E-1
37 76 1
38 37 5E-1
38 38 3
38 39 5E-1
38 77 1
39 38 5E-1
39 39 3
39 40 5E-1
39 78 1
40 39 5E-1
40 40 3
40 41 5E-1
40 79 1
41 40 5E-1
41 41 2
41 42 5E-1
42 41 5E-1
42 42 3
42 43 5E-1
42 79 1
43 42 5E-1
43 43 3
43 44 5E-1
43 94 1
44 43 5E-1
44 44 3
44 45 5E-1
44 109 1
45 44 5E-1
45 45 3
45 46 5E-1
45 124 1
46 45 5E-1
46 46 3
46 47 5E-1
46 139 1
47 46 5E-1
47 47 3
47 48 5E-1
47 154 1
48 47 5E-1
48 48 3
48 49 5E-1
48 169 1
49 48 5E-1
49 49 3
49 50 5E-1
49 184 1
50 49 5E-1
50 50 3
50 51 5E-1
50 199 1
51 50 5E-1
51 51 3
51 52 5E-1
51 214 1
52 51 5E-1
52 52 3
52 53 5E-1
52 229 1
53 52 5E-1
53 53 3
53 54 5E-1
53 244 1
54 53 5E-1
54 54 3
54 55 5E-1
54 259 1
55 54 5E-1
55 55 3
55 56 5E-1
55 274 1
56 55 5E-1
56 56 3
56 57 5E-1
56 289 1
57 56 5E-1
57 57 2
57 58 5E-1
58 57 5E-1
58 58 3
58 59 5E-1
58 289 1
59 58 5E-1
59 59 3
59 60 5E-1
59 288 1
60 59 5E-1
60 60 3
60 61 5E-1
60 287 1
61 60 5E-1
61 61 3
61 62 5E-1
61 286 1
62 61 5E-1
62 62 3
62 63 5E-1
62 285 1
63 62 5E-1
63 63 3
63 64 5E-1
63 284 1
64 1 5E-1
64 63 5E-1
64 64 3
64 283 1
65 24 1
65 26 1
65 65 5
65 66 1
65 80 1
66 27 1
66 65 1
66 66 5
66 67 1
66 81 1
67 28 1
67 66 1
67 67 5
67 68 1
67 82 1
68 29 1
68 67 1
68 68 5
68 69 1
68 83 1
69 30 1
69 68 1
69 69 5
69 70 1
69 84 1
70 31 1
70 69 1
70 70 5
70 71 1
70 85 1
71 32 1
71 70 1
71 71 5
71 72 1
71 86 1
72 33 1
72 71 1
72 72 5
72 73 1
72 87 1
73 34 1
73 72 1
73 73 5
73 74 1
73 88 1
74 35 1
74 73 1
74 74 5
74 75 1
74 89 1
75 36 1
75 74 1
75 75 5
75 76 1
75 90 1
76 37 1
76 75 1
76 76 5
76 77 1
76 91 1
77 38 1
77 76 1
77 77 5
77 78 1
77 92 1
78 39 1
78 77 1
78 78 5
78 79 1
78 93 1
79 40 1
79 42 1
79 78 1
79 79 5
79 94 1
80 23 1
80 65 1
80 80 5
80 81 1
80 95 1
81 66 1
81 80 1
81 81 5
81 82 1
81 96 1
82 67 1
82 81 1
82 82 5
82 83 1
82 97 1
83 68 1
83 82 1
83 83 5
83 84 1
83 98 1
84 69 1
84 83 1
84 84 5
84 85 1
84 99 1
85 70 1
85 84 1
85 85 5
85 86 1
85 100 1
86 71 1
86 85 1
86 86 5
86 87 1
86 101 1
87 72 1
87 86 1
87 87 5
87 88 1
87 102 1
88 73 1
88 87 1
88 88 5
88 89 1
88 103 1
89 74 1
89 88 1
89 89 5
89 90 1
89 104 1
90 75 1
90 89 1
90 90 5
90 91 1
90 105 1
91 76 1
91 90 1
91 91 5
91 92 1
91 106 1
92 77 1
92 91 1
92 92 5
92 93 1
92 107 1
93 78 1
93 92 1
93 93 5
93 94 1
93 108 1
94 43 1
94 79 1
94 93 1
94 94 5
94 109 1
95 22 1
95 80 1
95 95 5
95 96 1
95 110 1
96 81 1
96 95 1
96 96 5
96 97 1
96 111 1
97 82 1
97 96 1
97 97 5
97 98 1
97 112 1
98 83 1
98 97 1
98 98 5
98 99 1
98 113 1
99 84 1
99 98 1
99 99 5
99 100 1
99 114 1
100 85 1
100 99 1
100 100 5
100 101 1
100 115 1
101 86 1
101 100 1
101 101 5
101 102 1
101 116 1
102 87 1
102 101 1
102 102 5
102 103 1
102 117 1
103 88 1
103 102 1
103 103 5
103 104 1
103 118 1
104 89 1
104 103 1
104 104 5
104 105 1
104 119 1
105 90 1
105 104 1
105 105 5
105 106 1
105 120 1
106 91 1
106 105 1
106 106 5
106 107 1
106 121 1
107 92 1
107 106 1
107 107 5
107 108 1
107 122 1
108 93 1
108 107 1
108 108 5
108 109 1
108 123 1
109 44 1
109 94 1
109 108 1
109 109 5
109 124 1
110 21 1
110 95 1
110 110 5
110 111 1
110 125 1
111 96 1
111 110 1
111 111 5
111 112 1
111 126 1
112 97 1
112 111 1
112 112 5
112 113 1
112 127 1
113 98 1
113 112 1
113 113 5
113 114 1
113 128 1
114 99 1
114 113 1
114 114 5
114 115 1
114 129 1
115 100 1
115 114 1
115 115 5
115 116 1
115 130 1
116 101 1
116 115 1
116 116 5
116 117 1
116 131 1
117 102 1
117 116 1
117 117 5
117 118 1
117 132 1
118 103 1
118 117 1
118 118 5
118 119 1
118 133 1
119 104 1
119 118 1
119 119 5
119 120 1
119 134 1
120 105 1
120 119 1
120 120 5
120 121 1
120 135 1
121 106 1
121 120 1
121 121 5
121 122 1
121 136 1
122 107 1
122 121 1
122 122 5
122 123 1
122 137 1
123 108 1
123 122 1
123 123 5
123 124 1
123 138 1
124 45 1
124 109 1
124 123 1
124 124 5
124 139 1
125 20 1
125 110 1
125 125 5
125 126 1
125 140 1
126 111 1
126 125 1
126 126 5
126 127 1
126 141 1
127 112 1
127 126 1
127 127 5
127 128 1
127 142 1
128 113 1
128 127 1
128 128 5
128 129 1
128 143 1
129 114 1
129 128 1
129 129 5
129 130 1
129 144 1
130 115 1
130 129 1
130 130 5
130 131 1
130 145 1
131 116 1
131 130 1
131 131 5
131 132 1
131 146 1
132 117 1
132 131 1
132 132 5
132 133 1
132 147 1
133 118 1
133 132 1
133 133 5
133 134 1
133 148 1
134 119 1
134 133 1
134 134 5
134 135 1
134 149 1
135 120 1
135 134 1
135 135 5
135 136 1
135 150 1
136 121 1
136 135 1
136 136 5
136 137 1
136 151 1
137 122 1
137 136 1
137 137 5
137 138 1
137 152 1
138 123 1
138 137 1
138 138 5
138 139 1
138 153 1
139 46 1
139 124 1
139 138 1
139 139 5
139 154 1
140 19 1
140 125 1
140 140 5
140 141 1
140 155 1
141 126 1
141 140 1
141 141 5
141 142 1
141 156 1
142 127 1
142 141 1
142 142 5
142 143 1
142 157 1
143 128 1
143 142 1
143 143 5
143 144 1
143 158 1
144 129 1
144 143 1
144 144 5
144 145 1
144 159 1
145 130 1
145 144 1
145 145 5
145 146 1
145 160 1
146 131 1
146 145 1
146 146 5
146 147 1
146 161 1
147 132 1
147 146 1
147 147 5
147 148 1
147 162 1
148 133 1
148 147 1
148 148 5
148 149 1
148 163 1
149 134 1
149 148 1
149 149 5
149 150 1
149 164 1
150 135 1
150 149 1
150 150 5
150 151 1
150 165 1
151 136 1
151 150 1
151 151 5
151 152 1
151 166 1
152 137 1
152 151 1
152 152 5
152 153 1
152 167 1
153 138 1
153 152 1
153 153 5
153 154 1
153 168 1
154 47 1
154 139 1
154 153 1
154 154 5
154 169 1
155 18 1
155 140 1
155 155 5
155 156 1
155 170 1
156 141 1
156 155 1
156 156 5
156 157 1
156 171 1
157 142 1
157 156 1
157 157 5
157 158 1
157 172 1
158 143 1
158 157 1
158 158 5
158 159 1
158 173 1
159 144 1
159 158 1
159 159 5
159 160 1
159 174 1
160 145 1
160 159 1
160 160 5
160 161 1
160 175 1
161 146 1
161 160 1
161 161 5
161 162 1
161 176 1
162 147 1
162 161 1
162 162 5
162 163 1
162 177 1
163 148 1
163 162 1
163 163 5
163 164 1
163 178 1
164 149 1
164 163 1
164 164 5
164 165 1
164 179 1
165 150 1
165 164 1
165 165 5
165 166 1
165 180 1
166 151 1
166 165 1
166 166 5
166 167 1
166 181 1
167 152 1
167 166 1
167 167 5
167 168 1
167 182 1
168 153 1
168 167 1
168 168 5
168 169 1
168 183 1
169 48 1
169 154 1
169 168 1
169 169 5
169 184 1
170 17 1
170 155 1
170 170 5
170 171 1
170 185 1
171 156 1
171 170 1
171 171 5
171 172 1
171 186 1
172 157 1
172 171 1
172 172 5
172 173 1
172 187 1
173 158 1
173 172 1
173 173 5
173 174 1
173 188 1
174 159 1
174 173 1
174 174 5
174 175 1
174 189 1
175 160 1
175 174 1
175 175 5
175 176 1
175 190 1
176 161 1
176 175 1
176 176 5
176 177 1
176 191 1
177 162 1
177 176 1
177 177 5
177 178 1
177 192 1
178 163 1
178 177 1
178 178 5
178 179 1
178 193 1
179 164 1
179 178 1
179 179 5
179 180 1
179 194 1
180 165 1
180 179 1
180 180 5
180 181 1
180 195 1
181 166 1
181 180 1
181 181 5
181 182 1
181 196 1
182 167 1
182 181 1
182 182 5
182 183 1
182 197 1
183 168 1
183 182 1
183 183 5
183 184 1
183 198 1
184 49 1
184 169 1
184 183 1
184 184 5
184 199 1
185 16 1
185 170 1
185 185 5
185 186 1
185 200 1
186 171 1
186 185 1
186 186 5
186 187 1
186 201 1
187 172 1
187 186 1
187 187 5
187 188 1
187 202 1
188 173 1
188 187 1
188 188 5
188 189 1
188 203 1
189 174 1
189 188 1
189 189 5
189 190 1
189 204 1
190 175 1
190 189 1
190 190 5
190 191 1
190 205 1
191 176 1
191 190 1
191 191 5
191 192 1
191 206 1
192 177 1
192 191 1
192 192 5
192 193 1
192 207 1
193 178 1
193 192 1
193 193 5
193 194 1
193 208 1
194 179 1
194 193 1
194 194 5
194 195 1
194 209 1
195 180 1
195 194 1
195 195 5
195 196 1
195 210 1
196 181 1
196 195 1
196 196 5
196 197 1
196 211 1
197 182 1
197 196 1
197 197 5
197 198 1
197 212 1
198 183 1
198 197 1
198 198 5
198 199 1
198 213 1
199 50 1
199 184 1
199 198 1
199 199 5
199 214 1
200 15 1
200 185 1
200 200 5
200 201 1
200 215 1
201 186 1
201 200 1
201 201 5
201 202 1
201 216 1
202 187 1
202 201 1
202 202 5
202 203 1
202 217 1
203 188 1
203 202 1
203 203 5
203 204 1
203 218 1
204 189 1
204 203 1
204 204 5
204 205 1
204 219 1
205 190 1
205 204 1
205 205 5
205 206 1
205 220 1
206 191 1
206 205 1
206 206 5
206 207 1
206 221 1
207 192 1
207 206 1
207 207 5
207 208 1
207 222 1
208 193 1
208 207 1
208 208 5
208 209 1
208 223 1
209 194 1
209 208 1
209 209 5
209 210 1
209 224 1
210 195 1
210 209 1
210 210 5
210 211 1
210 225 1
211 196 1
211 210 1
211 211 5
211 212 1
211 226 1
212 197 1
212 211 1
212 212 5
212 213 1
212 227 1
213 198 1
213 212 1
213 213 5
213 214 1
213 228 1
214 51 1
214 199 1
214 213 1
214 214 5
214 229 1
215 14 1
215 200 1
215 215 5
215 216 1
215 230 1
216 201 1
216 215 1
216 216 5
216 217 1
216 231 1
217 202 1
217 216 1
217 217 5
217 218 1
217 232 1
218 203 1
218 217 1
218 218 5
218 219 1
218 233 1
219 204 1
219 218 1
219 219 5
219 220 1
219 234 1
220 205 1
220 219 1
220 220 5
220 221 1
220 235 1
221 206 1
221 220 1
221 221 5
221 222 1
221 236 1
222 207 1
222 221 1
222 222 5
222 223 1
222 237 1
223 208 1
223 222 1
223 223 5
223 224 1
223 238 1
224 209 1
224 223 1
224 224 5
224 225 1
224 239 1
225 210 1
225 224 1
225 225 5
225 226 1
225 240 1
226 211 1
226 225 1
226 226 5
226 227 1
226 241 1
227 212 1
227 226 1
227 227 5
227 228 1
227 242 1
228 213 1
228 227 1
228 228 5
228 229 1
228 243 1
229 52 1
229 214 1
229 228 1
229 229 5
229 244 1
230 13 1
230 215 1
230 230 5
230 231 1
230 245 1
231 216 1
231 230 1
231 231 5
231 232 1
231 246 1
232 217 1
232 231 1
232 232 5
232 233 1
232 247 1
233 218 1
233 232 1
233 233 5
233 234 1
233 248 1
234 219 1
234 233 1
234 234 5
234 235 1
234 249 1
235 220 1
235 234 1
235 235 5
235 236 1
235 250 1
236 221 1
236 235 1
236 236 5
236 237 1
236 251 1
237 222 1
237 236 1
237 237 5
237 238 1
237 252 1
238 223 1
238 237 1
238 238 5
238 239 1
238 253 1
239 224 1
239 238 1
239 239 5
239 240 1
239 254 1
240 225 1
240 239 1
240 240 5
240 241 1
240 255 1
241 226 1
241 240 1
241 241 5
241 242 1
241 256 1
242 227 1
242 241 1
242 242 5
242 243 1
242 257 1
243 228 1
243 242 1
243 243 5
243 244 1
243 258 1
244 53 1
244 229 1
244 243 1
244 244 5
244 259 1
245 12 1
245 230 1
245 245 5
245 246 1
245 260 1
246 231 1
246 245 1
246 246 5
246 247 1
246 261 1
247 232 1
247 246 1
247 247 5
247 248 1
247 262 1
248 233 1
248 247 1
248 248 5
248 249 1
248 263 1
249 234 1
249 248 1
249 249 5
249 250 1
249 264 1
250 235 1
250 249 1
250 250 5
250 251 1
250 265 1
251 236 1
251 250 1
251 251 5
251 252 1
251 266 1
252 237 1
252 251 1
252 252 5
252 253 1
252 267 1
253 238 1
253 252 1
253 253 5
253 254 1
253 268 1
254 239 1
254 253 1
254 254 5
254 255 1
254 269 1
255 240 1
255 254 1
255 255 5
255 256 1
255 270 1
256 241 1
256 255 1
256 256 5
256 257 1
256 271 1
257 242 1
257 256 1
257 257 5
257 258 1
257 272 1
258 243 1
258 257 1
258 258 5
258 259 1
258 273 1
259 54 1
259 244 1
259 258 1
259 259 5
259 274 1
260 11 1
260 245 1
260 260 5
260 261 1
260 275 1
261 246 1
261 260 1
261 261 5
261 262 1
261 276 1
262 247 1
262 261 1
262 262 5
262 263 1
262 277 1
263 248 1
263 262 1
263 263 5
263 264 1
263 278 1
264 249 1
264 263 1
264 264 5
264 265 1
264 279 1
265 250 1
265 264 1
265 265 5
265 266 1
265 280 1
266 251 1
266 265 1
266 266 5
266 267 1
266 281 1
267 252 1
267 266 1
267 267 5
267 268 1
267 282 1
268 253 1
268 267 1
268 268 5
268 269 1
268 283 1
269 254 1
269 268 1
269 269 5
269 270 1
269 284 1
270 255 1
270 269 1
270 270 5
270 271 1
270 285 1
271 256 1
271 270 1
271 271 5
271 272 1
271 286 1
272 257 1
272 271 1
272 272 5
272 273 1
272 287 1
273 258 1
273 272 1
273 273 5
273 274 1
273 288 1
274 55 1
274 259 1
274 273 1
274 274 5
274 289 1
275 8 1
275 10 1
275 260 1
275 275 5
275 276 1
276 7 1
276 261 1
276 275 1
276 276 5
276 277 1
277 6 1
277 262 1
277 276 1
277 277 5
277 278 1
278 5 1
278 263 1
278 277 1
278 278 5
278 279 1
279 4 1
279 264 1
279 278 1
279 279 5
279 280 1
280 3 1
280 265 1
280 279 1
280 280 5
280 281 1
281 2 1
281 266 1
281 280 1
281 281 5
281 282 1
282 1 1
282 267 1
282 281 1
282 282 5
282 283 1
283 64 1
283 268 1
283 282 1
283 283 5
283 284 1
284 63 1
284 269 1
284 283 1
284 284 5
284 285 1
285 62 1
285 270 1
285 284 1
285 285 5
285 286 1
286 61 1
286 271 1
286 285 1
286 286 5
286 287 1
287 60 1
287 272 1
287 286 1
287 287 5
287 288 1
288 59 1
288 273 1
288 287 1
288 288 5
288 289 1
289 56 1
289 58 1
289 274 1
289 288 1
289 289 5
