%%MatrixMarket matrix coordinate real general
%
289 289 1377
1 1 2.000001
1 2 5E-7
1 64 5E-7
1 282 1
2 1 5E-7
2 2 2.000001
2 3 5E-7
2 281 1
3 2 5E-7
3 3 2.000001
3 4 5E-7
3 280 1
4 3 5E-7
4 4 2.000001
4 5 5E-7
4 279 1
5 4 5E-7
5 5 2.000001
5 6 5E-7
5 278 1
6 5 5E-7
6 6 2.000001
6 7 5E-7
6 277 1
7 6 5E-7
7 7 2.000001
7 8 5E-7
7 276 1
8 7 5E-7
8 8 2.000001
8 9 5E-7
8 275 1
9 8 5E-7
9 9 1.5000005
9 10 5E-1
10 9 5E-1
10 10 2.000001
10 11 5E-1
10 275 1E-6
11 10 5E-1
11 11 2.000001
11 12 5E-1
11 260 1E-6
12 11 5E-1
12 12 2.000001
12 13 5E-1
12 245 1E-6
13 12 5E-1
13 13 2.000001
13 14 5E-1
13 230 1E-6
14 13 5E-1
14 14 2.000001
14 15 5E-1
14 215 1E-6
15 14 5E-1
15 15 2.000001
15 16 5E-1
15 200 1E-6
16 15 5E-1
16 16 2.000001
16 17 5E-1
16 185 1E-6
17 16 5E-1
17 17 2.000001
17 18 5E-1
17 170 1E-6
18 17 5E-1
18 18 2.000001
18 19 5E-1
18 155 1E-6
19 18 5E-1
19 19 2.000001
19 20 5E-1
19 140 1E-6
20 19 5E-1
20 20 2.000001
20 21 5E-1
20 125 1E-6
21 20 5E-1
21 21 2.000001
21 22 5E-1
21 110 1E-6
22 21 5E-1
22 22 2.000001
22 23 5E-1
22 95 1E-6
23 22 5E-1
23 23 2.000001
23 24 5E-1
23 80 1E-6
24 23 5E-1
24 24 2.000001
24 25 5E-1
24 65 1E-6
25 24 5E-1
25 25 1.5000005
25 26 5E-7
26 25 5E-7
26 26 2.000001
26 27 5E-7
26 65 1
27 26 5E-7
27 27 2.000001
27 28 5E-7
27 66 1
28 27 5E-7
28 28 2.000001
28 29 5E-7
28 67 1
29 28 5E-7
29 29 2.000001
29 30 5E-7
29 68 1
30 29 5E-7
30 30 2.000001
30 31 5E-7
30 69 1
31 30 5E-7
31 31 2.000001
31 32 5E-7
31 70 1
32 31 5E-7
32 32 2.000001
32 33 5E-7
32 71 1
33 32 5E-7
33 33 2.000001
33 34 5E-7
33 72 1
34 33 5E-7
34 34 2.000001
34 35 5E-7
34 73 1
35 34 5E-7
35 35 2.000001
35 36 5E-7
35 74 1
36 35 5E-7
36 36 2.000001
36 37 5E-7
36 75 1
37 36 5E-7
37 37 2.000001
37 38 5E-7
37 76 1
38 37 5E-7
38 38 2.000001
38 39 5E-7
38 77 1
39 38 5E-7
39 39 2.000001
39 40 5E-7
39 78 1
40 39 5E-7
40 40 2.000001
40 41 5E-7
40 79 1
41 40 5E-7
41 41 1.5000005
41 42 5E-1
42 41 5E-1
42 42 2.000001
42 43 5E-1
42 79 1E-6
43 42 5E-1
43 43 2.000001
43 44 5E-1
43 94 1E-6
44 43 5E-1
44 44 2.000001
44 45 5E-1
44 109 1E-6
45 44 5E-1
45 45 2.000001
45 46 5E-1
45 124 1E-6
46 45 5E-1
46 46 2.000001
46 47 5E-1
46 139 1E-6
47 46 5E-1
47 47 2.000001
47 48 5E-1
47 154 1E-6
48 47 5E-1
48 48 2.000001
48 49 5E-1
48 169 1E-6
49 48 5E-1
49 49 2.000001
49 50 5E-1
49 184 1E-6
50 49 5E-1
50 50 2.000001
50 51 5E-1
50 199 1E-6
51 50 5E-1
51 51 2.000001
51 52 5E-1
51 214 1E-6
52 51 5E-1
52 52 2.000001
52 53 5E-1
52 229 1E-6
53 52 5E-1
53 53 2.000001
53 54 5E-1
53 244 1E-6
54 53 5E-1
54 54 2.000001
54 55 5E-1
54 259 1E-6
55 54 5E-1
55 55 2.000001
55 56 5E-1
55 274 1E-6
56 55 5E-1
56 56 2.000001
56 57 5E-1
56 289 1E-6
57 56 5E-1
57 57 1.5000005
57 58 5E-7
58 57 5E-7
58 58 2.000001
58 59 5E-7
58 289 1
59 58 5E-7
59 59 2.000001
59 60 5E-7
59 288 1
60 59 5E-7
60 60 2.000001
60 61 5E-7
60 287 1
61 60 5E-7
61 61 2.000001
61 62 5E-7
61 286 1
62 61 5E-7
62 62 2.000001
62 63 5E-7
62 285 1
63 62 5E-7
63 63 2.000001
63 64 5E-7
63 284 1
64 1 5E-7
64 63 5E-7
64 64 2.000001
64 283 1
65 24 1E-6
65 26 1
65 65 3.000002
65 66 1E-6
65 80 1
66 27 1
66 65 1E-6
66 66 3.000002
66 67 1E-6
66 81 1
67 28 1
67 66 1E-6
67 67 3.000002
67 68 1E-6
67 82 1
68 29 1
68 67 1E-6
68 68 3.000002
68 69 1E-6
68 83 1
69 30 1
69 68 1E-6
69 69 3.000002
69 70 1E-6
69 84 1
70 31 1
70 69 1E-6
70 70 3.000002
70 71 1E-6
70 85 1
71 32 1
71 70 1E-6
71 71 3.000002
71 72 1E-6
71 86 1
72 33 1
72 71 1E-6
72 72 3.000002
72 73 1E-6
72 87 1
73 34 1
73 72 1E-6
73 73 3.000002
73 74 1E-6
73 88 1
74 35 1
74 73 1E-6
74 74 3.000002
74 75 1E-6
74 89 1
75 36 1
75 74 1E-6
75 75 3.000002
75 76 1E-6
75 90 1
76 37 1
76 75 1E-6
76 76 3.000002
76 77 1E-6
76 91 1
77 38 1
77 76 1E-6
77 77 3.000002
77 78 1E-6
77 92 1
78 39 1
78 77 1E-6
78 78 3.000002
78 79 1E-6
78 93 1
79 40 1
79 42 1E-6
79 78 1E-6
79 79 3.000002
79 94 1
80 23 1E-6
80 65 1
80 80 3.000002
80 81 1E-6
80 95 1
81 66 1
81 80 1E-6
81 81 3.000002
81 82 1E-6
81 96 1
82 67 1
82 81 1E-6
82 82 3.000002
82 83 1E-6
82 97 1
83 68 1
83 82 1E-6
83 83 3.000002
83 84 1E-6
83 98 1
84 69 1
84 83 1E-6
84 84 3.000002
84 85 1E-6
84 99 1
85 70 1
85 84 1E-6
85 85 3.000002
85 86 1E-6
85 100 1
86 71 1
86 85 1E-6
86 86 3.000002
86 87 1E-6
86 101 1
87 72 1
87 86 1E-6
87 87 3.000002
87 88 1E-6
87 102 1
88 73 1
88 87 1E-6
88 88 3.000002
88 89 1E-6
88 103 1
89 74 1
89 88 1E-6
89 89 3.000002
89 90 1E-6
89 104 1
90 75 1
90 89 1E-6
90 90 3.000002
90 91 1E-6
90 105 1
91 76 1
91 90 1E-6
91 91 3.000002
91 92 1E-6
91 106 1
92 77 1
92 91 1E-6
92 92 3.000002
92 93 1E-6
92 107 1
93 78 1
93 92 1E-6
93 93 3.000002
93 94 1E-6
93 108 1
94 43 1E-6
94 79 1
94 93 1E-6
94 94 3.000002
94 109 1
95 22 1E-6
95 80 1
95 95 3.000002
95 96 1E-6
95 110 1
96 81 1
96 95 1E-6
96 96 3.000002
96 97 1E-6
96 111 1
97 82 1
97 96 1E-6
97 97 3.000002
97 98 1E-6
97 112 1
98 83 1
98 97 1E-6
98 98 3.000002
98 99 1E-6
98 113 1
99 84 1
99 98 1E-6
99 99 3.000002
99 100 1E-6
99 114 1
100 85 1
100 99 1E-6
100 100 3.000002
100 101 1E-6
100 115 1
101 86 1
101 100 1E-6
101 101 3.000002
101 102 1E-6
101 116 1
102 87 1
102 101 1E-6
102 102 3.000002
102 103 1E-6
102 117 1
103 88 1
103 102 1E-6
103 103 3.000002
103 104 1E-6
103 118 1
104 89 1
104 103 1E-6
104 104 3.000002
104 105 1E-6
104 119 1
105 90 1
105 104 1E-6
105 105 3.000002
105 106 1E-6
105 120 1
106 91 1
106 105 1E-6
106 106 3.000002
106 107 1E-6
106 121 1
107 92 1
107 106 1E-6
107 107 3.000002
107 108 1E-6
107 122 1
108 93 1
108 107 1E-6
108 108 3.000002
108 109 1E-6
108 123 1
109 44 1E-6
109 94 1
109 108 1E-6
109 109 3.000002
109 124 1
110 21 1E-6
110 95 1
110 110 3.000002
110 111 1E-6
110 125 1
111 96 1
111 110 1E-6
111 111 3.000002
111 112 1E-6
111 126 1
112 97 1
112 111 1E-6
112 112 3.000002
112 113 1E-6
112 127 1
113 98 1
113 112 1E-6
113 113 3.000002
113 114 1E-6
113 128 1
114 99 1
114 113 1E-6
114 114 3.000002
114 115 1E-6
114 129 1
115 100 1
115 114 1E-6
115 115 3.000002
115 116 1E-6
115 130 1
116 101 1
116 115 1E-6
116 116 3.000002
116 117 1E-6
116 131 1
117 102 1
117 116 1E-6
117 117 3.000002
117 118 1E-6
117 132 1
118 103 1
118 117 1E-6
118 118 3.000002
118 119 1E-6
118 133 1
119 104 1
119 118 1E-6
119 119 3.000002
119 120 1E-6
119 134 1
120 105 1
120 119 1E-6
120 120 3.000002
120 121 1E-6
120 135 1
121 106 1
121 120 1E-6
121 121 3.000002
121 122 1E-6
121 136 1
122 107 1
122 121 1E-6
122 122 3.000002
122 123 1E-6
122 137 1
123 108 1
123 122 1E-6
123 123 3.000002
123 124 1E-6
123 138 1
124 45 1E-6
124 109 1
124 123 1E-6
124 124 3.000002
124 139 1
125 20 1E-6
125 110 1
125 125 3.000002
125 126 1E-6
125 140 1
126 111 1
126 125 1E-6
126 126 3.000002
126 127 1E-6
126 141 1
127 112 1
127 126 1E-6
127 127 3.000002
127 128 1E-6
127 142 1
128 113 1
128 127 1E-6
128 128 3.000002
128 129 1E-6
128 143 1
129 114 1
129 128 1E-6
129 129 3.000002
129 130 1E-6
129 144 1
130 115 1
130 129 1E-6
130 130 3.000002
130 131 1E-6
130 145 1
131 116 1
131 130 1E-6
131 131 3.000002
131 132 1E-6
131 146 1
132 117 1
132 131 1E-6
132 132 3.000002
132 133 1E-6
132 147 1
133 118 1
133 132 1E-6
133 133 3.000002
133 134 1E-6
133 148 1
134 119 1
134 133 1E-6
134 134 3.000002
134 135 1E-6
134 149 1
135 120 1
135 134 1E-6
135 135 3.000002
135 136 1E-6
135 150 1
136 121 1
136 135 1E-6
136 136 3.000002
136 137 1E-6
136 151 1
137 122 1
137 136 1E-6
137 137 3.000002
137 138 1E-6
137 152 1
138 123 1
138 137 1E-6
138 138 3.000002
138 139 1E-6
138 153 1
139 46 1E-6
139 124 1
139 138 1E-6
139 139 3.000002
139 154 1
140 19 1E-6
140 125 1
140 140 3.000002
140 141 1E-6
140 155 1
141 126 1
141 140 1E-6
141 141 3.000002
141 142 1E-6
141 156 1
142 127 1
142 141 1E-6
142 142 3.000002
142 143 1E-6
142 157 1
143 128 1
143 142 1E-6
143 143 3.000002
143 144 1E-6
143 158 1
144 129 1
144 143 1E-6
144 144 3.000002
144 145 1E-6
144 159 1
145 130 1
145 144 1E-6
145 145 3.000002
145 146 1E-6
145 160 1
146 131 1
146 145 1E-6
146 146 3.000002
146 147 1E-6
146 161 1
147 132 1
147 146 1E-6
147 147 3.000002
147 148 1E-6
147 162 1
148 133 1
148 147 1E-6
148 148 3.000002
148 149 1E-6
148 163 1
149 134 1
149 148 1E-6
149 149 3.000002
149 150 1E-6
149 164 1
150 135 1
150 149 1E-6
150 150 3.000002
150 151 1E-6
150 165 1
151 136 1
151 150 1E-6
151 151 3.000002
151 152 1E-6
151 166 1
152 137 1
152 151 1E-6
152 152 3.000002
152 153 1E-6
152 167 1
153 138 1
153 152 1E-6
153 153 3.000002
153 154 1E-6
153 168 1
154 47 1E-6
154 139 1
154 153 1E-6
154 154 3.000002
154 169 1
155 18 1E-6
155 140 1
155 155 3.000002
155 156 1E-6
155 170 1
156 141 1
156 155 1E-6
156 156 3.000002
156 157 1E-6
156 171 1
157 142 1
157 156 1E-6
157 157 3.000002
157 158 1E-6
157 172 1
158 143 1
158 157 1E-6
158 158 3.000002
158 159 1E-6
158 173 1
159 144 1
159 158 1E-6
159 159 3.000002
159 160 1E-6
159 174 1
160 145 1
160 159 1E-6
160 160 3.000002
160 161 1E-6
160 175 1
161 146 1
161 160 1E-6
161 161 3.000002
161 162 1E-6
161 176 1
162 147 1
162 161 1E-6
162 162 3.000002
162 163 1E-6
162 177 1
163 148 1
163 162 1E-6
163 163 3.000002
163 164 1E-6
163 178 1
164 149 1
164 163 1E-6
164 164 3.000002
164 165 1E-6
164 179 1
165 150 1
165 164 1E-6
165 165 3.000002
165 166 1E-6
165 180 1
166 151 1
166 165 1E-6
166 166 3.000002
166 167 1E-6
166 181 1
167 152 1
167 166 1E-6
167 167 3.000002
167 168 1E-6
167 182 1
168 153 1
168 167 1E-6
168 168 3.000002
168 169 1E-6
168 183 1
169 48 1E-6
169 154 1
169 168 1E-6
169 169 3.000002
169 184 1
170 17 1E-6
170 155 1
170 170 3.000002
170 171 1E-6
170 185 1
171 156 1
171 170 1E-6
171 171 3.000002
171 172 1E-6
171 186 1
172 157 1
172 171 1E-6
172 172 3.000002
172 173 1E-6
172 187 1
173 158 1
173 172 1E-6
173 173 3.000002
173 174 1E-6
173 188 1
174 159 1
174 173 1E-6
174 174 3.000002
174 175 1E-6
174 189 1
175 160 1
175 174 1E-6
175 175 3.000002
175 176 1E-6
175 190 1
176 161 1
176 175 1E-6
176 176 3.000002
176 177 1E-6
176 191 1
177 162 1
177 176 1E-6
177 177 3.000002
177 178 1E-6
177 192 1
178 163 1
178 177 1E-6
178 178 3.000002
178 179 1E-6
178 193 1
179 164 1
179 178 1E-6
179 179 3.000002
179 180 1E-6
179 194 1
180 165 1
180 179 1E-6
180 180 3.000002
180 181 1E-6
180 195 1
181 166 1
181 180 1E-6
181 181 3.000002
181 182 1E-6
181 196 1
182 167 1
182 181 1E-6
182 182 3.000002
182 183 1E-6
182 197 1
183 168 1
183 182 1E-6
183 183 3.000002
183 184 1E-6
183 198 1
184 49 1E-6
184 169 1
184 183 1E-6
184 184 3.000002
184 199 1
185 16 1E-6
185 170 1
185 185 3.000002
185 186 1E-6
185 200 1
186 171 1
186 185 1E-6
186 186 3.000002
186 187 1E-6
186 201 1
187 172 1
187 186 1E-6
187 187 3.000002
187 188 1E-6
187 202 1
188 173 1
188 187 1E-6
188 188 3.000002
188 189 1E-6
188 203 1
189 174 1
189 188 1E-6
189 189 3.000002
189 190 1E-6
189 204 1
190 175 1
190 189 1E-6
190 190 3.000002
190 191 1E-6
190 205 1
191 176 1
191 190 1E-6
191 191 3.000002
191 192 1E-6
191 206 1
192 177 1
192 191 1E-6
192 192 3.000002
192 193 1E-6
192 207 1
193 178 1
193 192 1E-6
193 193 3.000002
193 194 1E-6
193 208 1
194 179 1
194 193 1E-6
194 194 3.000002
194 195 1E-6
194 209 1
195 180 1
195 194 1E-6
195 195 3.000002
195 196 1E-6
195 210 1
196 181 1
196 195 1E-6
196 196 3.000002
196 197 1E-6
196 211 1
197 182 1
197 196 1E-6
197 197 3.000002
197 198 1E-6
197 212 1
198 183 1
198 197 1E-6
198 198 3.000002
198 199 1E-6
198 213 1
199 50 1E-6
199 184 1
199 198 1E-6
199 199 3.000002
199 214 1
200 15 1E-6
200 185 1
200 200 3.000002
200 201 1E-6
200 215 1
201 186 1
201 200 1E-6
201 201 3.000002
201 202 1E-6
201 216 1
202 187 1
202 201 1E-6
202 202 3.000002
202 203 1E-6
202 217 1
203 188 1
203 202 1E-6
203 203 3.000002
203 204 1E-6
203 218 1
204 189 1
204 203 1E-6
204 204 3.000002
204 205 1E-6
204 219 1
205 190 1
205 204 1E-6
205 205 3.000002
205 206 1E-6
205 220 1
206 191 1
206 205 1E-6
206 206 3.000002
206 207 1E-6
206 221 1
207 192 1
207 206 1E-6
207 207 3.000002
207 208 1E-6
207 222 1
208 193 1
208 207 1E-6
208 208 3.000002
208 209 1E-6
208 223 1
209 194 1
209 208 1E-6
209 209 3.000002
209 210 1E-6
209 224 1
210 195 1
210 209 1E-6
210 210 3.000002
210 211 1E-6
210 225 1
211 196 1
211 210 1E-6
211 211 3.000002
211 212 1E-6
211 226 1
212 197 1
212 211 1E-6
212 212 3.000002
212 213 1E-6
212 227 1
213 198 1
213 212 1E-6
213 213 3.000002
213 214 1E-6
213 228 1
214 51 1E-6
214 199 1
214 213 1E-6
214 214 3.000002
214 229 1
215 14 1E-6
215 200 1
215 215 3.000002
215 216 1E-6
215 230 1
216 201 1
216 215 1E-6
216 216 3.000002
216 217 1E-6
216 231 1
217 202 1
217 216 1E-6
217 217 3.000002
217 218 1E-6
217 232 1
218 203 1
218 217 1E-6
218 218 3.000002
218 219 1E-6
218 233 1
219 204 1
219 218 1E-6
219 219 3.000002
219 220 1E-6
219 234 1
220 205 1
220 219 1E-6
220 220 3.000002
220 221 1E-6
220 235 1
221 206 1
221 220 1E-6
221 221 3.000002
221 222 1E-6
221 236 1
222 207 1
222 221 1E-6
222 222 3.000002
222 223 1E-6
222 237 1
223 208 1
223 222 1E-6
223 223 3.000002
223 224 1E-6
223 238 1
224 209 1
224 223 1E-6
224 224 3.000002
224 225 1E-6
224 239 1
225 210 1
225 224 1E-6
225 225 3.000002
225 226 1E-6
225 240 1
226 211 1
226 225 1E-6
226 226 3.000002
226 227 1E-6
226 241 1
227 212 1
227 226 1E-6
227 227 3.000002
227 228 1E-6
227 242 1
228 213 1
228 227 1E-6
228 228 3.000002
228 229 1E-6
228 243 1
229 52 1E-6
229 214 1
229 228 1E-6
229 229 3.000002
229 244 1
230 13 1E-6
230 215 1
230 230 3.000002
230 231 1E-6
230 245 1
231 216 1
231 230 1E-6
231 231 3.000002
231 232 1E-6
231 246 1
232 217 1
232 231 1E-6
232 232 3.000002
232 233 1E-6
232 247 1
233 218 1
233 232 1E-6
233 233 3.000002
233 234 1E-6
233 248 1
234 219 1
234 233 1E-6
234 234 3.000002
234 235 1E-6
234 249 1
235 220 1
235 234 1E-6
235 235 3.000002
235 236 1E-6
235 250 1
236 221 1
236 235 1E-6
236 236 3.000002
236 237 1E-6
236 251 1
237 222 1
237 236 1E-6
237 237 3.000002
237 238 1E-6
237 252 1
238 223 1
238 237 1E-6
238 238 3.000002
238 239 1E-6
238 253 1
239 224 1
239 238 1E-6
239 239 3.000002
239 240 1E-6
239 254 1
240 225 1
240 239 1E-6
240 240 3.000002
240 241 1E-6
240 255 1
241 226 1
241 240 1E-6
241 241 3.000002
241 242 1E-6
241 256 1
242 227 1
242 241 1E-6
242 242 3.000002
242 243 1E-6
242 257 1
243 228 1
243 242 1E-6
243 243 3.000002
243 244 1E-6
243 258 1
244 53 1E-6
244 229 1
244 243 1E-6
244 244 3.000002
244 259 1
245 12 1E-6
245 230 1
245 245 3.000002
245 246 1E-6
245 260 1
246 231 1
246 245 1E-6
246 246 3.000002
246 247 1E-6
246 261 1
247 232 1
247 246 1E-6
247 247 3.000002
247 248 1E-6
247 262 1
248 233 1
248 247 1E-6
248 248 3.000002
248 249 1E-6
248 263 1
249 234 1
249 248 1E-6
249 249 3.000002
249 250 1E-6
249 264 1
250 235 1
250 249 1E-6
250 250 3.000002
250 251 1E-6
250 265 1
251 236 1
251 250 1E-6
251 251 3.000002
251 252 1E-6
251 266 1
252 237 1
252 251 1E-6
252 252 3.000002
252 253 1E-6
252 267 1
253 238 1
253 252 1E-6
253 253 3.000002
253 254 1E-6
253 268 1
254 239 1
254 253 1E-6
254 254 3.000002
254 255 1E-6
254 269 1
255 240 1
255 254 1E-6
255 255 3.000002
255 256 1E-6
255 270 1
256 241 1
256 255 1E-6
256 256 3.000002
256 257 1E-6
256 271 1
257 242 1
257 256 1E-6
257 257 3.000002
257 258 1E-6
257 272 1
258 243 1
258 257 1E-6
258 258 3.000002
258 259 1E-6
258 273 1
259 54 1E-6
259 244 1
259 258 1E-6
259 259 3.000002
259 274 1
260 11 1E-6
260 245 1
260 260 3.000002
260 261 1E-6
260 275 1
261 246 1
261 260 1E-6
261 261 3.000002
261 262 1E-6
261 276 1
262 247 1
262 261 1E-6
262 262 3.000002
262 263 1E-6
262 277 1
263 248 1
263 262 1E-6
263 263 3.000002
263 264 1E-6
263 278 1
264 249 1
264 263 1E-6
264 264 3.000002
264 265 1E-6
264 279 1
265 250 1
265 264 1E-6
265 265 3.000002
265 266 1E-6
265 280 1
266 251 1
266 265 1E-6
266 266 3.000002
266 267 1E-6
266 281 1
267 252 1
267 266 1E-6
267 267 3.000002
267 268 1E-6
267 282 1
268 253 1
268 267 1E-6
268 268 3.000002
268 269 1E-6
268 283 1
269 254 1
269 268 1E-6
269 269 3.000002
269 270 1E-6
269 284 1
270 255 1
270 269 1E-6
270 270 3.000002
270 271 1E-6
270 285 1
271 256 1
271 270 1E-6
271 271 3.000002
271 272 1E-6
271 286 1
272 257 1
272 271 1E-6
272 272 3.000002
272 273 1E-6
272 287 1
273 258 1
273 272 1E-6
273 273 3.000002
273 274 1E-6
273 288 1
274 55 1E-6
274 259 1
274 273 1E-6
274 274 3.000002
274 289 1
275 8 1
275 10 1E-6
275 260 1
275 275 3.0000020000000003
275 276 1E-6
276 7 1
276 261 1
276 275 1E-6
276 276 3.0000020000000003
276 277 1E-6
277 6 1
277 262 1
277 276 1E-6
277 277 3.0000020000000003
277 278 1E-6
278 5 1
278 263 1
278 277 1E-6
278 278 3.0000020000000003
278 279 1E-6
279 4 1
279 264 1
279 278 1E-6
279 279 3.0000020000000003
279 280 1E-6
280 3 1
280 265 1
280 279 1E-6
280 280 3.0000020000000003
280 281 1E-6
281 2 1
281 266 1
281 280 1E-6
281 281 3.0000020000000003
281 282 1E-6
282 1 1
282 267 1
282 281 1E-6
282 282 3.0000020000000003
282 283 1E-6
283 64 1
283 268 1
283 282 1E-6
283 283 3.0000020000000003
283 284 1E-6
284 63 1
284 269 1
284 283 1E-6
284 284 3.0000020000000003
284 285 1E-6
285 62 1
285 270 1
285 284 1E-6
285 285 3.0000020000000003
285 286 1E-6
286 61 1
286 271 1
286 285 1E-6
286 286 3.0000020000000003
286 287 1E-6
287 60 1
287 272 1
287 286 1E-6
287 287 3.0000020000000003
287 288 1E-6
288 59 1
288 273 1
288 287 1E-6
288 288 3.0000020000000003
288 289 1E-6
289 56 1E-6
289 58 1
289 274 1
289 288 1E-6
289 289 3.0000020000000003
