%%MatrixMarket matrix coordinate real general
%
571 571 9668
1 58 1.9529213448699384E-1
1 59 2.1471148387957422E-2
1 75 1.831563888873418E-2
1 76 2.4685386105903297E-2
1 264 4.9091035556573556E-2
1 271 4.638986830978166E-2
1 273 1.9144521713094498E-2
1 276 1.7900402667695155E-2
1 285 5.1862558979466185E-2
1 286 4.7822687863799285E-2
1 287 1.497906949293823E-1
1 290 2.0146046895112426E-2
1 318 1.831563888873418E-2
1 405 1.6230949985993375E-2
1 406 2.818941800475789E-2
1 441 1.0173246175668585E-1
1 445 2.25183283621578E-2
1 484 3.388163886883116E-2
1 486 1.831563888873418E-2
1 522 5.049428515043134E-2
1 523 1.831563888873418E-2
1 525 3.541080771785093E-2
2 3 6.617245668929779E-1
2 35 2.1709972887721977E-2
2 45 2.2028727067511043E-2
2 69 2.202942270395368E-2
2 97 1.8182845341538623E-2
2 120 1.9387493450153746E-2
2 169 1.9855287229803856E-2
2 170 2.19261630978079E-2
2 232 2.4633262010503438E-2
2 313 1.831563888873418E-2
2 498 2.1850404245060646E-2
3 2 6.617245668929779E-1
3 35 2.178965363314199E-2
3 45 2.2114388730650955E-2
3 69 2.208192729395886E-2
3 120 1.9333799584955964E-2
3 169 2.0179191621568872E-2
3 170 2.198407645328477E-2
3 227 1.7948680901730293E-2
3 232 3.3536353779309185E-2
3 313 1.831563888873418E-2
3 498 2.1915619437556613E-2
4 5 8.101171026667298E-1
4 35 2.1362322089181773E-2
4 45 1.9022686238560432E-2
4 69 1.9070491186119233E-2
4 91 1.9513943669319904E-2
4 169 1.831563888873418E-2
4 170 1.9001133290727997E-2
4 227 1.7124222936243785E-2
4 313 1.851163095841739E-2
4 498 1.8922402523148318E-2
5 4 8.101171026667298E-1
5 35 2.0684271821529654E-2
5 45 1.852477326475399E-2
5 69 1.8552415644925685E-2
5 91 2.1197282820514005E-2
5 169 1.831563888873418E-2
5 170 1.8499812654150842E-2
5 227 1.7730716811105766E-2
5 313 1.9007306146537846E-2
5 498 1.847377049966393E-2
6 12 2.1439165162265547E-1
6 18 7.688481397642302E-2
6 20 1.831563888873418E-2
6 35 1.831563888873418E-2
6 45 1.841819651848851E-2
6 62 1.576033433126442E-2
6 69 1.8449748265029806E-2
6 120 1.7547330326715384E-2
6 157 3.681747610334298E-1
6 158 9.67183378201665E-2
6 159 4.0621713782750063E-1
6 164 1.1676575672369846E-1
6 170 1.841891225349858E-2
6 233 1.8600528820598324E-2
6 304 2.0420357841819795E-2
6 388 2.909963941069198E-2
6 490 1.831563888873418E-2
6 498 1.851433271812062E-2
6 567 6.407366581829169E-2
7 11 3.827835672597447E-1
7 14 2.8952009703189663E-1
7 22 3.5651810397357424E-2
7 62 1.0492303506224834E-2
7 158 1.831563888873418E-2
7 163 5.853028549018483E-1
7 165 7.208988848236042E-2
7 387 1.3196586676285402E-1
7 490 7.539256669330535E-2
7 567 4.209567251526198E-2
8 13 1.831563888873418E-2
8 45 1.823154383491996E-2
8 61 1.1947689544058242E-1
8 64 2.4019978743875733E-1
8 65 4.410163190823034E-2
8 67 4.35352525516591E-2
8 69 1.831563888873418E-2
8 166 1.3504755746119945E-1
8 299 9.322032822265072E-2
8 300 4.143204046014879E-1
8 301 1.565318471633278E-2
8 488 2.7304103560857335E-1
8 494 7.104478961711111E-2
8 498 1.8406848561678433E-2
9 10 1.9686971344358384E-1
9 13 6.03640366552891E-2
9 15 4.710863387423825E-2
9 16 1.831563888873418E-2
9 19 3.124540219927502E-2
9 156 2.4034388154349787E-2
9 302 2.5501271327346423E-2
9 489 1.5579909941757286E-2
9 566 2.005322233056698E-2
9 568 2.336218082452874E-2
9 569 1.831563888873418E-2
10 9 1.9686971344358384E-1
10 13 8.765501329589243E-2
10 15 1.402636169206629E-1
10 16 4.9246454506456296E-2
10 19 5.521477970091428E-2
10 66 1.2620105890840139E-2
10 156 3.915635659956397E-2
10 162 2.813341771464113E-2
10 302 3.8975405948552456E-2
10 303 1.831563888873418E-2
10 489 3.14269697141779E-2
10 492 2.3140835314749184E-2
10 493 1.4122720812584191E-2
10 566 4.05030803670367E-2
10 568 3.9645666603344766E-2
10 569 3.574105353554624E-2
11 7 3.827835672597447E-1
11 14 9.54336742113212E-2
11 22 2.8715456372396284E-2
11 163 2.7702001906047813E-1
11 165 4.056099580996146E-2
11 304 1.8273101981984372E-2
11 387 1.712517566014918E-1
11 388 1.831563888873418E-2
11 490 1.0032442662395877E-1
11 567 4.1236750437035216E-2
12 6 2.1439165162265547E-1
12 18 4.390037479801214E-2
12 35 1.8260358955055046E-2
12 45 1.831563888873418E-2
12 69 1.8339732537303186E-2
12 89 2.2785979174676296E-2
12 157 1.956341105933914E-1
12 158 6.280019640888454E-2
12 159 1.8243342838431276E-1
12 164 5.405888017974108E-2
12 170 1.832645179867656E-2
12 304 2.5165556938480667E-2
12 388 1.567838252263298E-2
12 490 1.4447853604090068E-2
12 498 1.8343593618467144E-2
12 567 3.0681157844389545E-2
13 8 1.831563888873418E-2
13 9 6.03640366552891E-2
13 10 8.765501329589243E-2
13 15 3.384986988694148E-2
13 64 4.7970948339395914E-2
13 65 4.6882857991209656E-2
13 66 1.5020461060210967E-2
13 67 2.271031340745876E-2
13 164 1.29872059624128E-2
13 166 2.7854482862165374E-2
13 300 1.7188972586827025E-2
13 302 2.104329479413879E-2
13 304 2.59640912474356E-2
13 330 2.19926153423085E-2
13 331 3.579858762342675E-2
13 488 9.949493059222614E-2
14 7 2.8952009703189663E-1
14 11 9.54336742113212E-2
14 22 3.0924104377839996E-2
14 62 1.831563888873418E-2
14 157 2.1259951180961776E-2
14 158 7.475580850758595E-2
14 163 1.9601383651021545E-1
14 164 9.63860542491573E-3
14 165 1.0886863622417448E-1
14 387 5.260400085646619E-2
14 490 3.6191394312243864E-2
14 567 4.778580792770676E-2
15 9 4.710863387423825E-2
15 10 1.402636169206629E-1
15 13 3.384986988694148E-2
15 16 8.903563929514373E-2
15 19 3.330383195430375E-2
15 66 3.431132587170459E-2
15 156 1.831563888873418E-2
15 162 3.4854124307269495E-2
15 302 1.684164127065918E-2
15 489 2.0096901190132906E-2
15 492 1.831563888873418E-2
15 566 2.1767928079459296E-2
15 568 3.9271962167294436E-2
15 569 2.9470237793457775E-2
16 9 1.831563888873418E-2
16 10 4.9246454506456296E-2
16 15 8.903563929514373E-2
16 19 2.215452782307753E-2
16 66 2.9653696973042935E-2
16 156 1.5527908017328985E-2
16 162 1.5031205229689185E-1
16 566 2.3423823866843142E-2
16 568 1.9513416967319958E-1
16 569 7.207958585552998E-2
17 19 3.961199555702386E-2
17 20 1.9353742185864543E-2
17 21 2.11944740156524E-2
17 63 1.859815832379848E-1
17 160 3.842707621314009E-2
17 161 4.219875611350059E-2
17 299 1.831563888873418E-2
17 310 3.9426745404727753E-1
17 311 5.7881558793188355E-2
17 329 1.6066431890370672E-2
17 402 2.782560610491015E-1
17 493 3.046514390253499E-2
18 6 7.688481397642302E-2
18 12 4.390037479801214E-2
18 131 1.799704275948292E-2
18 136 2.0999465765670047E-2
18 137 2.0965407281033823E-2
18 157 5.1538769595243714E-2
18 158 2.4387893958067043E-2
18 159 4.7906685389395326E-2
18 164 2.783461388051956E-2
18 218 1.831563888873418E-2
18 567 1.9840661586949825E-2
19 9 3.124540219927502E-2
19 10 5.521477970091428E-2
19 15 3.330383195430375E-2
19 16 2.215452782307753E-2
19 17 3.961199555702386E-2
19 63 3.841788819422798E-2
19 65 1.831563888873418E-2
19 156 4.942074043243674E-2
19 160 4.792376519233769E-2
19 161 7.217645852604702E-2
19 162 4.308488873006321E-2
19 299 2.675275762306402E-2
19 301 5.209692637561937E-2
19 302 1.5032281072773415E-1
19 303 2.2476622756322506E-1
19 310 4.451462491502846E-2
19 402 2.0239392593690897E-2
19 489 8.437868764283636E-2
19 491 9.874726189730218E-2
19 492 1.8628426857784375E-2
19 493 2.02987898778285E-2
19 566 6.024324141202853E-2
19 568 3.651553584521498E-2
19 569 6.752332466649809E-2
20 6 1.831563888873418E-2
20 17 1.9353742185864543E-2
20 21 4.481580552724444E-2
20 22 5.285444679577943E-2
20 61 3.0577533198350652E-2
20 62 1.3881609680175988E-1
20 159 1.768123988667646E-2
20 160 4.1097470289666024E-2
20 161 1.9515096964637647E-2
20 165 3.0126966267124446E-2
20 310 3.15916994973371E-2
20 311 6.301067020832278E-2
20 329 4.974335161041493E-1
20 388 8.009475930967608E-2
20 402 1.831563888873418E-2
20 494 4.693837091513152E-2
21 17 2.11944740156524E-2
21 20 4.481580552724444E-2
21 61 4.735242312989356E-2
21 160 1.831563888873418E-2
21 299 2.0142449383210373E-2
21 300 1.7320915830133343E-2
21 310 7.24341328631791E-2
21 311 4.343528587484784E-1
21 329 9.866931160185045E-2
21 331 2.2240352895157536E-2
21 402 1.1668640038662944E-2
21 494 4.496201757809637E-2
22 7 3.5651810397357424E-2
22 11 2.8715456372396284E-2
22 14 3.0924104377839996E-2
22 20 5.285444679577943E-2
22 62 2.068814942451383E-1
22 157 1.7639345058792076E-2
22 158 3.0360450098639084E-2
22 163 2.6449189722872475E-2
22 164 1.831563888873418E-2
22 165 3.9129882688021284E-1
22 329 3.5217390602688296E-2
22 387 6.811894847434773E-2
22 388 4.986109650410877E-2
22 567 3.486011926202967E-2
23 24 5.400106001073937E-2
23 30 1.1656741327256942E-2
23 100 4.8785809651926824E-2
23 243 2.1131573476492232E-2
23 267 1.96089833021712E-2
23 280 4.4857453410024686E-2
23 340 1.57263430965066E-2
23 358 1.831563888873418E-2
23 359 2.274960084002551E-2
23 370 2.80116195752248E-2
23 415 9.882272015559641E-3
23 416 3.7500414425122836E-2
23 418 4.8180466816774084E-2
23 420 4.962905404205046E-2
23 421 1.0692809492175352E-1
23 452 2.1070065774473862E-2
23 453 2.4815898451675134E-2
23 466 4.0394216016849144E-2
23 467 1.5215405346700532E-2
23 535 2.3102585225087693E-2
23 536 6.196814683116553E-2
23 537 4.259752150084007E-2
23 538 1.1271189298757467E-1
23 561 2.1843629993110743E-2
23 562 2.641614839131677E-2
23 565 2.721970943212704E-2
24 23 5.400106001073937E-2
24 228 3.495449271970395E-2
24 235 2.9185474933762702E-2
24 236 5.074261669855762E-2
24 237 5.441830532619253E-2
24 238 1.646230720575272E-2
24 282 1.2087000710090676E-1
24 377 1.831563888873418E-2
24 420 6.352336005479294E-2
24 421 5.3199510929126295E-2
24 536 3.494666500398091E-2
24 537 1.831563888873418E-2
24 538 3.149623794888858E-2
25 26 1.947707139901145E-1
25 27 2.3332999466496432E-2
25 70 3.0462564032398187E-1
25 73 3.5827005071516516E-1
25 142 1.7167354626409344E-2
25 181 3.0604599884669438E-2
25 260 8.636059877784112E-2
25 323 3.5860110647779574E-2
25 413 1.831563888873418E-2
25 430 1.6249857522870267E-1
25 431 1.1529066878963848E-1
25 439 1.7437031784430033E-2
25 530 2.4295966826231752E-2
25 550 8.83864139128379E-2
25 551 2.6387790787048983E-2
25 555 1.6022910497842206E-2
25 558 7.322577596291749E-2
26 25 1.947707139901145E-1
26 70 1.1914697697522794E-1
26 73 9.822162091331206E-2
26 260 2.8717966791244227E-2
26 430 6.34198513288897E-1
26 431 4.4340904963098615E-1
26 551 7.22572351448392E-2
26 552 1.831563888873418E-2
26 555 1.4764868589356406E-2
26 558 1.3995588485865995E-1
27 25 2.3332999466496432E-2
27 32 9.767392697519736E-2
27 38 2.0662497863845833E-1
27 41 6.484787561675262E-2
27 142 4.019054511523169E-2
27 148 1.9228268998223802E-2
27 168 1.9703777446489104E-1
27 176 2.7950286130150243E-2
27 228 4.067042175021777E-2
27 239 1.258204293208809E-1
27 323 7.379153374860191E-2
27 368 3.7432889561982055E-2
27 377 2.9834998395216434E-2
27 378 6.736118628502968E-2
27 389 1.9808683800197388E-2
27 392 6.749218873002846E-2
27 420 3.0878545309817484E-2
27 422 2.377361011166088E-2
27 439 4.661216950345608E-2
27 446 3.440451591159458E-1
27 497 1.831563888873418E-2
28 39 1.5295736137477273E-2
28 134 3.701327511658631E-1
28 135 1.831563888873418E-2
28 248 2.98167498929898E-1
28 250 3.7460889374572995E-2
28 261 2.3181554506608734E-2
28 262 3.0527062852754305E-1
28 315 3.89666273634338E-2
28 367 3.955110632807844E-2
28 563 2.224080908844491E-2
29 47 1.2211240797201837E-2
29 143 2.071956528339822E-2
29 229 3.1905966219688824E-2
29 249 2.840672539239784E-2
29 279 4.062028934144157E-2
29 281 2.1585202974223387E-2
29 308 3.402266146665055E-2
29 360 2.4775430374325697E-2
29 366 4.054949521295752E-2
29 448 2.5927512322669398E-2
29 465 1.8224923774885736E-2
29 471 1.831563888873418E-2
29 533 3.492397689820488E-2
30 23 1.1656741327256942E-2
30 31 2.874972571337142E-2
30 99 1.9611911909296734E-2
30 235 1.5936702870813536E-2
30 236 1.3502011679710593E-2
30 237 2.1837325130504813E-2
30 238 4.5430371764735605E-2
30 252 4.929453556558104E-2
30 253 4.194108030865071E-2
30 322 2.3316084395819572E-2
30 370 1.831563888873418E-2
30 421 3.553815148568067E-2
30 466 2.894351968931594E-2
30 501 1.5702276554749352E-2
30 537 7.140762379271301E-2
30 538 1.831563888873418E-2
30 565 2.0728368203981093E-2
31 30 2.874972571337142E-2
31 47 6.451350076789816E-2
31 50 1.274246114520929E-1
31 172 2.0789223506163353E-2
31 229 1.1413651168502921E-1
31 249 1.756374735824584E-1
31 250 2.228103264163938E-2
31 251 2.708202449478783E-2
31 256 1.8833229286938178E-2
31 262 1.998431160445871E-2
31 279 7.010666931432122E-2
31 315 1.5892701922641885E-2
31 366 1.822381125820178E-2
31 379 1.9712807669446872E-2
31 438 1.831563888873418E-2
31 466 1.831563888873418E-2
31 471 2.3496082426270427E-2
31 514 1.6901535455868696E-1
31 533 7.776583461294793E-2
32 27 9.767392697519736E-2
32 38 5.534776216628532E-2
32 41 3.138571205735708E-2
32 142 5.483404004937345E-2
32 168 2.034394645526022E-2
32 228 5.7788114736149344E-2
32 235 2.8601373918427344E-2
32 236 3.047107455647213E-2
32 237 3.7824433827585116E-2
32 246 1.8590999764645545E-2
32 247 3.069431979113686E-2
32 252 1.840061372776361E-2
32 283 1.8684323487393007E-2
32 323 1.042221415601743E-1
32 376 3.107485713812872E-2
32 377 2.273145186806548E-2
32 378 9.394128527228977E-2
32 420 6.22945868676512E-2
32 422 2.581717701926407E-2
32 446 4.352030366640455E-2
32 452 2.062031002871645E-2
32 497 1.831563888873418E-2
32 537 2.4832513597845326E-2
32 565 3.0663983090864922E-2
33 88 2.625840005720918E-1
33 89 3.0613093957597242E-2
33 91 1.4356760211513666E-2
33 338 2.046399796309486E-2
33 339 1.6750212880633691E-1
33 381 1.831563888873418E-2
33 382 1.9900164516038703E-2
33 399 1.7524944600470088E-1
33 433 3.292759135823975E-1
33 434 3.203458971366834E-1
33 435 1.841814621771592E-2
34 35 8.687012750891282E-2
34 36 2.2604358803410357E-2
34 45 9.609905954042697E-2
34 46 2.803546592216283E-2
34 49 1.603930232511145E-2
34 54 2.3983571662574914E-2
34 55 2.0473189437296247E-2
34 56 3.520811263934671E-2
34 57 2.8332937533747136E-2
34 68 2.26268732294572E-2
34 69 9.458930885750333E-2
34 81 1.7899099244134697E-2
34 84 2.450533893576472E-2
34 86 2.1291948843565302E-2
34 87 1.6190186156337372E-2
34 96 1.831563888873418E-2
34 97 1.0956523937822604E-2
34 101 1.850201469815132E-2
34 118 1.6849897433015643E-2
34 120 2.872156953577402E-2
34 126 1.5108176665453372E-2
34 137 2.1370142374637434E-2
34 139 1.831563888873418E-2
34 159 1.708022991309662E-2
34 169 2.085549826318533E-2
34 170 9.183550040043412E-2
34 227 1.831563888873418E-2
34 252 2.719261064198367E-2
34 253 2.6008727798081856E-2
34 263 1.3819629930398574E-2
34 283 2.4844910086562588E-2
34 313 1.831563888873418E-2
34 314 3.03040441281166E-2
34 320 1.955290919987456E-2
34 322 3.283702108949104E-2
34 333 2.092119224077998E-2
34 334 3.4754752008745185E-2
34 364 1.6860094464420456E-2
34 369 2.574157163170098E-2
34 380 1.3769790104761617E-2
34 498 1.162828540048137E-1
34 501 1.831563888873418E-2
34 506 2.4568517854088076E-2
34 532 1.831563888873418E-2
34 534 2.592916557078442E-2
34 537 1.831563888873418E-2
34 539 1.831563888873418E-2
34 544 2.0202470929628114E-2
34 553 1.6383577629083088E-2
35 2 2.1709972887721977E-2
35 3 2.178965363314199E-2
35 4 2.1362322089181773E-2
35 5 2.0684271821529654E-2
35 6 1.831563888873418E-2
35 12 1.8260358955055046E-2
35 34 8.687012750891282E-2
35 45 7.747112895449533E-1
35 46 3.350606145595761E-2
35 49 2.367944777821154E-2
35 52 1.9374749553885108E-2
35 54 2.7076050770594655E-2
35 55 1.830642265216513E-2
35 56 1.831563888873418E-2
35 57 1.8240115374189694E-2
35 58 2.95326873217326E-2
35 61 2.1572164308732898E-2
35 68 2.7769541923025044E-2
35 69 7.994409974620854E-1
35 79 2.0465446953518974E-2
35 81 2.1133557529141443E-2
35 86 2.583279583355101E-2
35 87 4.582736504182656E-2
35 89 1.8423474939566656E-2
35 90 6.519476027498552E-2
35 91 1.9980310146139334E-2
35 96 1.146333581195633E-1
35 97 6.061425653835584E-2
35 98 2.8973542414037802E-2
35 99 2.9110985332224826E-2
35 101 2.0819370230353254E-2
35 107 2.0299304997711334E-2
35 108 1.857947559575579E-2
35 112 1.831563888873418E-2
35 113 1.842255760014669E-2
35 117 1.831563888873418E-2
35 118 5.7211294746491344E-2
35 120 1.8597221918625512E-1
35 123 2.1479375535076305E-2
35 124 2.1704678222295274E-2
35 125 3.478479356836915E-2
35 126 3.4527738546598165E-2
35 128 2.3704143127503373E-2
35 143 1.9444010310165523E-2
35 152 1.8302506929750304E-2
35 154 2.284148670997385E-2
35 155 2.4019716851146625E-2
35 159 2.174601818359289E-2
35 167 2.9967922988306E-2
35 169 1.6621965143441716E-1
35 170 7.540552888763615E-1
35 174 1.8140854240668646E-2
35 187 1.837303946760663E-2
35 190 1.831563888873418E-2
35 191 1.886300082692815E-2
35 197 1.9270099227838997E-2
35 200 1.9651947026575484E-2
35 203 1.8861511900981155E-2
35 214 2.870350638535948E-2
35 215 1.8017940703477335E-2
35 216 1.862434492918167E-2
35 218 2.548160399963191E-2
35 224 2.083483020377378E-2
35 227 8.668835182530557E-2
35 233 5.9478576405729004E-2
35 234 2.209083361959298E-2
35 252 1.781653781650745E-2
35 253 1.831563888873418E-2
35 254 2.0306787412995568E-2
35 281 1.8710470756420985E-2
35 286 3.635889097056448E-2
35 293 1.831563888873418E-2
35 298 1.848452631333209E-2
35 308 2.1469491233069855E-2
35 309 2.282743385893156E-2
35 312 9.572876669050576E-2
35 313 6.728309263360485E-2
35 314 1.8751229172544612E-2
35 322 7.294332153446603E-2
35 324 1.6717963883297847E-2
35 325 1.8403681246141654E-2
35 330 1.8814115549447227E-2
35 331 1.8499494976554443E-2
35 332 2.1946568276365666E-2
35 335 2.0563293185356955E-2
35 343 2.4392750357276942E-2
35 346 1.757454777906794E-2
35 348 1.831563888873418E-2
35 349 2.0607878347623457E-2
35 350 1.831563888873418E-2
35 351 1.984366561120022E-2
35 352 1.831563888873418E-2
35 353 1.980868220622304E-2
35 355 1.8327761644915855E-2
35 362 3.796178429908717E-2
35 363 3.231725184561503E-2
35 364 2.181261503332383E-2
35 365 1.845574504955747E-2
35 366 1.7926730838874645E-2
35 380 6.762966843075086E-2
35 381 1.836665193226467E-2
35 382 1.834281849176281E-2
35 383 1.8603598040779833E-2
35 384 1.852022759555602E-2
35 396 3.674816769026868E-2
35 404 5.6838862943631024E-2
35 405 2.408144230742644E-2
35 435 1.831563888873418E-2
35 436 3.0067844115712138E-2
35 449 2.7166263233329473E-2
35 451 1.8861720347453717E-2
35 479 4.0833183210425436E-2
35 480 3.292517127931901E-2
35 482 3.154330877093851E-2
35 498 7.356423911058411E-1
35 500 2.9969278065883415E-2
35 501 2.7177733142923766E-2
35 503 1.7866090504761845E-2
35 505 2.4018697345246257E-2
35 510 2.09589998237819E-2
35 512 7.006230789890253E-2
35 513 5.027725490906857E-2
35 527 2.1766690190363362E-2
35 533 1.8334720036970995E-2
35 539 3.969628416897178E-2
35 541 1.831563888873418E-2
35 544 1.836810448219403E-2
35 548 1.7451950205328012E-2
35 553 2.3114788341227918E-2
35 554 1.831563888873418E-2
35 559 1.9208078673499548E-2
35 560 2.5935548928317342E-2
35 570 1.831563888873418E-2
36 34 2.2604358803410357E-2
36 37 6.456831754202625E-1
36 56 1.993820426363171E-2
36 94 2.545555849676012E-2
36 95 2.6241871563294446E-2
36 369 1.7650094946153758E-2
36 416 1.8670822448162355E-2
36 422 1.8679521611570693E-1
36 457 2.0000412918164753E-1
36 506 1.831563888873418E-2
36 534 8.124736327777846E-2
36 537 2.0246319802190067E-2
37 36 6.456831754202625E-1
37 56 2.5128989993294753E-2
37 57 1.9329757078764925E-2
37 94 2.8470686636297426E-2
37 95 1.831563888873418E-2
37 242 2.1042206848786167E-2
37 416 2.598015508486798E-2
37 422 1.9319067809163462E-1
37 452 1.831563888873418E-2
37 457 2.3360748628078626E-1
37 534 8.155856009483389E-2
37 537 1.7746602298485813E-2
38 27 2.0662497863845833E-1
38 32 5.534776216628532E-2
38 41 1.6861713827062197E-1
38 142 1.174602110970423E-2
38 148 3.8919731648935196E-2
38 168 8.347500138464822E-2
38 176 4.548587008791816E-2
38 228 2.0258782897343782E-2
38 239 6.639494706106408E-2
38 247 1.831563888873418E-2
38 323 1.960947796670573E-2
38 368 1.220722401669742E-1
38 377 2.446734321567166E-2
38 378 5.6528182603479776E-2
38 389 2.0686624098439098E-2
38 392 2.7996951786592682E-2
38 419 2.8966795708970938E-2
38 420 6.35992748020638E-2
38 439 3.797598774832002E-2
38 446 2.1835529344668947E-1
39 28 1.5295736137477273E-2
39 40 1.2519245985666508E-1
39 135 4.545657218892993E-2
39 261 6.672084016978552E-2
39 367 6.627375240742239E-2
39 368 1.8082288034968294E-2
39 447 3.731668178548876E-2
39 467 2.755471661693189E-2
39 472 5.623831692793933E-2
39 515 3.4099269331415855E-2
39 562 4.939249041247893E-2
39 564 3.7638033024289586E-2
40 39 1.2519245985666508E-1
40 135 6.688410962324713E-2
40 261 7.886925478144344E-2
40 367 2.3242313624514144E-1
40 419 2.606518471690944E-2
40 447 1.831563888873418E-2
40 467 3.3368822748972064E-2
40 472 2.6708098807708358E-2
40 515 3.0698799070578934E-2
40 535 1.790537624689613E-2
41 27 6.484787561675262E-2
41 32 3.138571205735708E-2
41 38 1.6861713827062197E-1
41 148 2.1043324249406394E-2
41 168 2.7118546499397822E-2
41 228 2.994854686441949E-2
41 239 5.512058653602195E-2
41 323 8.13211751156679E-3
41 368 1.5563136522540152E-1
41 378 2.7694803706781373E-2
41 392 1.7543401514167542E-2
41 419 5.494186344210944E-2
41 420 5.920121934034048E-2
41 446 4.715403703418774E-2
42 43 1.5428953125642916E-1
42 105 2.0971885654382558E-2
42 111 8.161833547723016E-2
42 257 5.923044917887954E-2
42 258 2.8202836399309164E-2
42 297 1.1355529574858883E-1
42 306 1.865674889646868E-2
42 307 3.0187330691289146E-2
42 341 1.7864835438573503E-2
42 342 2.889419671052879E-2
42 354 3.663319928941264E-2
42 356 2.0365011457351815E-2
42 363 2.9363335870606678E-2
42 365 3.7731026449996895E-2
42 372 1.780650588199267E-2
42 373 2.2820425444259038E-2
42 374 8.514180726739898E-2
42 375 3.5440392597829873E-1
42 384 1.3424823108764198E-2
42 385 2.0364028955579892E-2
42 425 1.831563888873418E-2
42 426 1.710411806831066E-2
42 470 2.3015721697140116E-2
42 516 2.0054064802044744E-1
42 520 1.831563888873418E-2
42 521 4.3113063992662064E-2
43 42 1.5428953125642916E-1
43 110 1.620782606662423E-2
43 111 2.9908531037995307E-2
43 297 3.7223779539423796E-2
43 341 1.906981282338182E-2
43 356 6.287330397971463E-2
43 357 5.394715811309969E-2
43 372 7.26575507641162E-2
43 373 4.9993827190742614E-2
43 374 3.345778768120388E-2
43 375 6.507654825832963E-2
43 516 2.5640138991836425E-2
43 520 3.044506622411584E-2
43 521 3.732119766382373E-2
44 70 2.2319751789570064E-2
44 73 3.664543637559794E-2
44 106 1.831563888873418E-2
44 181 2.0414340009636475E-2
44 260 5.211940668614634E-2
44 413 1.9585603572436373E-2
44 511 7.757636074975975E-2
44 527 1.766305748868046E-2
44 550 3.5251508469009665E-2
44 551 1.831563888873418E-2
44 555 3.4972984755470234E-2
45 2 2.2028727067511043E-2
45 3 2.2114388730650955E-2
45 4 1.9022686238560432E-2
45 5 1.852477326475399E-2
45 6 1.841819651848851E-2
45 8 1.823154383491996E-2
45 12 1.831563888873418E-2
45 34 9.609905954042697E-2
45 35 7.747112895449533E-1
45 46 4.9014165865254304E-2
45 49 2.181416970500062E-2
45 51 1.8693668883526915E-2
45 52 1.9464217080234106E-2
45 54 2.741151669785669E-2
45 55 1.8383715832089868E-2
45 56 1.8442900913263664E-2
45 57 1.84299418897318E-2
45 58 3.2226212630413024E-2
45 61 2.17164510671407E-2
45 68 2.763417195649302E-2
45 69 9.48360318199549E-1
45 78 1.8444469627552605E-2
45 79 2.0120036703001075E-2
45 81 2.127314324603968E-2
45 84 1.822625755947478E-2
45 86 2.789850330375793E-2
45 87 5.101985937966867E-2
45 89 1.8003792826560734E-2
45 90 6.838532426564138E-2
45 91 1.8970322498900072E-2
45 96 1.2407712734314202E-1
45 97 6.534540704043838E-2
45 98 3.064260710488325E-2
45 99 3.275589536394718E-2
45 101 1.937306746933416E-2
45 107 1.8907184519661807E-2
45 108 1.831563888873418E-2
45 113 1.8342372211120818E-2
45 117 1.83227254355685E-2
45 118 6.095843537068322E-2
45 119 1.831563888873418E-2
45 120 2.108531108284292E-1
45 122 1.831563888873418E-2
45 123 2.158675081715373E-2
45 124 2.137338676810685E-2
45 125 3.0218023191983415E-2
45 126 3.2518962083520765E-2
45 128 1.831563888873418E-2
45 141 1.831563888873418E-2
45 152 1.8434724272946845E-2
45 154 2.3308263188701606E-2
45 155 2.4605344095690113E-2
45 159 2.2022774957960737E-2
45 167 3.1286555182929096E-2
45 169 1.8774743098383595E-1
45 170 8.95908946692873E-1
45 174 1.847641494183103E-2
45 179 1.8374587480902677E-2
45 187 1.831563888873418E-2
45 191 1.8338436938308562E-2
45 197 1.9285476848293442E-2
45 200 1.9787948367698135E-2
45 203 1.8354363203150963E-2
45 214 2.9669127140891552E-2
45 215 1.8348879765178735E-2
45 216 1.8674932569856875E-2
45 218 1.82198517913588E-2
45 222 1.8305168382612876E-2
45 224 2.1009433325747978E-2
45 225 1.830203270784717E-2
45 226 1.831563888873418E-2
45 227 9.388137932627462E-2
45 233 6.506709222364788E-2
45 234 2.255633190811919E-2
45 254 1.8459221599038338E-2
45 286 3.719979438855732E-2
45 298 1.831563888873418E-2
45 308 1.8952952388271188E-2
45 309 2.1258601989007343E-2
45 312 1.0438292223438049E-1
45 313 6.570164544882987E-2
45 320 1.7911758883519983E-2
45 322 7.233608653684667E-2
45 325 1.8543632149795063E-2
45 330 1.889589604424299E-2
45 331 1.8733403149838086E-2
45 332 2.229217646010825E-2
45 333 1.760111215826652E-2
45 334 1.831563888873418E-2
45 335 1.8417608893892976E-2
45 343 2.5585779994390746E-2
45 345 1.831563888873418E-2
45 346 1.867168642774451E-2
45 347 1.800184430952512E-2
45 348 1.8454200831596886E-2
45 349 2.091890400599767E-2
45 350 1.8460461634998586E-2
45 351 2.0109368226096377E-2
45 352 1.834609443944739E-2
45 353 2.0089917469551733E-2
45 355 1.831563888873418E-2
45 362 3.898687859022611E-2
45 363 3.287056445321912E-2
45 364 2.2101451865442535E-2
45 365 1.831563888873418E-2
45 380 7.103394792190809E-2
45 381 1.831563888873418E-2
45 382 1.7998771722235313E-2
45 383 1.838397270958905E-2
45 384 1.831563888873418E-2
45 396 3.812875251464785E-2
45 404 6.0759860995156574E-2
45 405 2.428062302567513E-2
45 413 1.82904929902077E-2
45 435 1.8409447711488305E-2
45 436 2.9555728568955955E-2
45 441 1.831563888873418E-2
45 449 2.720437290909277E-2
45 451 1.8389195254248876E-2
45 479 3.675999930204709E-2
45 480 2.8344319956416113E-2
45 482 2.1828251813801304E-2
45 484 1.8986944634665312E-2
45 498 8.671841343993019E-1
45 499 1.8302190565185235E-2
45 500 3.1502807459790345E-2
45 501 2.536522924806276E-2
45 503 1.8543446606042412E-2
45 504 1.825657378966413E-2
45 505 2.1593651031883154E-2
45 510 2.111364363724051E-2
45 511 1.831563888873418E-2
45 512 7.510653065007877E-2
45 513 5.249293041780505E-2
45 527 2.3376713091073566E-2
45 539 4.164325883822803E-2
45 544 1.831563888873418E-2
45 548 1.880648771050235E-2
45 550 1.8012887804368945E-2
45 553 2.3512952596456128E-2
45 554 1.8341771307009664E-2
45 559 1.9283097009162795E-2
45 560 2.66647210986805E-2
45 570 1.8874509827710415E-2
46 34 2.803546592216283E-2
46 35 3.350606145595761E-2
46 45 4.9014165865254304E-2
46 69 3.580100760372024E-2
46 73 1.6619706695555195E-2
46 78 2.792158068200605E-2
46 96 2.0349712114509047E-2
46 120 2.072822484711635E-2
46 169 1.738901441469115E-2
46 170 3.573552298169274E-2
46 232 1.606814032446629E-2
46 260 1.9234572889418676E-2
46 322 1.831563888873418E-2
46 369 2.021622910488346E-2
46 413 2.523427568690999E-2
46 498 4.294925132879085E-2
46 509 1.85527002867383E-2
46 511 3.474566592046702E-2
46 526 1.831563888873418E-2
46 527 2.4819525460044504E-2
46 532 1.798320065725137E-2
46 550 1.1572036276695903E-1
46 555 1.831563888873418E-2
47 29 1.2211240797201837E-2
47 31 6.451350076789816E-2
47 48 4.281265586623126E-1
47 50 1.2505365474199565E-1
47 101 1.9061927907360603E-2
47 229 1.775013619868259E-1
47 249 1.438323352894436E-1
47 256 2.170762965589374E-2
47 279 2.1001647893056377E-1
47 360 1.831563888873418E-2
47 361 1.978574631251131E-2
47 366 1.831563888873418E-2
47 448 1.831563888873418E-2
47 464 1.831563888873418E-2
47 471 2.7468794428663314E-2
47 502 2.1893808339803658E-2
47 514 1.497675764372461E-1
47 533 8.614538116655748E-2
47 537 1.800599277542793E-2
48 47 4.281265586623126E-1
48 50 1.831563888873418E-2
48 101 2.2276340669748824E-2
48 229 2.624646800654961E-2
48 249 1.831563888873418E-2
48 279 1.036976205950423E-1
48 322 1.988150392145941E-2
48 500 1.5502448340375237E-2
48 501 2.1401253736930845E-2
48 533 5.2360221790014025E-2
48 537 1.926017820688316E-2
49 34 1.603930232511145E-2
49 35 2.367944777821154E-2
49 45 2.181416970500062E-2
49 69 2.188265554726597E-2
49 120 1.8474470567258837E-2
49 169 1.860899603601751E-2
49 170 2.182927527000206E-2
49 313 1.831563888873418E-2
49 404 2.438121236164719E-2
49 498 2.164377115403729E-2
50 31 1.274246114520929E-1
50 47 1.2505365474199565E-1
50 48 1.831563888873418E-2
50 172 2.8861903492131594E-2
50 229 7.879990152043789E-2
50 249 1.5752100011858866E-1
50 250 2.7966454604726566E-2
50 251 7.320493533495809E-2
50 256 3.564024276951421E-2
50 279 7.158863713507638E-2
50 315 2.255724440967656E-2
50 361 2.66301690149605E-2
50 371 1.795576139347213E-2
50 379 1.831563888873418E-2
50 438 2.5254449987123298E-2
50 448 8.462252026586382E-2
50 466 1.2420778905568135E-2
50 502 2.52219721721206E-2
50 514 1.38154199453378E-1
50 533 4.17448363522373E-2
51 45 1.8693668883526915E-2
51 69 1.8724047630441193E-2
51 87 4.8711882860969E-2
51 91 2.756817490758389E-2
51 170 1.831563888873418E-2
51 313 9.794238515812184E-2
51 338 3.523978281158846E-2
51 381 8.232212815273977E-2
51 382 1.0176800114206916E-1
51 498 1.8131176616267293E-2
51 548 2.9165804097837818E-2
52 35 1.9374749553885108E-2
52 45 1.9464217080234106E-2
52 53 6.587573238583533E-2
52 69 1.9442258092391248E-2
52 96 2.080507108856585E-2
52 170 1.9348638731720026E-2
52 187 2.4113234892198885E-2
52 322 2.05604722119919E-2
52 334 1.831563888873418E-2
52 497 1.9954120239531754E-2
52 498 2.152629494389539E-2
52 499 9.246278383781868E-2
52 500 1.825840537852072E-2
52 540 2.232936023594988E-2
53 52 6.587573238583533E-2
53 314 1.9929360550459217E-2
53 333 2.1493100933891215E-2
53 334 2.1996419100032187E-2
53 336 2.522312447301174E-2
53 337 3.1250763740075904E-2
53 497 5.845020994693538E-2
53 499 3.5955327129526676E-2
53 506 1.824486875591361E-2
53 542 1.831563888873418E-2
54 34 2.3983571662574914E-2
54 35 2.7076050770594655E-2
54 45 2.741151669785669E-2
54 55 4.903521285042602E-1
54 56 2.1922819593650994E-1
54 57 2.311649004641363E-1
54 69 2.7583905441917116E-2
54 94 1.7864712064139532E-2
54 103 1.4101341039397464E-2
54 120 1.831563888873418E-2
54 169 1.5855164083866554E-2
54 170 2.710001787162393E-2
54 242 2.4600264336634165E-2
54 244 2.8691730991930127E-2
54 245 3.2445939426373166E-2
54 358 2.6245791693492254E-2
54 359 2.5402440166806907E-2
54 366 2.42955392977605E-2
54 394 1.831563888873418E-2
54 473 3.859454294179837E-2
54 498 2.7201464870841553E-2
54 531 2.8792311576936146E-2
54 532 5.71532673721508E-2
55 34 2.0473189437296247E-2
55 35 1.830642265216513E-2
55 45 1.8383715832089868E-2
55 54 4.903521285042602E-1
55 56 2.3388304918267133E-1
55 57 3.4117568661612374E-1
55 69 1.8481013499068822E-2
55 101 1.8842558170978824E-2
55 103 2.2873122471941364E-2
55 242 2.9803488456318552E-2
55 244 3.686690087081567E-2
55 245 3.214719028921107E-2
55 269 1.835965515079301E-2
55 358 4.094338241005928E-2
55 359 4.671990792194276E-2
55 360 1.9680772315139858E-2
55 455 1.831563888873418E-2
55 473 6.0408188537838116E-2
55 498 1.831563888873418E-2
55 531 5.249511141249122E-2
55 532 4.303264596370346E-2
56 34 3.520811263934671E-2
56 35 1.831563888873418E-2
56 36 1.993820426363171E-2
56 37 2.5128989993294753E-2
56 45 1.8442900913263664E-2
56 54 2.1922819593650994E-1
56 55 2.3388304918267133E-1
56 57 8.29750195036046E-1
56 69 1.827202096853104E-2
56 94 2.9571293111737326E-2
56 100 1.6748056824192392E-2
56 101 2.8488285851844538E-2
56 242 3.518886084999379E-2
56 244 3.564753414123325E-2
56 245 3.3605182560632066E-2
56 322 2.0455029728313322E-2
56 358 4.590654617961497E-2
56 359 4.468714051455186E-2
56 360 1.7809575116922848E-2
56 393 1.9326138324283097E-2
56 394 1.999196387928509E-2
56 473 3.456071178722327E-2
56 498 1.9489624790567792E-2
56 531 1.831563888873418E-2
56 532 2.9335117087005747E-2
56 534 2.9533821925002007E-2
57 34 2.8332937533747136E-2
57 35 1.8240115374189694E-2
57 37 1.9329757078764925E-2
57 45 1.84299418897318E-2
57 54 2.311649004641363E-1
57 55 3.4117568661612374E-1
57 56 8.29750195036046E-1
57 69 1.831563888873418E-2
57 101 2.506078664183441E-2
57 242 2.9268918048515263E-2
57 244 4.246343429355159E-2
57 245 2.3561715674050996E-2
57 358 5.204255587883897E-2
57 359 5.5390231064773955E-2
57 360 1.8727930075223925E-2
57 473 3.5684210731080315E-2
57 498 1.892999857955768E-2
57 531 1.7933362085926885E-2
57 532 2.310417432510239E-2
58 1 1.9529213448699384E-1
58 35 2.95326873217326E-2
58 45 3.2226212630413024E-2
58 69 3.166499161160838E-2
58 75 1.4694068872299447E-2
58 120 1.831563888873418E-2
58 169 1.5483999387619575E-2
58 170 3.152564317043307E-2
58 264 4.423150293318018E-2
58 271 6.483446732873556E-2
58 285 3.995831548219962E-2
58 286 7.054823349225813E-2
58 287 3.7180796927535384E-2
58 405 1.831563888873418E-2
58 441 8.964326703461559E-2
58 445 1.5636363711841766E-2
58 484 5.83447691368069E-2
58 485 1.720527202148951E-2
58 486 2.5215829433239946E-2
58 498 3.0637643864712103E-2
58 522 3.541510169463975E-2
58 525 1.9267823286960414E-2
59 1 2.1471148387957422E-2
59 74 1.6079010263367752E-2
59 271 3.813239763984192E-2
59 276 3.6288657323216386E-2
59 285 1.0433983245806756E-1
59 286 2.9919819832798074E-2
59 318 7.436364715686672E-2
59 406 5.297537362980617E-2
59 441 1.831563888873418E-2
59 445 6.169377730395612E-2
59 483 3.8527169628313096E-2
59 484 2.313927109927101E-2
59 487 2.1247862135837015E-2
60 266 2.106422942611777E-2
60 288 2.7093676849907766E-1
60 289 2.0894314044287335E-2
60 316 4.998561495446808E-2
60 318 5.638014914932154E-2
60 319 6.430950010116314E-2
60 444 1.8100120432507923E-2
60 483 1.831563888873418E-2
60 487 2.983084354104356E-2
60 524 3.561262397644544E-2
61 8 1.1947689544058242E-1
61 20 3.0577533198350652E-2
61 21 4.735242312989356E-2
61 35 2.1572164308732898E-2
61 45 2.17164510671407E-2
61 69 2.1859027945259523E-2
61 91 2.0880684696863855E-2
61 120 1.831563888873418E-2
61 160 1.7851243742185816E-2
61 166 2.9963788015564805E-2
61 169 1.713121233779196E-2
61 170 2.171174990691584E-2
61 299 1.831563888873418E-2
61 300 5.074004381107865E-2
61 311 1.831563888873418E-2
61 329 1.831563888873418E-2
61 488 1.594459566244774E-2
61 494 4.116092153916004E-1
61 498 2.172000947439928E-2
62 6 1.576033433126442E-2
62 7 1.0492303506224834E-2
62 14 1.831563888873418E-2
62 20 1.3881609680175988E-1
62 22 2.068814942451383E-1
62 157 2.963411676469124E-2
62 158 1.1146827351152924E-1
62 163 1.4135708413847923E-2
62 164 1.8846697811019393E-2
62 165 3.494091688361565E-1
62 329 1.8511637237672796E-1
62 387 4.496742582953573E-2
62 388 8.316656132860546E-2
62 567 1.831563888873418E-2
63 17 1.859815832379848E-1
63 19 3.841788819422798E-2
63 156 1.778544343335932E-2
63 310 8.585055660605025E-2
63 311 3.146441611646438E-2
63 402 1.7073206534309882E-1
63 491 6.642595677064847E-2
63 492 1.0944765556342415E-1
63 493 2.3670040123535024E-1
63 566 1.831563888873418E-2
64 8 2.4019978743875733E-1
64 13 4.7970948339395914E-2
64 65 4.4841658866637013E-1
64 66 3.48558207581956E-2
64 67 1.1011846832274966E-1
64 156 1.831563888873418E-2
64 166 1.387833732953037E-1
64 299 7.759582533235532E-2
64 300 1.5386246367088502E-1
64 301 4.892273166527547E-2
64 302 4.1879422936477784E-2
64 303 3.4533851306223544E-2
64 488 4.190479001709103E-1
64 489 7.806794643828435E-2
64 566 1.346671647141424E-2
65 8 4.410163190823034E-2
65 13 4.6882857991209656E-2
65 19 1.831563888873418E-2
65 64 4.4841658866637013E-1
65 66 1.1741238011799854E-1
65 67 1.9632186799538306E-1
65 156 2.1225671091248448E-2
65 160 1.831563888873418E-2
65 161 1.831563888873418E-2
65 166 1.1201665936118106E-1
65 299 2.423181940864153E-2
65 300 2.400111868368661E-2
65 301 5.067352013728145E-2
65 302 3.0343717585039568E-2
65 303 4.056387508226731E-2
65 488 1.5501986205897106E-1
65 489 8.385647996911047E-2
65 566 1.831563888873418E-2
65 569 1.831563888873418E-2
66 10 1.2620105890840139E-2
66 13 1.5020461060210967E-2
66 15 3.431132587170459E-2
66 16 2.9653696973042935E-2
66 64 3.48558207581956E-2
66 65 1.1741238011799854E-1
66 67 2.3485488431178048E-1
66 160 1.9414447916290968E-2
66 161 2.1683976386606137E-2
66 162 1.410771980579775E-2
66 166 5.4935935539214116E-2
66 301 2.8779577480622563E-2
66 303 2.6188217493413428E-2
66 488 2.768221612661649E-2
66 569 1.2979563081177916E-2
67 8 4.35352525516591E-2
67 13 2.271031340745876E-2
67 64 1.1011846832274966E-1
67 65 1.9632186799538306E-1
67 66 2.3485488431178048E-1
67 161 1.5956584440408633E-2
67 166 2.933640972803938E-1
67 299 2.1004637772992704E-2
67 301 1.831563888873418E-2
67 330 2.0615329362954363E-2
67 331 6.669871099277301E-2
67 488 9.000403079065791E-2
68 34 2.26268732294572E-2
68 35 2.7769541923025044E-2
68 45 2.763417195649302E-2
68 69 2.794158418725859E-2
68 120 2.0707080635145765E-2
68 169 1.8620618232282372E-2
68 170 2.7537184219831427E-2
68 231 1.831563888873418E-2
68 244 1.8299136485771063E-2
68 263 7.636923934044475E-2
68 313 1.831563888873418E-2
68 322 1.5344629418167603E-2
68 366 3.8158106194785144E-2
68 369 3.042249706536707E-2
68 451 1.5334653241171256E-1
68 468 3.253759723917662E-2
68 498 2.766495126589046E-2
69 2 2.202942270395368E-2
69 3 2.208192729395886E-2
69 4 1.9070491186119233E-2
69 5 1.8552415644925685E-2
69 6 1.8449748265029806E-2
69 8 1.831563888873418E-2
69 12 1.8339732537303186E-2
69 34 9.458930885750333E-2
69 35 7.994409974620854E-1
69 45 9.48360318199549E-1
69 46 3.580100760372024E-2
69 49 2.188265554726597E-2
69 51 1.8724047630441193E-2
69 52 1.9442258092391248E-2
69 54 2.7583905441917116E-2
69 55 1.8481013499068822E-2
69 56 1.827202096853104E-2
69 57 1.831563888873418E-2
69 58 3.166499161160838E-2
69 61 2.1859027945259523E-2
69 68 2.794158418725859E-2
69 78 1.7746204036270617E-2
69 79 2.019686190330571E-2
69 81 2.1309919301378148E-2
69 84 1.836421146529877E-2
69 86 2.8517831377841155E-2
69 87 5.2794949833820125E-2
69 89 1.831563888873418E-2
69 90 6.916025954842937E-2
69 91 1.963945299778014E-2
69 96 1.2349042876454489E-1
69 97 6.697758117288116E-2
69 98 3.1187152130756065E-2
69 99 2.653867234654587E-2
69 101 1.831563888873418E-2
69 107 1.861426928055709E-2
69 108 1.7675964779247662E-2
69 112 1.8311708908022542E-2
69 113 1.836672127645813E-2
69 116 1.8167177639332226E-2
69 117 1.8364704805279207E-2
69 118 6.1855674896495946E-2
69 119 1.828671308855376E-2
69 120 2.2103750653331516E-1
69 122 1.8494290240515184E-2
69 123 2.1585907757696136E-2
69 124 2.140562198213505E-2
69 125 3.067120529745418E-2
69 126 3.2983288814337694E-2
69 128 1.8437698332713318E-2
69 137 1.8047216772905147E-2
69 141 1.8165588701820064E-2
69 152 1.8450365530983528E-2
69 154 2.3514411116401523E-2
69 155 2.4734025575742148E-2
69 159 2.2118914297385567E-2
69 167 3.18740105044092E-2
69 169 1.935078551103362E-1
69 170 9.39812171940467E-1
69 174 1.840056921207553E-2
69 179 1.881251877790457E-2
69 187 1.831042298159557E-2
69 191 1.836656729384847E-2
69 197 1.930322130493556E-2
69 200 1.984629955054462E-2
69 203 1.83836192124042E-2
69 214 2.988929061536551E-2
69 215 1.8490866195932144E-2
69 216 1.8728313088274457E-2
69 218 1.831563888873418E-2
69 221 1.8269384322944372E-2
69 222 1.831563888873418E-2
69 223 1.8284874451307997E-2
69 224 2.1102416062057653E-2
69 225 1.831563888873418E-2
69 226 1.8325058384323693E-2
69 227 9.648927553669243E-2
69 233 6.635426028071523E-2
69 234 2.2460105850319927E-2
69 254 1.831563888873418E-2
69 271 1.7009889040854455E-2
69 286 3.800292465275655E-2
69 298 1.8376770444829448E-2
69 308 1.882881849781686E-2
69 309 2.12108497174066E-2
69 312 1.075307361485828E-1
69 313 7.006794059489609E-2
69 314 1.831563888873418E-2
69 322 6.090213227576347E-2
69 325 1.8347315072917467E-2
69 330 1.8947576300131226E-2
69 331 1.8836996713697127E-2
69 332 2.1870371548427685E-2
69 335 1.831563888873418E-2
69 343 2.5222278847636663E-2
69 345 1.850909027467564E-2
69 346 1.9279225301879255E-2
69 347 1.831563888873418E-2
69 348 1.84625979063354E-2
69 349 2.0985048271742697E-2
69 350 1.8506229584845758E-2
69 351 2.0190890590615712E-2
69 352 1.8363024271304852E-2
69 353 2.018445417642744E-2
69 355 1.8299763774111712E-2
69 362 3.891125508536827E-2
69 363 3.282888568350416E-2
69 364 2.2179276342959055E-2
69 365 1.8379976648498466E-2
69 380 7.273443374873188E-2
69 381 1.8790905751884628E-2
69 382 1.831563888873418E-2
69 383 1.8489850561311343E-2
69 384 1.8463312244254026E-2
69 396 3.861608754879448E-2
69 404 6.1971888641158115E-2
69 405 2.4650360603673583E-2
69 435 1.871017018626484E-2
69 436 2.9861718237658263E-2
69 441 1.8512626225444577E-2
69 449 2.753038228899308E-2
69 451 1.831563888873418E-2
69 479 3.7114278532351025E-2
69 480 2.8549632309793762E-2
69 482 2.2138291823101536E-2
69 484 1.831563888873418E-2
69 486 1.6932219682581955E-2
69 494 1.831563888873418E-2
69 498 9.071523922800524E-1
69 499 1.831563888873418E-2
69 500 3.088151522298188E-2
69 501 2.3255473894562347E-2
69 503 1.8648888106724708E-2
69 504 1.831563888873418E-2
69 505 2.1676547118483262E-2
69 510 2.095768387664003E-2
69 512 7.387960573727795E-2
69 513 5.1616214923632525E-2
69 516 1.8224702205919787E-2
69 527 2.262351382796398E-2
69 539 4.202939501396656E-2
69 544 1.8241491428220985E-2
69 548 1.9397854830007603E-2
69 553 2.368807976701583E-2
69 554 1.8362443434008585E-2
69 559 1.9304586676847868E-2
69 560 2.6827278720615008E-2
69 570 1.912337356090112E-2
70 25 3.0462564032398187E-1
70 26 1.1914697697522794E-1
70 44 2.2319751789570064E-2
70 73 5.095028982239985E-1
70 181 3.392895422060357E-2
70 260 1.4386923568172535E-1
70 413 2.2919488108088172E-2
70 430 1.2051649222623223E-1
70 431 8.310563598958383E-2
70 508 5.189887586647931E-2
70 511 3.090197516570847E-2
70 527 1.639130668726358E-2
70 530 2.3393346124097623E-2
70 550 9.80854219214741E-2
70 551 6.936680024130573E-2
70 552 6.076648641999683E-2
70 555 2.2399352782381816E-2
70 558 4.760966685353775E-2
71 72 5.085447869983073E-1
71 83 1.5904918765587295E-2
71 295 4.603513421390715E-2
71 432 4.0258836611834004E-1
71 495 2.6049661642200284E-1
71 496 2.098782199604481E-1
71 507 5.458798993017129E-2
71 510 1.831563888873418E-2
71 549 1.1504536042696643E-1
71 556 1.7421700699839068E-1
71 557 4.9698200482400506E-2
72 71 5.085447869983073E-1
72 83 2.4250254469976407E-2
72 108 1.7372015034442963E-2
72 295 5.757149386360048E-2
72 414 1.831563888873418E-2
72 432 2.912866790030137E-1
72 495 4.2346564692447297E-1
72 496 3.719584100353599E-1
72 507 9.12815576882889E-2
72 510 2.5554898254980137E-2
72 549 1.8951382274366302E-1
72 556 2.861464727530916E-1
72 557 7.388460608285521E-2
73 25 3.5827005071516516E-1
73 26 9.822162091331206E-2
73 44 3.664543637559794E-2
73 46 1.6619706695555195E-2
73 70 5.095028982239985E-1
73 181 2.521915716885092E-2
73 260 2.805040931500454E-1
73 413 2.3922429068643003E-2
73 430 8.01644209796714E-2
73 431 4.664115054373061E-2
73 508 6.787192127863328E-2
73 511 4.11570198386198E-2
73 527 1.831563888873418E-2
73 530 2.045786504901702E-2
73 550 1.594853821798485E-1
73 551 3.778773399874478E-2
73 552 5.1827545774363305E-2
73 555 5.8390988687394625E-2
73 558 3.365682983252474E-2
74 59 1.6079010263367752E-2
74 75 5.5688933265694754E-2
74 76 2.668642605197423E-2
74 264 1.6909212028095633E-2
74 271 8.868909155040267E-2
74 272 1.7587564695768273E-2
74 275 2.9482046796642236E-2
74 285 6.407615693924379E-2
74 286 1.831563888873418E-2
74 317 2.1079229587060953E-2
74 405 4.1618291152284215E-2
74 406 9.447768227959782E-2
74 407 5.2960076821931795E-2
74 428 5.685586282990121E-2
74 440 7.811594641204951E-2
74 441 3.2709741196744795E-2
74 443 1.967638258268323E-2
74 445 1.0745936115029656E-1
74 525 1.831563888873418E-2
74 545 2.515745840640888E-2
74 546 2.1318925954437275E-2
75 1 1.831563888873418E-2
75 58 1.4694068872299447E-2
75 74 5.5688933265694754E-2
75 76 2.663956440506312E-1
75 264 4.157210599813987E-2
75 265 1.831563888873418E-2
75 271 1.8539259255430304E-2
75 272 3.765642952632847E-2
75 274 1.831563888873418E-2
75 285 2.0656606315091603E-2
75 287 4.610919596832583E-2
75 317 1.831563888873418E-2
75 428 1.8010602380847673E-2
75 441 6.710813490274008E-2
75 522 2.8986510909618422E-2
75 547 1.8837299383394623E-2
76 1 2.4685386105903297E-2
76 74 2.668642605197423E-2
76 75 2.663956440506312E-1
76 264 2.6725873024511394E-2
76 265 3.759709325675881E-2
76 266 3.259503314082196E-2
76 272 1.363307248643607E-1
76 274 4.0136635646270985E-2
76 275 2.4452987415374983E-2
76 285 2.0203635833747197E-2
76 287 6.8145809789651E-2
76 289 3.39026358558607E-2
76 316 1.831563888873418E-2
76 317 4.5005459988698385E-2
76 406 1.831563888873418E-2
76 428 3.3363358672842E-2
76 440 1.831563888873418E-2
76 441 4.4154341672901734E-2
76 522 1.8717511258160905E-2
76 545 3.554375977550874E-2
76 546 2.0016415388952E-2
77 266 7.64836448649809E-2
77 272 3.906135439903817E-2
77 274 1.831563888873418E-2
77 288 9.700207644500236E-2
77 289 2.3472335224904432E-2
77 319 2.2984596786637293E-2
77 408 1.34270485566317E-1
77 429 5.098067979157195E-2
77 444 3.493109387256603E-2
77 524 4.43053087972044E-2
77 545 1.3816620240815484E-2
78 45 1.8444469627552605E-2
78 46 2.792158068200605E-2
78 69 1.7746204036270617E-2
78 259 1.6046859025424506E-2
78 369 1.888714816095618E-2
78 413 2.3458204751159506E-2
78 508 4.740847416253507E-2
78 509 1.4348913647762146E-1
78 511 2.1995275203938854E-2
78 513 1.831563888873418E-2
78 527 3.346900318891526E-2
78 529 1.851512330155833E-2
78 550 2.0204672124209785E-2
79 35 2.0465446953518974E-2
79 45 2.0120036703001075E-2
79 69 2.019686190330571E-2
79 80 2.4257950386230143E-1
79 120 1.831563888873418E-2
79 169 1.7768180619942057E-2
79 170 2.012750564277772E-2
79 196 1.9081713931134926E-2
79 199 1.439781884099898E-2
79 203 3.177132714629161E-2
79 327 3.3268948397130974E-2
79 498 2.0109743380293248E-2
80 79 2.4257950386230143E-1
80 115 2.2822385894310796E-2
80 128 1.819218401248182E-2
80 202 2.423391903119667E-2
80 218 2.4618126374029305E-2
80 327 7.65695033067096E-2
80 328 2.8239749510323372E-2
80 410 2.7284933666123033E-2
80 475 2.2374459935334236E-2
80 482 1.831563888873418E-2
81 34 1.7899099244134697E-2
81 35 2.1133557529141443E-2
81 45 2.127314324603968E-2
81 69 2.1309919301378148E-2
81 120 1.9456492061517342E-2
81 169 1.8797099045698103E-2
81 170 2.1236921831849602E-2
81 312 1.831563888873418E-2
81 313 1.883355850989308E-2
81 498 2.122380880270905E-2
82 83 2.1574747590786875E-1
82 107 2.3876002383415494E-2
82 108 8.842128666177367E-2
82 180 3.090270038872614E-2
82 413 3.28014225662103E-2
82 414 2.999493161542605E-2
82 432 5.865178796727105E-3
82 512 1.7265383689783764E-2
82 513 1.831563888873418E-2
82 527 2.7012638875945405E-2
82 529 2.0171819008253537E-2
82 549 2.6983730200051556E-2
82 557 1.912028081224536E-2
83 71 1.5904918765587295E-2
83 72 2.4250254469976407E-2
83 82 2.1574747590786875E-1
83 101 1.831563888873418E-2
83 106 2.898584528610759E-2
83 107 2.0563885745137823E-2
83 108 2.1544573555567134E-1
83 109 1.831563888873418E-2
83 180 3.682144952164838E-2
83 182 1.831563888873418E-2
83 183 1.831563888873418E-2
83 185 5.3364726245215766E-2
83 217 1.849979803620448E-2
83 322 2.4181814886123122E-2
83 413 2.24322854735602E-2
83 414 4.2613789577202896E-2
83 495 2.8986265627002333E-2
83 496 2.676981473062281E-2
83 501 2.397045498939735E-2
83 509 2.9203655525509645E-2
83 512 3.070748558943818E-2
83 513 3.624007613232649E-2
83 526 2.6572372500976077E-2
83 527 2.4067243603791807E-2
83 529 3.361860289349817E-2
83 530 1.995829695569549E-2
83 549 7.222213777054771E-2
83 556 4.431965838738174E-2
83 557 1.3565892616456554E-2
84 34 2.450533893576472E-2
84 45 1.822625755947478E-2
84 69 1.836421146529877E-2
84 85 6.992586937008186E-2
84 86 2.9513111556549915E-1
84 87 1.1092794691326618E-1
84 170 1.8507215674597226E-2
84 322 2.005224486876111E-2
84 380 2.7624543073647093E-2
84 381 1.8707866235960553E-2
84 498 1.831563888873418E-2
85 84 6.992586937008186E-2
85 86 8.043982963729113E-2
85 87 2.7505822507697498E-2
85 92 3.029865771650758E-2
85 93 3.1815199854862884E-2
85 233 2.2872767692643826E-2
85 234 3.0213384538260727E-2
85 381 2.1885829025485092E-2
85 382 2.113957863463086E-2
85 397 1.8097662041551988E-2
85 398 1.831563888873418E-2
85 548 2.2465575695359574E-2
86 34 2.1291948843565302E-2
86 35 2.583279583355101E-2
86 45 2.789850330375793E-2
86 69 2.8517831377841155E-2
86 84 2.9513111556549915E-1
86 85 8.043982963729113E-2
86 87 1.810178635057706E-1
86 92 1.7590353494474915E-2
86 116 1.9526786265296907E-2
86 120 1.3015628130645855E-2
86 170 2.8355873396869388E-2
86 380 1.831563888873418E-2
86 498 2.7721893501706698E-2
87 34 1.6190186156337372E-2
87 35 4.582736504182656E-2
87 45 5.101985937966867E-2
87 51 4.8711882860969E-2
87 69 5.2794949833820125E-2
87 84 1.1092794691326618E-1
87 85 2.7505822507697498E-2
87 86 1.810178635057706E-1
87 120 1.62973183041273E-2
87 170 5.132460140711133E-2
87 312 1.831563888873418E-2
87 313 1.0038239589003059E-1
87 338 1.831563888873418E-2
87 380 2.0771550822598274E-2
87 381 7.081558235643928E-2
87 382 7.998954956420734E-2
87 396 1.831563888873418E-2
87 498 5.092330565885029E-2
87 548 1.831563888873418E-2
88 33 2.625840005720918E-1
88 89 3.6046129057851636E-2
88 91 1.831563888873418E-2
88 220 1.9086292203434992E-2
88 338 1.8336401917152755E-2
88 339 1.4501558956698607E-1
88 381 1.961884226224164E-2
88 382 1.8863038185821204E-2
88 399 1.502039346112024E-1
88 433 1.6211820806366137E-1
88 434 2.1389447038624385E-1
88 435 2.4495955866230136E-2
88 548 1.3494457066106181E-2
89 12 2.2785979174676296E-2
89 33 3.0613093957597242E-2
89 35 1.8423474939566656E-2
89 45 1.8003792826560734E-2
89 69 1.831563888873418E-2
89 88 3.6046129057851636E-2
89 90 1.9976510722539465E-2
89 91 5.867969944697119E-2
89 170 1.9529024390370367E-2
89 220 1.870364547455856E-2
89 313 3.086445714593946E-2
89 339 6.249789329000995E-2
89 381 3.4086601002682265E-2
89 382 2.9744144924535136E-2
89 398 1.831563888873418E-2
89 399 6.1089355451118696E-2
89 433 3.360280835793755E-2
89 434 3.896406262268663E-2
89 548 3.530800418054378E-2
90 35 6.519476027498552E-2
90 45 6.838532426564138E-2
90 69 6.916025954842937E-2
90 89 1.9976510722539465E-2
90 91 5.4094833792085434E-2
90 112 1.872928801433263E-2
90 120 2.708187817921222E-2
90 169 1.831563888873418E-2
90 170 6.900040377092924E-2
90 200 2.2952044344193442E-2
90 312 1.679029628812741E-2
90 313 4.048985846699989E-2
90 349 1.7755324145771256E-2
90 498 6.549351099295087E-2
91 4 1.9513943669319904E-2
91 5 2.1197282820514005E-2
91 33 1.4356760211513666E-2
91 35 1.9980310146139334E-2
91 45 1.8970322498900072E-2
91 51 2.756817490758389E-2
91 61 2.0880684696863855E-2
91 69 1.963945299778014E-2
91 88 1.831563888873418E-2
91 89 5.867969944697119E-2
91 90 5.4094833792085434E-2
91 170 1.883096523773886E-2
91 220 1.8400114946055965E-2
91 254 2.028004327523966E-2
91 313 1.0042881249600717E-1
91 338 1.98924737779582E-2
91 381 1.6970904821230856E-1
91 382 1.6324041711668058E-1
91 397 1.9378766561916696E-2
91 398 2.5614611301558923E-2
91 399 1.8314282248993605E-2
91 435 2.2062759045598637E-2
91 494 1.97222136441625E-2
91 498 1.831563888873418E-2
91 548 6.268768227436126E-2
92 85 3.029865771650758E-2
92 86 1.7590353494474915E-2
92 93 5.527342420714475E-1
92 116 4.083367464923126E-2
92 233 2.7593035504762928E-2
92 234 4.762106423776697E-2
92 397 5.0259783667449924E-2
92 398 3.792670463563202E-2
92 441 1.831563888873418E-2
92 547 2.4580346135366894E-2
92 548 1.8424807686459547E-2
93 85 3.1815199854862884E-2
93 92 5.527342420714475E-1
93 116 4.1266823091877264E-2
93 233 2.5637473056552944E-2
93 234 3.930374486515012E-2
93 397 5.072941227690147E-2
93 398 3.412373060330422E-2
93 441 1.8501112964671346E-2
93 522 1.831563888873418E-2
93 547 2.0000867421514155E-2
93 548 1.8216667648773773E-2
94 36 2.545555849676012E-2
94 37 2.8470686636297426E-2
94 54 1.7864712064139532E-2
94 56 2.9571293111737326E-2
94 95 1.582444434121716E-1
94 240 2.083436091531144E-2
94 268 2.1962991645422654E-2
94 369 2.033835615308539E-2
94 393 1.831563888873418E-2
94 394 2.2593698860324633E-2
94 416 1.831563888873418E-2
94 457 3.73033245874828E-2
94 532 1.8727664559589068E-2
94 534 4.381053603584728E-2
94 537 2.5490444894587915E-2
94 565 1.919548256301777E-2
95 36 2.6241871563294446E-2
95 37 1.831563888873418E-2
95 94 1.582444434121716E-1
95 100 2.926327019808199E-2
95 240 2.7820306896510643E-2
95 241 5.927121866145708E-2
95 268 1.7967014916176978E-2
95 393 2.57859856228232E-2
95 394 3.1233098130955365E-2
95 418 1.5762261524239284E-2
95 422 2.2937087962060475E-2
95 457 2.6948860498360115E-2
95 459 2.58716641011531E-2
95 534 5.885248997441106E-2
96 34 1.831563888873418E-2
96 35 1.146333581195633E-1
96 45 1.2407712734314202E-1
96 46 2.0349712114509047E-2
96 52 2.080507108856585E-2
96 69 1.2349042876454489E-1
96 120 4.7014180363487174E-2
96 169 4.0891887775179235E-2
96 170 1.2710636115180776E-1
96 187 1.8682109440393162E-2
96 190 1.8139910245179157E-2
96 191 1.7769314526188955E-2
96 312 1.5129286959136725E-2
96 313 3.0549813178777585E-2
96 396 1.791732330023799E-2
96 404 1.3537479404594505E-2
96 413 2.0755857056477315E-2
96 449 1.915002355978873E-2
96 498 1.1836920094934159E-1
96 505 2.550964642975121E-2
96 527 2.1181071820395483E-2
96 539 1.7362197934228184E-2
96 550 2.242972872754049E-2
97 2 1.8182845341538623E-2
97 34 1.0956523937822604E-2
97 35 6.061425653835584E-2
97 45 6.534540704043838E-2
97 69 6.697758117288116E-2
97 98 4.995698392121945E-1
97 119 3.333339601513827E-2
97 120 7.14660957509398E-2
97 122 3.0936854701195185E-2
97 169 1.9625925917408228E-2
97 170 6.501075077134989E-2
97 224 2.2492436760337207E-2
97 313 1.831563888873418E-2
97 344 3.6687457808460666E-2
97 345 3.0233639662232397E-2
97 348 1.7745574970798126E-2
97 350 2.0965831512392653E-2
97 351 2.4224137987730262E-2
97 353 2.7560525014750842E-2
97 498 6.455967777743567E-2
97 571 1.4861954149329814E-2
98 35 2.8973542414037802E-2
98 45 3.064260710488325E-2
98 69 3.1187152130756065E-2
98 97 4.995698392121945E-1
98 119 2.8751036127988138E-2
98 120 7.931664949159446E-2
98 121 2.1973131810033894E-2
98 122 1.0658258476066089E-1
98 170 3.0642059612718583E-2
98 179 7.348090623530475E-2
98 344 5.570502119306533E-2
98 345 8.613842390659161E-2
98 346 1.4602768728851093E-2
98 347 3.5171326372752686E-2
98 350 1.7436855597270696E-2
98 353 1.831563888873418E-2
98 498 3.0348955098818978E-2
98 571 1.854281576881401E-2
99 30 1.9611911909296734E-2
99 35 2.9110985332224826E-2
99 45 3.275589536394718E-2
99 69 2.653867234654587E-2
99 120 1.831563888873418E-2
99 143 1.759763478774758E-2
99 169 1.6164612503361528E-2
99 170 2.6369675252517235E-2
99 322 1.0368230872155099E-1
99 390 1.842689801425483E-2
99 498 3.0474238106677227E-2
99 501 3.1178656235920452E-2
99 512 1.9029740960766435E-2
100 23 4.8785809651926824E-2
100 56 1.6748056824192392E-2
100 95 2.926327019808199E-2
100 240 5.399414102493079E-2
100 241 3.7786686334919606E-2
100 243 1.831563888873418E-2
100 270 4.430514072411857E-2
100 280 6.1647307625193624E-2
100 359 1.831563888873418E-2
100 393 2.0279756081141968E-2
100 394 3.7287600011084876E-1
100 415 3.972397588436963E-2
100 416 2.1376115719032723E-2
100 417 3.0916641082617727E-2
100 418 9.943465498138591E-2
100 456 2.470747738592752E-2
100 458 5.195269553550229E-2
100 459 3.4203613444599344E-2
100 473 1.0196113378351065E-1
100 474 2.3259026523618897E-2
100 532 4.6862019470060884E-2
100 538 1.831563888873418E-2
100 561 1.831563888873418E-2
101 34 1.850201469815132E-2
101 35 2.0819370230353254E-2
101 45 1.937306746933416E-2
101 47 1.9061927907360603E-2
101 48 2.2276340669748824E-2
101 55 1.8842558170978824E-2
101 56 2.8488285851844538E-2
101 57 2.506078664183441E-2
101 69 1.831563888873418E-2
101 83 1.831563888873418E-2
101 108 1.8603724804362315E-2
101 170 1.8125259810317925E-2
101 185 1.846607735186956E-2
101 229 1.9511208412468346E-2
101 238 1.7572687571521313E-2
101 245 1.831563888873418E-2
101 252 8.825299195658229E-2
101 253 7.825591802277672E-2
101 255 1.7639638459022566E-2
101 268 1.810181808249513E-2
101 283 2.1739698919894024E-2
101 284 2.0620719978486912E-2
101 322 1.1658081854358346E-1
101 366 4.761935266912807E-2
101 390 2.337407376445441E-2
101 391 2.3396938649197233E-2
101 393 1.831563888873418E-2
101 394 1.7241092446628588E-2
101 452 2.691986631464057E-2
101 498 2.264098557107108E-2
101 501 1.1461586622073744E-1
101 506 1.912081381802397E-2
101 517 1.831563888873418E-2
101 532 2.04079126151552E-2
101 533 3.30765182878445E-2
101 534 1.831563888873418E-2
101 537 1.071713715274763E-1
101 538 1.5250891769320905E-2
101 565 4.5396998580270055E-2
102 103 2.8723142130906876E-2
102 240 2.9101068143220415E-2
102 267 2.303224567537403E-2
102 269 4.1199322597704435E-1
102 270 2.5613786129079483E-2
102 394 1.744159882211979E-2
102 454 3.62079368848496E-1
102 455 1.831563888873418E-2
102 474 4.966911737050954E-2
102 531 2.0388465963501873E-1
102 532 7.099595320056278E-2
103 54 1.4101341039397464E-2
103 55 2.2873122471941364E-2
103 102 2.8723142130906876E-2
103 240 1.9725909861775158E-2
103 268 1.8908802779223858E-2
103 269 6.735421778766815E-2
103 340 2.0289173754172884E-2
103 376 4.071203422052101E-2
103 452 3.678865968355307E-2
103 453 1.839691902143164E-2
103 454 1.9709260998256956E-2
103 455 2.676290324322805E-1
103 531 5.466296385454585E-2
103 532 2.601006439970687E-2
104 258 1.0118273402252787E-2
104 321 2.1943041313133453E-2
104 354 2.1561199801916973E-2
104 356 1.627787139344963E-2
104 357 3.1936567414573576E-2
104 372 2.189367728057002E-2
104 373 4.5064904708151915E-2
104 374 3.138776981812616E-2
104 424 1.1309634148236702E-1
104 425 1.831563888873418E-2
104 427 2.6577961708512128E-2
104 469 2.556857953108318E-1
104 520 1.005509429001956E-1
104 521 6.468141069334465E-2
105 42 2.0971885654382558E-2
105 257 2.508161206417204E-2
105 305 1.1434486970879083E-1
105 306 1.1033033551001813E-1
105 307 2.1652659178215589E-1
105 320 2.7213217885017175E-2
105 354 2.4418659135642496E-2
105 363 2.7815044699700565E-2
105 365 1.7934339056033945E-2
105 375 3.1838059635670074E-2
105 404 2.25301914147166E-2
105 470 1.831563888873418E-2
105 516 3.356652618799114E-2
106 44 1.831563888873418E-2
106 83 2.898584528610759E-2
106 180 1.3749089222797944E-1
106 181 2.0636107588099672E-1
106 182 5.6596900489442006E-2
106 183 5.847731527513303E-2
106 184 2.1662658878645838E-2
106 217 2.47429610130405E-2
106 259 4.513763443707885E-2
106 260 1.831563888873418E-2
106 296 6.704260575588851E-2
106 413 8.020470344666816E-2
106 511 1.9360800823865966E-2
106 526 4.2960947471921876E-2
106 527 7.264643872992155E-2
106 528 3.931250263527149E-2
106 530 3.472798474934543E-2
106 541 2.112427717290227E-2
107 35 2.0299304997711334E-2
107 45 1.8907184519661807E-2
107 69 1.861426928055709E-2
107 82 2.3876002383415494E-2
107 83 2.0563885745137823E-2
107 170 1.842503090858856E-2
107 185 1.3745812793795562E-1
107 217 2.351364789690131E-2
107 322 1.6625134545920267E-2
107 498 1.831563888873418E-2
107 512 3.3371912167701294E-2
107 513 4.228448468838565E-2
107 529 3.337007602531571E-2
107 541 2.484953110911653E-2
107 549 1.831563888873418E-2
107 556 1.8162287616877826E-2
108 35 1.857947559575579E-2
108 45 1.831563888873418E-2
108 69 1.7675964779247662E-2
108 72 1.7372015034442963E-2
108 82 8.842128666177367E-2
108 83 2.1544573555567134E-1
108 101 1.8603724804362315E-2
108 109 2.8027108921245325E-2
108 185 2.2582959195052554E-2
108 322 2.6834755617044802E-2
108 414 1.831563888873418E-2
108 495 2.047510649855247E-2
108 496 1.831563888873418E-2
108 498 1.8432270176863063E-2
108 501 2.932970949308296E-2
108 512 3.438263735397151E-2
108 513 3.438959844970953E-2
108 549 4.25003316794108E-2
108 556 3.221461730597931E-2
109 83 1.831563888873418E-2
109 108 2.8027108921245325E-2
109 180 1.3479101922129963E-1
109 181 2.0797127640800907E-2
109 182 6.447507123888188E-2
109 183 5.2145042087009014E-2
109 184 1.5238530869348394E-2
109 413 2.174415929453983E-2
109 414 3.0154701599733996E-1
109 527 1.1817606533077384E-2
109 528 3.554724455256965E-2
110 43 1.620782606662423E-2
110 111 3.2476941530093784E-1
110 112 3.2336034355345517E-1
110 297 2.1953058265678013E-1
110 298 1.4130867878291242E-1
110 362 1.822399471252859E-2
110 363 2.0569592999818295E-2
110 365 1.509467028786458E-1
110 383 1.893214982396797E-1
110 384 5.590399142401411E-2
110 516 1.831563888873418E-2
111 42 8.161833547723016E-2
111 43 2.9908531037995307E-2
111 110 3.2476941530093784E-1
111 112 2.4420598579445352E-1
111 297 4.5611526150246934E-1
111 298 3.0237158281699594E-2
111 363 1.831563888873418E-2
111 365 7.944219932575655E-2
111 383 4.812531547012798E-2
111 384 1.7593974941568977E-2
111 516 2.6811876614216634E-2
112 35 1.831563888873418E-2
112 69 1.8311708908022542E-2
112 90 1.872928801433263E-2
112 110 3.2336034355345517E-1
112 111 2.4420598579445352E-1
112 297 1.0651525028704664E-1
112 298 3.269748458644333E-2
112 355 2.7563410761083696E-2
112 365 8.838967142088881E-2
112 383 1.0339433696009148E-1
112 384 2.9502706212385415E-2
113 35 1.842255760014669E-2
113 45 1.8342372211120818E-2
113 69 1.836672127645813E-2
113 114 2.083843590417256E-1
113 120 1.7532514726894783E-2
113 123 1.7417014504219808E-1
113 124 3.013993818037466E-1
113 125 3.4974664574632636E-2
113 126 2.2541065696822793E-2
113 136 2.6895333636352013E-2
113 170 1.8348394472677873E-2
113 498 1.831563888873418E-2
114 113 2.083843590417256E-1
114 115 1.8561001229918987E-2
114 123 5.9701520235799554E-2
114 124 7.29173157305136E-2
114 125 2.4138869251533905E-2
114 126 2.1340419215000007E-2
114 136 2.487318407021792E-2
114 139 2.477663452136323E-2
114 218 1.7622767220567596E-2
114 291 8.394305912764702E-2
114 475 1.831563888873418E-2
115 80 2.2822385894310796E-2
115 114 1.8561001229918987E-2
115 125 1.831563888873418E-2
115 127 8.109162957159452E-2
115 128 1.0102594000080829E-1
115 131 1.3120621694068102E-1
115 145 4.321802057513519E-2
115 189 1.342150316298972E-2
115 192 1.8156752040176142E-2
115 196 1.831563888873418E-2
115 198 1.831563888873418E-2
115 201 3.853254880167282E-2
115 202 2.7546178534588454E-2
115 206 2.2001659994152097E-2
115 208 4.221915711938875E-2
115 209 5.057830456939919E-2
115 218 3.922891451371133E-1
115 293 5.0634006523927175E-2
115 326 5.302264919792398E-2
115 327 1.7328995610077447E-2
115 409 1.678898438027041E-2
115 410 1.9309526666135026E-2
115 412 4.959277562730985E-2
115 475 4.138189866119667E-1
115 478 2.0664823302888727E-2
115 480 2.942339625417491E-2
115 482 9.707246245391113E-2
116 69 1.8167177639332226E-2
116 86 1.9526786265296907E-2
116 92 4.083367464923126E-2
116 93 4.1266823091877264E-2
116 117 3.369193655248059E-2
116 118 6.285493351388766E-2
116 170 1.831563888873418E-2
116 233 2.9083915108219328E-2
116 234 3.8455840865315685E-2
116 364 7.780712898290619E-2
116 397 1.9895467640996582E-2
116 398 1.9335745979211786E-2
116 548 2.1146819193792542E-2
117 35 1.831563888873418E-2
117 45 1.83227254355685E-2
117 69 1.8364704805279207E-2
117 116 3.369193655248059E-2
117 118 3.8678483727303085E-2
117 170 1.8396643390854242E-2
117 233 1.9825448187887854E-2
117 312 2.3153313833775512E-2
117 364 2.5867613183604414E-2
117 498 1.829653217804773E-2
118 34 1.6849897433015643E-2
118 35 5.7211294746491344E-2
118 45 6.095843537068322E-2
118 69 6.1855674896495946E-2
118 116 6.285493351388766E-2
118 117 3.8678483727303085E-2
118 120 3.1733077585129534E-2
118 169 2.5317748421446996E-2
118 170 6.0923711864241704E-2
118 312 1.831563888873418E-2
118 313 3.178091730249962E-2
118 364 1.6881235928052746E-1
118 403 2.060293296136184E-2
118 498 5.969080881212901E-2
119 45 1.831563888873418E-2
119 69 1.828671308855376E-2
119 97 3.333339601513827E-2
119 98 2.8751036127988138E-2
119 120 2.0833791326768474E-2
119 167 3.18087687237465E-2
119 227 2.1152313814354735E-2
119 332 2.0811819371975897E-2
119 344 4.9595778376226404E-2
119 346 1.989298881227739E-2
119 353 2.6622907768265206E-2
120 2 1.9387493450153746E-2
120 3 1.9333799584955964E-2
120 6 1.7547330326715384E-2
120 34 2.872156953577402E-2
120 35 1.8597221918625512E-1
120 45 2.108531108284292E-1
120 46 2.072822484711635E-2
120 49 1.8474470567258837E-2
120 54 1.831563888873418E-2
120 58 1.831563888873418E-2
120 61 1.831563888873418E-2
120 68 2.0707080635145765E-2
120 69 2.2103750653331516E-1
120 79 1.831563888873418E-2
120 81 1.9456492061517342E-2
120 86 1.3015628130645855E-2
120 87 1.62973183041273E-2
120 90 2.708187817921222E-2
120 96 4.7014180363487174E-2
120 97 7.14660957509398E-2
120 98 7.931664949159446E-2
120 99 1.831563888873418E-2
120 113 1.7532514726894783E-2
120 118 3.1733077585129534E-2
120 119 2.0833791326768474E-2
120 121 1.7621435926826832E-2
120 122 8.923198141243309E-2
120 123 1.831563888873418E-2
120 124 1.825861126148352E-2
120 125 1.761840417582389E-2
120 126 2.1476253684976895E-2
120 154 1.831563888873418E-2
120 155 1.831563888873418E-2
120 159 2.010232423683395E-2
120 167 6.596903843430628E-2
120 169 5.8295251268882346E-2
120 170 2.0908212937374265E-1
120 179 1.2768692476501195E-1
120 197 1.8467049756488614E-2
120 200 1.829783261089489E-2
120 214 2.055247009933562E-2
120 216 1.742679982840637E-2
120 224 1.9064674342666097E-2
120 225 1.927547433888013E-2
120 226 2.1376266166744845E-2
120 227 4.303338857473521E-2
120 233 2.4208458441037424E-2
120 234 1.5563368575934395E-2
120 286 1.909833801500778E-2
120 309 1.831563888873418E-2
120 312 3.861653489397923E-2
120 313 2.6412789744219383E-2
120 322 2.2414700071678038E-2
120 330 1.831563888873418E-2
120 331 1.831563888873418E-2
120 332 1.831563888873418E-2
120 343 2.735680423509596E-2
120 344 1.657563475779559E-2
120 345 9.162282514452331E-2
120 346 1.9628669190428666E-1
120 347 1.2447530630317309E-1
120 349 1.831563888873418E-2
120 351 1.831563888873418E-2
120 352 1.845455075549146E-2
120 353 1.8004311221541273E-2
120 362 2.2905776097722985E-2
120 363 2.170337266138566E-2
120 364 1.9349250748999708E-2
120 380 2.661920510199342E-2
120 396 2.449865830450508E-2
120 404 3.727385667355913E-2
120 405 1.603803868298349E-2
120 436 2.088722413928927E-2
120 449 1.767844050463485E-2
120 460 1.8261691683045183E-2
120 479 2.0095284914022855E-2
120 480 1.831563888873418E-2
120 482 1.4128310474760172E-2
120 498 2.02859732387484E-1
120 500 1.9596757411164137E-2
120 505 1.831563888873418E-2
120 510 1.831563888873418E-2
120 511 1.8264263846258177E-2
120 512 2.895745781777636E-2
120 513 2.7297267019966882E-2
120 527 1.831563888873418E-2
120 539 2.5833468080710353E-2
120 553 1.9720386508802465E-2
120 559 1.875466043157801E-2
120 560 2.8284738486804576E-2
120 570 5.5680749503484214E-2
120 571 3.1035019674713723E-2
121 98 2.1973131810033894E-2
121 120 1.7621435926826832E-2
121 122 4.7259638750635075E-2
121 179 2.993074540974244E-2
121 344 4.428660084490706E-2
121 345 5.069018520382405E-2
121 346 2.1762092719731257E-2
121 347 2.9456758959684314E-2
121 570 1.831563888873418E-2
121 571 2.6173116557750536E-2
122 45 1.831563888873418E-2
122 69 1.8494290240515184E-2
122 97 3.0936854701195185E-2
122 98 1.0658258476066089E-1
122 120 8.923198141243309E-2
122 121 4.7259638750635075E-2
122 170 1.8257130973022197E-2
122 179 4.157328563917308E-1
122 344 3.943650235810743E-2
122 345 4.619644070661938E-1
122 346 6.105975646881551E-2
122 347 1.2409628116040501E-1
122 571 1.831563888873418E-2
123 35 2.1479375535076305E-2
123 45 2.158675081715373E-2
123 69 2.1585907757696136E-2
123 113 1.7417014504219808E-1
123 114 5.9701520235799554E-2
123 120 1.831563888873418E-2
123 124 6.308046121176645E-1
123 125 6.724723683214334E-2
123 126 1.1332562057024517E-1
123 136 1.831563888873418E-2
123 169 1.7171825454768395E-2
123 170 2.1493308143169267E-2
123 324 3.808217245071207E-2
123 498 2.139253347835489E-2
124 35 2.1704678222295274E-2
124 45 2.137338676810685E-2
124 69 2.140562198213505E-2
124 113 3.013993818037466E-1
124 114 7.29173157305136E-2
124 120 1.825861126148352E-2
124 123 6.308046121176645E-1
124 125 5.594573360416526E-2
124 126 4.783152472340325E-2
124 136 2.019652414684843E-2
124 139 2.077225695399313E-2
124 170 2.128658280673739E-2
124 498 2.121335245653568E-2
125 35 3.478479356836915E-2
125 45 3.0218023191983415E-2
125 69 3.067120529745418E-2
125 113 3.4974664574632636E-2
125 114 2.4138869251533905E-2
125 115 1.831563888873418E-2
125 120 1.761840417582389E-2
125 123 6.724723683214334E-2
125 124 5.594573360416526E-2
125 126 1.0906756578929411E-1
125 131 3.054481521093954E-2
125 139 1.966167397665197E-2
125 145 2.861876483076233E-2
125 170 3.03071348768035E-2
125 218 3.690395853983548E-2
125 293 2.017953405054606E-2
125 324 2.660855491990609E-2
125 325 2.0810867725173092E-2
125 449 1.831563888873418E-2
125 475 1.8944781505362634E-2
125 479 3.7836816572974385E-2
125 480 1.1783147429119932E-1
125 482 3.817995875022185E-2
125 498 2.9623940612108327E-2
126 34 1.5108176665453372E-2
126 35 3.4527738546598165E-2
126 45 3.2518962083520765E-2
126 69 3.2983288814337694E-2
126 113 2.2541065696822793E-2
126 114 2.1340419215000007E-2
126 120 2.1476253684976895E-2
126 123 1.1332562057024517E-1
126 124 4.783152472340325E-2
126 125 1.0906756578929411E-1
126 169 1.831563888873418E-2
126 170 3.2526515742820575E-2
126 313 1.8360302495009705E-2
126 324 6.598180784840851E-2
126 325 3.6495633757821916E-2
126 475 2.1054566079528325E-2
126 498 3.223822430322545E-2
127 115 8.109162957159452E-2
127 128 1.5128219164850082E-1
127 131 2.4959117248335883E-2
127 206 1.599872012880964E-2
127 218 7.306167903747826E-2
127 293 2.1209452922310763E-2
127 326 2.7443393637634823E-2
127 475 6.774010993793836E-2
127 478 1.831563888873418E-2
127 482 3.607693210520375E-2
128 35 2.3704143127503373E-2
128 45 1.831563888873418E-2
128 69 1.8437698332713318E-2
128 80 1.819218401248182E-2
128 115 1.0102594000080829E-1
128 127 1.5128219164850082E-1
128 131 3.9276760505420893E-2
128 170 1.8537569598346695E-2
128 192 1.831563888873418E-2
128 193 1.831563888873418E-2
128 208 1.9242414860667925E-2
128 218 1.3258783293596973E-1
128 293 6.1340994460982866E-2
128 475 8.22467375749864E-2
128 480 2.0096845328493446E-2
128 482 7.919045236602086E-2
128 498 1.8186175183046882E-2
129 130 1.3257125842579096E-1
129 132 5.9767717122974275E-2
129 133 5.454355132585568E-2
129 144 6.03876153600829E-2
129 146 2.1386739442499803E-2
129 150 2.533999436638166E-2
129 186 6.459394134351482E-2
129 188 6.2130218910003844E-2
129 205 4.0168394886418E-2
129 207 7.919084730525033E-2
129 219 3.066446096576628E-2
129 277 1.831563888873418E-2
129 291 1.71368054646221E-2
129 292 1.831563888873418E-2
129 294 2.741754566452954E-2
129 326 4.5454496789876675E-2
129 411 3.2870482112323164E-2
129 476 3.0641813033409977E-2
129 477 1.5480887654839692E-1
129 478 4.9316703858211436E-2
130 129 1.3257125842579096E-1
130 132 6.440187303336314E-2
130 133 3.935442057439324E-2
130 144 2.015720861816569E-2
130 150 7.881019535019505E-2
130 186 2.009960616545944E-2
130 188 6.252470263127617E-2
130 189 3.566175753497064E-2
130 195 1.831563888873418E-2
130 205 9.777698621432185E-3
130 207 9.595037043599013E-2
130 277 4.288864657503634E-2
130 278 2.3788349311296482E-2
130 292 2.366655065125753E-2
130 294 3.412908045380513E-2
130 326 2.9451872781789446E-2
130 411 2.8997166873214252E-2
130 477 4.445249358112992E-1
130 478 4.1471981651792014E-2
131 18 1.799704275948292E-2
131 115 1.3120621694068102E-1
131 125 3.054481521093954E-2
131 127 2.4959117248335883E-2
131 128 3.9276760505420893E-2
131 145 5.5876301152789534E-2
131 208 1.831563888873418E-2
131 209 1.8486237621767137E-2
131 218 1.285991070814897E-1
131 293 1.950007838915902E-2
131 326 1.1653056711970991E-2
131 475 9.80405408756358E-2
131 479 1.831563888873418E-2
131 480 4.186708414149537E-2
131 482 7.274998128738293E-2
132 129 5.9767717122974275E-2
132 130 6.440187303336314E-2
132 133 3.2249944923674345E-1
132 150 1.8126663619672495E-2
132 151 2.8818624775201515E-2
132 188 2.741562483287997E-1
132 189 4.34466758909363E-2
132 195 3.774697251120039E-2
132 201 1.7046430383122275E-2
132 207 1.831563888873418E-2
132 278 1.5365267561811441E-2
132 291 2.4985495500299867E-2
132 326 7.198767258842759E-2
132 328 1.831563888873418E-2
132 409 3.9603263718138174E-2
132 410 2.856074811146584E-2
132 411 3.959135406736895E-2
132 412 1.7727151871509825E-1
132 477 4.1618417438282145E-2
132 478 1.822315807207974E-1
133 129 5.454355132585568E-2
133 130 3.935442057439324E-2
133 132 3.2249944923674345E-1
133 146 1.7569286156176627E-2
133 188 1.723749772498881E-1
133 292 1.730666853004681E-2
133 326 1.831563888873418E-2
133 409 1.5352594870050957E-2
133 411 8.402122635963842E-2
133 412 6.255038664944408E-2
133 477 2.4085370068504718E-2
133 478 4.308685744556719E-2
134 28 3.701327511658631E-1
134 135 3.911626298120912E-2
134 248 1.6483527399074877E-1
134 250 5.6004339907240505E-2
134 251 1.831563888873418E-2
134 261 3.396497120700629E-2
134 262 3.515856841463107E-1
134 367 7.169680789753949E-2
134 467 1.8739060544004305E-2
134 515 1.8280285886589556E-2
134 563 2.3212783481414388E-2
135 28 1.831563888873418E-2
135 39 4.545657218892993E-2
135 40 6.688410962324713E-2
135 134 3.911626298120912E-2
135 230 2.1211931060314437E-2
135 250 1.9467204007680573E-2
135 261 4.2308155329865094E-1
135 262 2.2739000260768253E-2
135 367 1.5171164963470785E-1
135 419 1.831563888873418E-2
135 421 5.412117604483055E-2
135 447 9.470449179801253E-2
135 466 1.6338349254467498E-2
135 467 1.60135919019729E-1
135 472 3.519894846966447E-2
135 515 1.5430663275304327E-1
135 535 4.277424484906599E-2
135 536 2.408794885306397E-2
135 564 2.1434323990710075E-2
136 18 2.0999465765670047E-2
136 113 2.6895333636352013E-2
136 114 2.487318407021792E-2
136 123 1.831563888873418E-2
136 124 2.019652414684843E-2
136 137 5.768501789288938E-2
136 138 6.148068386861773E-2
136 139 2.5633871308999488E-2
136 291 2.425861846852794E-2
136 504 1.820680081725966E-2
137 18 2.0965407281033823E-2
137 34 2.1370142374637434E-2
137 69 1.8047216772905147E-2
137 136 5.768501789288938E-2
137 138 2.531527857753176E-2
137 145 3.0989001622215233E-2
137 155 1.911735121407266E-2
137 204 1.831563888873418E-2
137 218 2.3223389909431257E-2
137 325 2.8626786709617255E-2
137 479 2.123119370221374E-2
137 480 2.0473439161178643E-2
137 481 2.8270580554250888E-2
137 482 3.867928349916327E-2
138 136 6.148068386861773E-2
138 137 2.531527857753176E-2
138 139 3.947283766236218E-2
138 140 1.831563888873418E-2
138 141 1.794921752444953E-2
138 153 2.372617826956963E-2
138 154 2.9838747712699752E-2
138 177 2.2149749082357104E-2
138 178 2.109208727713165E-2
138 215 2.265315155967784E-2
138 504 2.5897548794532165E-2
139 34 1.831563888873418E-2
139 114 2.477663452136323E-2
139 124 2.077225695399313E-2
139 125 1.966167397665197E-2
139 136 2.5633871308999488E-2
139 138 3.947283766236218E-2
139 141 1.867878386331794E-2
139 154 5.394316831017546E-2
139 155 2.3005086910528015E-2
139 214 4.3551894357935536E-2
139 215 2.4699930843836246E-2
139 498 1.8313491266279874E-2
139 503 3.447184622100539E-2
140 138 1.831563888873418E-2
140 141 7.468928116448695E-1
140 154 3.6048903677537186E-2
140 155 6.823938023143099E-2
140 177 8.460768742137414E-2
140 178 6.645526567796925E-2
140 210 7.589150270076815E-2
140 211 3.829303387829206E-2
140 212 4.1866223861992694E-2
140 213 6.547981791891488E-2
140 214 3.616742252373831E-2
140 215 1.831563888873418E-2
140 464 4.105025063736967E-2
140 498 1.0370816245474505E-2
140 503 2.2422215462921508E-1
140 504 3.4300524147149236E-1
140 542 2.7267705654543294E-2
141 45 1.831563888873418E-2
141 69 1.8165588701820064E-2
141 138 1.794921752444953E-2
141 139 1.867878386331794E-2
141 140 7.468928116448695E-1
141 154 4.6056106721588275E-2
141 155 9.599483532129101E-2
141 177 6.665171480330849E-2
141 178 6.042855772681595E-2
141 210 4.585672146798778E-2
141 211 2.515187921235493E-2
141 212 3.29025455605384E-2
141 213 5.095861878654345E-2
141 214 5.6358283002985815E-2
141 464 3.9284674849102724E-2
141 498 1.8622715199344317E-2
141 503 3.8493585538534064E-1
141 504 3.839731441984816E-1
141 542 2.7722705134444456E-2
142 25 1.7167354626409344E-2
142 27 4.019054511523169E-2
142 32 5.483404004937345E-2
142 38 1.174602110970423E-2
142 228 2.7659870214276055E-2
142 237 2.0424832229641796E-2
142 253 1.8155653026152442E-2
142 314 4.3895795125382595E-2
142 323 9.227886471956834E-2
142 376 1.831563888873418E-2
142 439 1.8775906045499877E-2
142 446 1.9867242558538344E-2
142 452 1.831563888873418E-2
142 497 6.673822156998993E-2
142 506 3.929863609867927E-2
142 537 2.6619050025618034E-2
142 565 2.923655172156301E-2
143 29 2.071956528339822E-2
143 35 1.9444010310165523E-2
143 99 1.759763478774758E-2
143 217 3.297335189610288E-2
143 229 2.530322868933168E-2
143 254 8.925625415567748E-2
143 256 2.0625646726549825E-2
143 322 1.979818669879394E-2
143 371 1.831563888873418E-2
143 448 5.9479166561877586E-2
143 465 2.4763144563766765E-1
143 500 1.942898292022374E-2
143 501 2.3311940854125166E-2
143 512 1.9829590888858464E-2
143 533 1.831563888873418E-2
143 541 4.2949965916607595E-2
144 129 6.03876153600829E-2
144 130 2.015720861816569E-2
144 146 2.722171249926509E-2
144 186 2.4015101445698284E-1
144 204 2.7237874368557118E-2
144 205 1.0261239244703266E-1
144 207 4.0635554401424204E-2
144 219 2.2906115128712445E-1
144 292 1.8590652893073118E-2
144 326 1.831563888873418E-2
144 476 1.7548430542664092E-1
144 477 1.6830468197971134E-2
144 481 6.4592313387633E-2
145 115 4.321802057513519E-2
145 125 2.861876483076233E-2
145 131 5.5876301152789534E-2
145 137 3.0989001622215233E-2
145 204 4.634348744605772E-2
145 218 5.5632171354385834E-2
145 219 1.6495507980326327E-2
145 325 4.167959372325642E-2
145 326 1.831563888873418E-2
145 475 3.799949684676952E-2
145 476 1.856595636624254E-2
145 479 1.747210733828758E-2
145 480 3.6800916910163996E-2
145 481 2.2852220024585305E-2
145 482 1.0262090366371256E-1
146 129 2.1386739442499803E-2
146 133 1.7569286156176627E-2
146 144 2.722171249926509E-2
146 150 3.873093537927031E-2
146 151 4.260940641267641E-2
146 186 1.831563888873418E-2
146 291 2.285863430072923E-2
146 292 2.1412546348741297E-2
146 409 2.4817696244215304E-2
146 411 2.3993102631664202E-2
146 477 1.8354216828016027E-2
147 149 4.1122105734426245E-1
147 152 1.403277612898389E-2
147 153 1.831563888873418E-2
147 175 1.972197022723661E-2
147 177 7.080653763799165E-2
147 178 3.5310594228495376E-2
147 215 2.743248705941981E-2
147 450 1.937317018684233E-2
147 542 7.817224526342194E-2
147 543 2.9938880853454808E-2
147 544 3.155891813639065E-2
148 27 1.9228268998223802E-2
148 38 3.8919731648935196E-2
148 41 2.1043324249406394E-2
148 168 1.831563888873418E-2
148 176 1.9315388711632342E-1
148 239 2.4347868306042346E-2
148 368 3.9150115314754916E-2
148 419 2.3059453766024196E-2
148 420 9.186074668413832E-3
148 437 2.5681561673143997E-2
148 439 3.1326828421892446E-2
148 446 2.9435746594715175E-2
149 147 4.1122105734426245E-1
149 175 1.831563888873418E-2
149 176 3.6415505289878594E-2
149 177 8.697789165944467E-2
149 178 3.4852069199199774E-2
149 215 2.5231450565474926E-2
149 450 2.768939865741691E-2
149 497 1.4868424859445685E-2
149 542 1.807350413362005E-1
149 543 2.248469282036882E-2
149 544 2.497305625641648E-2
150 129 2.533999436638166E-2
150 130 7.881019535019505E-2
150 132 1.8126663619672495E-2
150 146 3.873093537927031E-2
150 151 5.2122586419589625E-2
150 188 1.9260594101923482E-2
150 189 1.831563888873418E-2
150 195 2.2396003601703587E-2
150 277 3.195867711877279E-2
150 292 3.8954386714075286E-2
150 294 4.47772966074111E-2
150 409 6.0494357940430336E-2
150 411 3.4051496638437005E-2
150 477 1.227688501475572E-1
151 132 2.8818624775201515E-2
151 146 4.260940641267641E-2
151 150 5.2122586419589625E-2
151 188 2.3098200456184898E-2
151 189 2.649888293749092E-2
151 195 1.8402920677343226E-2
151 291 2.087191116248004E-2
151 326 4.386561925986673E-2
151 409 1.4776747351530464E-1
151 410 3.324024696451468E-2
151 411 1.831563888873418E-2
151 412 2.5213877747782488E-2
151 478 1.700305957469703E-2
152 35 1.8302506929750304E-2
152 45 1.8434724272946845E-2
152 69 1.8450365530983528E-2
152 147 1.403277612898389E-2
152 153 2.99590508595299E-1
152 170 1.831563888873418E-2
152 173 1.4035892901180272E-1
152 174 3.0250297139645244E-1
152 214 1.88772832799296E-2
152 390 4.20038923845494E-2
152 391 3.2659238217462284E-2
152 450 2.0600108110706103E-2
152 498 1.889972424249798E-2
152 506 3.723923629586857E-2
152 543 2.054446206874721E-1
152 544 1.1089156139154611E-1
153 138 2.372617826956963E-2
153 147 1.831563888873418E-2
153 152 2.99590508595299E-1
153 154 2.469221072270119E-2
153 173 2.9434396471737767E-1
153 174 1.7680620928503027E-1
153 214 1.831563888873418E-2
153 215 1.9255630935318443E-2
153 450 3.1990532982217296E-2
153 503 1.3394411775999487E-2
153 506 2.4524921124821023E-2
153 543 1.7454199503296924E-1
153 544 6.719082299113587E-2
154 35 2.284148670997385E-2
154 45 2.3308263188701606E-2
154 69 2.3514411116401523E-2
154 120 1.831563888873418E-2
154 138 2.9838747712699752E-2
154 139 5.394316831017546E-2
154 140 3.6048903677537186E-2
154 141 4.6056106721588275E-2
154 153 2.469221072270119E-2
154 155 7.356435543108827E-2
154 169 1.6661997952190935E-2
154 170 2.318325252810234E-2
154 177 1.205870869901781E-2
154 178 1.831563888873418E-2
154 214 3.9150491138099104E-2
154 215 1.9955870851218853E-2
154 498 2.3135835991912747E-2
154 503 7.844112232433859E-2
154 504 1.066415468073619E-1
155 35 2.4019716851146625E-2
155 45 2.4605344095690113E-2
155 69 2.4734025575742148E-2
155 120 1.831563888873418E-2
155 137 1.911735121407266E-2
155 139 2.3005086910528015E-2
155 140 6.823938023143099E-2
155 141 9.599483532129101E-2
155 154 7.356435543108827E-2
155 169 1.647909871286937E-2
155 170 2.4403982392299583E-2
155 177 1.831563888873418E-2
155 178 3.366824993769858E-2
155 213 1.2011713857151753E-2
155 214 2.4918581513807353E-2
155 215 1.956422317119954E-2
155 498 2.436943892348394E-2
155 503 1.0700893193780037E-1
155 504 1.2631287424560042E-1
156 9 2.4034388154349787E-2
156 10 3.915635659956397E-2
156 15 1.831563888873418E-2
156 16 1.5527908017328985E-2
156 19 4.942074043243674E-2
156 63 1.778544343335932E-2
156 64 1.831563888873418E-2
156 65 2.1225671091248448E-2
156 162 1.831563888873418E-2
156 300 1.5411301836694341E-2
156 302 2.2176105612184766E-1
156 303 4.145704217088026E-2
156 489 2.6437277578057194E-1
156 491 8.33595401376552E-2
156 566 6.432825552529273E-1
156 568 5.090844190425595E-2
156 569 1.2292305580727428E-1
157 6 3.681747610334298E-1
157 12 1.956341105933914E-1
157 14 2.1259951180961776E-2
157 18 5.1538769595243714E-2
157 22 1.7639345058792076E-2
157 62 2.963411676469124E-2
157 158 1.8680802619682713E-1
157 159 1.4755253275919028E-1
157 164 2.549425071384528E-1
157 165 2.6687689764591717E-2
157 304 9.876265776230571E-2
157 330 1.831563888873418E-2
157 331 2.6607810903589952E-2
157 388 8.630575360941019E-2
157 490 5.2982469508537244E-2
157 567 1.522720776015054E-1
158 6 9.67183378201665E-2
158 7 1.831563888873418E-2
158 12 6.280019640888454E-2
158 14 7.475580850758595E-2
158 18 2.4387893958067043E-2
158 22 3.0360450098639084E-2
158 62 1.1146827351152924E-1
158 157 1.8680802619682713E-1
158 159 3.8957515404115E-2
158 163 1.831563888873418E-2
158 164 5.6422849103130626E-2
158 165 8.361083891207541E-2
158 388 1.831563888873418E-2
158 490 3.735329833597043E-2
158 567 7.792578785607984E-2
159 6 4.0621713782750063E-1
159 12 1.8243342838431276E-1
159 18 4.7906685389395326E-2
159 20 1.768123988667646E-2
159 34 1.708022991309662E-2
159 35 2.174601818359289E-2
159 45 2.2022774957960737E-2
159 69 2.2118914297385567E-2
159 120 2.010232423683395E-2
159 157 1.4755253275919028E-1
159 158 3.8957515404115E-2
159 164 5.440093801901054E-2
159 169 1.8426533820805266E-2
159 170 2.20392077668944E-2
159 304 1.5538545809381101E-2
159 313 1.831563888873418E-2
159 498 2.205739679198042E-2
159 567 1.645105489596858E-2
160 17 3.842707621314009E-2
160 19 4.792376519233769E-2
160 20 4.1097470289666024E-2
160 21 1.831563888873418E-2
160 61 1.7851243742185816E-2
160 65 1.831563888873418E-2
160 66 1.9414447916290968E-2
160 161 5.478981001542751E-1
160 166 3.1088773739953477E-2
160 299 5.556082938225613E-2
160 301 7.669217452833954E-2
160 303 5.9220952592469865E-2
160 310 7.190489360824262E-2
160 311 4.531524761220662E-2
160 329 2.1611166425257615E-2
160 402 2.618645231478861E-2
160 494 4.135518986891772E-2
161 17 4.219875611350059E-2
161 19 7.217645852604702E-2
161 20 1.9515096964637647E-2
161 65 1.831563888873418E-2
161 66 2.1683976386606137E-2
161 67 1.5956584440408633E-2
161 160 5.478981001542751E-1
161 162 2.961340428156357E-2
161 166 2.8671146078734444E-2
161 299 4.587298627405054E-2
161 301 7.020936554806662E-2
161 303 4.799908883489508E-2
161 310 6.604634302059176E-2
161 311 3.857485015777576E-2
161 329 1.320945643441926E-2
161 402 3.0143737122310287E-2
161 494 2.1472804983404134E-2
162 10 2.813341771464113E-2
162 15 3.4854124307269495E-2
162 16 1.5031205229689185E-1
162 19 4.308488873006321E-2
162 66 1.410771980579775E-2
162 156 1.831563888873418E-2
162 161 2.961340428156357E-2
162 492 4.0622974677960055E-2
162 493 3.0169323680982435E-2
162 566 2.8735769905710785E-2
162 568 1.394468963338984E-1
162 569 1.334072334309117E-1
163 7 5.853028549018483E-1
163 11 2.7702001906047813E-1
163 14 1.9601383651021545E-1
163 22 2.6449189722872475E-2
163 62 1.4135708413847923E-2
163 158 1.831563888873418E-2
163 165 6.0085345727871706E-2
163 387 2.0287624393592102E-1
163 490 3.271492847651684E-2
163 567 1.903730846936208E-2
164 6 1.1676575672369846E-1
164 12 5.405888017974108E-2
164 13 1.29872059624128E-2
164 14 9.63860542491573E-3
164 18 2.783461388051956E-2
164 22 1.831563888873418E-2
164 62 1.8846697811019393E-2
164 157 2.549425071384528E-1
164 158 5.6422849103130626E-2
164 159 5.440093801901054E-2
164 165 2.8792787359064084E-2
164 304 1.7345263700456526E-1
164 330 1.8853244718411617E-2
164 331 1.831563888873418E-2
164 388 1.1753187866590087E-1
164 490 9.227021934352553E-2
164 567 2.6022233033149994E-1
165 7 7.208988848236042E-2
165 11 4.056099580996146E-2
165 14 1.0886863622417448E-1
165 20 3.0126966267124446E-2
165 22 3.9129882688021284E-1
165 62 3.494091688361565E-1
165 157 2.6687689764591717E-2
165 158 8.361083891207541E-2
165 163 6.0085345727871706E-2
165 164 2.8792787359064084E-2
165 329 1.2732370686209277E-2
165 387 7.956432786769496E-2
165 388 6.670297555271214E-2
165 490 6.544021232589996E-2
165 567 8.002129999141473E-2
166 8 1.3504755746119945E-1
166 13 2.7854482862165374E-2
166 61 2.9963788015564805E-2
166 64 1.387833732953037E-1
166 65 1.1201665936118106E-1
166 66 5.4935935539214116E-2
166 67 2.933640972803938E-1
166 160 3.1088773739953477E-2
166 161 2.8671146078734444E-2
166 299 8.493653121911117E-2
166 300 4.020632320007764E-2
166 301 4.7640379610759905E-2
166 303 6.519097596100381E-3
166 330 2.4645583112897426E-2
166 331 2.1801471194256506E-2
166 488 1.2790944287267825E-1
166 494 1.0709779623902996E-1
167 35 2.9967922988306E-2
167 45 3.1286555182929096E-2
167 69 3.18740105044092E-2
167 119 3.18087687237465E-2
167 120 6.596903843430628E-2
167 169 1.6129727008301998E-2
167 170 3.122923497652058E-2
167 226 1.9898832408055026E-2
167 346 1.9879651043736854E-1
167 347 3.1005883503680706E-2
167 498 3.0787057069725968E-2
167 570 1.735249408058699E-1
167 571 1.04648251022248E-1
168 27 1.9703777446489104E-1
168 32 2.034394645526022E-2
168 38 8.347500138464822E-2
168 41 2.7118546499397822E-2
168 148 1.831563888873418E-2
168 176 1.9204923937512792E-2
168 228 1.831563888873418E-2
168 239 1.5392100750359108E-1
168 368 4.0246097489364224E-2
168 376 2.8575391335368412E-2
168 377 4.541889091126096E-2
168 392 7.779644396544451E-2
168 419 1.6478674491178808E-2
168 420 1.5308857676489243E-2
168 439 2.3482994540008746E-2
168 446 1.2342936961364227E-1
169 2 1.9855287229803856E-2
169 3 2.0179191621568872E-2
169 4 1.831563888873418E-2
169 5 1.831563888873418E-2
169 34 2.085549826318533E-2
169 35 1.6621965143441716E-1
169 45 1.8774743098383595E-1
169 46 1.738901441469115E-2
169 49 1.860899603601751E-2
169 54 1.5855164083866554E-2
169 58 1.5483999387619575E-2
169 61 1.713121233779196E-2
169 68 1.8620618232282372E-2
169 69 1.935078551103362E-1
169 79 1.7768180619942057E-2
169 81 1.8797099045698103E-2
169 90 1.831563888873418E-2
169 96 4.0891887775179235E-2
169 97 1.9625925917408228E-2
169 99 1.6164612503361528E-2
169 118 2.5317748421446996E-2
169 120 5.8295251268882346E-2
169 123 1.7171825454768395E-2
169 126 1.831563888873418E-2
169 154 1.6661997952190935E-2
169 155 1.647909871286937E-2
169 159 1.8426533820805266E-2
169 167 1.6129727008301998E-2
169 170 1.9879360153031062E-1
169 197 1.9330147534883425E-2
169 214 1.831563888873418E-2
169 224 1.831563888873418E-2
169 227 3.3377742611800834E-2
169 233 1.831563888873418E-2
169 312 2.8419129347374124E-2
169 313 3.4472010944915844E-2
169 322 1.682989457307892E-2
169 330 1.7133714212443536E-2
169 343 1.831563888873418E-2
169 351 1.7578783543208378E-2
169 362 1.831563888873418E-2
169 363 1.831563888873418E-2
169 364 1.841690028623769E-2
169 380 1.831563888873418E-2
169 396 2.0821745616202546E-2
169 404 2.2779116692453902E-2
169 436 1.831563888873418E-2
169 449 2.6556062993446792E-2
169 479 1.72484207232926E-2
169 498 1.847956110715513E-1
169 500 1.6893142704799267E-2
169 505 1.7315057118694164E-2
169 510 1.6787629853851096E-2
169 512 1.952138882125894E-2
169 513 1.831563888873418E-2
169 539 2.2261028442717698E-2
169 553 1.8567628195406916E-2
169 559 1.831563888873418E-2
169 560 1.831563888873418E-2
170 2 2.19261630978079E-2
170 3 2.198407645328477E-2
170 4 1.9001133290727997E-2
170 5 1.8499812654150842E-2
170 6 1.841891225349858E-2
170 12 1.832645179867656E-2
170 34 9.183550040043412E-2
170 35 7.540552888763615E-1
170 45 8.95908946692873E-1
170 46 3.573552298169274E-2
170 49 2.182927527000206E-2
170 51 1.831563888873418E-2
170 52 1.9348638731720026E-2
170 54 2.710001787162393E-2
170 58 3.152564317043307E-2
170 61 2.171174990691584E-2
170 68 2.7537184219831427E-2
170 69 9.39812171940467E-1
170 79 2.012750564277772E-2
170 81 2.1236921831849602E-2
170 84 1.8507215674597226E-2
170 86 2.8355873396869388E-2
170 87 5.132460140711133E-2
170 89 1.9529024390370367E-2
170 90 6.900040377092924E-2
170 91 1.883096523773886E-2
170 96 1.2710636115180776E-1
170 97 6.501075077134989E-2
170 98 3.0642059612718583E-2
170 99 2.6369675252517235E-2
170 101 1.8125259810317925E-2
170 107 1.842503090858856E-2
170 113 1.8348394472677873E-2
170 116 1.831563888873418E-2
170 117 1.8396643390854242E-2
170 118 6.0923711864241704E-2
170 120 2.0908212937374265E-1
170 122 1.8257130973022197E-2
170 123 2.1493308143169267E-2
170 124 2.128658280673739E-2
170 125 3.03071348768035E-2
170 126 3.2526515742820575E-2
170 128 1.8537569598346695E-2
170 152 1.831563888873418E-2
170 154 2.318325252810234E-2
170 155 2.4403982392299583E-2
170 159 2.20392077668944E-2
170 167 3.122923497652058E-2
170 169 1.9879360153031062E-1
170 174 1.831563888873418E-2
170 179 1.831563888873418E-2
170 191 1.8336345721226676E-2
170 197 1.9274677859928264E-2
170 200 1.978472427960978E-2
170 203 1.831563888873418E-2
170 214 2.9463761691386946E-2
170 215 1.831563888873418E-2
170 216 1.873503152688462E-2
170 221 1.831563888873418E-2
170 222 1.8374022879752372E-2
170 223 1.831563888873418E-2
170 224 2.1127016167871625E-2
170 226 1.828348029136625E-2
170 227 9.34553998966882E-2
170 233 6.769119927169992E-2
170 234 2.2934592823961757E-2
170 254 1.8247880024387066E-2
170 286 3.7243685853938974E-2
170 293 1.6802037461086577E-2
170 298 1.837089429774198E-2
170 308 1.871965100480389E-2
170 309 2.107202987083152E-2
170 312 1.0443362179623261E-1
170 313 6.34705784337972E-2
170 314 1.8304066050902932E-2
170 322 5.948945269210141E-2
170 325 1.831563888873418E-2
170 330 1.8904265856223658E-2
170 331 1.882812213461426E-2
170 332 2.1560659255276775E-2
170 335 1.8180866590758838E-2
170 343 2.4994669921904775E-2
170 345 1.826781761205262E-2
170 346 1.858961345561925E-2
170 348 1.8448374262232684E-2
170 349 2.0914366674557826E-2
170 350 1.8458709703844788E-2
170 351 2.009733632941527E-2
170 352 1.835072944693959E-2
170 353 2.013573225970887E-2
170 362 3.806474708720141E-2
170 363 3.2432383962712454E-2
170 364 2.212217023130783E-2
170 365 1.8402458245207934E-2
170 380 7.32433128543424E-2
170 381 1.8270493805338447E-2
170 383 1.8378298355200287E-2
170 384 1.8324055208415308E-2
170 396 3.872612446385473E-2
170 404 6.0336832114412625E-2
170 405 2.441966323592089E-2
170 435 2.0043364050184566E-2
170 436 3.123450619854291E-2
170 441 1.844155525493181E-2
170 449 3.0498836102167196E-2
170 451 1.8241235667106327E-2
170 470 1.75425806099672E-2
170 479 3.679830104023004E-2
170 480 2.832853831520436E-2
170 482 2.17940451796875E-2
170 484 1.823525643343251E-2
170 494 1.829004138194989E-2
170 498 8.586823657321416E-1
170 500 3.0527114955960902E-2
170 501 2.276941619728127E-2
170 503 1.841527346252993E-2
170 505 2.1812307824906806E-2
170 510 2.077147802598649E-2
170 512 7.094967924768421E-2
170 513 5.014638401848642E-2
170 516 1.831563888873418E-2
170 527 2.251571007584613E-2
170 539 4.154973101066646E-2
170 541 1.8234924920251375E-2
170 548 1.9976916665917284E-2
170 553 2.352584798380168E-2
170 554 1.835851543263906E-2
170 559 1.9284159193754962E-2
170 560 2.6665578348382128E-2
170 570 1.8738662437592517E-2
171 172 1.735437341238922E-2
171 175 5.273120027417283E-2
171 247 6.056240827020392E-2
171 252 1.831563888873418E-2
171 253 1.699089211828494E-2
171 255 5.156150041838281E-2
171 452 2.649332997662578E-2
171 466 3.320140758425053E-2
171 517 2.1424738711754876E-2
171 537 2.201896461376376E-2
171 565 3.95429553914675E-2
172 31 2.0789223506163353E-2
172 50 2.8861903492131594E-2
172 171 1.735437341238922E-2
172 256 4.020055037930043E-2
172 315 3.1935635371469644E-2
172 438 2.752378291194011E-2
172 464 1.831563888873418E-2
172 471 2.0087342856356213E-2
172 502 3.38114163789701E-2
172 514 2.4365904530111913E-2
172 563 3.5677663513793416E-2
173 152 1.4035892901180272E-1
173 153 2.9434396471737767E-1
173 174 2.95812797855035E-1
173 214 1.831563888873418E-2
173 215 1.568881868786821E-2
173 390 2.532542956452093E-2
173 391 1.998449479083003E-2
173 506 3.530875212455301E-2
173 543 3.071067940653654E-1
173 544 9.537240308144733E-2
174 35 1.8140854240668646E-2
174 45 1.847641494183103E-2
174 69 1.840056921207553E-2
174 152 3.0250297139645244E-1
174 153 1.7680620928503027E-1
174 170 1.831563888873418E-2
174 173 2.95812797855035E-1
174 390 1.9883908287776968E-2
174 498 1.8623741498041132E-2
174 506 5.028411416010774E-2
174 543 2.720429042027174E-1
174 544 1.828863870143697E-1
175 147 1.972197022723661E-2
175 149 1.831563888873418E-2
175 171 5.273120027417283E-2
175 176 1.95303745701606E-2
175 246 2.772981376635931E-2
175 247 3.026877671673774E-2
175 252 1.993124128551917E-2
175 253 1.876232160379942E-2
175 255 8.732276670398309E-2
175 447 1.831563888873418E-2
175 452 2.0764648728259442E-2
175 464 1.9257415601908464E-2
175 466 2.6566410617769164E-2
175 501 1.2110577123367059E-2
175 517 1.831563888873418E-2
175 518 1.8910194433301115E-2
175 537 2.4735168355189113E-2
175 542 1.831563888873418E-2
175 565 4.424666509281451E-2
176 27 2.7950286130150243E-2
176 38 4.548587008791816E-2
176 148 1.9315388711632342E-1
176 149 3.6415505289878594E-2
176 168 1.9204923937512792E-2
176 175 1.95303745701606E-2
176 228 1.796762853008111E-2
176 437 3.052900701406875E-2
176 439 1.831563888873418E-2
176 446 3.7220357821284E-2
176 497 2.6419480624097533E-2
176 542 1.831563888873418E-2
177 138 2.2149749082357104E-2
177 140 8.460768742137414E-2
177 141 6.665171480330849E-2
177 147 7.080653763799165E-2
177 149 8.697789165944467E-2
177 154 1.205870869901781E-2
177 155 1.831563888873418E-2
177 178 3.349111894782886E-1
177 210 3.216707753257188E-2
177 211 2.1734625070939678E-2
177 212 2.645471334176414E-2
177 213 1.882806948996752E-2
177 214 3.8383841649013865E-2
177 215 7.01476684462423E-2
177 450 1.9201234462827295E-2
177 503 3.186086512642335E-2
177 504 4.721976297922658E-2
177 542 2.513938208007961E-1
177 543 1.7295464975450345E-2
178 138 2.109208727713165E-2
178 140 6.645526567796925E-2
178 141 6.042855772681595E-2
178 147 3.5310594228495376E-2
178 149 3.4852069199199774E-2
178 154 1.831563888873418E-2
178 155 3.366824993769858E-2
178 177 3.349111894782886E-1
178 210 1.831563888873418E-2
178 212 1.831563888873418E-2
178 213 1.831563888873418E-2
178 214 8.937829655960838E-2
178 215 1.403043504713521E-1
178 450 1.831563888873418E-2
178 498 1.3933394718309178E-2
178 503 6.308772679009254E-2
178 504 5.3036025139908724E-2
178 542 1.1234668259456265E-1
178 543 2.140155299933922E-2
179 45 1.8374587480902677E-2
179 69 1.881251877790457E-2
179 98 7.348090623530475E-2
179 120 1.2768692476501195E-1
179 121 2.993074540974244E-2
179 122 4.157328563917308E-1
179 170 1.831563888873418E-2
179 344 2.64817084351645E-2
179 345 2.705355390066065E-1
179 346 4.021672881416577E-2
179 347 1.55509567534942E-1
179 498 1.8062343413924393E-2
179 570 1.785844932227304E-2
179 571 2.8408871299516077E-2
180 82 3.090270038872614E-2
180 83 3.682144952164838E-2
180 106 1.3749089222797944E-1
180 109 1.3479101922129963E-1
180 181 2.4526746674602923E-1
180 182 2.3415618686172163E-1
180 183 2.0696786139993587E-1
180 184 3.1146074007095157E-2
180 232 2.0370695374752733E-2
180 259 1.831563888873418E-2
180 260 1.745020005093442E-2
180 296 2.2862796009849033E-2
180 413 6.550748204608328E-2
180 414 2.866969394092023E-1
180 526 4.400140539311964E-2
180 527 3.1803188741810796E-2
180 528 1.458937139645373E-1
180 530 7.045314800618657E-2
180 552 1.8802642005871027E-2
181 25 3.0604599884669438E-2
181 44 2.0414340009636475E-2
181 70 3.392895422060357E-2
181 73 2.521915716885092E-2
181 106 2.0636107588099672E-1
181 109 2.0797127640800907E-2
181 180 2.4526746674602923E-1
181 182 1.2291717896715647E-1
181 183 1.316947148377872E-1
181 184 1.0830545196653367E-1
181 259 2.0633226559905182E-2
181 260 2.9521378286549618E-2
181 296 4.873963105921225E-2
181 413 9.112197390794981E-2
181 414 2.8688576536387112E-2
181 526 4.936863958709729E-2
181 527 4.0954346451869295E-2
181 528 7.519525672441572E-2
181 530 1.5095221792731567E-1
181 550 1.831563888873418E-2
182 83 1.831563888873418E-2
182 106 5.6596900489442006E-2
182 109 6.447507123888188E-2
182 180 2.3415618686172163E-1
182 181 1.2291717896715647E-1
182 183 8.689944238113224E-1
182 184 4.385995395625298E-2
182 296 2.00852429493677E-2
182 413 1.726834580135679E-2
182 414 1.5617515805280002E-1
182 528 1.679117876486021E-1
182 530 2.070418214581767E-2
182 552 1.831563888873418E-2
183 83 1.831563888873418E-2
183 106 5.847731527513303E-2
183 109 5.2145042087009014E-2
183 180 2.0696786139993587E-1
183 181 1.316947148377872E-1
183 182 8.689944238113224E-1
183 184 4.451305073567911E-2
183 296 1.831563888873418E-2
183 413 1.8157502617307357E-2
183 414 1.2655842664773068E-1
183 528 1.3565927549922227E-1
183 530 2.070943286391584E-2
184 106 2.1662658878645838E-2
184 109 1.5238530869348394E-2
184 180 3.1146074007095157E-2
184 181 1.0830545196653367E-1
184 182 4.385995395625298E-2
184 183 4.451305073567911E-2
184 296 2.4244629596826092E-2
184 413 1.831563888873418E-2
184 414 2.59777068920731E-2
184 431 1.831563888873418E-2
184 528 2.6930892018365054E-2
184 530 3.841321249975574E-2
184 558 2.5397487806134635E-2
185 83 5.3364726245215766E-2
185 101 1.846607735186956E-2
185 107 1.3745812793795562E-1
185 108 2.2582959195052554E-2
185 217 1.818176196591143E-2
185 322 2.1822979053440376E-2
185 498 1.8014876954175908E-2
185 501 2.146888162357934E-2
185 512 2.8138626455836355E-2
185 513 3.3505225929838706E-2
185 527 1.831563888873418E-2
185 529 8.814955371864663E-2
186 129 6.459394134351482E-2
186 130 2.009960616545944E-2
186 144 2.4015101445698284E-1
186 146 1.831563888873418E-2
186 204 3.304024555790845E-2
186 205 2.834288340854736E-1
186 206 1.831563888873418E-2
186 207 1.1879058025130372E-1
186 219 6.623588808378827E-2
186 326 2.7937083564953374E-2
186 476 7.82209738601992E-2
186 478 1.7153468328985906E-2
186 481 1.9860786617231903E-2
187 35 1.837303946760663E-2
187 45 1.831563888873418E-2
187 52 2.4113234892198885E-2
187 69 1.831042298159557E-2
187 96 1.8682109440393162E-2
187 227 2.0970658119987533E-2
187 351 2.3830521815145916E-2
187 353 2.39747952724053E-2
187 500 2.8046873769568013E-2
187 539 5.156184691737486E-2
188 129 6.2130218910003844E-2
188 130 6.252470263127617E-2
188 132 2.741562483287997E-1
188 133 1.723749772498881E-1
188 150 1.9260594101923482E-2
188 151 2.3098200456184898E-2
188 189 2.0792507097402615E-2
188 291 4.545287859627432E-2
188 294 1.831563888873418E-2
188 326 1.9004009392437102E-2
188 409 1.8952863101977736E-2
188 410 1.9026336461018173E-2
188 411 6.980882256348839E-2
188 412 1.0924723519376141E-1
188 477 6.494905243746513E-2
188 478 8.725077023462746E-2
189 115 1.342150316298972E-2
189 130 3.566175753497064E-2
189 132 4.34466758909363E-2
189 150 1.831563888873418E-2
189 151 2.649888293749092E-2
189 188 2.0792507097402615E-2
189 195 5.1557145421317035E-2
189 201 3.149734676257229E-2
189 205 1.831563888873418E-2
189 206 1.420614747229667E-1
189 207 4.908266190034981E-2
189 277 1.741367406416323E-2
189 278 3.188529539990158E-2
189 291 1.831563888873418E-2
189 326 2.01202470627561E-1
189 409 3.903819116234264E-2
189 410 2.513941139149853E-1
189 412 1.831563888873418E-2
189 477 1.831563888873418E-2
189 478 1.5785486789759834E-1
190 35 1.831563888873418E-2
190 96 1.8139910245179157E-2
190 191 4.5718774079676666E-1
190 192 9.249081458235204E-1
190 193 9.358609534892255E-1
190 218 1.863741665287662E-2
190 383 2.1779917474069623E-2
190 384 2.230890036378269E-2
190 482 1.883657146726384E-2
190 561 2.5320381343871122E-2
191 35 1.886300082692815E-2
191 45 1.8338436938308562E-2
191 69 1.836656729384847E-2
191 96 1.7769314526188955E-2
191 170 1.8336345721226676E-2
191 190 4.5718774079676666E-1
191 192 4.323866332471184E-1
191 193 3.804970516527166E-1
191 384 1.863442995600017E-2
191 498 1.831563888873418E-2
192 115 1.8156752040176142E-2
192 128 1.831563888873418E-2
192 190 9.249081458235204E-1
192 191 4.323866332471184E-1
192 193 9.607836998627177E-1
192 218 2.0567114131815608E-2
192 383 1.9649891339742796E-2
192 384 2.020388561354644E-2
192 482 1.9470712187098477E-2
192 561 2.1008508446489327E-2
193 128 1.831563888873418E-2
193 190 9.358609534892255E-1
193 191 3.804970516527166E-1
193 192 9.607836998627177E-1
193 218 2.0114671898411134E-2
193 383 2.0888763053493336E-2
193 384 2.121811003597155E-2
193 475 1.809492801206621E-2
193 482 1.9456386910516824E-2
193 561 2.822248295491081E-2
194 195 9.64984199842221E-2
194 196 5.179906106182128E-2
194 198 7.76011270967675E-2
194 199 1.6532338021779697E-1
194 202 9.553442939903917E-2
194 277 9.49165144825595E-2
194 278 1.639879482593593E-1
194 326 1.3363326337195992E-2
194 327 1.831563888873418E-2
194 328 1.40781837958615E-1
195 130 1.831563888873418E-2
195 132 3.774697251120039E-2
195 150 2.2396003601703587E-2
195 151 1.8402920677343226E-2
195 189 5.1557145421317035E-2
195 194 9.64984199842221E-2
195 198 3.255526298051116E-2
195 199 2.3522990645154472E-2
195 202 1.8610981315131894E-1
195 206 1.4197207920343046E-2
195 207 1.888900784796189E-2
195 277 4.5109867949522986E-2
195 278 1.2466391923396464E-1
195 291 1.930303596764992E-2
195 294 2.1650598474188532E-2
195 326 4.701001211866962E-2
195 328 2.880253686124721E-1
195 409 1.831563888873418E-2
195 410 1.5861696877337E-2
195 477 1.988795734773035E-2
195 478 4.371691609452498E-2
196 79 1.9081713931134926E-2
196 115 1.831563888873418E-2
196 194 5.179906106182128E-2
196 198 5.430204327295481E-1
196 199 3.793200684871781E-1
196 202 1.3599232248540813E-1
196 203 3.431570039823432E-1
196 218 2.0313411900750367E-2
196 327 1.8543424364359412E-1
196 328 8.327160773965724E-2
196 475 1.6301588066255444E-2
197 35 1.9270099227838997E-2
197 45 1.9285476848293442E-2
197 69 1.930322130493556E-2
197 120 1.8467049756488614E-2
197 169 1.9330147534883425E-2
197 170 1.9274677859928264E-2
197 293 2.8743385749592815E-2
197 312 1.831563888873418E-2
197 313 1.8300327432125618E-2
197 498 1.9252628820278853E-2
198 115 1.831563888873418E-2
198 194 7.76011270967675E-2
198 195 3.255526298051116E-2
198 196 5.430204327295481E-1
198 199 4.5665418816794046E-1
198 202 1.9475983675487135E-1
198 203 1.8924545323449557E-1
198 218 1.7131706779466654E-2
198 327 1.5659267469034927E-1
198 328 1.3493748487247262E-1
199 79 1.439781884099898E-2
199 194 1.6532338021779697E-1
199 195 2.3522990645154472E-2
199 196 3.793200684871781E-1
199 198 4.5665418816794046E-1
199 202 1.6771830346045666E-1
199 203 1.8832545300110462E-1
199 278 1.831563888873418E-2
199 327 1.475449352345238E-1
199 328 9.33428390994433E-2
200 35 1.9651947026575484E-2
200 45 1.9787948367698135E-2
200 69 1.984629955054462E-2
200 90 2.2952044344193442E-2
200 120 1.829783261089489E-2
200 170 1.978472427960978E-2
200 312 1.831563888873418E-2
200 313 1.875615595572205E-2
200 343 2.1170341960436212E-2
200 498 1.972981520454294E-2
201 115 3.853254880167282E-2
201 132 1.7046430383122275E-2
201 189 3.149734676257229E-2
201 202 1.831563888873418E-2
201 204 2.2237500561704607E-2
201 206 5.9725661611062304E-2
201 218 2.3238193790881857E-2
201 326 4.0660847578604636E-2
201 475 3.339897801086537E-2
201 478 3.693920968318047E-2
202 80 2.423391903119667E-2
202 115 2.7546178534588454E-2
202 194 9.553442939903917E-2
202 195 1.8610981315131894E-1
202 196 1.3599232248540813E-1
202 198 1.9475983675487135E-1
202 199 1.6771830346045666E-1
202 201 1.831563888873418E-2
202 278 5.9591437135616106E-2
202 326 2.145581172714346E-2
202 327 2.237689975311191E-2
202 328 5.244346281107927E-1
202 475 1.4349587435211282E-2
202 478 1.831563888873418E-2
203 35 1.8861511900981155E-2
203 45 1.8354363203150963E-2
203 69 1.83836192124042E-2
203 79 3.177132714629161E-2
203 170 1.831563888873418E-2
203 196 3.431570039823432E-1
203 198 1.8924545323449557E-1
203 199 1.8832545300110462E-1
203 327 9.006884737960741E-2
203 498 1.8275647466225384E-2
204 137 1.831563888873418E-2
204 144 2.7237874368557118E-2
204 145 4.634348744605772E-2
204 186 3.304024555790845E-2
204 201 2.2237500561704607E-2
204 205 1.6569531058525983E-1
204 206 1.894119280059073E-1
204 207 1.9901216945696094E-2
204 218 2.5639638073199345E-2
204 219 2.7275036604132982E-2
204 326 4.649303133958518E-2
204 475 2.073860651362003E-2
204 476 1.6907587363668047E-1
204 478 5.1065051917866894E-2
204 481 2.2211060787601895E-2
204 482 1.6875028403778237E-2
205 129 4.0168394886418E-2
205 130 9.777698621432185E-3
205 144 1.0261239244703266E-1
205 186 2.834288340854736E-1
205 189 1.831563888873418E-2
205 204 1.6569531058525983E-1
205 206 1.1851315515771282E-1
205 207 3.9843526402407214E-1
205 219 4.9128785271068426E-2
205 326 3.8086193688138266E-2
205 476 2.0911397276490218E-1
205 478 5.8600221382014914E-2
205 481 1.831563888873418E-2
206 115 2.2001659994152097E-2
206 127 1.599872012880964E-2
206 186 1.831563888873418E-2
206 189 1.420614747229667E-1
206 195 1.4197207920343046E-2
206 201 5.9725661611062304E-2
206 204 1.894119280059073E-1
206 205 1.1851315515771282E-1
206 207 1.405191810820599E-1
206 218 1.7399309928102305E-2
206 326 1.2781008392894547E-1
206 410 1.831563888873418E-2
206 475 2.520326655289673E-2
206 476 1.831563888873418E-2
206 478 2.593768235529885E-1
207 129 7.919084730525033E-2
207 130 9.595037043599013E-2
207 132 1.831563888873418E-2
207 144 4.0635554401424204E-2
207 186 1.1879058025130372E-1
207 189 4.908266190034981E-2
207 195 1.888900784796189E-2
207 204 1.9901216945696094E-2
207 205 3.9843526402407214E-1
207 206 1.405191810820599E-1
207 219 1.831563888873418E-2
207 277 2.3577428734665826E-2
207 278 1.96870294237248E-2
207 294 2.2003281219508015E-2
207 326 4.874823273692187E-2
207 476 4.530089646011429E-2
207 477 8.19979175890278E-2
207 478 9.632232920667037E-2
208 115 4.221915711938875E-2
208 128 1.9242414860667925E-2
208 131 1.831563888873418E-2
208 209 8.398529731636528E-1
208 218 3.184091758947947E-2
208 326 2.027197880050359E-2
208 410 1.5800872538870542E-2
208 475 3.2423824723983946E-2
208 480 2.0108573898308727E-2
208 482 1.89550500463335E-2
209 115 5.057830456939919E-2
209 131 1.8486237621767137E-2
209 208 8.398529731636528E-1
209 218 3.1245843493303768E-2
209 326 3.1755943122989246E-2
209 409 1.831563888873418E-2
209 410 2.2502310791912297E-2
209 475 3.593502342215336E-2
209 478 1.9382138848908183E-2
209 482 1.7097311435690103E-2
210 140 7.589150270076815E-2
210 141 4.585672146798778E-2
210 177 3.216707753257188E-2
210 178 1.831563888873418E-2
210 211 2.26667698062732E-1
210 212 5.5253606909992E-1
210 213 4.4610350931860443E-1
210 389 2.1933985578981238E-2
210 464 4.272178838586441E-2
210 503 1.5798370138517183E-2
210 504 4.050315942226431E-2
211 140 3.829303387829206E-2
211 141 2.515187921235493E-2
211 177 2.1734625070939678E-2
211 210 2.26667698062732E-1
211 212 1.4935607489030944E-1
211 213 7.982137712622525E-2
211 389 3.66472395511178E-2
211 390 1.831563888873418E-2
211 391 1.5068490154460023E-2
211 464 5.759877540055789E-2
211 504 2.450864585438361E-2
212 140 4.1866223861992694E-2
212 141 3.29025455605384E-2
212 177 2.645471334176414E-2
212 178 1.831563888873418E-2
212 210 5.5253606909992E-1
212 211 1.4935607489030944E-1
212 213 5.156908256925629E-1
212 389 4.478161782052108E-2
212 464 5.1667566321696494E-2
212 503 1.6331912419377554E-2
212 504 3.0217224554178187E-2
213 140 6.547981791891488E-2
213 141 5.095861878654345E-2
213 155 1.2011713857151753E-2
213 177 1.882806948996752E-2
213 178 1.831563888873418E-2
213 210 4.4610350931860443E-1
213 211 7.982137712622525E-2
213 212 5.156908256925629E-1
213 464 2.1060852992300864E-2
213 503 2.150472425756211E-2
213 504 4.449282337337833E-2
214 35 2.870350638535948E-2
214 45 2.9669127140891552E-2
214 69 2.988929061536551E-2
214 120 2.055247009933562E-2
214 139 4.3551894357935536E-2
214 140 3.616742252373831E-2
214 141 5.6358283002985815E-2
214 152 1.88772832799296E-2
214 153 1.831563888873418E-2
214 154 3.9150491138099104E-2
214 155 2.4918581513807353E-2
214 169 1.831563888873418E-2
214 170 2.9463761691386946E-2
214 173 1.831563888873418E-2
214 177 3.8383841649013865E-2
214 178 8.937829655960838E-2
214 215 2.9002654660799965E-1
214 313 1.769019182866767E-2
214 337 1.831563888873418E-2
214 485 2.4595378994907977E-2
214 498 2.9526969241656997E-2
214 499 2.9326414870658315E-2
214 503 3.272294990026674E-2
214 504 5.1720232994807304E-2
214 540 2.1796697511706074E-2
214 542 3.6523064800983544E-2
214 543 2.0100713461145073E-2
215 35 1.8017940703477335E-2
215 45 1.8348879765178735E-2
215 69 1.8490866195932144E-2
215 138 2.265315155967784E-2
215 139 2.4699930843836246E-2
215 140 1.831563888873418E-2
215 147 2.743248705941981E-2
215 149 2.5231450565474926E-2
215 153 1.9255630935318443E-2
215 154 1.9955870851218853E-2
215 155 1.956422317119954E-2
215 170 1.831563888873418E-2
215 173 1.568881868786821E-2
215 177 7.01476684462423E-2
215 178 1.403043504713521E-1
215 214 2.9002654660799965E-1
215 450 2.35899536595403E-2
215 498 1.8397859992154982E-2
215 503 2.528019041403437E-2
215 504 2.7077843448860366E-2
215 542 5.141166398839725E-2
215 543 1.831563888873418E-2
216 35 1.862434492918167E-2
216 45 1.8674932569856875E-2
216 69 1.8728313088274457E-2
216 120 1.742679982840637E-2
216 170 1.873503152688462E-2
216 217 2.276944684645845E-1
216 405 1.831563888873418E-2
216 498 1.864613922796615E-2
216 512 1.9214672510924093E-2
216 513 2.142695676494019E-2
216 541 2.548235621741176E-1
217 83 1.849979803620448E-2
217 106 2.47429610130405E-2
217 107 2.351364789690131E-2
217 143 3.297335189610288E-2
217 185 1.818176196591143E-2
217 216 2.276944684645845E-1
217 405 2.1063410625554183E-2
217 512 1.831563888873418E-2
217 513 1.960859248322534E-2
217 541 3.452050285092392E-1
218 18 1.831563888873418E-2
218 35 2.548160399963191E-2
218 45 1.82198517913588E-2
218 69 1.831563888873418E-2
218 80 2.4618126374029305E-2
218 114 1.7622767220567596E-2
218 115 3.922891451371133E-1
218 125 3.690395853983548E-2
218 127 7.306167903747826E-2
218 128 1.3258783293596973E-1
218 131 1.285991070814897E-1
218 137 2.3223389909431257E-2
218 145 5.5632171354385834E-2
218 190 1.863741665287662E-2
218 192 2.0567114131815608E-2
218 193 2.0114671898411134E-2
218 196 2.0313411900750367E-2
218 198 1.7131706779466654E-2
218 201 2.3238193790881857E-2
218 204 2.5639638073199345E-2
218 206 1.7399309928102305E-2
218 208 3.184091758947947E-2
218 209 3.1245843493303768E-2
218 293 6.256220679180373E-2
218 327 2.9545096354244457E-2
218 475 3.3831862486932573E-1
218 479 2.2761764496663693E-2
218 480 5.8976622848083596E-2
218 482 3.4209029304286387E-1
219 129 3.066446096576628E-2
219 144 2.2906115128712445E-1
219 145 1.6495507980326327E-2
219 186 6.623588808378827E-2
219 204 2.7275036604132982E-2
219 205 4.9128785271068426E-2
219 207 1.831563888873418E-2
219 325 1.9733989713063206E-2
219 476 1.3206754310547808E-1
219 481 2.5454951173074825E-1
220 88 1.9086292203434992E-2
220 89 1.870364547455856E-2
220 91 1.8400114946055965E-2
220 313 1.8881110514239748E-2
220 339 1.915433977378062E-2
220 381 1.835005293529254E-2
220 399 1.9132241820147187E-2
220 434 1.831563888873418E-2
220 435 1.8463202593163076E-2
220 548 1.830292285378971E-2
221 69 1.8269384322944372E-2
221 170 1.831563888873418E-2
221 222 5.185427979226206E-1
221 223 4.297535886778006E-2
221 226 1.1924555181675008E-1
221 227 1.8557993148599225E-2
221 343 5.246615192760745E-2
221 348 1.0876482789210877E-1
221 349 9.432476722535718E-2
221 560 5.0716825758833246E-2
222 45 1.8305168382612876E-2
222 69 1.831563888873418E-2
222 170 1.8374022879752372E-2
222 221 5.185427979226206E-1
222 226 9.777671075771194E-2
222 227 1.838156289787599E-2
222 343 5.39571702137841E-2
222 348 6.588139286197639E-2
222 349 7.772335739297326E-2
222 560 5.0850019611348836E-2
223 69 1.8284874451307997E-2
223 170 1.831563888873418E-2
223 221 4.297535886778006E-2
223 226 7.919504437064101E-2
223 343 5.3861303682557315E-2
223 348 5.29975839281417E-2
223 349 6.441743294628621E-2
223 435 1.9426814918737673E-2
223 436 1.992145154275943E-2
223 560 4.000329450961371E-2
224 35 2.083483020377378E-2
224 45 2.1009433325747978E-2
224 69 2.1102416062057653E-2
224 97 2.2492436760337207E-2
224 120 1.9064674342666097E-2
224 169 1.831563888873418E-2
224 170 2.1127016167871625E-2
224 227 4.682122148786455E-2
224 313 1.8126271527670008E-2
224 498 2.0958274505956002E-2
225 45 1.830203270784717E-2
225 69 1.831563888873418E-2
225 120 1.927547433888013E-2
225 226 6.377125052535967E-2
225 227 2.0942230631968185E-2
225 343 4.175235647089186E-2
225 346 1.968079993761644E-2
225 349 2.283882874932664E-2
225 559 2.5799319332480374E-2
225 560 3.701168273200782E-2
226 45 1.831563888873418E-2
226 69 1.8325058384323693E-2
226 120 2.1376266166744845E-2
226 167 1.9898832408055026E-2
226 170 1.828348029136625E-2
226 221 1.1924555181675008E-1
226 222 9.777671075771194E-2
226 223 7.919504437064101E-2
226 225 6.377125052535967E-2
226 343 1.9641816792547404E-1
226 346 2.429536008255452E-2
226 347 1.9168349009116934E-2
226 348 1.9564089752120588E-2
226 349 5.8816669238616774E-2
226 560 1.440205459801761E-1
227 3 1.7948680901730293E-2
227 4 1.7124222936243785E-2
227 5 1.7730716811105766E-2
227 34 1.831563888873418E-2
227 35 8.668835182530557E-2
227 45 9.388137932627462E-2
227 69 9.648927553669243E-2
227 119 2.1152313814354735E-2
227 120 4.303338857473521E-2
227 169 3.3377742611800834E-2
227 170 9.34553998966882E-2
227 187 2.0970658119987533E-2
227 221 1.8557993148599225E-2
227 222 1.838156289787599E-2
227 224 4.682122148786455E-2
227 225 2.0942230631968185E-2
227 312 1.656985296714973E-2
227 313 2.9607909893237166E-2
227 350 2.59327875455212E-2
227 351 3.898295172523771E-2
227 353 4.043698483827905E-2
227 498 9.274057098151331E-2
227 559 2.1930879003719823E-2
228 24 3.495449271970395E-2
228 27 4.067042175021777E-2
228 32 5.7788114736149344E-2
228 38 2.0258782897343782E-2
228 41 2.994854686441949E-2
228 142 2.7659870214276055E-2
228 168 1.831563888873418E-2
228 176 1.796762853008111E-2
228 235 1.6421770715213956E-2
228 236 2.125510380249512E-2
228 237 3.7759797556303196E-2
228 282 2.0633019670295898E-2
228 323 3.3897497992176506E-2
228 368 1.758623334503598E-2
228 376 1.8805270841534945E-2
228 377 2.35357601604956E-2
228 378 2.8487049762436982E-2
228 420 5.638486747449251E-2
228 439 2.3413419925020905E-2
228 446 3.689514762029714E-2
229 29 3.1905966219688824E-2
229 31 1.1413651168502921E-1
229 47 1.775013619868259E-1
229 48 2.624646800654961E-2
229 50 7.879990152043789E-2
229 101 1.9511208412468346E-2
229 143 2.530322868933168E-2
229 231 1.8313948850915238E-2
229 249 4.7052255009817434E-1
229 252 1.831563888873418E-2
229 256 2.9776341067412407E-2
229 279 8.371203391008675E-2
229 281 2.154820746611459E-2
229 361 1.831563888873418E-2
229 366 2.7864140208071417E-2
229 371 2.3033554286499856E-2
229 438 1.9572393145872738E-2
229 448 4.15021152146839E-2
229 464 2.9217299924451417E-2
229 465 3.976964065817637E-2
229 471 4.1804453701867E-2
229 474 1.831563888873418E-2
229 501 2.2201932727179987E-2
229 502 2.8306324394608035E-2
229 514 4.1866793768574107E-1
229 533 9.0624791029594E-2
230 135 2.1211931060314437E-2
230 231 5.9618651788603504E-2
230 238 1.831563888873418E-2
230 246 1.6984217778433362E-2
230 247 2.5003787581556296E-2
230 261 3.5138015314517365E-2
230 367 1.5461395910612049E-2
230 447 3.9047471304173416E-2
230 466 2.2077329355577085E-2
230 467 5.657905051425994E-2
230 515 2.9767695357423272E-2
230 535 3.256402753062527E-2
230 538 2.800316755769834E-2
230 562 2.5767371945761827E-2
231 68 1.831563888873418E-2
231 229 1.8313948850915238E-2
231 230 5.9618651788603504E-2
231 235 2.2135305678640062E-2
231 236 2.583795725010047E-2
231 263 5.940421131239949E-2
231 366 1.9294662476958654E-2
231 451 4.605103154160972E-2
231 468 4.471558545728924E-2
231 514 2.0080592203472598E-2
232 2 2.4633262010503438E-2
232 3 3.3536353779309185E-2
232 46 1.606814032446629E-2
232 180 2.0370695374752733E-2
232 260 3.481811374230287E-2
232 413 1.8768763328508763E-2
232 414 1.9057137010202795E-2
232 511 3.112755037489218E-2
232 527 1.831563888873418E-2
232 550 4.635424457497819E-2
232 552 3.0430067109955813E-2
233 6 1.8600528820598324E-2
233 35 5.9478576405729004E-2
233 45 6.506709222364788E-2
233 69 6.635426028071523E-2
233 85 2.2872767692643826E-2
233 92 2.7593035504762928E-2
233 93 2.5637473056552944E-2
233 116 2.9083915108219328E-2
233 117 1.9825448187887854E-2
233 120 2.4208458441037424E-2
233 169 1.831563888873418E-2
233 170 6.769119927169992E-2
233 234 6.937850838904638E-2
233 312 1.565518728257647E-2
233 313 6.151485196707963E-2
233 331 1.7073715287146837E-2
233 397 4.013859007143383E-2
233 398 5.8075675762376114E-2
233 498 6.327848763558046E-2
233 548 5.062435950084625E-2
233 553 2.0912331455347467E-2
233 554 1.9108560014131623E-2
234 35 2.209083361959298E-2
234 45 2.255633190811919E-2
234 69 2.2460105850319927E-2
234 85 3.0213384538260727E-2
234 92 4.762106423776697E-2
234 93 3.930374486515012E-2
234 116 3.8455840865315685E-2
234 120 1.5563368575934395E-2
234 170 2.2934592823961757E-2
234 233 6.937850838904638E-2
234 312 1.831563888873418E-2
234 313 1.9587150443667503E-2
234 397 1.871157891925002E-2
234 498 2.2117167668931768E-2
234 548 2.961497751478278E-2
234 554 1.874065057348836E-2
235 24 2.9185474933762702E-2
235 30 1.5936702870813536E-2
235 32 2.8601373918427344E-2
235 228 1.6421770715213956E-2
235 231 2.2135305678640062E-2
235 236 5.188109370257463E-1
235 237 3.536763988582652E-1
235 238 6.076919110591067E-2
235 252 1.831563888873418E-2
235 263 2.2081775109353007E-2
235 282 4.6557851203514036E-2
235 323 2.1568135230700756E-2
235 369 4.668585692164844E-2
235 378 1.831563888873418E-2
235 468 2.2990945183745067E-2
236 24 5.074261669855762E-2
236 30 1.3502011679710593E-2
236 32 3.047107455647213E-2
236 228 2.125510380249512E-2
236 231 2.583795725010047E-2
236 235 5.188109370257463E-1
236 237 1.447807302271598E-1
236 238 3.5518580038113944E-2
236 282 4.4454430416192216E-2
236 323 1.831563888873418E-2
236 369 2.1134085969289847E-2
236 468 1.8625845877190933E-2
237 24 5.441830532619253E-2
237 30 2.1837325130504813E-2
237 32 3.7824433827585116E-2
237 142 2.0424832229641796E-2
237 228 3.7759797556303196E-2
237 235 3.536763988582652E-1
237 236 1.447807302271598E-1
237 238 1.0569159813950815E-1
237 252 1.831563888873418E-2
237 253 1.2698375640069327E-2
237 282 7.629027818007228E-2
237 323 6.014965066665459E-2
237 369 2.1242195224979988E-2
237 376 1.976874796202395E-2
237 378 1.8010788184627747E-2
237 537 2.5660918501953768E-2
238 24 1.646230720575272E-2
238 30 4.5430371764735605E-2
238 101 1.7572687571521313E-2
238 230 1.831563888873418E-2
238 235 6.076919110591067E-2
238 236 3.5518580038113944E-2
238 237 1.0569159813950815E-1
238 252 6.630819941017078E-2
238 253 5.614429220513528E-2
238 282 1.831563888873418E-2
238 284 1.831563888873418E-2
238 421 2.223616631915641E-2
238 466 1.8412810371735762E-2
238 501 2.3576928202435385E-2
238 537 8.851799116073047E-2
238 538 4.9539524355100076E-2
238 565 3.7279704982130304E-2
239 27 1.258204293208809E-1
239 38 6.639494706106408E-2
239 41 5.512058653602195E-2
239 148 2.4347868306042346E-2
239 168 1.5392100750359108E-1
239 368 8.470720162369688E-2
239 377 1.2926032202660595E-2
239 378 1.831563888873418E-2
239 392 1.7615987500796582E-1
239 419 5.3867980706885754E-2
239 420 1.996575734270048E-2
239 446 1.4392874915491077E-1
240 94 2.083436091531144E-2
240 95 2.7820306896510643E-2
240 100 5.399414102493079E-2
240 102 2.9101068143220415E-2
240 103 1.9725909861775158E-2
240 241 8.132030392500447E-2
240 267 2.3886223484074175E-2
240 269 2.4222156197618964E-2
240 270 2.782760505494319E-2
240 280 1.899914000834798E-2
240 394 8.357074981293729E-2
240 415 1.831563888873418E-2
240 417 3.132588413614172E-2
240 418 2.7680499569030893E-2
240 454 1.674940534843497E-2
240 455 5.152768342634159E-2
240 456 2.3438936263685324E-2
240 458 4.109469361451216E-2
240 473 3.454515794247515E-2
240 531 1.831563888873418E-2
240 532 3.299945150124715E-2
240 534 1.3836409364581739E-2
241 95 5.927121866145708E-2
241 100 3.7786686334919606E-2
241 240 8.132030392500447E-2
241 243 2.112800879221799E-2
241 269 2.6630921192018597E-2
241 393 1.8957640071595814E-2
241 394 2.126617794343671E-2
241 418 2.1036324084028543E-2
241 459 2.8392033122500934E-2
241 531 1.711889502203287E-2
241 534 2.2572063031066517E-2
242 37 2.1042206848786167E-2
242 54 2.4600264336634165E-2
242 55 2.9803488456318552E-2
242 56 3.518886084999379E-2
242 57 2.9268918048515263E-2
242 243 1.9812709132513217E-2
242 244 7.935419655227749E-2
242 245 2.9499220817271642E-2
242 252 2.0283817243346384E-2
242 253 1.831563888873418E-2
242 358 2.1566212846746043E-2
242 359 2.0876910398705886E-2
242 452 3.147272745350125E-2
242 537 3.205462522795491E-2
242 565 1.799684894453163E-2
243 23 2.1131573476492232E-2
243 100 1.831563888873418E-2
243 241 2.112800879221799E-2
243 242 1.9812709132513217E-2
243 245 4.2101412259118266E-2
243 358 1.7947122611164955E-2
243 359 1.901900802728065E-2
243 416 2.5755402965335555E-2
243 418 2.988541362682405E-2
243 420 2.03639091227685E-2
244 54 2.8691730991930127E-2
244 55 3.686690087081567E-2
244 56 3.564753414123325E-2
244 57 4.246343429355159E-2
244 68 1.8299136485771063E-2
244 242 7.935419655227749E-2
244 358 2.0054319504964203E-2
244 359 2.9655607333817155E-2
244 369 1.8776983400063035E-2
244 537 1.831563888873418E-2
245 54 3.2445939426373166E-2
245 55 3.214719028921107E-2
245 56 3.3605182560632066E-2
245 57 2.3561715674050996E-2
245 101 1.831563888873418E-2
245 242 2.9499220817271642E-2
245 243 4.2101412259118266E-2
245 322 1.5219943014018996E-2
245 358 1.695452952903807E-2
245 452 2.2454436267141498E-2
245 532 1.905631851964779E-2
245 537 2.1859644161988236E-2
246 32 1.8590999764645545E-2
246 175 2.772981376635931E-2
246 230 1.6984217778433362E-2
246 247 1.0266350650640525E-1
246 252 1.831563888873418E-2
246 255 3.4213306287974386E-2
246 261 1.5584971246738988E-2
246 447 4.6421556962342375E-2
246 452 2.6448340252493808E-2
246 453 2.9023550647976532E-2
246 466 6.552960009730358E-2
246 472 1.9233036195358356E-2
246 515 2.219599708927183E-2
246 537 1.5043243123553799E-2
246 561 1.8968605544016755E-2
246 562 7.9245964727045E-2
246 565 3.4559929037446896E-2
247 32 3.069431979113686E-2
247 38 1.831563888873418E-2
247 171 6.056240827020392E-2
247 175 3.026877671673774E-2
247 230 2.5003787581556296E-2
247 246 1.0266350650640525E-1
247 252 1.719059175653582E-2
247 255 2.836237076153296E-2
247 340 2.062978198645303E-2
247 389 2.1527472874385282E-2
247 421 2.309653665253214E-2
247 447 8.586155834718676E-2
247 452 4.7811874570887536E-2
247 453 2.959211404115587E-2
247 466 1.1218870400058666E-1
247 467 2.1077969471783177E-2
247 472 2.578037170854878E-2
247 515 2.937347321547353E-2
247 536 1.936876697063833E-2
247 537 1.831563888873418E-2
247 561 1.6957500670129307E-2
247 562 5.770613806593661E-2
247 565 5.22299064933429E-2
248 28 2.98167498929898E-1
248 134 1.6483527399074877E-1
248 250 8.072257597115759E-2
248 261 2.582465535914656E-2
248 262 2.6391529779446815E-1
248 315 8.141100089228626E-2
248 379 3.510175706645759E-2
248 438 1.718584894805234E-2
248 467 1.8482741964100026E-2
248 514 1.831563888873418E-2
248 515 2.1216165938759517E-2
248 563 6.338543678934856E-2
249 29 2.840672539239784E-2
249 31 1.756374735824584E-1
249 47 1.438323352894436E-1
249 48 1.831563888873418E-2
249 50 1.5752100011858866E-1
249 229 4.7052255009817434E-1
249 250 1.831563888873418E-2
249 251 2.0264963101821742E-2
249 256 2.235818418877177E-2
249 279 1.3553282585265644E-1
249 281 1.8000973812530928E-2
249 361 1.9945043343345646E-2
249 366 2.1253712222804914E-2
249 371 2.0818824975565614E-2
249 421 1.680903953286855E-2
249 438 1.6786778379281726E-2
249 448 5.971038034220609E-2
249 464 2.074300341843864E-2
249 465 2.3844591855131873E-2
249 466 1.759953479626727E-2
249 471 2.5664778904989388E-2
249 502 2.1882260849631623E-2
249 514 3.770393083450672E-1
249 533 1.6893820681253224E-1
249 537 1.831563888873418E-2
250 28 3.7460889374572995E-2
250 31 2.228103264163938E-2
250 50 2.7966454604726566E-2
250 134 5.6004339907240505E-2
250 135 1.9467204007680573E-2
250 248 8.072257597115759E-2
250 249 1.831563888873418E-2
250 251 9.314761057543236E-2
250 261 1.9079837883918233E-2
250 262 1.3958831298472707E-1
250 315 2.82760865286783E-2
250 379 2.2843342096487494E-2
250 421 1.4774269164871956E-2
250 467 5.2758799353341594E-2
250 514 2.355791963475781E-2
250 515 2.8753050630359742E-2
250 563 1.7665250560828526E-2
251 31 2.708202449478783E-2
251 50 7.320493533495809E-2
251 134 1.831563888873418E-2
251 249 2.0264963101821742E-2
251 250 9.314761057543236E-2
251 262 1.7876680531968933E-2
251 279 1.671313531911107E-2
251 421 3.141581785919202E-2
251 448 2.6266027564148867E-2
251 467 2.092691615896522E-2
251 514 1.831563888873418E-2
251 515 1.9368547655393045E-2
252 30 4.929453556558104E-2
252 32 1.840061372776361E-2
252 34 2.719261064198367E-2
252 35 1.781653781650745E-2
252 101 8.825299195658229E-2
252 171 1.831563888873418E-2
252 175 1.993124128551917E-2
252 229 1.831563888873418E-2
252 235 1.831563888873418E-2
252 237 1.831563888873418E-2
252 238 6.630819941017078E-2
252 242 2.0283817243346384E-2
252 246 1.831563888873418E-2
252 247 1.719059175653582E-2
252 253 6.808731797884673E-1
252 255 6.009964374839342E-2
252 263 2.374832974697659E-2
252 268 1.953135873697052E-2
252 282 2.198781525990903E-2
252 283 2.4438076156670294E-2
252 284 3.80678748577139E-2
252 322 1.058465998144555E-1
252 323 1.831563888873418E-2
252 366 2.1454004137746265E-2
252 369 4.0412610927289205E-2
252 370 4.60562867344077E-2
252 451 3.458491956841673E-2
252 452 7.181308990362983E-2
252 453 2.254596449057613E-2
252 466 2.2157933723786483E-2
252 498 1.831563888873418E-2
252 501 1.9995616072906797E-1
252 512 1.863332562118809E-2
252 517 3.696882023285037E-2
252 518 1.831563888873418E-2
252 537 3.163106800545961E-1
252 538 4.767330792299346E-2
252 565 8.080220211020427E-2
253 30 4.194108030865071E-2
253 34 2.6008727798081856E-2
253 35 1.831563888873418E-2
253 101 7.825591802277672E-2
253 142 1.8155653026152442E-2
253 171 1.699089211828494E-2
253 175 1.876232160379942E-2
253 237 1.2698375640069327E-2
253 238 5.614429220513528E-2
253 242 1.831563888873418E-2
253 252 6.808731797884673E-1
253 255 6.547857147411482E-2
253 263 1.831563888873418E-2
253 268 2.0272404293230854E-2
253 282 2.0034839122630724E-2
253 283 2.7809898267488063E-2
253 284 3.63917291432502E-2
253 322 1.1838455460601946E-1
253 323 1.639180867506727E-2
253 369 2.6108258440394418E-2
253 370 3.240645542452436E-2
253 451 1.878685517819946E-2
253 452 6.931761337618018E-2
253 453 1.85514703501858E-2
253 466 1.4990451828157315E-2
253 498 1.8517357150070975E-2
253 501 2.574549304718635E-1
253 506 2.347991601999456E-2
253 512 1.7748275677734796E-2
253 517 4.699368474246092E-2
253 518 1.9009470762797027E-2
253 537 3.1541099112139326E-1
253 538 3.879388863468553E-2
253 565 8.842541755104599E-2
254 35 2.0306787412995568E-2
254 45 1.8459221599038338E-2
254 69 1.831563888873418E-2
254 91 2.028004327523966E-2
254 143 8.925625415567748E-2
254 170 1.8247880024387066E-2
254 308 3.226670680064493E-2
254 309 2.5663401653567355E-2
254 313 1.8458638383346274E-2
254 371 2.3549665933519787E-2
254 465 7.959886189171642E-2
255 101 1.7639638459022566E-2
255 171 5.156150041838281E-2
255 175 8.732276670398309E-2
255 246 3.4213306287974386E-2
255 247 2.836237076153296E-2
255 252 6.009964374839342E-2
255 253 6.547857147411482E-2
255 256 1.456944023878419E-2
255 284 9.762056083325026E-3
255 452 2.7043018958374233E-2
255 453 1.831563888873418E-2
255 466 2.8047698133962136E-2
255 501 4.513532315269522E-2
255 517 3.3788368038697586E-2
255 518 2.8278590653241564E-2
255 537 6.0003815051261566E-2
255 565 7.50637814089652E-2
256 31 1.8833229286938178E-2
256 47 2.170762965589374E-2
256 50 3.564024276951421E-2
256 143 2.0625646726549825E-2
256 172 4.020055037930043E-2
256 229 2.9776341067412407E-2
256 249 2.235818418877177E-2
256 255 1.456944023878419E-2
256 315 3.3918068405614996E-2
256 438 2.573509375076181E-2
256 464 1.831563888873418E-2
256 502 2.844798333935611E-2
256 514 4.244565612348765E-2
256 563 2.0582905843454458E-2
257 42 5.923044917887954E-2
257 105 2.508161206417204E-2
257 258 1.831563888873418E-2
257 305 2.0393283840591327E-2
257 306 2.26356233500893E-2
257 307 4.890856539511495E-2
257 320 5.231591737415841E-2
257 354 1.831563888873418E-2
257 362 1.7039464815411402E-2
257 363 2.735863409663602E-2
257 365 1.831563888873418E-2
257 374 3.802304865543152E-2
257 375 6.888062983533645E-2
257 403 5.300494856165639E-2
257 470 2.5063898783707725E-2
257 516 4.3579658828260606E-2
257 521 1.732084015549626E-2
258 42 2.8202836399309164E-2
258 104 1.0118273402252787E-2
258 257 1.831563888873418E-2
258 354 5.1980192772074676E-2
258 363 1.617036447554707E-2
258 374 5.560448906221564E-2
258 375 6.069068232617219E-2
258 395 1.1543266919674819E-1
258 403 4.070076309563361E-2
258 469 1.6918489614977838E-2
258 470 1.5962560410165744E-1
258 516 3.483144230680666E-2
258 521 3.447711664027178E-2
259 78 1.6046859025424506E-2
259 106 4.513763443707885E-2
259 180 1.831563888873418E-2
259 181 2.0633226559905182E-2
259 260 4.515923468841734E-2
259 413 2.1243654974496703E-2
259 511 1.0717121354128017E-1
259 513 1.885609083878489E-2
259 527 2.9724483632153714E-2
259 550 2.646429868333259E-2
260 25 8.636059877784112E-2
260 26 2.8717966791244227E-2
260 44 5.211940668614634E-2
260 46 1.9234572889418676E-2
260 70 1.4386923568172535E-1
260 73 2.805040931500454E-1
260 106 1.831563888873418E-2
260 180 1.745020005093442E-2
260 181 2.9521378286549618E-2
260 232 3.481811374230287E-2
260 259 4.515923468841734E-2
260 413 3.1026920917004115E-2
260 430 2.7011194997451204E-2
260 431 1.7891630975446892E-2
260 508 2.8248619532127067E-2
260 511 6.552083715194759E-2
260 527 2.594955175856304E-2
260 550 1.908528572098392E-1
260 551 1.9591316850355648E-2
260 552 5.139308587170864E-2
260 555 4.084972301413597E-2
260 558 1.831563888873418E-2
261 28 2.3181554506608734E-2
261 39 6.672084016978552E-2
261 40 7.886925478144344E-2
261 134 3.396497120700629E-2
261 135 4.2308155329865094E-1
261 230 3.5138015314517365E-2
261 246 1.5584971246738988E-2
261 248 2.582465535914656E-2
261 250 1.9079837883918233E-2
261 262 2.5167962355003005E-2
261 367 1.910652401396657E-1
261 421 3.4752115394763916E-2
261 447 1.2842268601861262E-1
261 466 1.831563888873418E-2
261 467 2.983714519309108E-1
261 472 6.500670449558228E-2
261 515 3.0215712892115365E-1
261 564 1.831563888873418E-2
262 28 3.0527062852754305E-1
262 31 1.998431160445871E-2
262 134 3.515856841463107E-1
262 135 2.2739000260768253E-2
262 248 2.6391529779446815E-1
262 250 1.3958831298472707E-1
262 251 1.7876680531968933E-2
262 261 2.5167962355003005E-2
262 367 2.0948145263727944E-2
262 379 2.544496981079251E-2
262 467 1.831563888873418E-2
262 563 3.900870249136565E-2
263 34 1.3819629930398574E-2
263 68 7.636923934044475E-2
263 231 5.940421131239949E-2
263 235 2.2081775109353007E-2
263 252 2.374832974697659E-2
263 253 1.831563888873418E-2
263 282 2.9110677055575004E-2
263 366 3.0946883988985593E-2
263 369 3.367424746445127E-2
263 451 1.766886778027366E-1
263 468 2.841523151020866E-1
264 1 4.9091035556573556E-2
264 58 4.423150293318018E-2
264 74 1.6909212028095633E-2
264 75 4.157210599813987E-2
264 76 2.6725873024511394E-2
264 271 3.908415601716912E-2
264 285 2.7965909208611334E-2
264 286 4.1610343439915085E-2
264 287 1.831563888873418E-2
264 405 7.51153578789045E-2
264 407 2.099496914165E-2
264 441 7.016197794957368E-2
264 443 2.300836904219252E-2
264 484 1.831563888873418E-2
264 485 1.831563888873418E-2
265 75 1.831563888873418E-2
265 76 3.759709325675881E-2
265 266 1.4116121839575635E-1
265 272 7.925122512501412E-2
265 274 6.803715005519874E-2
265 287 3.207264232010758E-2
265 289 1.3527443227937408E-1
265 318 1.9562614147032496E-2
265 428 2.3008899278155144E-2
265 429 1.9673859852764722E-2
265 487 1.813967372758099E-2
266 60 2.106422942611777E-2
266 76 3.259503314082196E-2
266 77 7.64836448649809E-2
266 265 1.4116121839575635E-1
266 272 1.4746026893955494E-1
266 287 2.4456187786266154E-2
266 288 3.442439946415915E-2
266 289 8.863047852489608E-2
266 318 1.831563888873418E-2
266 406 2.4620005070575948E-2
266 408 1.831563888873418E-2
266 428 3.315556809231195E-2
266 440 1.279764782916471E-2
266 442 1.764950650317371E-2
266 483 2.346836555804163E-2
266 545 2.2509645200619044E-2
267 23 1.96089833021712E-2
267 102 2.303224567537403E-2
267 240 2.3886223484074175E-2
267 269 1.831563888873418E-2
267 340 2.0372426000926123E-2
267 447 2.0290575527651455E-2
267 453 2.507373422173733E-2
267 454 1.6850744560300994E-2
267 472 6.40903898555593E-2
267 562 4.2555261248368614E-2
267 564 7.684832697907704E-2
268 94 2.1962991645422654E-2
268 95 1.7967014916176978E-2
268 101 1.810181808249513E-2
268 103 1.8908802779223858E-2
268 252 1.953135873697052E-2
268 253 2.0272404293230854E-2
268 322 1.831563888873418E-2
268 340 1.8788490920493527E-2
268 376 1.6705411484905903E-2
268 393 2.1548130925654635E-2
268 452 5.3643329112588026E-2
268 453 2.276332428222771E-2
268 455 3.7782489264715446E-2
268 537 2.811738842650697E-2
268 565 2.8336513795070337E-2
269 55 1.835965515079301E-2
269 102 4.1199322597704435E-1
269 103 6.735421778766815E-2
269 240 2.4222156197618964E-2
269 241 2.6630921192018597E-2
269 267 1.831563888873418E-2
269 270 2.9530853679825782E-2
269 394 1.9040505218426814E-2
269 454 2.047505043733202E-1
269 455 6.975002915951774E-2
269 459 1.616910897867953E-2
269 473 1.831563888873418E-2
269 474 3.445876932880892E-2
269 531 4.620878830161369E-1
269 532 1.2114859295478211E-1
270 100 4.430514072411857E-2
270 102 2.5613786129079483E-2
270 240 2.782760505494319E-2
270 269 2.9530853679825782E-2
270 280 1.8053637058427073E-2
270 394 3.1584165076423976E-2
270 415 3.016037126323951E-2
270 417 8.734021764256367E-2
270 454 1.831563888873418E-2
270 456 4.214951446468175E-2
270 458 1.4075854934940735E-1
270 459 1.831563888873418E-2
270 473 2.3461761095744858E-2
270 532 1.831563888873418E-2
270 561 1.916244697249773E-2
271 1 4.638986830978166E-2
271 58 6.483446732873556E-2
271 59 3.813239763984192E-2
271 69 1.7009889040854455E-2
271 74 8.868909155040267E-2
271 75 1.8539259255430304E-2
271 264 3.908415601716912E-2
271 273 1.976716709138405E-2
271 275 1.831563888873418E-2
271 285 2.348832502535368E-1
271 286 1.7398028530024764E-1
271 287 1.5987646664937613E-2
271 290 1.900414122454364E-2
271 405 7.345128458676375E-2
271 406 8.315432018583441E-2
271 407 3.247860307088322E-2
271 428 1.999118220926898E-2
271 440 4.46635899297066E-2
271 441 1.2555215007970558E-1
271 443 2.0621259340478156E-2
271 445 1.646869648780855E-1
271 484 4.9814742740635964E-2
271 486 1.852293095440874E-2
271 522 3.975464480636581E-2
271 523 1.7816426514707336E-2
271 525 2.6391050806953264E-2
272 74 1.7587564695768273E-2
272 75 3.765642952632847E-2
272 76 1.363307248643607E-1
272 77 3.906135439903817E-2
272 265 7.925122512501412E-2
272 266 1.4746026893955494E-1
272 274 4.326070455235023E-2
272 287 3.354220252514829E-2
272 288 1.5624585145780068E-2
272 289 5.342587317493108E-2
272 407 2.4763927002380382E-2
272 428 6.229636559472091E-2
272 440 1.8786272444131877E-2
272 442 2.1284039865911007E-2
272 444 1.573439256103433E-2
272 487 1.6188187017462278E-2
272 524 1.8068660631795276E-2
272 545 2.579474590361204E-2
273 1 1.9144521713094498E-2
273 271 1.976716709138405E-2
273 290 2.0040539183449985E-1
273 407 1.831563888873418E-2
273 440 2.1064563874867315E-2
273 441 1.83020395295157E-2
273 443 3.8618678614209805E-2
273 484 1.9004988522148828E-2
273 486 8.913778085195559E-2
273 523 9.013989689562457E-2
274 75 1.831563888873418E-2
274 76 4.0136635646270985E-2
274 77 1.831563888873418E-2
274 265 6.803715005519874E-2
274 272 4.326070455235023E-2
274 275 8.226213168366173E-2
274 287 2.2962018652082757E-2
274 289 1.3550956460535166E-1
274 317 3.2898161663760556E-2
274 408 1.8187167756301283E-2
274 428 1.8714008618426255E-2
274 444 2.765494117253677E-2
274 545 1.638675424225197E-2
275 74 2.9482046796642236E-2
275 76 2.4452987415374983E-2
275 271 1.831563888873418E-2
275 274 8.226213168366173E-2
275 285 2.0515689126974906E-2
275 287 1.6421291835514815E-2
275 406 3.3017472632772035E-2
275 428 2.5677546750761435E-2
275 440 2.218467316021059E-2
275 445 3.682413325026398E-2
276 1 1.7900402667695155E-2
276 59 3.6288657323216386E-2
276 285 2.400604676377251E-2
276 316 2.7814247780563184E-2
276 318 5.992949131888909E-2
276 406 2.354902712459465E-2
276 428 1.831563888873418E-2
276 445 2.3449622224964627E-2
276 483 2.900334995728839E-2
276 487 2.575357365597454E-2
277 129 1.831563888873418E-2
277 130 4.288864657503634E-2
277 150 3.195867711877279E-2
277 189 1.741367406416323E-2
277 194 9.49165144825595E-2
277 195 4.5109867949522986E-2
277 207 2.3577428734665826E-2
277 278 2.2803145705619451E-1
277 292 3.492862415494786E-2
277 294 3.743995975333026E-2
277 328 2.664918489280331E-2
277 477 5.075677749492065E-2
278 130 2.3788349311296482E-2
278 132 1.5365267561811441E-2
278 189 3.188529539990158E-2
278 194 1.639879482593593E-1
278 195 1.2466391923396464E-1
278 199 1.831563888873418E-2
278 202 5.9591437135616106E-2
278 207 1.96870294237248E-2
278 277 2.2803145705619451E-1
278 294 2.9256288415584832E-2
278 326 1.831563888873418E-2
278 328 6.574741655163714E-2
278 478 1.8872875259646902E-2
279 29 4.062028934144157E-2
279 31 7.010666931432122E-2
279 47 2.1001647893056377E-1
279 48 1.036976205950423E-1
279 50 7.158863713507638E-2
279 229 8.371203391008675E-2
279 249 1.3553282585265644E-1
279 251 1.671313531911107E-2
279 280 2.8040148122140535E-2
279 281 1.831563888873418E-2
279 360 2.0961405103690413E-2
279 361 2.1398151892559315E-2
279 366 2.8068326941026064E-2
279 371 2.242226404162713E-2
279 471 2.393491912916084E-2
279 474 2.00895305410541E-2
279 514 5.284861520474459E-2
279 533 1.1846614728914556E-1
280 23 4.4857453410024686E-2
280 100 6.1647307625193624E-2
280 240 1.899914000834798E-2
280 270 1.8053637058427073E-2
280 279 2.8040148122140535E-2
280 370 2.003439247338031E-2
280 394 6.732988160141605E-2
280 415 2.0724045953038152E-2
280 416 1.856816657844579E-2
280 417 2.3972475960381608E-2
280 418 7.062608145212337E-2
280 456 3.3600774811633254E-2
280 458 3.1152032571004618E-2
280 473 5.120938375577776E-2
280 474 2.1513029578114434E-2
280 532 4.1296629873377635E-2
280 538 1.831563888873418E-2
280 561 1.9492735289490914E-2
280 565 1.5336165916610111E-2
281 29 2.1585202974223387E-2
281 35 1.8710470756420985E-2
281 229 2.154820746611459E-2
281 249 1.8000973812530928E-2
281 279 1.831563888873418E-2
281 309 1.9183402483078676E-2
281 322 1.916484697126209E-2
281 366 1.831563888873418E-2
281 369 2.2608491631643662E-2
281 371 5.8346211743671474E-2
281 448 1.4620115819571566E-2
281 482 1.884427375313225E-2
281 512 1.8340608595047794E-2
281 533 5.024857623306393E-2
282 24 1.2087000710090676E-1
282 228 2.0633019670295898E-2
282 235 4.6557851203514036E-2
282 236 4.4454430416192216E-2
282 237 7.629027818007228E-2
282 238 1.831563888873418E-2
282 252 2.198781525990903E-2
282 253 2.0034839122630724E-2
282 263 2.9110677055575004E-2
282 283 1.7941712799763435E-2
282 369 8.002047922463976E-2
282 370 2.2230183650943945E-2
282 393 2.1621867020454627E-2
282 457 1.831563888873418E-2
282 468 3.642562810628252E-2
282 537 3.391915452667264E-2
283 32 1.8684323487393007E-2
283 34 2.4844910086562588E-2
283 101 2.1739698919894024E-2
283 252 2.4438076156670294E-2
283 253 2.7809898267488063E-2
283 282 1.7941712799763435E-2
283 284 1.2114098538574379E-1
283 322 3.616774646476495E-2
283 323 1.9956515861476537E-2
283 369 1.7863286150179545E-2
283 393 2.0929594042991023E-2
283 498 1.831563888873418E-2
283 501 2.5830753760829574E-2
283 506 1.7706311308339887E-2
283 537 3.228451495573487E-2
284 101 2.0620719978486912E-2
284 238 1.831563888873418E-2
284 252 3.80678748577139E-2
284 253 3.63917291432502E-2
284 255 9.762056083325026E-3
284 283 1.2114098538574379E-1
284 322 1.857415452154666E-2
284 501 2.6786551628930733E-2
284 537 3.688858569057463E-2
284 565 3.444177736266542E-2
285 1 5.1862558979466185E-2
285 58 3.995831548219962E-2
285 59 1.0433983245806756E-1
285 74 6.407615693924379E-2
285 75 2.0656606315091603E-2
285 76 2.0203635833747197E-2
285 264 2.7965909208611334E-2
285 271 2.348832502535368E-1
285 275 2.0515689126974906E-2
285 276 2.400604676377251E-2
285 286 1.8481348120441565E-1
285 287 3.0382833130952462E-2
285 316 3.0656525054518144E-2
285 317 2.2043802992274993E-2
285 318 2.599701696483196E-2
285 405 2.0142632724796907E-2
285 406 9.198239321944132E-2
285 407 1.6894739882230513E-2
285 428 2.008943059265098E-2
285 440 2.904279255987181E-2
285 441 7.47889872056822E-2
285 445 2.2375596260909464E-1
285 483 1.78540132379288E-2
285 484 1.2434667549935582E-1
285 485 2.292876043664216E-2
285 486 2.2878878427751825E-2
285 522 6.496297278787322E-2
285 525 2.2806041741390032E-2
285 545 1.6779504386912215E-2
286 1 4.7822687863799285E-2
286 35 3.635889097056448E-2
286 45 3.719979438855732E-2
286 58 7.054823349225813E-2
286 59 2.9919819832798074E-2
286 69 3.800292465275655E-2
286 74 1.831563888873418E-2
286 120 1.909833801500778E-2
286 170 3.7243685853938974E-2
286 264 4.1610343439915085E-2
286 271 1.7398028530024764E-1
286 285 1.8481348120441565E-1
286 405 4.6348070452479795E-2
286 441 1.1327726870274023E-1
286 445 3.0480391029096856E-2
286 484 1.5115775130300596E-1
286 485 3.1462382036545444E-2
286 486 3.767311728862707E-2
286 498 3.6563214694295416E-2
286 522 2.4185104621565506E-2
287 1 1.497906949293823E-1
287 58 3.7180796927535384E-2
287 75 4.610919596832583E-2
287 76 6.8145809789651E-2
287 264 1.831563888873418E-2
287 265 3.207264232010758E-2
287 266 2.4456187786266154E-2
287 271 1.5987646664937613E-2
287 272 3.354220252514829E-2
287 274 2.2962018652082757E-2
287 275 1.6421291835514815E-2
287 285 3.0382833130952462E-2
287 289 4.37870925293152E-2
287 316 1.8899876585014044E-2
287 317 4.2951486036371556E-2
287 318 2.2435361740037782E-2
287 441 2.876246181083343E-2
287 442 1.9782584828602234E-2
287 445 1.8500850315281314E-2
287 522 5.556855184354691E-2
287 545 1.831563888873418E-2
288 60 2.7093676849907766E-1
288 77 9.700207644500236E-2
288 266 3.442439946415915E-2
288 272 1.5624585145780068E-2
288 289 1.831563888873418E-2
288 318 2.046635334879201E-2
288 319 9.992082420513977E-2
288 408 2.1171679644896774E-2
288 429 4.8966400606954646E-2
288 444 1.890217432771104E-2
288 487 3.224529641598062E-2
288 524 7.05516098823504E-2
289 60 2.0894314044287335E-2
289 76 3.39026358558607E-2
289 77 2.3472335224904432E-2
289 265 1.3527443227937408E-1
289 266 8.863047852489608E-2
289 272 5.342587317493108E-2
289 274 1.3550956460535166E-1
289 287 4.37870925293152E-2
289 288 1.831563888873418E-2
289 317 1.831563888873418E-2
289 319 2.344689507344902E-2
289 408 2.2986473371789936E-2
289 429 1.831563888873418E-2
289 442 3.819367504390693E-2
289 444 6.176330465128109E-2
289 483 5.948579585240117E-2
289 487 3.8166907803685715E-2
289 524 4.244568189562216E-2
289 545 1.508328777152527E-2
289 546 1.6098224629093737E-2
290 1 2.0146046895112426E-2
290 271 1.900414122454364E-2
290 273 2.0040539183449985E-1
290 440 1.8207972581333273E-2
290 441 1.8619704438576613E-2
290 443 1.463818047135957E-1
290 484 1.9134504850456133E-2
290 486 1.0894076657065603E-1
290 523 6.245043593385566E-2
290 525 1.831563888873418E-2
291 114 8.394305912764702E-2
291 129 1.71368054646221E-2
291 132 2.4985495500299867E-2
291 136 2.425861846852794E-2
291 146 2.285863430072923E-2
291 151 2.087191116248004E-2
291 188 4.545287859627432E-2
291 189 1.831563888873418E-2
291 195 1.930303596764992E-2
291 326 2.0927742352179438E-2
291 409 2.4364223930978497E-2
291 412 3.1180460289448864E-2
291 478 2.4003216606845627E-2
292 129 1.831563888873418E-2
292 130 2.366655065125753E-2
292 133 1.730666853004681E-2
292 144 1.8590652893073118E-2
292 146 2.1412546348741297E-2
292 150 3.8954386714075286E-2
292 277 3.492862415494786E-2
292 294 3.4002107805440954E-2
292 411 2.3240859413821847E-2
292 477 2.7435444844258205E-2
293 35 1.831563888873418E-2
293 115 5.0634006523927175E-2
293 125 2.017953405054606E-2
293 127 2.1209452922310763E-2
293 128 6.1340994460982866E-2
293 131 1.950007838915902E-2
293 170 1.6802037461086577E-2
293 197 2.8743385749592815E-2
293 218 6.256220679180373E-2
293 475 4.419085527860321E-2
293 480 2.2084622436125353E-2
293 482 3.989749041206365E-2
294 129 2.741754566452954E-2
294 130 3.412908045380513E-2
294 150 4.47772966074111E-2
294 188 1.831563888873418E-2
294 195 2.1650598474188532E-2
294 207 2.2003281219508015E-2
294 277 3.743995975333026E-2
294 278 2.9256288415584832E-2
294 292 3.4002107805440954E-2
294 411 1.7414623242834642E-2
294 477 4.826407018347153E-2
295 71 4.603513421390715E-2
295 72 5.757149386360048E-2
295 432 7.116947601848769E-2
295 495 3.201256637551811E-2
295 496 2.1376917862004026E-2
295 507 1.654462867071834E-2
295 529 1.831563888873418E-2
295 549 1.9729247878077883E-2
295 556 3.065152245234253E-2
295 557 1.3681475093257303E-1
296 106 6.704260575588851E-2
296 180 2.2862796009849033E-2
296 181 4.873963105921225E-2
296 182 2.00852429493677E-2
296 183 1.831563888873418E-2
296 184 2.4244629596826092E-2
296 413 2.193841235094212E-2
296 526 1.654034736337364E-2
296 528 1.9793681816452174E-2
296 530 2.15918577376566E-2
297 42 1.1355529574858883E-1
297 43 3.7223779539423796E-2
297 110 2.1953058265678013E-1
297 111 4.5611526150246934E-1
297 112 1.0651525028704664E-1
297 298 2.297240853682249E-2
297 363 1.831563888873418E-2
297 365 6.066411345624422E-2
297 375 1.8462509114543228E-2
297 383 2.861141003093211E-2
297 384 1.1501486292146847E-2
297 516 3.414606086102763E-2
298 35 1.848452631333209E-2
298 45 1.831563888873418E-2
298 69 1.8376770444829448E-2
298 110 1.4130867878291242E-1
298 111 3.0237158281699594E-2
298 112 3.269748458644333E-2
298 170 1.837089429774198E-2
298 297 2.297240853682249E-2
298 362 1.950739022627339E-2
298 365 2.3503733372560864E-1
298 383 1.6172932803371998E-1
298 384 5.7447310994360595E-2
298 498 1.823142701886205E-2
299 8 9.322032822265072E-2
299 17 1.831563888873418E-2
299 19 2.675275762306402E-2
299 21 2.0142449383210373E-2
299 61 1.831563888873418E-2
299 64 7.759582533235532E-2
299 65 2.423181940864153E-2
299 67 2.1004637772992704E-2
299 160 5.556082938225613E-2
299 161 4.587298627405054E-2
299 166 8.493653121911117E-2
299 300 2.4949755240290156E-1
299 301 3.0192376766442974E-1
299 302 4.457057605800485E-2
299 303 5.640309408606429E-2
299 310 2.1127744651295854E-2
299 311 1.8096831641983405E-2
299 488 7.100128185595561E-2
299 489 1.6948730043359717E-2
299 491 1.930900863180825E-2
299 494 2.0105530967340327E-1
300 8 4.143204046014879E-1
300 13 1.7188972586827025E-2
300 21 1.7320915830133343E-2
300 61 5.074004381107865E-2
300 64 1.5386246367088502E-1
300 65 2.400111868368661E-2
300 156 1.5411301836694341E-2
300 166 4.020632320007764E-2
300 299 2.4949755240290156E-1
300 301 3.216446174885012E-2
300 302 6.993385651246929E-2
300 303 2.09072824614625E-2
300 488 1.4757066502956767E-1
300 489 2.4871924674980526E-2
300 491 1.611332076247434E-2
300 494 5.548505411926145E-2
301 8 1.565318471633278E-2
301 19 5.209692637561937E-2
301 64 4.892273166527547E-2
301 65 5.067352013728145E-2
301 66 2.8779577480622563E-2
301 67 1.831563888873418E-2
301 160 7.669217452833954E-2
301 161 7.020936554806662E-2
301 166 4.7640379610759905E-2
301 299 3.0192376766442974E-1
301 300 3.216446174885012E-2
301 302 2.859755749100245E-2
301 303 6.544669883669822E-2
301 488 4.59966692251538E-2
301 489 1.831563888873418E-2
301 491 1.831563888873418E-2
301 494 4.538311346911969E-2
302 9 2.5501271327346423E-2
302 10 3.8975405948552456E-2
302 13 2.104329479413879E-2
302 15 1.684164127065918E-2
302 19 1.5032281072773415E-1
302 64 4.1879422936477784E-2
302 65 3.0343717585039568E-2
302 156 2.2176105612184766E-1
302 299 4.457057605800485E-2
302 300 6.993385651246929E-2
302 301 2.859755749100245E-2
302 303 1.6055989313967253E-1
302 488 1.831563888873418E-2
302 489 4.271243340498325E-1
302 491 9.68014308858673E-2
302 566 1.875083880004847E-1
302 568 1.831563888873418E-2
302 569 4.309619397775458E-2
303 10 1.831563888873418E-2
303 19 2.2476622756322506E-1
303 64 3.4533851306223544E-2
303 65 4.056387508226731E-2
303 66 2.6188217493413428E-2
303 156 4.145704217088026E-2
303 160 5.9220952592469865E-2
303 161 4.799908883489508E-2
303 166 6.519097596100381E-3
303 299 5.640309408606429E-2
303 300 2.09072824614625E-2
303 301 6.544669883669822E-2
303 302 1.6055989313967253E-1
303 488 1.831563888873418E-2
303 489 1.8682102122490968E-1
303 491 6.582644341871922E-2
303 566 3.944177072146972E-2
303 569 2.3495190792495988E-2
304 6 2.0420357841819795E-2
304 11 1.8273101981984372E-2
304 12 2.5165556938480667E-2
304 13 2.59640912474356E-2
304 157 9.876265776230571E-2
304 159 1.5538545809381101E-2
304 164 1.7345263700456526E-1
304 330 2.4775333020018733E-2
304 331 1.831563888873418E-2
304 388 1.0794152301130694E-1
304 490 6.95713203336324E-2
304 567 5.529199291861205E-2
305 105 1.1434486970879083E-1
305 257 2.0393283840591327E-2
305 306 9.520029452875229E-1
305 307 2.1221435859016563E-1
305 362 1.782732230011533E-2
305 363 1.9226286412846336E-2
305 365 1.8429197776124024E-2
305 375 1.831563888873418E-2
305 404 1.8979573393879387E-2
305 516 1.9719078538548485E-2
306 42 1.865674889646868E-2
306 105 1.1033033551001813E-1
306 257 2.26356233500893E-2
306 305 9.520029452875229E-1
306 307 2.2291569346997772E-1
306 363 1.8553951251111728E-2
306 375 1.913900203501221E-2
306 403 1.831563888873418E-2
306 404 1.80927395058069E-2
306 516 1.9598638846422784E-2
307 42 3.0187330691289146E-2
307 105 2.1652659178215589E-1
307 257 4.890856539511495E-2
307 305 2.1221435859016563E-1
307 306 2.2291569346997772E-1
307 320 1.831563888873418E-2
307 354 2.4095866309393702E-2
307 374 2.8764469347656738E-2
307 375 2.8271159815308207E-2
307 521 1.7694610632897935E-2
308 29 3.402266146665055E-2
308 35 2.1469491233069855E-2
308 45 1.8952952388271188E-2
308 69 1.882881849781686E-2
308 170 1.871965100480389E-2
308 254 3.226670680064493E-2
308 309 4.1381708384984855E-1
308 313 1.74485124270209E-2
308 322 1.98609091383923E-2
308 371 1.8857811195446866E-2
308 465 2.8662314325946972E-2
308 498 1.8706237613663187E-2
308 501 1.831563888873418E-2
308 533 2.3015869189878684E-2
309 35 2.282743385893156E-2
309 45 2.1258601989007343E-2
309 69 2.12108497174066E-2
309 120 1.831563888873418E-2
309 170 2.107202987083152E-2
309 254 2.5663401653567355E-2
309 281 1.9183402483078676E-2
309 308 4.1381708384984855E-1
309 313 1.8723312893727046E-2
309 322 1.9879994799956148E-2
309 371 2.1648449229628067E-2
309 498 2.1033393387670154E-2
309 512 1.8134445015088846E-2
310 17 3.9426745404727753E-1
310 19 4.451462491502846E-2
310 20 3.15916994973371E-2
310 21 7.24341328631791E-2
310 63 8.585055660605025E-2
310 160 7.190489360824262E-2
310 161 6.604634302059176E-2
310 299 2.1127744651295854E-2
310 311 2.871357720714106E-1
310 329 3.881761862486778E-2
310 402 1.000241288614485E-1
310 494 1.6174629069187388E-2
311 17 5.7881558793188355E-2
311 20 6.301067020832278E-2
311 21 4.343528587484784E-1
311 61 1.831563888873418E-2
311 63 3.146441611646438E-2
311 160 4.531524761220662E-2
311 161 3.857485015777576E-2
311 299 1.8096831641983405E-2
311 310 2.871357720714106E-1
311 329 9.247995448410562E-2
311 402 3.618792732619936E-2
311 494 2.347677618787662E-2
312 35 9.572876669050576E-2
312 45 1.0438292223438049E-1
312 69 1.075307361485828E-1
312 81 1.831563888873418E-2
312 87 1.831563888873418E-2
312 90 1.679029628812741E-2
312 96 1.5129286959136725E-2
312 117 2.3153313833775512E-2
312 118 1.831563888873418E-2
312 120 3.861653489397923E-2
312 169 2.8419129347374124E-2
312 170 1.0443362179623261E-1
312 197 1.831563888873418E-2
312 200 1.831563888873418E-2
312 227 1.656985296714973E-2
312 233 1.565518728257647E-2
312 234 1.831563888873418E-2
312 313 1.224097322824304E-1
312 324 1.9543301543729713E-2
312 325 2.0789059033055494E-2
312 498 1.015172165993106E-1
312 547 2.0533818662160072E-2
312 548 1.772476495648741E-2
313 2 1.831563888873418E-2
313 3 1.831563888873418E-2
313 4 1.851163095841739E-2
313 5 1.9007306146537846E-2
313 34 1.831563888873418E-2
313 35 6.728309263360485E-2
313 45 6.570164544882987E-2
313 49 1.831563888873418E-2
313 51 9.794238515812184E-2
313 68 1.831563888873418E-2
313 69 7.006794059489609E-2
313 81 1.883355850989308E-2
313 87 1.0038239589003059E-1
313 89 3.086445714593946E-2
313 90 4.048985846699989E-2
313 91 1.0042881249600717E-1
313 96 3.0549813178777585E-2
313 97 1.831563888873418E-2
313 118 3.178091730249962E-2
313 120 2.6412789744219383E-2
313 126 1.8360302495009705E-2
313 159 1.831563888873418E-2
313 169 3.4472010944915844E-2
313 170 6.34705784337972E-2
313 197 1.8300327432125618E-2
313 200 1.875615595572205E-2
313 214 1.769019182866767E-2
313 220 1.8881110514239748E-2
313 224 1.8126271527670008E-2
313 227 2.9607909893237166E-2
313 233 6.151485196707963E-2
313 234 1.9587150443667503E-2
313 254 1.8458638383346274E-2
313 308 1.74485124270209E-2
313 309 1.8723312893727046E-2
313 312 1.224097322824304E-1
313 332 1.7571245048345185E-2
313 338 2.0067512077737777E-2
313 343 1.9158070490776585E-2
313 349 1.9167507380122652E-2
313 362 1.8248108790585468E-2
313 363 1.826944408858583E-2
313 364 1.831563888873418E-2
313 380 2.7456448228018914E-2
313 381 2.547535314515435E-1
313 382 1.9916655419792306E-1
313 396 2.6619027445060978E-2
313 397 1.7017274942210347E-2
313 398 2.492183420624183E-2
313 404 2.0383309530326185E-2
313 435 2.6164030761284728E-2
313 436 1.992790197812773E-2
313 479 1.831563888873418E-2
313 480 1.714652270069735E-2
313 498 6.724157335887898E-2
313 512 1.7712202443695875E-2
313 513 1.6879670229862486E-2
313 539 2.1487965477261253E-2
313 548 1.4167890375958125E-1
313 553 1.831563888873418E-2
313 559 1.8315910033487478E-2
313 560 1.9224286107505546E-2
314 34 3.03040441281166E-2
314 35 1.8751229172544612E-2
314 53 1.9929360550459217E-2
314 69 1.831563888873418E-2
314 142 4.3895795125382595E-2
314 170 1.8304066050902932E-2
314 322 3.434091256176037E-2
314 323 3.468527564985911E-2
314 333 9.596302200208279E-2
314 334 9.8666321092048E-2
314 336 1.831563888873418E-2
314 337 5.771961785062482E-2
314 462 7.453851621563553E-3
314 497 3.8884370972848886E-2
314 498 2.479978039081911E-2
314 501 3.63620865263105E-2
314 506 2.817662440992853E-2
314 517 2.027484398794929E-2
314 519 1.9996194510071022E-2
315 28 3.89666273634338E-2
315 31 1.5892701922641885E-2
315 50 2.255724440967656E-2
315 172 3.1935635371469644E-2
315 248 8.141100089228626E-2
315 250 2.82760865286783E-2
315 256 3.3918068405614996E-2
315 379 1.926535151575793E-2
315 438 1.387147961357082E-1
315 471 1.831563888873418E-2
315 502 3.288449313675659E-2
315 514 2.2513550317921176E-2
315 563 3.463817256449595E-2
316 60 4.998561495446808E-2
316 76 1.831563888873418E-2
316 276 2.7814247780563184E-2
316 285 3.0656525054518144E-2
316 287 1.8899876585014044E-2
316 317 4.7879996479559206E-2
316 318 1.429960631627521E-1
316 440 2.144103316567897E-2
316 445 1.6941814576642317E-2
316 484 2.1388597348623525E-2
316 485 1.0645354411105758E-1
316 487 1.831563888873418E-2
316 525 2.475664173942233E-2
317 74 2.1079229587060953E-2
317 75 1.831563888873418E-2
317 76 4.5005459988698385E-2
317 274 3.2898161663760556E-2
317 285 2.2043802992274993E-2
317 287 4.2951486036371556E-2
317 289 1.831563888873418E-2
317 316 4.7879996479559206E-2
317 428 1.6649405524620853E-2
317 440 2.962315487587986E-2
317 442 3.901497738751635E-2
317 444 4.3541647352630115E-2
317 445 3.5220574560221804E-2
317 487 4.1441817693219606E-2
317 525 3.6074177027864675E-2
318 1 1.831563888873418E-2
318 59 7.436364715686672E-2
318 60 5.638014914932154E-2
318 265 1.9562614147032496E-2
318 266 1.831563888873418E-2
318 276 5.992949131888909E-2
318 285 2.599701696483196E-2
318 287 2.2435361740037782E-2
318 288 2.046635334879201E-2
318 316 1.429960631627521E-1
318 319 1.831563888873418E-2
318 406 3.1570089869594066E-2
318 428 1.824503056098414E-2
318 442 2.5942745938213746E-2
318 445 2.242114068819786E-2
318 483 3.864500647165535E-2
318 487 4.365364752752515E-2
318 524 1.831563888873418E-2
319 60 6.430950010116314E-2
319 77 2.2984596786637293E-2
319 288 9.992082420513977E-2
319 289 2.344689507344902E-2
319 318 1.831563888873418E-2
319 408 8.247165344956311E-2
319 429 7.851389050580694E-2
319 442 1.431441017475061E-2
319 444 8.698713461091953E-2
319 483 3.133045650813662E-2
319 487 4.647018797935469E-2
319 524 2.421699471576103E-1
320 34 1.955290919987456E-2
320 45 1.7911758883519983E-2
320 105 2.7213217885017175E-2
320 257 5.231591737415841E-2
320 307 1.831563888873418E-2
320 341 2.2620374934569337E-2
320 342 3.558338286223634E-2
320 362 2.788813995828094E-2
320 363 3.883694315982721E-2
320 384 4.5303240655793435E-2
320 385 3.498503735161025E-2
320 404 2.5534018806017536E-2
320 423 8.714025265370169E-2
320 505 1.975554571917963E-2
320 512 2.0459396319244424E-2
320 513 2.0499011385632565E-2
320 516 1.831563888873418E-2
321 104 2.1943041313133453E-2
321 341 6.1705011047600435E-2
321 342 3.134281088228252E-2
321 354 1.703470370972131E-2
321 385 4.101333117082273E-2
321 386 1.3578895429088525E-1
321 423 5.8537546379689796E-2
321 469 2.5686656248486945E-2
321 520 2.1316858028470914E-2
321 521 1.831563888873418E-2
322 30 2.3316084395819572E-2
322 34 3.283702108949104E-2
322 35 7.294332153446603E-2
322 45 7.233608653684667E-2
322 46 1.831563888873418E-2
322 48 1.988150392145941E-2
322 52 2.05604722119919E-2
322 56 2.0455029728313322E-2
322 68 1.5344629418167603E-2
322 69 6.090213227576347E-2
322 83 2.4181814886123122E-2
322 84 2.005224486876111E-2
322 99 1.0368230872155099E-1
322 101 1.1658081854358346E-1
322 107 1.6625134545920267E-2
322 108 2.6834755617044802E-2
322 120 2.2414700071678038E-2
322 143 1.979818669879394E-2
322 169 1.682989457307892E-2
322 170 5.948945269210141E-2
322 185 2.1822979053440376E-2
322 245 1.5219943014018996E-2
322 252 1.058465998144555E-1
322 253 1.1838455460601946E-1
322 268 1.831563888873418E-2
322 281 1.916484697126209E-2
322 283 3.616774646476495E-2
322 284 1.857415452154666E-2
322 308 1.98609091383923E-2
322 309 1.9879994799956148E-2
322 314 3.434091256176037E-2
322 333 2.6677115840588402E-2
322 334 2.6544430053982597E-2
322 366 3.215769567387643E-2
322 369 2.6840284138752387E-2
322 390 2.3104928930653253E-2
322 391 2.154851485980542E-2
322 452 1.7724115813066047E-2
322 498 8.249057038699359E-2
322 499 1.9779039738117357E-2
322 500 3.132256042911864E-2
322 501 1.8673602212968882E-1
322 506 4.465929480274057E-2
322 510 1.9662918961921856E-2
322 512 1.831563888873418E-2
322 513 1.9906084691063253E-2
322 533 2.9584761233141764E-2
322 537 8.29313029014677E-2
322 544 2.674293670222287E-2
322 550 2.1432517904105046E-2
322 554 1.89211958989443E-2
322 565 1.831563888873418E-2
323 25 3.5860110647779574E-2
323 27 7.379153374860191E-2
323 32 1.042221415601743E-1
323 38 1.960947796670573E-2
323 41 8.13211751156679E-3
323 142 9.227886471956834E-2
323 228 3.3897497992176506E-2
323 235 2.1568135230700756E-2
323 236 1.831563888873418E-2
323 237 6.014965066665459E-2
323 252 1.831563888873418E-2
323 253 1.639180867506727E-2
323 283 1.9956515861476537E-2
323 314 3.468527564985911E-2
323 376 4.3627431846499864E-2
323 378 3.5352156315926836E-2
323 422 2.5094958086578405E-2
323 446 2.7167076910064675E-2
323 497 3.130414276040577E-2
323 506 4.8593441724426485E-2
323 537 2.137439238198939E-2
324 35 1.6717963883297847E-2
324 123 3.808217245071207E-2
324 125 2.660855491990609E-2
324 126 6.598180784840851E-2
324 312 1.9543301543729713E-2
324 325 7.44247396996848E-2
324 475 2.0841164879404787E-2
324 479 1.831563888873418E-2
324 480 2.0043762353572477E-2
324 482 2.0317544551582276E-2
325 35 1.8403681246141654E-2
325 45 1.8543632149795063E-2
325 69 1.8347315072917467E-2
325 125 2.0810867725173092E-2
325 126 3.6495633757821916E-2
325 137 2.8626786709617255E-2
325 145 4.167959372325642E-2
325 170 1.831563888873418E-2
325 219 1.9733989713063206E-2
325 312 2.0789059033055494E-2
325 324 7.44247396996848E-2
325 481 5.496942113119867E-2
325 482 4.4797126456904195E-2
325 498 1.8273962190122072E-2
326 115 5.302264919792398E-2
326 127 2.7443393637634823E-2
326 129 4.5454496789876675E-2
326 130 2.9451872781789446E-2
326 131 1.1653056711970991E-2
326 132 7.198767258842759E-2
326 133 1.831563888873418E-2
326 144 1.831563888873418E-2
326 145 1.831563888873418E-2
326 151 4.386561925986673E-2
326 186 2.7937083564953374E-2
326 188 1.9004009392437102E-2
326 189 2.01202470627561E-1
326 194 1.3363326337195992E-2
326 195 4.701001211866962E-2
326 201 4.0660847578604636E-2
326 202 2.145581172714346E-2
326 204 4.649303133958518E-2
326 205 3.8086193688138266E-2
326 206 1.2781008392894547E-1
326 207 4.874823273692187E-2
326 208 2.027197880050359E-2
326 209 3.1755943122989246E-2
326 278 1.831563888873418E-2
326 291 2.0927742352179438E-2
326 328 2.3077260950244288E-2
326 409 1.0178374270095837E-1
326 410 1.1767034329034601E-1
326 412 4.224427592299051E-2
326 475 1.4304813380705717E-2
326 476 2.4652087027537677E-2
326 477 1.6595399617262703E-2
326 478 1.3327227382546522E-1
327 79 3.3268948397130974E-2
327 80 7.65695033067096E-2
327 115 1.7328995610077447E-2
327 194 1.831563888873418E-2
327 196 1.8543424364359412E-1
327 198 1.5659267469034927E-1
327 199 1.475449352345238E-1
327 202 2.237689975311191E-2
327 203 9.006884737960741E-2
327 218 2.9545096354244457E-2
327 328 2.770152600599378E-2
327 475 1.945151115108595E-2
327 482 1.943765756307124E-2
328 80 2.8239749510323372E-2
328 132 1.831563888873418E-2
328 194 1.40781837958615E-1
328 195 2.880253686124721E-1
328 196 8.327160773965724E-2
328 198 1.3493748487247262E-1
328 199 9.33428390994433E-2
328 202 5.244346281107927E-1
328 277 2.664918489280331E-2
328 278 6.574741655163714E-2
328 326 2.3077260950244288E-2
328 327 2.770152600599378E-2
328 478 1.6746857075955225E-2
329 17 1.6066431890370672E-2
329 20 4.974335161041493E-1
329 21 9.866931160185045E-2
329 22 3.5217390602688296E-2
329 61 1.831563888873418E-2
329 62 1.8511637237672796E-1
329 160 2.1611166425257615E-2
329 161 1.320945643441926E-2
329 165 1.2732370686209277E-2
329 310 3.881761862486778E-2
329 311 9.247995448410562E-2
329 388 4.9967937285064615E-2
329 402 2.3791439286644137E-2
329 494 3.2379254923762146E-2
330 13 2.19926153423085E-2
330 35 1.8814115549447227E-2
330 45 1.889589604424299E-2
330 67 2.0615329362954363E-2
330 69 1.8947576300131226E-2
330 120 1.831563888873418E-2
330 157 1.831563888873418E-2
330 164 1.8853244718411617E-2
330 166 2.4645583112897426E-2
330 169 1.7133714212443536E-2
330 170 1.8904265856223658E-2
330 304 2.4775333020018733E-2
330 331 2.3281600846038739E-1
330 498 1.886116883384692E-2
331 13 3.579858762342675E-2
331 21 2.2240352895157536E-2
331 35 1.8499494976554443E-2
331 45 1.8733403149838086E-2
331 67 6.669871099277301E-2
331 69 1.8836996713697127E-2
331 120 1.831563888873418E-2
331 157 2.6607810903589952E-2
331 164 1.831563888873418E-2
331 166 2.1801471194256506E-2
331 170 1.882812213461426E-2
331 233 1.7073715287146837E-2
331 304 1.831563888873418E-2
331 330 2.3281600846038739E-1
331 488 2.134456979641597E-2
331 498 1.8676798142642923E-2
332 35 2.1946568276365666E-2
332 45 2.229217646010825E-2
332 69 2.1870371548427685E-2
332 119 2.0811819371975897E-2
332 120 1.831563888873418E-2
332 170 2.1560659255276775E-2
332 313 1.7571245048345185E-2
332 333 4.92063733610286E-2
332 334 4.3466335115491014E-2
332 335 1.3297255148644072E-1
332 336 2.8690394539235817E-2
332 337 5.618344141466003E-2
332 460 1.563106947654403E-1
332 461 1.817135767246177E-2
332 462 1.9850775087988753E-2
332 463 2.168061448686478E-2
332 498 2.2125536218344052E-2
333 34 2.092119224077998E-2
333 45 1.760111215826652E-2
333 53 2.1493100933891215E-2
333 314 9.596302200208279E-2
333 322 2.6677115840588402E-2
333 332 4.92063733610286E-2
333 334 6.994539553470787E-1
333 335 1.8553676986958303E-1
333 336 9.492158491769413E-2
333 337 3.388874797419453E-1
333 401 1.831563888873418E-2
333 460 1.1807264561174936E-1
333 461 1.831563888873418E-2
333 462 2.446172855991756E-2
333 463 3.903092593428083E-2
333 497 1.7886118204276977E-2
333 498 2.0650982551665323E-2
333 499 2.8290029980733777E-2
333 501 1.831563888873418E-2
333 506 1.696353353900673E-2
333 517 1.9002847187773682E-2
333 540 2.1694027057178673E-2
333 550 1.8683737138639172E-2
334 34 3.4754752008745185E-2
334 45 1.831563888873418E-2
334 52 1.831563888873418E-2
334 53 2.1996419100032187E-2
334 314 9.8666321092048E-2
334 322 2.6544430053982597E-2
334 332 4.3466335115491014E-2
334 333 6.994539553470787E-1
334 335 1.2344226272144172E-1
334 336 7.635595001398518E-2
334 337 2.8389410976780455E-1
334 460 8.822023721845186E-2
334 462 1.831563888873418E-2
334 463 3.260632976139632E-2
334 497 1.9232239836477153E-2
334 498 2.1709065275339934E-2
334 499 3.030855732147218E-2
334 501 1.7852405937147545E-2
334 540 2.278184386334068E-2
334 550 1.831563888873418E-2
335 35 2.0563293185356955E-2
335 45 1.8417608893892976E-2
335 69 1.831563888873418E-2
335 170 1.8180866590758838E-2
335 332 1.3297255148644072E-1
335 333 1.8553676986958303E-1
335 334 1.2344226272144172E-1
335 336 9.584691020098109E-2
335 337 1.883247743215821E-1
335 401 5.2107144115141925E-2
335 460 2.4904570360498035E-1
335 461 4.294083261649517E-2
335 462 3.5246455685799004E-2
335 463 7.822919773824515E-2
335 498 1.871901131466271E-2
335 518 1.8169246040077337E-2
335 519 2.307329993262578E-2
335 540 1.8671534869197495E-2
336 53 2.522312447301174E-2
336 314 1.831563888873418E-2
336 332 2.8690394539235817E-2
336 333 9.492158491769413E-2
336 334 7.635595001398518E-2
336 335 9.584691020098109E-2
336 337 4.403976541428279E-1
336 400 4.339901368877729E-2
336 401 9.251359355440812E-2
336 437 2.518938768224557E-2
336 438 2.1085470733447048E-2
336 460 6.98614800935241E-2
336 461 5.093821540354308E-2
336 462 2.4634216531417525E-2
336 463 5.682672392300184E-2
336 501 1.0247976849479281E-2
336 517 3.680571439229759E-2
336 518 3.315327870525379E-2
336 519 1.831563888873418E-2
336 542 1.797515075499536E-2
337 53 3.1250763740075904E-2
337 214 1.831563888873418E-2
337 314 5.771961785062482E-2
337 332 5.618344141466003E-2
337 333 3.388874797419453E-1
337 334 2.8389410976780455E-1
337 335 1.883247743215821E-1
337 336 4.403976541428279E-1
337 400 2.9985231135859738E-2
337 401 4.838645943802029E-2
337 460 1.0284388621116457E-1
337 461 3.5234773740959874E-2
337 462 2.620231451924057E-2
337 463 8.983229142908838E-2
337 497 2.173281589153865E-2
337 499 3.166701841709146E-2
337 501 1.796875544180601E-2
337 518 2.25904928611349E-2
337 519 2.2650979471132447E-2
337 540 2.444263961186538E-2
337 542 2.5622534875771458E-2
338 33 2.046399796309486E-2
338 51 3.523978281158846E-2
338 87 1.831563888873418E-2
338 88 1.8336401917152755E-2
338 91 1.98924737779582E-2
338 313 2.0067512077737777E-2
338 381 3.338690977907527E-2
338 382 4.1724675667473635E-2
338 434 1.8236180506084207E-2
338 548 2.1012685769380268E-2
339 33 1.6750212880633691E-1
339 88 1.4501558956698607E-1
339 89 6.249789329000995E-2
339 220 1.915433977378062E-2
339 381 2.174072530490572E-2
339 382 1.7733589802559062E-2
339 399 3.9267865462048035E-1
339 433 2.0899573262122195E-1
339 434 2.5633035623940337E-1
339 435 4.7321098834763584E-2
339 548 1.831563888873418E-2
340 23 1.57263430965066E-2
340 103 2.0289173754172884E-2
340 247 2.062978198645303E-2
340 267 2.0372426000926123E-2
340 268 1.8788490920493527E-2
340 376 3.720849978395474E-2
340 377 6.433055619933876E-2
340 452 3.458561380395667E-2
340 453 4.7947352599797086E-2
340 455 1.831563888873418E-2
340 565 1.9459123942333914E-2
341 42 1.7864835438573503E-2
341 43 1.906981282338182E-2
341 320 2.2620374934569337E-2
341 321 6.1705011047600435E-2
341 342 3.1390895507609295E-1
341 374 1.831563888873418E-2
341 385 3.4445183185302825E-1
341 386 5.005568494550009E-1
341 423 2.3640854895903094E-2
341 520 2.5147774956780545E-2
341 521 2.126955176429648E-2
342 42 2.889419671052879E-2
342 320 3.558338286223634E-2
342 321 3.134281088228252E-2
342 341 3.1390895507609295E-1
342 374 2.036088727302062E-2
342 375 3.126111633537549E-2
342 383 1.9855247371235188E-2
342 384 3.113903109501842E-2
342 385 3.823209493068823E-1
342 386 1.4342278146008486E-1
342 423 2.9329445602123128E-2
342 516 1.831563888873418E-2
342 521 1.5861800377033792E-2
343 35 2.4392750357276942E-2
343 45 2.5585779994390746E-2
343 69 2.5222278847636663E-2
343 120 2.735680423509596E-2
343 169 1.831563888873418E-2
343 170 2.4994669921904775E-2
343 200 2.1170341960436212E-2
343 221 5.246615192760745E-2
343 222 5.39571702137841E-2
343 223 5.3861303682557315E-2
343 225 4.175235647089186E-2
343 226 1.9641816792547404E-1
343 313 1.9158070490776585E-2
343 346 1.8022529769272162E-2
343 348 4.448244627983365E-2
343 349 6.910179390747362E-2
343 352 3.027599651189213E-2
343 498 2.4827902754113923E-2
343 560 1.2556878670575933E-1
344 97 3.6687457808460666E-2
344 98 5.570502119306533E-2
344 119 4.9595778376226404E-2
344 120 1.657563475779559E-2
344 121 4.428660084490706E-2
344 122 3.943650235810743E-2
344 179 2.64817084351645E-2
344 345 4.468617526224991E-2
344 346 1.831563888873418E-2
344 347 2.3906086813248954E-2
344 353 1.9624135031165068E-2
345 45 1.831563888873418E-2
345 69 1.850909027467564E-2
345 97 3.0233639662232397E-2
345 98 8.613842390659161E-2
345 120 9.162282514452331E-2
345 121 5.069018520382405E-2
345 122 4.619644070661938E-1
345 170 1.826781761205262E-2
345 179 2.705355390066065E-1
345 344 4.468617526224991E-2
345 346 1.3692704315808388E-1
345 347 2.8487836548120704E-1
345 571 2.6675525010318037E-2
346 35 1.757454777906794E-2
346 45 1.867168642774451E-2
346 69 1.9279225301879255E-2
346 98 1.4602768728851093E-2
346 119 1.989298881227739E-2
346 120 1.9628669190428666E-1
346 121 2.1762092719731257E-2
346 122 6.105975646881551E-2
346 167 1.9879651043736854E-1
346 170 1.858961345561925E-2
346 179 4.021672881416577E-2
346 225 1.968079993761644E-2
346 226 2.429536008255452E-2
346 343 1.8022529769272162E-2
346 344 1.831563888873418E-2
346 345 1.3692704315808388E-1
346 347 3.1808852712301755E-1
346 498 1.831563888873418E-2
346 560 1.648110931122298E-2
346 570 2.02699855771838E-1
346 571 1.0398191835002232E-1
347 45 1.800184430952512E-2
347 69 1.831563888873418E-2
347 98 3.5171326372752686E-2
347 120 1.2447530630317309E-1
347 121 2.9456758959684314E-2
347 122 1.2409628116040501E-1
347 167 3.1005883503680706E-2
347 179 1.55509567534942E-1
347 226 1.9168349009116934E-2
347 344 2.3906086813248954E-2
347 345 2.8487836548120704E-1
347 346 3.1808852712301755E-1
347 570 1.274085884409542E-1
347 571 9.463537806623717E-2
348 35 1.831563888873418E-2
348 45 1.8454200831596886E-2
348 69 1.84625979063354E-2
348 97 1.7745574970798126E-2
348 170 1.8448374262232684E-2
348 221 1.0876482789210877E-1
348 222 6.588139286197639E-2
348 223 5.29975839281417E-2
348 226 1.9564089752120588E-2
348 343 4.448244627983365E-2
348 349 9.043540010895268E-2
348 498 1.8387834788085755E-2
348 560 5.235491522171283E-2
349 35 2.0607878347623457E-2
349 45 2.091890400599767E-2
349 69 2.0985048271742697E-2
349 90 1.7755324145771256E-2
349 120 1.831563888873418E-2
349 170 2.0914366674557826E-2
349 221 9.432476722535718E-2
349 222 7.772335739297326E-2
349 223 6.441743294628621E-2
349 225 2.283882874932664E-2
349 226 5.8816669238616774E-2
349 313 1.9167507380122652E-2
349 343 6.910179390747362E-2
349 348 9.043540010895268E-2
349 498 2.0821749996858298E-2
349 560 9.029324798696867E-2
350 35 1.831563888873418E-2
350 45 1.8460461634998586E-2
350 69 1.8506229584845758E-2
350 97 2.0965831512392653E-2
350 98 1.7436855597270696E-2
350 170 1.8458709703844788E-2
350 227 2.59327875455212E-2
350 351 5.249827027757038E-2
350 353 5.855158141254837E-2
350 498 1.841911310733011E-2
351 35 1.984366561120022E-2
351 45 2.0109368226096377E-2
351 69 2.0190890590615712E-2
351 97 2.4224137987730262E-2
351 120 1.831563888873418E-2
351 169 1.7578783543208378E-2
351 170 2.009733632941527E-2
351 187 2.3830521815145916E-2
351 227 3.898295172523771E-2
351 350 5.249827027757038E-2
351 353 4.7800116829360856E-1
351 498 2.0036167896356996E-2
352 35 1.831563888873418E-2
352 45 1.834609443944739E-2
352 69 1.8363024271304852E-2
352 120 1.845455075549146E-2
352 170 1.835072944693959E-2
352 343 3.027599651189213E-2
352 498 1.83276782578013E-2
352 512 1.8058809270960235E-2
352 559 2.0884947804469825E-2
352 560 2.2661313588310465E-2
353 35 1.980868220622304E-2
353 45 2.0089917469551733E-2
353 69 2.018445417642744E-2
353 97 2.7560525014750842E-2
353 98 1.831563888873418E-2
353 119 2.6622907768265206E-2
353 120 1.8004311221541273E-2
353 170 2.013573225970887E-2
353 187 2.39747952724053E-2
353 227 4.043698483827905E-2
353 344 1.9624135031165068E-2
353 350 5.855158141254837E-2
353 351 4.7800116829360856E-1
353 498 1.999909645812684E-2
354 42 3.663319928941264E-2
354 104 2.1561199801916973E-2
354 105 2.4418659135642496E-2
354 257 1.831563888873418E-2
354 258 5.1980192772074676E-2
354 307 2.4095866309393702E-2
354 321 1.703470370972131E-2
354 363 1.829746925861836E-2
354 373 1.5216449687790614E-2
354 374 7.947628269892434E-2
354 375 1.2296933991652598E-1
354 385 1.8422540947538514E-2
354 395 2.5714099256291076E-2
354 403 4.835660360278393E-2
354 423 2.3692805970270934E-2
354 425 3.496017719991342E-2
354 426 4.431493273380809E-2
354 427 2.8190305911104937E-2
354 469 2.4745183776143105E-2
354 470 1.271761730091404E-1
354 516 5.219818709841676E-2
354 520 1.603218944744768E-2
354 521 4.951194768901577E-2
355 35 1.8327761644915855E-2
355 45 1.831563888873418E-2
355 69 1.8299763774111712E-2
355 112 2.7563410761083696E-2
355 362 2.5020302853683302E-2
355 363 3.034916726683557E-2
355 365 2.9887876633941268E-2
355 383 2.5281187451225654E-2
355 384 2.838660455851574E-2
355 404 2.0670659234851646E-2
356 42 2.0365011457351815E-2
356 43 6.287330397971463E-2
356 104 1.627787139344963E-2
356 357 5.365718431977401E-1
356 372 1.6810507229983535E-1
356 373 1.1945886063640063E-1
356 374 1.831563888873418E-2
356 469 3.6834918350168104E-2
356 520 6.854320679891814E-2
356 521 3.081513559204944E-2
357 43 5.394715811309969E-2
357 104 3.1936567414573576E-2
357 356 5.365718431977401E-1
357 372 2.2620074366300713E-1
357 373 1.3217996338071245E-1
357 374 1.831563888873418E-2
357 424 2.0037062352266134E-2
357 469 5.818435236221691E-2
357 520 1.1069011713114045E-1
357 521 3.709017910680104E-2
358 23 1.831563888873418E-2
358 54 2.6245791693492254E-2
358 55 4.094338241005928E-2
358 56 4.590654617961497E-2
358 57 5.204255587883897E-2
358 242 2.1566212846746043E-2
358 243 1.7947122611164955E-2
358 244 2.0054319504964203E-2
358 245 1.695452952903807E-2
358 359 6.028060507334838E-1
358 361 2.612886309238483E-2
358 473 2.152046986823475E-2
358 532 1.98296770522808E-2
359 23 2.274960084002551E-2
359 54 2.5402440166806907E-2
359 55 4.671990792194276E-2
359 56 4.468714051455186E-2
359 57 5.5390231064773955E-2
359 100 1.831563888873418E-2
359 242 2.0876910398705886E-2
359 243 1.901900802728065E-2
359 244 2.9655607333817155E-2
359 358 6.028060507334838E-1
359 361 2.6467702320814197E-2
359 473 2.6477905703623354E-2
359 532 1.700469292904508E-2
360 29 2.4775430374325697E-2
360 47 1.831563888873418E-2
360 55 1.9680772315139858E-2
360 56 1.7809575116922848E-2
360 57 1.8727930075223925E-2
360 279 2.0961405103690413E-2
360 448 1.8961124449097873E-2
360 533 1.8499003289949894E-2
360 536 3.9234888585533464E-2
360 538 2.038981046529214E-2
361 47 1.978574631251131E-2
361 50 2.66301690149605E-2
361 229 1.831563888873418E-2
361 249 1.9945043343345646E-2
361 279 2.1398151892559315E-2
361 358 2.612886309238483E-2
361 359 2.6467702320814197E-2
361 371 2.064806185502419E-2
361 448 2.968989491387286E-2
361 514 1.7812020644981164E-2
362 35 3.796178429908717E-2
362 45 3.898687859022611E-2
362 69 3.891125508536827E-2
362 110 1.822399471252859E-2
362 120 2.2905776097722985E-2
362 169 1.831563888873418E-2
362 170 3.806474708720141E-2
362 257 1.7039464815411402E-2
362 298 1.950739022627339E-2
362 305 1.782732230011533E-2
362 313 1.8248108790585468E-2
362 320 2.788813995828094E-2
362 355 2.5020302853683302E-2
362 363 1.9291410885060267E-1
362 365 1.9654860195967683E-2
362 383 1.7691814992001467E-2
362 384 1.8730784221423234E-2
362 403 1.423950894186417E-2
362 404 5.837375496266304E-2
362 470 2.448578981691353E-2
362 498 3.7596735123141246E-2
362 516 3.2382779616450114E-2
363 35 3.231725184561503E-2
363 42 2.9363335870606678E-2
363 45 3.287056445321912E-2
363 69 3.282888568350416E-2
363 105 2.7815044699700565E-2
363 110 2.0569592999818295E-2
363 111 1.831563888873418E-2
363 120 2.170337266138566E-2
363 169 1.831563888873418E-2
363 170 3.2432383962712454E-2
363 257 2.735863409663602E-2
363 258 1.617036447554707E-2
363 297 1.831563888873418E-2
363 305 1.9226286412846336E-2
363 306 1.8553951251111728E-2
363 313 1.826944408858583E-2
363 320 3.883694315982721E-2
363 354 1.829746925861836E-2
363 355 3.034916726683557E-2
363 362 1.9291410885060267E-1
363 365 2.5991493792881223E-2
363 374 1.2339534833732766E-2
363 375 5.203670862249568E-2
363 384 1.8782068055463022E-2
363 403 2.752913649690631E-2
363 404 8.794669720164018E-2
363 470 5.251149727156332E-2
363 498 3.192986958093475E-2
363 516 1.1370356351150596E-1
364 34 1.6860094464420456E-2
364 35 2.181261503332383E-2
364 45 2.2101451865442535E-2
364 69 2.2179276342959055E-2
364 116 7.780712898290619E-2
364 117 2.5867613183604414E-2
364 118 1.6881235928052746E-1
364 120 1.9349250748999708E-2
364 169 1.841690028623769E-2
364 170 2.212217023130783E-2
364 313 1.831563888873418E-2
364 403 5.657316024936213E-2
364 498 2.2018946031935036E-2
365 35 1.845574504955747E-2
365 42 3.7731026449996895E-2
365 45 1.831563888873418E-2
365 69 1.8379976648498466E-2
365 105 1.7934339056033945E-2
365 110 1.509467028786458E-1
365 111 7.944219932575655E-2
365 112 8.838967142088881E-2
365 170 1.8402458245207934E-2
365 257 1.831563888873418E-2
365 297 6.066411345624422E-2
365 298 2.3503733372560864E-1
365 305 1.8429197776124024E-2
365 355 2.9887876633941268E-2
365 362 1.9654860195967683E-2
365 363 2.5991493792881223E-2
365 375 2.0299348858312367E-2
365 383 2.584853345010965E-1
365 384 6.161173784451233E-2
365 403 2.0678107106628933E-2
365 470 3.5458020369665645E-2
365 516 6.663406550564831E-2
366 29 4.054949521295752E-2
366 31 1.822381125820178E-2
366 35 1.7926730838874645E-2
366 47 1.831563888873418E-2
366 54 2.42955392977605E-2
366 68 3.8158106194785144E-2
366 101 4.761935266912807E-2
366 229 2.7864140208071417E-2
366 231 1.9294662476958654E-2
366 249 2.1253712222804914E-2
366 252 2.1454004137746265E-2
366 263 3.0946883988985593E-2
366 279 2.8068326941026064E-2
366 281 1.831563888873418E-2
366 322 3.215769567387643E-2
366 390 1.831563888873418E-2
366 391 2.1156778872921524E-2
366 451 8.904757772406179E-2
366 468 1.9346262732800934E-2
366 498 1.869031232427324E-2
366 500 1.831563888873418E-2
366 501 2.5411104618970334E-2
366 514 1.831563888873418E-2
366 533 3.3477430321485084E-2
367 28 3.955110632807844E-2
367 39 6.627375240742239E-2
367 40 2.3242313624514144E-1
367 134 7.169680789753949E-2
367 135 1.5171164963470785E-1
367 230 1.5461395910612049E-2
367 261 1.910652401396657E-1
367 262 2.0948145263727944E-2
367 447 1.9757451243100046E-2
367 467 5.489792753099466E-2
367 472 2.463859792651793E-2
367 515 5.024139764440489E-2
367 535 1.831563888873418E-2
367 564 1.924788564268748E-2
368 27 3.7432889561982055E-2
368 38 1.220722401669742E-1
368 39 1.8082288034968294E-2
368 41 1.5563136522540152E-1
368 148 3.9150115314754916E-2
368 168 4.0246097489364224E-2
368 228 1.758623334503598E-2
368 239 8.470720162369688E-2
368 378 1.831563888873418E-2
368 392 1.831563888873418E-2
368 419 2.2902366961632237E-1
368 420 6.2305327138018465E-2
368 446 5.896291772938095E-2
369 34 2.574157163170098E-2
369 36 1.7650094946153758E-2
369 46 2.021622910488346E-2
369 68 3.042249706536707E-2
369 78 1.888714816095618E-2
369 94 2.033835615308539E-2
369 235 4.668585692164844E-2
369 236 2.1134085969289847E-2
369 237 2.1242195224979988E-2
369 244 1.8776983400063035E-2
369 252 4.0412610927289205E-2
369 253 2.6108258440394418E-2
369 263 3.367424746445127E-2
369 281 2.2608491631643662E-2
369 282 8.002047922463976E-2
369 283 1.7863286150179545E-2
369 322 2.6840284138752387E-2
369 370 7.590408262208968E-2
369 393 2.728215454892151E-2
369 451 4.64932899100722E-2
369 457 2.2742668297957375E-2
369 468 2.8485270299511426E-2
369 498 1.831563888873418E-2
369 501 2.1519796903830643E-2
369 509 1.831563888873418E-2
369 532 2.755403327737839E-2
369 537 3.93612228933682E-2
370 23 2.80116195752248E-2
370 30 1.831563888873418E-2
370 252 4.60562867344077E-2
370 253 3.240645542452436E-2
370 280 2.003439247338031E-2
370 282 2.2230183650943945E-2
370 369 7.590408262208968E-2
370 421 2.1209565101400183E-2
370 466 2.590593577104028E-2
370 468 1.582075216706402E-2
370 537 5.709099896700873E-2
370 538 2.2707399137055724E-2
370 565 2.403324329661285E-2
371 50 1.795576139347213E-2
371 143 1.831563888873418E-2
371 229 2.3033554286499856E-2
371 249 2.0818824975565614E-2
371 254 2.3549665933519787E-2
371 279 2.242226404162713E-2
371 281 5.8346211743671474E-2
371 308 1.8857811195446866E-2
371 309 2.1648449229628067E-2
371 361 2.064806185502419E-2
371 448 4.830259284944524E-2
372 42 1.780650588199267E-2
372 43 7.26575507641162E-2
372 104 2.189367728057002E-2
372 356 1.6810507229983535E-1
372 357 2.2620074366300713E-1
372 373 4.722928367446055E-1
372 374 3.0546046058653544E-2
372 375 1.9380808228974217E-2
372 386 1.831563888873418E-2
372 424 2.8380813464575695E-2
372 469 4.4630900502650915E-2
372 520 2.2638873093015605E-1
372 521 6.64128685075758E-2
373 42 2.2820425444259038E-2
373 43 4.9993827190742614E-2
373 104 4.5064904708151915E-2
373 354 1.5216449687790614E-2
373 356 1.1945886063640063E-1
373 357 1.3217996338071245E-1
373 372 4.722928367446055E-1
373 374 5.284607713284728E-2
373 375 2.8099351293618475E-2
373 386 2.423804623375593E-2
373 424 3.008372327300657E-2
373 469 8.134142176324136E-2
373 520 3.4161021972118477E-1
373 521 1.0127230257207127E-1
374 42 8.514180726739898E-2
374 43 3.345778768120388E-2
374 104 3.138776981812616E-2
374 257 3.802304865543152E-2
374 258 5.560448906221564E-2
374 307 2.8764469347656738E-2
374 341 1.831563888873418E-2
374 342 2.036088727302062E-2
374 354 7.947628269892434E-2
374 356 1.831563888873418E-2
374 357 1.831563888873418E-2
374 363 1.2339534833732766E-2
374 372 3.0546046058653544E-2
374 373 5.284607713284728E-2
374 375 2.507227572989055E-1
374 385 1.831563888873418E-2
374 395 2.3050551884188166E-2
374 403 4.4795864740961006E-2
374 423 1.831563888873418E-2
374 425 2.595974779308182E-2
374 426 2.5660638072859347E-2
374 427 3.3781917471402564E-2
374 469 7.741247763682632E-2
374 470 5.9349111948410735E-2
374 516 4.57323376487216E-2
374 520 8.45469176463354E-2
374 521 4.8915658696538844E-1
375 42 3.5440392597829873E-1
375 43 6.507654825832963E-2
375 105 3.1838059635670074E-2
375 257 6.888062983533645E-2
375 258 6.069068232617219E-2
375 297 1.8462509114543228E-2
375 305 1.831563888873418E-2
375 306 1.913900203501221E-2
375 307 2.8271159815308207E-2
375 342 3.126111633537549E-2
375 354 1.2296933991652598E-1
375 363 5.203670862249568E-2
375 365 2.0299348858312367E-2
375 372 1.9380808228974217E-2
375 373 2.8099351293618475E-2
375 374 2.507227572989055E-1
375 385 2.6927252443737684E-2
375 403 7.49866353222079E-2
375 423 2.5530148742222505E-2
375 425 3.564318113242211E-2
375 426 2.7253853763113636E-2
375 427 1.831563888873418E-2
375 470 9.850384236686949E-2
375 516 3.2217197570684614E-1
375 520 3.330342849954924E-2
375 521 9.816707294701502E-2
376 32 3.107485713812872E-2
376 103 4.071203422052101E-2
376 142 1.831563888873418E-2
376 168 2.8575391335368412E-2
376 228 1.8805270841534945E-2
376 237 1.976874796202395E-2
376 268 1.6705411484905903E-2
376 323 4.3627431846499864E-2
376 340 3.720849978395474E-2
376 377 1.8122482060834716E-1
376 452 5.271062712519437E-2
376 453 3.0015284680596034E-2
376 455 2.8898539514437577E-2
377 24 1.831563888873418E-2
377 27 2.9834998395216434E-2
377 32 2.273145186806548E-2
377 38 2.446734321567166E-2
377 168 4.541889091126096E-2
377 228 2.35357601604956E-2
377 239 1.2926032202660595E-2
377 340 6.433055619933876E-2
377 376 1.8122482060834716E-1
377 420 1.9923345308033497E-2
377 446 2.5920066820555927E-2
377 452 1.2737748525420999E-2
378 27 6.736118628502968E-2
378 32 9.394128527228977E-2
378 38 5.6528182603479776E-2
378 41 2.7694803706781373E-2
378 228 2.8487049762436982E-2
378 235 1.831563888873418E-2
378 237 1.8010788184627747E-2
378 239 1.831563888873418E-2
378 323 3.5352156315926836E-2
378 368 1.831563888873418E-2
378 379 2.5181635134179696E-2
378 420 2.0502888039861673E-2
378 446 3.932003172632823E-2
379 31 1.9712807669446872E-2
379 50 1.831563888873418E-2
379 248 3.510175706645759E-2
379 250 2.2843342096487494E-2
379 262 2.544496981079251E-2
379 315 1.926535151575793E-2
379 378 2.5181635134179696E-2
379 471 1.8815023264975587E-2
379 514 1.9389155151785516E-2
379 515 1.7656468209120785E-2
380 34 1.3769790104761617E-2
380 35 6.762966843075086E-2
380 45 7.103394792190809E-2
380 69 7.273443374873188E-2
380 84 2.7624543073647093E-2
380 86 1.831563888873418E-2
380 87 2.0771550822598274E-2
380 120 2.661920510199342E-2
380 169 1.831563888873418E-2
380 170 7.32433128543424E-2
380 313 2.7456448228018914E-2
380 436 1.736339773114068E-2
380 498 6.905983102354425E-2
381 33 1.831563888873418E-2
381 35 1.836665193226467E-2
381 45 1.831563888873418E-2
381 51 8.232212815273977E-2
381 69 1.8790905751884628E-2
381 84 1.8707866235960553E-2
381 85 2.1885829025485092E-2
381 87 7.081558235643928E-2
381 88 1.961884226224164E-2
381 89 3.4086601002682265E-2
381 91 1.6970904821230856E-1
381 170 1.8270493805338447E-2
381 220 1.835005293529254E-2
381 313 2.547535314515435E-1
381 338 3.338690977907527E-2
381 339 2.174072530490572E-2
381 382 8.406538232446854E-1
381 397 2.129934507222902E-2
381 398 2.7625306157002427E-2
381 399 2.1710080088067196E-2
381 433 1.831563888873418E-2
381 434 1.8492156414609582E-2
381 435 1.8862819915235852E-2
381 548 2.678119318798629E-1
382 33 1.9900164516038703E-2
382 35 1.834281849176281E-2
382 45 1.7998771722235313E-2
382 51 1.0176800114206916E-1
382 69 1.831563888873418E-2
382 85 2.113957863463086E-2
382 87 7.998954956420734E-2
382 88 1.8863038185821204E-2
382 89 2.9744144924535136E-2
382 91 1.6324041711668058E-1
382 313 1.9916655419792306E-1
382 338 4.1724675667473635E-2
382 339 1.7733589802559062E-2
382 381 8.406538232446854E-1
382 397 1.831563888873418E-2
382 398 2.1760436801269777E-2
382 399 1.831563888873418E-2
382 433 1.9230407319226928E-2
382 434 1.831563888873418E-2
382 548 2.20699140164983E-1
383 35 1.8603598040779833E-2
383 45 1.838397270958905E-2
383 69 1.8489850561311343E-2
383 110 1.893214982396797E-1
383 111 4.812531547012798E-2
383 112 1.0339433696009148E-1
383 170 1.8378298355200287E-2
383 190 2.1779917474069623E-2
383 192 1.9649891339742796E-2
383 193 2.0888763053493336E-2
383 297 2.861141003093211E-2
383 298 1.6172932803371998E-1
383 342 1.9855247371235188E-2
383 355 2.5281187451225654E-2
383 362 1.7691814992001467E-2
383 365 2.584853345010965E-1
383 384 2.5447674697991013E-1
383 498 1.831563888873418E-2
384 35 1.852022759555602E-2
384 42 1.3424823108764198E-2
384 45 1.831563888873418E-2
384 69 1.8463312244254026E-2
384 110 5.590399142401411E-2
384 111 1.7593974941568977E-2
384 112 2.9502706212385415E-2
384 170 1.8324055208415308E-2
384 190 2.230890036378269E-2
384 191 1.863442995600017E-2
384 192 2.020388561354644E-2
384 193 2.121811003597155E-2
384 297 1.1501486292146847E-2
384 298 5.7447310994360595E-2
384 320 4.5303240655793435E-2
384 342 3.113903109501842E-2
384 355 2.838660455851574E-2
384 362 1.8730784221423234E-2
384 363 1.8782068055463022E-2
384 365 6.161173784451233E-2
384 383 2.5447674697991013E-1
384 385 2.583341368349403E-2
384 404 1.877190553654989E-2
384 423 2.3169385238909046E-2
384 470 1.831563888873418E-2
384 512 1.824501793853136E-2
384 516 2.7712117092261214E-2
385 42 2.0364028955579892E-2
385 320 3.498503735161025E-2
385 321 4.101333117082273E-2
385 341 3.4445183185302825E-1
385 342 3.823209493068823E-1
385 354 1.8422540947538514E-2
385 374 1.831563888873418E-2
385 375 2.6927252443737684E-2
385 384 2.583341368349403E-2
385 386 2.2159840216567026E-1
385 423 2.234043818001244E-2
385 516 1.723597241472768E-2
386 321 1.3578895429088525E-1
386 341 5.005568494550009E-1
386 342 1.4342278146008486E-1
386 372 1.831563888873418E-2
386 373 2.423804623375593E-2
386 385 2.2159840216567026E-1
386 423 3.0372353349133872E-2
386 469 1.921705903308424E-2
386 520 3.317638762228338E-2
386 521 2.1480793974978592E-2
387 7 1.3196586676285402E-1
387 11 1.712517566014918E-1
387 14 5.260400085646619E-2
387 22 6.811894847434773E-2
387 62 4.496742582953573E-2
387 163 2.0287624393592102E-1
387 165 7.956432786769496E-2
387 388 1.831563888873418E-2
387 490 2.431986255000114E-2
387 567 1.2344688955276115E-2
388 6 2.909963941069198E-2
388 11 1.831563888873418E-2
388 12 1.567838252263298E-2
388 20 8.009475930967608E-2
388 22 4.986109650410877E-2
388 62 8.316656132860546E-2
388 157 8.630575360941019E-2
388 158 1.831563888873418E-2
388 164 1.1753187866590087E-1
388 165 6.670297555271214E-2
388 304 1.0794152301130694E-1
388 329 4.9967937285064615E-2
388 387 1.831563888873418E-2
388 490 6.539673130860191E-2
388 567 6.37608633402602E-2
389 27 1.9808683800197388E-2
389 38 2.0686624098439098E-2
389 210 2.1933985578981238E-2
389 211 3.66472395511178E-2
389 212 4.478161782052108E-2
389 247 2.1527472874385282E-2
389 390 4.934220878137613E-2
389 391 5.87073761904422E-2
389 464 1.831563888873418E-2
389 466 1.5864042171932498E-2
390 99 1.842689801425483E-2
390 101 2.337407376445441E-2
390 152 4.20038923845494E-2
390 173 2.532542956452093E-2
390 174 1.9883908287776968E-2
390 211 1.831563888873418E-2
390 322 2.3104928930653253E-2
390 366 1.831563888873418E-2
390 389 4.934220878137613E-2
390 391 7.390363767200623E-1
390 500 2.1362070240366116E-2
390 501 2.215757320947631E-2
390 512 1.664294676415641E-2
391 101 2.3396938649197233E-2
391 152 3.2659238217462284E-2
391 173 1.998449479083003E-2
391 211 1.5068490154460023E-2
391 322 2.154851485980542E-2
391 366 2.1156778872921524E-2
391 389 5.87073761904422E-2
391 390 7.390363767200623E-1
391 450 1.798874656557753E-2
391 500 2.3234820928844966E-2
391 501 2.2109831049374334E-2
391 533 2.009024580372274E-2
391 537 1.831563888873418E-2
391 565 1.8156568766863584E-2
392 27 6.749218873002846E-2
392 38 2.7996951786592682E-2
392 41 1.7543401514167542E-2
392 168 7.779644396544451E-2
392 239 1.7615987500796582E-1
392 368 1.831563888873418E-2
392 420 2.6053078944817478E-2
392 422 4.8117556151367404E-2
392 446 7.59080280091141E-2
392 534 3.687694720898015E-2
393 56 1.9326138324283097E-2
393 94 1.831563888873418E-2
393 95 2.57859856228232E-2
393 100 2.0279756081141968E-2
393 101 1.831563888873418E-2
393 241 1.8957640071595814E-2
393 268 2.1548130925654635E-2
393 282 2.1621867020454627E-2
393 283 2.0929594042991023E-2
393 369 2.728215454892151E-2
393 394 3.526937072754917E-2
393 457 1.569924520255352E-2
393 532 2.3774095889763314E-2
393 534 3.720434766401612E-2
393 537 1.8320396459799215E-2
394 54 1.831563888873418E-2
394 56 1.999196387928509E-2
394 94 2.2593698860324633E-2
394 95 3.1233098130955365E-2
394 100 3.7287600011084876E-1
394 101 1.7241092446628588E-2
394 102 1.744159882211979E-2
394 240 8.357074981293729E-2
394 241 2.126617794343671E-2
394 269 1.9040505218426814E-2
394 270 3.1584165076423976E-2
394 280 6.732988160141605E-2
394 393 3.526937072754917E-2
394 415 2.4039978935590386E-2
394 417 1.831563888873418E-2
394 418 3.503976925436314E-2
394 456 1.831563888873418E-2
394 458 3.893626189946185E-2
394 459 1.914292770042529E-2
394 473 1.1350857403262975E-1
394 474 2.67369203644873E-2
394 532 1.186359786890672E-1
394 534 2.551908643042591E-2
394 561 1.833062261610613E-2
395 258 1.1543266919674819E-1
395 354 2.5714099256291076E-2
395 374 2.3050551884188166E-2
395 425 2.1121041726432185E-2
395 426 2.019422873717789E-2
395 427 1.829979717630534E-2
395 469 2.7027641567442244E-2
395 470 2.7722629840677995E-2
395 520 1.831563888873418E-2
395 521 2.381033542170278E-2
396 35 3.674816769026868E-2
396 45 3.812875251464785E-2
396 69 3.861608754879448E-2
396 87 1.831563888873418E-2
396 96 1.791732330023799E-2
396 120 2.449865830450508E-2
396 169 2.0821745616202546E-2
396 170 3.872612446385473E-2
396 313 2.6619027445060978E-2
396 397 5.4402078521702965E-2
396 398 9.095934841915748E-2
396 498 4.243299942527726E-2
397 85 1.8097662041551988E-2
397 91 1.9378766561916696E-2
397 92 5.0259783667449924E-2
397 93 5.072941227690147E-2
397 116 1.9895467640996582E-2
397 233 4.013859007143383E-2
397 234 1.871157891925002E-2
397 313 1.7017274942210347E-2
397 381 2.129934507222902E-2
397 382 1.831563888873418E-2
397 396 5.4402078521702965E-2
397 398 6.839347399950495E-1
397 399 2.07338622637672E-2
397 547 2.0573180540296457E-2
397 548 3.490246616897503E-2
398 85 1.831563888873418E-2
398 89 1.831563888873418E-2
398 91 2.5614611301558923E-2
398 92 3.792670463563202E-2
398 93 3.412373060330422E-2
398 116 1.9335745979211786E-2
398 233 5.8075675762376114E-2
398 313 2.492183420624183E-2
398 381 2.7625306157002427E-2
398 382 2.1760436801269777E-2
398 396 9.095934841915748E-2
398 397 6.839347399950495E-1
398 399 1.7645116033557402E-2
398 547 1.8911583461086283E-2
398 548 4.8056961803220714E-2
399 33 1.7524944600470088E-1
399 88 1.502039346112024E-1
399 89 6.1089355451118696E-2
399 91 1.8314282248993605E-2
399 220 1.9132241820147187E-2
399 339 3.9267865462048035E-1
399 381 2.1710080088067196E-2
399 382 1.831563888873418E-2
399 397 2.07338622637672E-2
399 398 1.7645116033557402E-2
399 433 1.597212554615275E-1
399 434 2.045694284003634E-1
399 435 4.0247956479436464E-2
399 548 1.902457691336014E-2
400 336 4.339901368877729E-2
400 337 2.9985231135859738E-2
400 401 3.961142985723769E-2
400 437 3.0021097833412447E-2
400 439 4.223384222605403E-2
400 460 2.0961317684601025E-2
400 461 1.831563888873418E-2
400 462 2.2720574201242818E-2
400 463 3.4812966415851014E-2
400 518 2.369323413919621E-2
400 519 1.6116936971635888E-2
401 333 1.831563888873418E-2
401 335 5.2107144115141925E-2
401 336 9.251359355440812E-2
401 337 4.838645943802029E-2
401 400 3.961142985723769E-2
401 437 2.5924265854545298E-2
401 460 3.74404490235988E-2
401 461 5.374865785931798E-2
401 462 2.2267856525399442E-2
401 463 4.832606083705416E-2
401 517 2.0927986594931208E-2
401 518 3.148943803426718E-2
401 519 2.619991313052579E-2
402 17 2.782560610491015E-1
402 19 2.0239392593690897E-2
402 20 1.831563888873418E-2
402 21 1.1668640038662944E-2
402 63 1.7073206534309882E-1
402 160 2.618645231478861E-2
402 161 3.0143737122310287E-2
402 310 1.000241288614485E-1
402 311 3.618792732619936E-2
402 329 2.3791439286644137E-2
402 493 7.173463825822926E-2
403 118 2.060293296136184E-2
403 257 5.300494856165639E-2
403 258 4.070076309563361E-2
403 306 1.831563888873418E-2
403 354 4.835660360278393E-2
403 362 1.423950894186417E-2
403 363 2.752913649690631E-2
403 364 5.657316024936213E-2
403 365 2.0678107106628933E-2
403 374 4.4795864740961006E-2
403 375 7.49866353222079E-2
403 404 1.831563888873418E-2
403 423 1.7291417299839098E-2
403 425 5.9322563270692734E-2
403 426 4.3127334977215354E-2
403 470 1.1154734002505658E-1
403 516 7.26153997678634E-2
403 521 1.831563888873418E-2
404 35 5.6838862943631024E-2
404 45 6.0759860995156574E-2
404 49 2.438121236164719E-2
404 69 6.1971888641158115E-2
404 96 1.3537479404594505E-2
404 105 2.25301914147166E-2
404 120 3.727385667355913E-2
404 169 2.2779116692453902E-2
404 170 6.0336832114412625E-2
404 305 1.8979573393879387E-2
404 306 1.80927395058069E-2
404 313 2.0383309530326185E-2
404 320 2.5534018806017536E-2
404 355 2.0670659234851646E-2
404 362 5.837375496266304E-2
404 363 8.794669720164018E-2
404 384 1.877190553654989E-2
404 403 1.831563888873418E-2
404 470 3.460570944355996E-2
404 498 5.9237037381246346E-2
404 511 2.234155629423405E-2
404 516 4.018059611054288E-2
405 1 1.6230949985993375E-2
405 35 2.408144230742644E-2
405 45 2.428062302567513E-2
405 58 1.831563888873418E-2
405 69 2.4650360603673583E-2
405 74 4.1618291152284215E-2
405 120 1.603803868298349E-2
405 170 2.441966323592089E-2
405 216 1.831563888873418E-2
405 217 2.1063410625554183E-2
405 264 7.51153578789045E-2
405 271 7.345128458676375E-2
405 285 2.0142632724796907E-2
405 286 4.6348070452479795E-2
405 407 1.790282319806905E-1
405 440 2.282217690758466E-2
405 441 4.854079543466116E-2
405 443 2.214297357739773E-2
405 484 3.3919808829150716E-2
405 485 2.2280833160264888E-2
405 486 2.2841521664953603E-2
405 498 2.4022385439114467E-2
405 522 1.9414545701836317E-2
405 523 2.544394391775073E-2
405 525 4.073966053695049E-2
405 541 2.1296057065671514E-2
405 547 1.7198059857164157E-2
406 1 2.818941800475789E-2
406 59 5.297537362980617E-2
406 74 9.447768227959782E-2
406 76 1.831563888873418E-2
406 266 2.4620005070575948E-2
406 271 8.315432018583441E-2
406 275 3.3017472632772035E-2
406 276 2.354902712459465E-2
406 285 9.198239321944132E-2
406 318 3.1570089869594066E-2
406 428 3.71790992604727E-2
406 440 3.2845403726923024E-2
406 441 3.39150345950372E-2
406 445 1.5263406960599682E-1
406 483 5.428912692319839E-2
406 484 1.7988593036912276E-2
406 522 1.956659227281421E-2
406 545 3.5847380848622976E-2
406 546 2.623834110153853E-2
407 74 5.2960076821931795E-2
407 264 2.099496914165E-2
407 271 3.247860307088322E-2
407 272 2.4763927002380382E-2
407 273 1.831563888873418E-2
407 285 1.6894739882230513E-2
407 405 1.790282319806905E-1
407 428 1.9224150984885478E-2
407 440 6.599508978122592E-2
407 441 3.792438490299288E-2
407 443 1.831563888873418E-2
407 484 1.831563888873418E-2
407 522 2.3740311536297964E-2
407 523 4.043507631263214E-2
407 525 1.2987339668496503E-1
407 547 1.9307843164552915E-2
408 77 1.34270485566317E-1
408 266 1.831563888873418E-2
408 274 1.8187167756301283E-2
408 288 2.1171679644896774E-2
408 289 2.2986473371789936E-2
408 319 8.247165344956311E-2
408 429 4.4546601858401945E-2
408 444 1.487879373199299E-1
408 483 3.8757862819215845E-2
408 487 1.8747386977221153E-2
408 524 6.965830088973993E-2
409 115 1.678898438027041E-2
409 132 3.9603263718138174E-2
409 133 1.5352594870050957E-2
409 146 2.4817696244215304E-2
409 150 6.0494357940430336E-2
409 151 1.4776747351530464E-1
409 188 1.8952863101977736E-2
409 189 3.903819116234264E-2
409 195 1.831563888873418E-2
409 209 1.831563888873418E-2
409 291 2.4364223930978497E-2
409 326 1.0178374270095837E-1
409 410 7.529413806231489E-2
409 411 1.741549708424451E-2
409 412 3.471432164815148E-2
409 478 1.8333328023653034E-2
410 80 2.7284933666123033E-2
410 115 1.9309526666135026E-2
410 132 2.856074811146584E-2
410 151 3.324024696451468E-2
410 188 1.9026336461018173E-2
410 189 2.513941139149853E-1
410 195 1.5861696877337E-2
410 206 1.831563888873418E-2
410 208 1.5800872538870542E-2
410 209 2.2502310791912297E-2
410 326 1.1767034329034601E-1
410 409 7.529413806231489E-2
410 412 2.0710866131998414E-2
410 478 4.822310539924114E-2
411 129 3.2870482112323164E-2
411 130 2.8997166873214252E-2
411 132 3.959135406736895E-2
411 133 8.402122635963842E-2
411 146 2.3993102631664202E-2
411 150 3.4051496638437005E-2
411 151 1.831563888873418E-2
411 188 6.980882256348839E-2
411 292 2.3240859413821847E-2
411 294 1.7414623242834642E-2
411 409 1.741549708424451E-2
411 412 6.2324729518011726E-2
411 477 5.762824741361274E-2
412 115 4.959277562730985E-2
412 132 1.7727151871509825E-1
412 133 6.255038664944408E-2
412 151 2.5213877747782488E-2
412 188 1.0924723519376141E-1
412 189 1.831563888873418E-2
412 291 3.1180460289448864E-2
412 326 4.224427592299051E-2
412 409 3.471432164815148E-2
412 410 2.0710866131998414E-2
412 411 6.2324729518011726E-2
412 475 8.009520657366936E-2
412 478 1.6921007742099856E-1
413 25 1.831563888873418E-2
413 44 1.9585603572436373E-2
413 45 1.82904929902077E-2
413 46 2.523427568690999E-2
413 70 2.2919488108088172E-2
413 73 2.3922429068643003E-2
413 78 2.3458204751159506E-2
413 82 3.28014225662103E-2
413 83 2.24322854735602E-2
413 96 2.0755857056477315E-2
413 106 8.020470344666816E-2
413 109 2.174415929453983E-2
413 180 6.550748204608328E-2
413 181 9.112197390794981E-2
413 182 1.726834580135679E-2
413 183 1.8157502617307357E-2
413 184 1.831563888873418E-2
413 232 1.8768763328508763E-2
413 259 2.1243654974496703E-2
413 260 3.1026920917004115E-2
413 296 2.193841235094212E-2
413 414 2.696354427278822E-2
413 498 1.991805281809572E-2
413 508 1.831563888873418E-2
413 509 2.4264650748140014E-2
413 511 2.238781595866366E-2
413 513 1.831563888873418E-2
413 526 9.754057675368721E-2
413 527 1.849132984166354E-1
413 528 1.563448971545247E-2
413 530 1.0472243534898712E-1
413 550 4.1193502287538535E-2
413 555 1.8903905566323025E-2
414 72 1.831563888873418E-2
414 82 2.999493161542605E-2
414 83 4.2613789577202896E-2
414 108 1.831563888873418E-2
414 109 3.0154701599733996E-1
414 180 2.866969394092023E-1
414 181 2.8688576536387112E-2
414 182 1.5617515805280002E-1
414 183 1.2655842664773068E-1
414 184 2.59777068920731E-2
414 232 1.9057137010202795E-2
414 413 2.696354427278822E-2
414 527 9.16272157725358E-3
414 528 1.0408093247124661E-1
414 530 1.6936385674634125E-2
414 552 2.5261249358338178E-2
415 23 9.882272015559641E-3
415 100 3.972397588436963E-2
415 240 1.831563888873418E-2
415 270 3.016037126323951E-2
415 280 2.0724045953038152E-2
415 394 2.4039978935590386E-2
415 416 5.482113850230438E-2
415 417 1.3048333205589072E-1
415 418 5.833531699668856E-2
415 456 3.441344761933464E-2
415 458 6.988405377918931E-2
415 459 2.3439779970091258E-2
415 473 2.144743404963237E-2
415 564 2.2769967173275955E-2
416 23 3.7500414425122836E-2
416 36 1.8670822448162355E-2
416 37 2.598015508486798E-2
416 94 1.831563888873418E-2
416 100 2.1376115719032723E-2
416 243 2.5755402965335555E-2
416 280 1.856816657844579E-2
416 415 5.482113850230438E-2
416 418 2.3535755327352573E-1
416 457 5.475231843380442E-2
416 459 4.0323193316282153E-2
416 538 1.6398383921156227E-2
417 100 3.0916641082617727E-2
417 240 3.132588413614172E-2
417 270 8.734021764256367E-2
417 280 2.3972475960381608E-2
417 394 1.831563888873418E-2
417 415 1.3048333205589072E-1
417 418 4.363151512813687E-2
417 456 1.5792529847781864E-1
417 458 3.7866815019464106E-1
417 473 1.595569811440351E-2
418 23 4.8180466816774084E-2
418 95 1.5762261524239284E-2
418 100 9.943465498138591E-2
418 240 2.7680499569030893E-2
418 241 2.1036324084028543E-2
418 243 2.988541362682405E-2
418 280 7.062608145212337E-2
418 394 3.503976925436314E-2
418 415 5.833531699668856E-2
418 416 2.3535755327352573E-1
418 417 4.363151512813687E-2
418 456 1.896235253641531E-2
418 459 7.341864125816391E-2
418 473 3.572132585106924E-2
418 474 1.831563888873418E-2
419 38 2.8966795708970938E-2
419 40 2.606518471690944E-2
419 41 5.494186344210944E-2
419 135 1.831563888873418E-2
419 148 2.3059453766024196E-2
419 168 1.6478674491178808E-2
419 239 5.3867980706885754E-2
419 368 2.2902366961632237E-1
419 420 5.353102534928045E-2
419 446 2.924681895801819E-2
419 535 2.1358086056823454E-2
420 23 4.962905404205046E-2
420 24 6.352336005479294E-2
420 27 3.0878545309817484E-2
420 32 6.22945868676512E-2
420 38 6.35992748020638E-2
420 41 5.920121934034048E-2
420 148 9.186074668413832E-3
420 168 1.5308857676489243E-2
420 228 5.638486747449251E-2
420 239 1.996575734270048E-2
420 243 2.03639091227685E-2
420 368 6.2305327138018465E-2
420 377 1.9923345308033497E-2
420 378 2.0502888039861673E-2
420 392 2.6053078944817478E-2
420 419 5.353102534928045E-2
420 421 1.831563888873418E-2
420 446 9.605124807346392E-2
420 535 1.831563888873418E-2
420 536 4.735377413449615E-2
420 538 1.7533929810061265E-2
421 23 1.0692809492175352E-1
421 24 5.3199510929126295E-2
421 30 3.553815148568067E-2
421 135 5.412117604483055E-2
421 238 2.223616631915641E-2
421 247 2.309653665253214E-2
421 249 1.680903953286855E-2
421 250 1.4774269164871956E-2
421 251 3.141581785919202E-2
421 261 3.4752115394763916E-2
421 370 2.1209565101400183E-2
421 420 1.831563888873418E-2
421 447 3.047901397119477E-2
421 466 2.3859850389812615E-1
421 467 7.212888387863481E-2
421 515 6.715735365617247E-2
421 535 2.5742071321293282E-2
421 536 7.737509353298119E-2
421 537 1.831563888873418E-2
421 538 2.5004432061883845E-2
422 27 2.377361011166088E-2
422 32 2.581717701926407E-2
422 36 1.8679521611570693E-1
422 37 1.9319067809163462E-1
422 95 2.2937087962060475E-2
422 323 2.5094958086578405E-2
422 392 4.8117556151367404E-2
422 452 1.831563888873418E-2
422 457 1.808459328894171E-1
422 506 1.8844382827975518E-2
422 534 1.6904249832576163E-1
422 537 1.9300126760953145E-2
422 565 1.783932238086758E-2
423 320 8.714025265370169E-2
423 321 5.8537546379689796E-2
423 341 2.3640854895903094E-2
423 342 2.9329445602123128E-2
423 354 2.3692805970270934E-2
423 374 1.831563888873418E-2
423 375 2.5530148742222505E-2
423 384 2.3169385238909046E-2
423 385 2.234043818001244E-2
423 386 3.0372353349133872E-2
423 403 1.7291417299839098E-2
423 470 2.3260573586361986E-2
423 516 1.8810687472127555E-2
424 104 1.1309634148236702E-1
424 357 2.0037062352266134E-2
424 372 2.8380813464575695E-2
424 373 3.008372327300657E-2
424 425 1.831563888873418E-2
424 426 2.182330542855754E-2
424 427 9.262501726774305E-2
424 469 1.0991711362292927E-1
424 520 4.0437864524848904E-2
424 521 1.8038291134197856E-2
425 42 1.831563888873418E-2
425 104 1.831563888873418E-2
425 354 3.496017719991342E-2
425 374 2.595974779308182E-2
425 375 3.564318113242211E-2
425 395 2.1121041726432185E-2
425 403 5.9322563270692734E-2
425 424 1.831563888873418E-2
425 426 5.88446032072169E-1
425 427 1.686661625679807E-1
425 469 1.831563888873418E-2
425 470 3.42555986774072E-2
425 516 2.078612794606502E-2
425 521 1.3877938793145483E-2
426 42 1.710411806831066E-2
426 354 4.431493273380809E-2
426 374 2.5660638072859347E-2
426 375 2.7253853763113636E-2
426 395 2.019422873717789E-2
426 403 4.3127334977215354E-2
426 424 2.182330542855754E-2
426 425 5.88446032072169E-1
426 427 2.3567031381565348E-1
426 470 3.736986535528467E-2
426 516 1.831563888873418E-2
426 521 2.040951030495837E-2
427 104 2.6577961708512128E-2
427 354 2.8190305911104937E-2
427 374 3.3781917471402564E-2
427 375 1.831563888873418E-2
427 395 1.829979717630534E-2
427 424 9.262501726774305E-2
427 425 1.686661625679807E-1
427 426 2.3567031381565348E-1
427 469 2.707970383732677E-2
427 470 2.063298153056789E-2
427 520 3.20817786067163E-2
427 521 3.752723987912093E-2
428 74 5.685586282990121E-2
428 75 1.8010602380847673E-2
428 76 3.3363358672842E-2
428 265 2.3008899278155144E-2
428 266 3.315556809231195E-2
428 271 1.999118220926898E-2
428 272 6.229636559472091E-2
428 274 1.8714008618426255E-2
428 275 2.5677546750761435E-2
428 276 1.831563888873418E-2
428 285 2.008943059265098E-2
428 317 1.6649405524620853E-2
428 318 1.824503056098414E-2
428 406 3.71790992604727E-2
428 407 1.9224150984885478E-2
428 440 2.045778653336422E-2
428 445 3.705939260655567E-2
428 483 2.3055401278931312E-2
428 487 1.836649694399753E-2
428 545 3.2056846232368555E-2
428 546 2.1521713345464252E-2
429 77 5.098067979157195E-2
429 265 1.9673859852764722E-2
429 288 4.8966400606954646E-2
429 289 1.831563888873418E-2
429 319 7.851389050580694E-2
429 408 4.4546601858401945E-2
429 442 2.0216629887384388E-2
429 444 2.4104579936522607E-2
429 487 1.800538751946451E-2
429 524 7.545133032481936E-2
430 25 1.6249857522870267E-1
430 26 6.34198513288897E-1
430 70 1.2051649222623223E-1
430 73 8.01644209796714E-2
430 260 2.7011194997451204E-2
430 431 5.918328226180307E-1
430 551 9.408581985171618E-2
430 552 1.831563888873418E-2
430 555 1.4651838149532926E-2
430 558 1.6039087318481343E-1
431 25 1.1529066878963848E-1
431 26 4.4340904963098615E-1
431 70 8.310563598958383E-2
431 73 4.664115054373061E-2
431 184 1.831563888873418E-2
431 260 1.7891630975446892E-2
431 430 5.918328226180307E-1
431 551 1.2059743081844904E-1
431 552 2.0363279020633823E-2
431 558 1.8192272667347198E-1
432 71 4.0258836611834004E-1
432 72 2.912866790030137E-1
432 82 5.865178796727105E-3
432 295 7.116947601848769E-2
432 495 1.1151246730420149E-1
432 496 8.4406276124127E-2
432 507 5.23420619457375E-2
432 549 3.227140122372325E-2
432 556 7.412976575954275E-2
432 557 6.866793746516626E-2
433 33 3.292759135823975E-1
433 88 1.6211820806366137E-1
433 89 3.360280835793755E-2
433 339 2.0899573262122195E-1
433 381 1.831563888873418E-2
433 382 1.9230407319226928E-2
433 399 1.597212554615275E-1
433 434 6.801860310330877E-1
433 435 3.6348246653126935E-2
433 548 1.3603144594622266E-2
434 33 3.203458971366834E-1
434 88 2.1389447038624385E-1
434 89 3.896406262268663E-2
434 220 1.831563888873418E-2
434 338 1.8236180506084207E-2
434 339 2.5633035623940337E-1
434 381 1.8492156414609582E-2
434 382 1.831563888873418E-2
434 399 2.045694284003634E-1
434 433 6.801860310330877E-1
434 435 4.0461259026471616E-2
434 548 1.3015163882126719E-2
435 33 1.841814621771592E-2
435 35 1.831563888873418E-2
435 45 1.8409447711488305E-2
435 69 1.871017018626484E-2
435 88 2.4495955866230136E-2
435 91 2.2062759045598637E-2
435 170 2.0043364050184566E-2
435 220 1.8463202593163076E-2
435 223 1.9426814918737673E-2
435 313 2.6164030761284728E-2
435 339 4.7321098834763584E-2
435 381 1.8862819915235852E-2
435 399 4.0247956479436464E-2
435 433 3.6348246653126935E-2
435 434 4.0461259026471616E-2
435 436 1.2856063721321948E-1
435 498 1.815159714735227E-2
435 548 2.4792707914459887E-2
436 35 3.0067844115712138E-2
436 45 2.9555728568955955E-2
436 69 2.9861718237658263E-2
436 120 2.088722413928927E-2
436 169 1.831563888873418E-2
436 170 3.123450619854291E-2
436 223 1.992145154275943E-2
436 313 1.992790197812773E-2
436 380 1.736339773114068E-2
436 435 1.2856063721321948E-1
436 498 2.9316615958621867E-2
437 148 2.5681561673143997E-2
437 176 3.052900701406875E-2
437 336 2.518938768224557E-2
437 400 3.0021097833412447E-2
437 401 2.5924265854545298E-2
437 438 6.028424348237849E-2
437 439 2.0821575762130264E-2
437 463 1.8294942441387463E-2
437 502 1.831563888873418E-2
437 518 1.8799502545680552E-2
438 31 1.831563888873418E-2
438 50 2.5254449987123298E-2
438 172 2.752378291194011E-2
438 229 1.9572393145872738E-2
438 248 1.718584894805234E-2
438 249 1.6786778379281726E-2
438 256 2.573509375076181E-2
438 315 1.387147961357082E-1
438 336 2.1085470733447048E-2
438 437 6.028424348237849E-2
438 464 1.903150611065485E-2
438 502 6.967784840540792E-2
438 514 3.035902878791501E-2
438 563 1.831563888873418E-2
439 25 1.7437031784430033E-2
439 27 4.661216950345608E-2
439 38 3.797598774832002E-2
439 142 1.8775906045499877E-2
439 148 3.1326828421892446E-2
439 168 2.3482994540008746E-2
439 176 1.831563888873418E-2
439 228 2.3413419925020905E-2
439 400 4.223384222605403E-2
439 437 2.0821575762130264E-2
439 446 4.4642115765377E-2
440 74 7.811594641204951E-2
440 76 1.831563888873418E-2
440 266 1.279764782916471E-2
440 271 4.46635899297066E-2
440 272 1.8786272444131877E-2
440 273 2.1064563874867315E-2
440 275 2.218467316021059E-2
440 285 2.904279255987181E-2
440 290 1.8207972581333273E-2
440 316 2.144103316567897E-2
440 317 2.962315487587986E-2
440 405 2.282217690758466E-2
440 406 3.2845403726923024E-2
440 407 6.599508978122592E-2
440 428 2.045778653336422E-2
440 441 2.670838774594963E-2
440 443 2.269761665148095E-2
440 445 4.0936503193091875E-2
440 484 1.831563888873418E-2
440 523 3.27615387086493E-2
440 525 5.023123400894917E-2
440 545 5.2336066696253805E-2
440 546 3.1308689715080135E-2
441 1 1.0173246175668585E-1
441 45 1.831563888873418E-2
441 58 8.964326703461559E-2
441 59 1.831563888873418E-2
441 69 1.8512626225444577E-2
441 74 3.2709741196744795E-2
441 75 6.710813490274008E-2
441 76 4.4154341672901734E-2
441 92 1.831563888873418E-2
441 93 1.8501112964671346E-2
441 170 1.844155525493181E-2
441 264 7.016197794957368E-2
441 271 1.2555215007970558E-1
441 273 1.83020395295157E-2
441 285 7.47889872056822E-2
441 286 1.1327726870274023E-1
441 287 2.876246181083343E-2
441 290 1.8619704438576613E-2
441 405 4.854079543466116E-2
441 406 3.39150345950372E-2
441 407 3.792438490299288E-2
441 440 2.670838774594963E-2
441 443 2.2063787234213726E-2
441 445 3.937078847829159E-2
441 484 4.314488493301277E-2
441 486 2.229874502119993E-2
441 498 1.8133505693416006E-2
441 522 5.889140288778488E-2
441 523 2.197750905152942E-2
441 525 4.4059320072010855E-2
441 547 1.831563888873418E-2
442 266 1.764950650317371E-2
442 272 2.1284039865911007E-2
442 287 1.9782584828602234E-2
442 289 3.819367504390693E-2
442 317 3.901497738751635E-2
442 318 2.5942745938213746E-2
442 319 1.431441017475061E-2
442 429 2.0216629887384388E-2
442 444 4.425423868714157E-2
442 483 2.231788319542881E-2
442 487 7.01854340084034E-2
442 524 1.831563888873418E-2
443 74 1.967638258268323E-2
443 264 2.300836904219252E-2
443 271 2.0621259340478156E-2
443 273 3.8618678614209805E-2
443 290 1.463818047135957E-1
443 405 2.214297357739773E-2
443 407 1.831563888873418E-2
443 440 2.269761665148095E-2
443 441 2.2063787234213726E-2
443 486 7.661081509484341E-2
443 523 1.7544527491446964E-2
443 525 2.6930002009197745E-2
444 60 1.8100120432507923E-2
444 77 3.493109387256603E-2
444 272 1.573439256103433E-2
444 274 2.765494117253677E-2
444 288 1.890217432771104E-2
444 289 6.176330465128109E-2
444 317 4.3541647352630115E-2
444 319 8.698713461091953E-2
444 408 1.487879373199299E-1
444 429 2.4104579936522607E-2
444 442 4.425423868714157E-2
444 445 2.233529587514175E-2
444 483 1.0497627289107622E-1
444 487 4.858014410249444E-2
444 524 8.316016130221922E-2
444 545 2.2669743736709574E-2
444 546 1.831563888873418E-2
445 1 2.25183283621578E-2
445 58 1.5636363711841766E-2
445 59 6.169377730395612E-2
445 74 1.0745936115029656E-1
445 271 1.646869648780855E-1
445 275 3.682413325026398E-2
445 276 2.3449622224964627E-2
445 285 2.2375596260909464E-1
445 286 3.0480391029096856E-2
445 287 1.8500850315281314E-2
445 316 1.6941814576642317E-2
445 317 3.5220574560221804E-2
445 318 2.242114068819786E-2
445 406 1.5263406960599682E-1
445 428 3.705939260655567E-2
445 440 4.0936503193091875E-2
445 441 3.937078847829159E-2
445 444 2.233529587514175E-2
445 483 7.764381594455816E-2
445 487 2.1742361796467977E-2
445 522 1.831563888873418E-2
445 545 3.857573865095203E-2
445 546 3.243918769405613E-2
446 27 3.440451591159458E-1
446 32 4.352030366640455E-2
446 38 2.1835529344668947E-1
446 41 4.715403703418774E-2
446 142 1.9867242558538344E-2
446 148 2.9435746594715175E-2
446 168 1.2342936961364227E-1
446 176 3.7220357821284E-2
446 228 3.689514762029714E-2
446 239 1.4392874915491077E-1
446 323 2.7167076910064675E-2
446 368 5.896291772938095E-2
446 377 2.5920066820555927E-2
446 378 3.932003172632823E-2
446 392 7.59080280091141E-2
446 419 2.924681895801819E-2
446 420 9.605124807346392E-2
446 439 4.4642115765377E-2
447 39 3.731668178548876E-2
447 40 1.831563888873418E-2
447 135 9.470449179801253E-2
447 175 1.831563888873418E-2
447 230 3.9047471304173416E-2
447 246 4.6421556962342375E-2
447 247 8.586155834718676E-2
447 261 1.2842268601861262E-1
447 267 2.0290575527651455E-2
447 367 1.9757451243100046E-2
447 421 3.047901397119477E-2
447 466 3.9822493618519764E-2
447 467 8.250637316080023E-2
447 472 1.3527441732189754E-1
447 515 8.802613976127235E-2
447 535 1.7450630439997977E-2
447 536 1.831563888873418E-2
447 562 2.642572782987284E-2
448 29 2.5927512322669398E-2
448 47 1.831563888873418E-2
448 50 8.462252026586382E-2
448 143 5.9479166561877586E-2
448 229 4.15021152146839E-2
448 249 5.971038034220609E-2
448 251 2.6266027564148867E-2
448 281 1.4620115819571566E-2
448 360 1.8961124449097873E-2
448 361 2.968989491387286E-2
448 371 4.830259284944524E-2
448 465 8.27987348408001E-2
448 514 2.1926108336125773E-2
448 533 2.0732495400774417E-2
449 35 2.7166263233329473E-2
449 45 2.720437290909277E-2
449 69 2.753038228899308E-2
449 96 1.915002355978873E-2
449 120 1.767844050463485E-2
449 125 1.831563888873418E-2
449 169 2.6556062993446792E-2
449 170 3.0498836102167196E-2
449 479 2.2827102219722055E-2
449 498 2.840211568414816E-2
449 540 1.924590350912575E-2
450 147 1.937317018684233E-2
450 149 2.768939865741691E-2
450 152 2.0600108110706103E-2
450 153 3.1990532982217296E-2
450 177 1.9201234462827295E-2
450 178 1.831563888873418E-2
450 215 2.35899536595403E-2
450 391 1.798874656557753E-2
450 542 2.7245922845623938E-2
450 543 2.018095301622761E-2
451 35 1.8861720347453717E-2
451 45 1.8389195254248876E-2
451 68 1.5334653241171256E-1
451 69 1.831563888873418E-2
451 170 1.8241235667106327E-2
451 231 4.605103154160972E-2
451 252 3.458491956841673E-2
451 253 1.878685517819946E-2
451 263 1.766886778027366E-1
451 366 8.904757772406179E-2
451 369 4.64932899100722E-2
451 468 5.598156329970898E-2
451 498 1.8475201731392662E-2
452 23 2.1070065774473862E-2
452 32 2.062031002871645E-2
452 37 1.831563888873418E-2
452 101 2.691986631464057E-2
452 103 3.678865968355307E-2
452 142 1.831563888873418E-2
452 171 2.649332997662578E-2
452 175 2.0764648728259442E-2
452 242 3.147272745350125E-2
452 245 2.2454436267141498E-2
452 246 2.6448340252493808E-2
452 247 4.7811874570887536E-2
452 252 7.181308990362983E-2
452 253 6.931761337618018E-2
452 255 2.7043018958374233E-2
452 268 5.3643329112588026E-2
452 322 1.7724115813066047E-2
452 340 3.458561380395667E-2
452 376 5.271062712519437E-2
452 377 1.2737748525420999E-2
452 422 1.831563888873418E-2
452 453 4.4323838301249113E-1
452 455 1.7851091282754757E-2
452 501 2.920605380174502E-2
452 506 1.831563888873418E-2
452 534 2.2488620738798253E-2
452 537 1.1600856225853272E-1
452 538 2.7114640248006246E-2
452 565 2.1868066460547095E-1
453 23 2.4815898451675134E-2
453 103 1.839691902143164E-2
453 246 2.9023550647976532E-2
453 247 2.959211404115587E-2
453 252 2.254596449057613E-2
453 253 1.85514703501858E-2
453 255 1.831563888873418E-2
453 267 2.507373422173733E-2
453 268 2.276332428222771E-2
453 340 4.7947352599797086E-2
453 376 3.0015284680596034E-2
453 452 4.4323838301249113E-1
453 455 2.059773357250115E-2
453 466 1.932757495296897E-2
453 472 1.831563888873418E-2
453 537 3.500432961623338E-2
453 538 1.3307694866256745E-2
453 562 2.474081040800883E-2
453 565 1.0178221124750979E-1
454 102 3.62079368848496E-1
454 103 1.9709260998256956E-2
454 240 1.674940534843497E-2
454 267 1.6850744560300994E-2
454 269 2.047505043733202E-1
454 270 1.831563888873418E-2
454 455 2.9504573822732198E-2
454 471 2.055152560706637E-2
454 474 4.151566969600041E-2
454 531 9.663859035216052E-2
454 532 2.025151920683537E-2
455 55 1.831563888873418E-2
455 102 1.831563888873418E-2
455 103 2.676290324322805E-1
455 240 5.152768342634159E-2
455 268 3.7782489264715446E-2
455 269 6.975002915951774E-2
455 340 1.831563888873418E-2
455 376 2.8898539514437577E-2
455 452 1.7851091282754757E-2
455 453 2.059773357250115E-2
455 454 2.9504573822732198E-2
455 531 6.0004845169497695E-2
455 532 2.13255122911868E-2
456 100 2.470747738592752E-2
456 240 2.3438936263685324E-2
456 270 4.214951446468175E-2
456 280 3.3600774811633254E-2
456 394 1.831563888873418E-2
456 415 3.441344761933464E-2
456 417 1.5792529847781864E-1
456 418 1.896235253641531E-2
456 458 1.8163524555093322E-1
456 473 1.573907252717694E-2
457 36 2.0000412918164753E-1
457 37 2.3360748628078626E-1
457 94 3.73033245874828E-2
457 95 2.6948860498360115E-2
457 282 1.831563888873418E-2
457 369 2.2742668297957375E-2
457 393 1.569924520255352E-2
457 416 5.475231843380442E-2
457 422 1.808459328894171E-1
457 534 5.652029757419316E-2
458 100 5.195269553550229E-2
458 240 4.109469361451216E-2
458 270 1.4075854934940735E-1
458 280 3.1152032571004618E-2
458 394 3.893626189946185E-2
458 415 6.988405377918931E-2
458 417 3.7866815019464106E-1
458 456 1.8163524555093322E-1
458 473 1.831563888873418E-2
458 474 1.4097030218104987E-2
459 95 2.58716641011531E-2
459 100 3.4203613444599344E-2
459 241 2.8392033122500934E-2
459 269 1.616910897867953E-2
459 270 1.831563888873418E-2
459 394 1.914292770042529E-2
459 415 2.3439779970091258E-2
459 416 4.0323193316282153E-2
459 418 7.341864125816391E-2
459 473 2.0252294468982045E-2
460 120 1.8261691683045183E-2
460 332 1.563106947654403E-1
460 333 1.1807264561174936E-1
460 334 8.822023721845186E-2
460 335 2.4904570360498035E-1
460 336 6.98614800935241E-2
460 337 1.0284388621116457E-1
460 400 2.0961317684601025E-2
460 401 3.74404490235988E-2
460 461 8.867317276012171E-2
460 462 1.9236036893022923E-1
460 463 1.2002293332791472E-1
460 498 1.831563888873418E-2
460 519 1.9529947837517835E-2
461 332 1.817135767246177E-2
461 333 1.831563888873418E-2
461 335 4.294083261649517E-2
461 336 5.093821540354308E-2
461 337 3.5234773740959874E-2
461 400 1.831563888873418E-2
461 401 5.374865785931798E-2
461 460 8.867317276012171E-2
461 462 1.334530571833538E-1
461 463 2.063900878042842E-1
461 518 2.2814852152334628E-2
462 314 7.453851621563553E-3
462 332 1.9850775087988753E-2
462 333 2.446172855991756E-2
462 334 1.831563888873418E-2
462 335 3.5246455685799004E-2
462 336 2.4634216531417525E-2
462 337 2.620231451924057E-2
462 400 2.2720574201242818E-2
462 401 2.2267856525399442E-2
462 460 1.9236036893022923E-1
462 461 1.334530571833538E-1
462 463 1.258226052734419E-1
462 517 1.8768926990536467E-2
462 519 1.7872386083017288E-2
463 332 2.168061448686478E-2
463 333 3.903092593428083E-2
463 334 3.260632976139632E-2
463 335 7.822919773824515E-2
463 336 5.682672392300184E-2
463 337 8.983229142908838E-2
463 400 3.4812966415851014E-2
463 401 4.832606083705416E-2
463 437 1.8294942441387463E-2
463 460 1.2002293332791472E-1
463 461 2.063900878042842E-1
463 462 1.258226052734419E-1
463 499 1.831563888873418E-2
463 517 1.6462167471413706E-2
463 519 4.989996334471596E-2
464 47 1.831563888873418E-2
464 140 4.105025063736967E-2
464 141 3.9284674849102724E-2
464 172 1.831563888873418E-2
464 175 1.9257415601908464E-2
464 210 4.272178838586441E-2
464 211 5.759877540055789E-2
464 212 5.1667566321696494E-2
464 213 2.1060852992300864E-2
464 229 2.9217299924451417E-2
464 249 2.074300341843864E-2
464 256 1.831563888873418E-2
464 389 1.831563888873418E-2
464 438 1.903150611065485E-2
464 465 3.236950789853487E-2
464 502 1.8991626727885156E-2
464 503 2.5935840012036478E-2
464 504 2.84245007231741E-2
464 514 4.419759911315288E-2
464 533 1.5400692523099158E-2
465 29 1.8224923774885736E-2
465 143 2.4763144563766765E-1
465 229 3.976964065817637E-2
465 249 2.3844591855131873E-2
465 254 7.959886189171642E-2
465 308 2.8662314325946972E-2
465 448 8.27987348408001E-2
465 464 3.236950789853487E-2
465 503 1.831563888873418E-2
465 514 1.9968090380620196E-2
466 23 4.0394216016849144E-2
466 30 2.894351968931594E-2
466 31 1.831563888873418E-2
466 50 1.2420778905568135E-2
466 135 1.6338349254467498E-2
466 171 3.320140758425053E-2
466 175 2.6566410617769164E-2
466 230 2.2077329355577085E-2
466 238 1.8412810371735762E-2
466 246 6.552960009730358E-2
466 247 1.1218870400058666E-1
466 249 1.759953479626727E-2
466 252 2.2157933723786483E-2
466 253 1.4990451828157315E-2
466 255 2.8047698133962136E-2
466 261 1.831563888873418E-2
466 370 2.590593577104028E-2
466 389 1.5864042171932498E-2
466 421 2.3859850389812615E-1
466 447 3.9822493618519764E-2
466 453 1.932757495296897E-2
466 467 4.3555268827237405E-2
466 514 2.7519600798817788E-2
466 515 4.7610200774427056E-2
466 536 2.64599520539388E-2
466 537 3.128872014623364E-2
466 538 1.9889312075582043E-2
466 562 2.4725567887050368E-2
466 565 2.5384391793489024E-2
467 23 1.5215405346700532E-2
467 39 2.755471661693189E-2
467 40 3.3368822748972064E-2
467 134 1.8739060544004305E-2
467 135 1.60135919019729E-1
467 230 5.657905051425994E-2
467 247 2.1077969471783177E-2
467 248 1.8482741964100026E-2
467 250 5.2758799353341594E-2
467 251 2.092691615896522E-2
467 261 2.983714519309108E-1
467 262 1.831563888873418E-2
467 367 5.489792753099466E-2
467 421 7.212888387863481E-2
467 447 8.250637316080023E-2
467 466 4.3555268827237405E-2
467 472 3.6108759350038724E-2
467 515 3.117840586379162E-1
467 535 3.301095793637344E-2
468 68 3.253759723917662E-2
468 231 4.471558545728924E-2
468 235 2.2990945183745067E-2
468 236 1.8625845877190933E-2
468 263 2.841523151020866E-1
468 282 3.642562810628252E-2
468 366 1.9346262732800934E-2
468 369 2.8485270299511426E-2
468 370 1.582075216706402E-2
468 451 5.598156329970898E-2
469 104 2.556857953108318E-1
469 258 1.6918489614977838E-2
469 321 2.5686656248486945E-2
469 354 2.4745183776143105E-2
469 356 3.6834918350168104E-2
469 357 5.818435236221691E-2
469 372 4.4630900502650915E-2
469 373 8.134142176324136E-2
469 374 7.741247763682632E-2
469 386 1.921705903308424E-2
469 395 2.7027641567442244E-2
469 424 1.0991711362292927E-1
469 425 1.831563888873418E-2
469 427 2.707970383732677E-2
469 520 1.7630644075987006E-1
469 521 1.2550916858452354E-1
470 42 2.3015721697140116E-2
470 105 1.831563888873418E-2
470 170 1.75425806099672E-2
470 257 2.5063898783707725E-2
470 258 1.5962560410165744E-1
470 354 1.271761730091404E-1
470 362 2.448578981691353E-2
470 363 5.251149727156332E-2
470 365 3.5458020369665645E-2
470 374 5.9349111948410735E-2
470 375 9.850384236686949E-2
470 384 1.831563888873418E-2
470 395 2.7722629840677995E-2
470 403 1.1154734002505658E-1
470 404 3.460570944355996E-2
470 423 2.3260573586361986E-2
470 425 3.42555986774072E-2
470 426 3.736986535528467E-2
470 427 2.063298153056789E-2
470 516 1.5656952585270262E-1
470 521 2.3664781875589166E-2
471 29 1.831563888873418E-2
471 31 2.3496082426270427E-2
471 47 2.7468794428663314E-2
471 172 2.0087342856356213E-2
471 229 4.1804453701867E-2
471 249 2.5664778904989388E-2
471 279 2.393491912916084E-2
471 315 1.831563888873418E-2
471 379 1.8815023264975587E-2
471 454 2.055152560706637E-2
471 474 1.6024597804251606E-1
471 514 5.1008227077463004E-2
471 531 3.783393380193028E-2
471 533 1.819164142900482E-2
471 563 2.0645581223888383E-2
472 39 5.623831692793933E-2
472 40 2.6708098807708358E-2
472 135 3.519894846966447E-2
472 246 1.9233036195358356E-2
472 247 2.578037170854878E-2
472 261 6.500670449558228E-2
472 267 6.40903898555593E-2
472 367 2.463859792651793E-2
472 447 1.3527441732189754E-1
472 453 1.831563888873418E-2
472 467 3.6108759350038724E-2
472 515 6.39666199450516E-2
472 562 4.994307344952035E-2
472 564 2.762279518420075E-2
473 54 3.859454294179837E-2
473 55 6.0408188537838116E-2
473 56 3.456071178722327E-2
473 57 3.5684210731080315E-2
473 100 1.0196113378351065E-1
473 240 3.454515794247515E-2
473 269 1.831563888873418E-2
473 270 2.3461761095744858E-2
473 280 5.120938375577776E-2
473 358 2.152046986823475E-2
473 359 2.6477905703623354E-2
473 394 1.1350857403262975E-1
473 415 2.144743404963237E-2
473 417 1.595569811440351E-2
473 418 3.572132585106924E-2
473 456 1.573907252717694E-2
473 458 1.831563888873418E-2
473 459 2.0252294468982045E-2
473 474 2.520346080040562E-2
473 531 2.1227413004264947E-2
473 532 9.693796426685405E-2
474 100 2.3259026523618897E-2
474 102 4.966911737050954E-2
474 229 1.831563888873418E-2
474 269 3.445876932880892E-2
474 279 2.00895305410541E-2
474 280 2.1513029578114434E-2
474 394 2.67369203644873E-2
474 418 1.831563888873418E-2
474 454 4.151566969600041E-2
474 458 1.4097030218104987E-2
474 471 1.6024597804251606E-1
474 473 2.520346080040562E-2
474 514 1.5469272038768463E-2
474 531 8.091087840382409E-2
474 532 4.283918921558696E-2
475 80 2.2374459935334236E-2
475 114 1.831563888873418E-2
475 115 4.138189866119667E-1
475 125 1.8944781505362634E-2
475 126 2.1054566079528325E-2
475 127 6.774010993793836E-2
475 128 8.22467375749864E-2
475 131 9.80405408756358E-2
475 145 3.799949684676952E-2
475 193 1.809492801206621E-2
475 196 1.6301588066255444E-2
475 201 3.339897801086537E-2
475 202 1.4349587435211282E-2
475 204 2.073860651362003E-2
475 206 2.520326655289673E-2
475 208 3.2423824723983946E-2
475 209 3.593502342215336E-2
475 218 3.3831862486932573E-1
475 293 4.419085527860321E-2
475 324 2.0841164879404787E-2
475 326 1.4304813380705717E-2
475 327 1.945151115108595E-2
475 412 8.009520657366936E-2
475 478 1.8640933445065126E-2
475 480 2.2168428064233206E-2
475 482 1.2021216038621513E-1
476 129 3.0641813033409977E-2
476 144 1.7548430542664092E-1
476 145 1.856595636624254E-2
476 186 7.82209738601992E-2
476 204 1.6907587363668047E-1
476 205 2.0911397276490218E-1
476 206 1.831563888873418E-2
476 207 4.530089646011429E-2
476 219 1.3206754310547808E-1
476 326 2.4652087027537677E-2
476 478 2.3838645834507323E-2
476 481 6.2463230883517906E-2
477 129 1.5480887654839692E-1
477 130 4.445249358112992E-1
477 132 4.1618417438282145E-2
477 133 2.4085370068504718E-2
477 144 1.6830468197971134E-2
477 146 1.8354216828016027E-2
477 150 1.227688501475572E-1
477 188 6.494905243746513E-2
477 189 1.831563888873418E-2
477 195 1.988795734773035E-2
477 207 8.19979175890278E-2
477 277 5.075677749492065E-2
477 292 2.7435444844258205E-2
477 294 4.826407018347153E-2
477 326 1.6595399617262703E-2
477 411 5.762824741361274E-2
477 478 2.593214587482646E-2
478 115 2.0664823302888727E-2
478 127 1.831563888873418E-2
478 129 4.9316703858211436E-2
478 130 4.1471981651792014E-2
478 132 1.822315807207974E-1
478 133 4.308685744556719E-2
478 151 1.700305957469703E-2
478 186 1.7153468328985906E-2
478 188 8.725077023462746E-2
478 189 1.5785486789759834E-1
478 195 4.371691609452498E-2
478 201 3.693920968318047E-2
478 202 1.831563888873418E-2
478 204 5.1065051917866894E-2
478 205 5.8600221382014914E-2
478 206 2.593768235529885E-1
478 207 9.632232920667037E-2
478 209 1.9382138848908183E-2
478 278 1.8872875259646902E-2
478 291 2.4003216606845627E-2
478 326 1.3327227382546522E-1
478 328 1.6746857075955225E-2
478 409 1.8333328023653034E-2
478 410 4.822310539924114E-2
478 412 1.6921007742099856E-1
478 475 1.8640933445065126E-2
478 476 2.3838645834507323E-2
478 477 2.593214587482646E-2
479 35 4.0833183210425436E-2
479 45 3.675999930204709E-2
479 69 3.7114278532351025E-2
479 120 2.0095284914022855E-2
479 125 3.7836816572974385E-2
479 131 1.831563888873418E-2
479 137 2.123119370221374E-2
479 145 1.747210733828758E-2
479 169 1.72484207232926E-2
479 170 3.679830104023004E-2
479 218 2.2761764496663693E-2
479 313 1.831563888873418E-2
479 324 1.831563888873418E-2
479 449 2.2827102219722055E-2
479 480 1.576900510264022E-1
479 482 1.831563888873418E-2
479 498 3.594991426901659E-2
480 35 3.292517127931901E-2
480 45 2.8344319956416113E-2
480 69 2.8549632309793762E-2
480 115 2.942339625417491E-2
480 120 1.831563888873418E-2
480 125 1.1783147429119932E-1
480 128 2.0096845328493446E-2
480 131 4.186708414149537E-2
480 137 2.0473439161178643E-2
480 145 3.6800916910163996E-2
480 170 2.832853831520436E-2
480 208 2.0108573898308727E-2
480 218 5.8976622848083596E-2
480 293 2.2084622436125353E-2
480 313 1.714652270069735E-2
480 324 2.0043762353572477E-2
480 475 2.2168428064233206E-2
480 479 1.576900510264022E-1
480 482 3.557698681383016E-2
480 498 2.7747941147861027E-2
481 137 2.8270580554250888E-2
481 144 6.4592313387633E-2
481 145 2.2852220024585305E-2
481 186 1.9860786617231903E-2
481 204 2.2211060787601895E-2
481 205 1.831563888873418E-2
481 219 2.5454951173074825E-1
481 325 5.496942113119867E-2
481 476 6.2463230883517906E-2
481 482 9.143900417198748E-3
482 35 3.154330877093851E-2
482 45 2.1828251813801304E-2
482 69 2.2138291823101536E-2
482 80 1.831563888873418E-2
482 115 9.707246245391113E-2
482 120 1.4128310474760172E-2
482 125 3.817995875022185E-2
482 127 3.607693210520375E-2
482 128 7.919045236602086E-2
482 131 7.274998128738293E-2
482 137 3.867928349916327E-2
482 145 1.0262090366371256E-1
482 170 2.17940451796875E-2
482 190 1.883657146726384E-2
482 192 1.9470712187098477E-2
482 193 1.9456386910516824E-2
482 204 1.6875028403778237E-2
482 208 1.89550500463335E-2
482 209 1.7097311435690103E-2
482 218 3.4209029304286387E-1
482 281 1.884427375313225E-2
482 293 3.989749041206365E-2
482 324 2.0317544551582276E-2
482 325 4.4797126456904195E-2
482 327 1.943765756307124E-2
482 475 1.2021216038621513E-1
482 479 1.831563888873418E-2
482 480 3.557698681383016E-2
482 481 9.143900417198748E-3
482 498 2.1568589910704282E-2
482 533 1.770361536961111E-2
483 59 3.8527169628313096E-2
483 60 1.831563888873418E-2
483 266 2.346836555804163E-2
483 276 2.900334995728839E-2
483 285 1.78540132379288E-2
483 289 5.948579585240117E-2
483 318 3.864500647165535E-2
483 319 3.133045650813662E-2
483 406 5.428912692319839E-2
483 408 3.8757862819215845E-2
483 428 2.3055401278931312E-2
483 442 2.231788319542881E-2
483 444 1.0497627289107622E-1
483 445 7.764381594455816E-2
483 487 1.0998148312567242E-1
483 524 6.559913824242801E-2
483 545 1.831563888873418E-2
483 546 3.00412151120408E-2
484 1 3.388163886883116E-2
484 45 1.8986944634665312E-2
484 58 5.83447691368069E-2
484 59 2.313927109927101E-2
484 69 1.831563888873418E-2
484 170 1.823525643343251E-2
484 264 1.831563888873418E-2
484 271 4.9814742740635964E-2
484 273 1.9004988522148828E-2
484 285 1.2434667549935582E-1
484 286 1.5115775130300596E-1
484 290 1.9134504850456133E-2
484 316 2.1388597348623525E-2
484 405 3.3919808829150716E-2
484 406 1.7988593036912276E-2
484 407 1.831563888873418E-2
484 440 1.831563888873418E-2
484 441 4.314488493301277E-2
484 485 3.273081183645262E-2
484 486 4.314283795902338E-2
484 522 4.7873591139611066E-2
484 523 3.6031902051288096E-2
485 58 1.720527202148951E-2
485 214 2.4595378994907977E-2
485 264 1.831563888873418E-2
485 285 2.292876043664216E-2
485 286 3.1462382036545444E-2
485 316 1.0645354411105758E-1
485 405 2.2280833160264888E-2
485 484 3.273081183645262E-2
485 499 3.1750562966845364E-2
485 525 1.994059502360368E-2
485 540 1.814712616279908E-2
486 1 1.831563888873418E-2
486 58 2.5215829433239946E-2
486 69 1.6932219682581955E-2
486 271 1.852293095440874E-2
486 273 8.913778085195559E-2
486 285 2.2878878427751825E-2
486 286 3.767311728862707E-2
486 290 1.0894076657065603E-1
486 405 2.2841521664953603E-2
486 441 2.229874502119993E-2
486 443 7.661081509484341E-2
486 484 4.314283795902338E-2
486 523 9.015052143531126E-2
487 59 2.1247862135837015E-2
487 60 2.983084354104356E-2
487 265 1.813967372758099E-2
487 272 1.6188187017462278E-2
487 276 2.575357365597454E-2
487 288 3.224529641598062E-2
487 289 3.8166907803685715E-2
487 316 1.831563888873418E-2
487 317 4.1441817693219606E-2
487 318 4.365364752752515E-2
487 319 4.647018797935469E-2
487 408 1.8747386977221153E-2
487 428 1.836649694399753E-2
487 429 1.800538751946451E-2
487 442 7.01854340084034E-2
487 444 4.858014410249444E-2
487 445 2.1742361796467977E-2
487 483 1.0998148312567242E-1
487 524 9.261070425541217E-2
488 8 2.7304103560857335E-1
488 13 9.949493059222614E-2
488 61 1.594459566244774E-2
488 64 4.190479001709103E-1
488 65 1.5501986205897106E-1
488 66 2.768221612661649E-2
488 67 9.000403079065791E-2
488 166 1.2790944287267825E-1
488 299 7.100128185595561E-2
488 300 1.4757066502956767E-1
488 301 4.59966692251538E-2
488 302 1.831563888873418E-2
488 303 1.831563888873418E-2
488 331 2.134456979641597E-2
488 489 3.0511475670265034E-2
488 494 2.913573878412625E-2
489 9 1.5579909941757286E-2
489 10 3.14269697141779E-2
489 15 2.0096901190132906E-2
489 19 8.437868764283636E-2
489 64 7.806794643828435E-2
489 65 8.385647996911047E-2
489 156 2.6437277578057194E-1
489 299 1.6948730043359717E-2
489 300 2.4871924674980526E-2
489 301 1.831563888873418E-2
489 302 4.271243340498325E-1
489 303 1.8682102122490968E-1
489 488 3.0511475670265034E-2
489 491 7.752492022420865E-2
489 566 2.3322729275288528E-1
489 568 2.1833315632467824E-2
489 569 7.479848683870625E-2
490 6 1.831563888873418E-2
490 7 7.539256669330535E-2
490 11 1.0032442662395877E-1
490 12 1.4447853604090068E-2
490 14 3.6191394312243864E-2
490 157 5.2982469508537244E-2
490 158 3.735329833597043E-2
490 163 3.271492847651684E-2
490 164 9.227021934352553E-2
490 165 6.544021232589996E-2
490 304 6.95713203336324E-2
490 387 2.431986255000114E-2
490 388 6.539673130860191E-2
490 567 2.1541294097134667E-1
491 19 9.874726189730218E-2
491 63 6.642595677064847E-2
491 156 8.33595401376552E-2
491 299 1.930900863180825E-2
491 300 1.611332076247434E-2
491 301 1.831563888873418E-2
491 302 9.68014308858673E-2
491 303 6.582644341871922E-2
491 489 7.752492022420865E-2
491 492 2.174872319208509E-2
491 493 3.9337892413790536E-2
491 566 8.2285929729323E-2
491 569 1.9951039088881836E-2
492 10 2.3140835314749184E-2
492 15 1.831563888873418E-2
492 19 1.8628426857784375E-2
492 63 1.0944765556342415E-1
492 162 4.0622974677960055E-2
492 491 2.174872319208509E-2
492 493 3.680191300032365E-1
492 566 1.2286536815069853E-2
492 568 4.052269177406303E-2
492 569 2.037987408766093E-2
493 10 1.4122720812584191E-2
493 17 3.046514390253499E-2
493 19 2.02987898778285E-2
493 63 2.3670040123535024E-1
493 162 3.0169323680982435E-2
493 402 7.173463825822926E-2
493 491 3.9337892413790536E-2
493 492 3.680191300032365E-1
493 568 2.3806101588302892E-2
493 569 1.831563888873418E-2
494 8 7.104478961711111E-2
494 20 4.693837091513152E-2
494 21 4.496201757809637E-2
494 61 4.116092153916004E-1
494 69 1.831563888873418E-2
494 91 1.97222136441625E-2
494 160 4.135518986891772E-2
494 161 2.1472804983404134E-2
494 166 1.0709779623902996E-1
494 170 1.829004138194989E-2
494 299 2.0105530967340327E-1
494 300 5.548505411926145E-2
494 301 4.538311346911969E-2
494 310 1.6174629069187388E-2
494 311 2.347677618787662E-2
494 329 3.2379254923762146E-2
494 488 2.913573878412625E-2
495 71 2.6049661642200284E-1
495 72 4.2346564692447297E-1
495 83 2.8986265627002333E-2
495 108 2.047510649855247E-2
495 295 3.201256637551811E-2
495 432 1.1151246730420149E-1
495 496 6.561692765643137E-1
495 507 6.400147616871638E-2
495 510 8.088886927352423E-2
495 512 1.3934117129159936E-2
495 513 1.831563888873418E-2
495 549 2.9955247046866057E-1
495 556 3.404000262032828E-1
495 557 4.220626380341333E-2
496 71 2.098782199604481E-1
496 72 3.719584100353599E-1
496 83 2.676981473062281E-2
496 108 1.831563888873418E-2
496 295 2.1376917862004026E-2
496 432 8.4406276124127E-2
496 495 6.561692765643137E-1
496 507 7.09393558906718E-2
496 510 1.0471822452102295E-1
496 512 1.8987860440047098E-2
496 513 2.5507080672347228E-2
496 549 3.374540337965082E-1
496 556 2.73677884257427E-1
496 557 2.502663858656805E-2
497 27 1.831563888873418E-2
497 32 1.831563888873418E-2
497 52 1.9954120239531754E-2
497 53 5.845020994693538E-2
497 142 6.673822156998993E-2
497 149 1.4868424859445685E-2
497 176 2.6419480624097533E-2
497 314 3.8884370972848886E-2
497 323 3.130414276040577E-2
497 333 1.7886118204276977E-2
497 334 1.9232239836477153E-2
497 337 2.173281589153865E-2
497 499 4.264379862957238E-2
497 506 2.9909098255802923E-2
498 2 2.1850404245060646E-2
498 3 2.1915619437556613E-2
498 4 1.8922402523148318E-2
498 5 1.847377049966393E-2
498 6 1.851433271812062E-2
498 8 1.8406848561678433E-2
498 12 1.8343593618467144E-2
498 34 1.162828540048137E-1
498 35 7.356423911058411E-1
498 45 8.671841343993019E-1
498 46 4.294925132879085E-2
498 49 2.164377115403729E-2
498 51 1.8131176616267293E-2
498 52 2.152629494389539E-2
498 54 2.7201464870841553E-2
498 55 1.831563888873418E-2
498 56 1.9489624790567792E-2
498 57 1.892999857955768E-2
498 58 3.0637643864712103E-2
498 61 2.172000947439928E-2
498 68 2.766495126589046E-2
498 69 9.071523922800524E-1
498 79 2.0109743380293248E-2
498 81 2.122380880270905E-2
498 84 1.831563888873418E-2
498 86 2.7721893501706698E-2
498 87 5.092330565885029E-2
498 90 6.549351099295087E-2
498 91 1.831563888873418E-2
498 96 1.1836920094934159E-1
498 97 6.455967777743567E-2
498 98 3.0348955098818978E-2
498 99 3.0474238106677227E-2
498 101 2.264098557107108E-2
498 107 1.831563888873418E-2
498 108 1.8432270176863063E-2
498 113 1.831563888873418E-2
498 117 1.829653217804773E-2
498 118 5.969080881212901E-2
498 120 2.02859732387484E-1
498 123 2.139253347835489E-2
498 124 2.121335245653568E-2
498 125 2.9623940612108327E-2
498 126 3.223822430322545E-2
498 128 1.8186175183046882E-2
498 139 1.8313491266279874E-2
498 140 1.0370816245474505E-2
498 141 1.8622715199344317E-2
498 152 1.889972424249798E-2
498 154 2.3135835991912747E-2
498 155 2.436943892348394E-2
498 159 2.205739679198042E-2
498 167 3.0787057069725968E-2
498 169 1.847956110715513E-1
498 170 8.586823657321416E-1
498 174 1.8623741498041132E-2
498 178 1.3933394718309178E-2
498 179 1.8062343413924393E-2
498 185 1.8014876954175908E-2
498 191 1.831563888873418E-2
498 197 1.9252628820278853E-2
498 200 1.972981520454294E-2
498 203 1.8275647466225384E-2
498 214 2.9526969241656997E-2
498 215 1.8397859992154982E-2
498 216 1.864613922796615E-2
498 224 2.0958274505956002E-2
498 227 9.274057098151331E-2
498 233 6.327848763558046E-2
498 234 2.2117167668931768E-2
498 252 1.831563888873418E-2
498 253 1.8517357150070975E-2
498 283 1.831563888873418E-2
498 286 3.6563214694295416E-2
498 298 1.823142701886205E-2
498 308 1.8706237613663187E-2
498 309 2.1033393387670154E-2
498 312 1.015172165993106E-1
498 313 6.724157335887898E-2
498 314 2.479978039081911E-2
498 322 8.249057038699359E-2
498 325 1.8273962190122072E-2
498 330 1.886116883384692E-2
498 331 1.8676798142642923E-2
498 332 2.2125536218344052E-2
498 333 2.0650982551665323E-2
498 334 2.1709065275339934E-2
498 335 1.871901131466271E-2
498 343 2.4827902754113923E-2
498 346 1.831563888873418E-2
498 348 1.8387834788085755E-2
498 349 2.0821749996858298E-2
498 350 1.841911310733011E-2
498 351 2.0036167896356996E-2
498 352 1.83276782578013E-2
498 353 1.999909645812684E-2
498 362 3.7596735123141246E-2
498 363 3.192986958093475E-2
498 364 2.2018946031935036E-2
498 366 1.869031232427324E-2
498 369 1.831563888873418E-2
498 380 6.905983102354425E-2
498 383 1.831563888873418E-2
498 396 4.243299942527726E-2
498 404 5.9237037381246346E-2
498 405 2.4022385439114467E-2
498 413 1.991805281809572E-2
498 435 1.815159714735227E-2
498 436 2.9316615958621867E-2
498 441 1.8133505693416006E-2
498 449 2.840211568414816E-2
498 451 1.8475201731392662E-2
498 460 1.831563888873418E-2
498 479 3.594991426901659E-2
498 480 2.7747941147861027E-2
498 482 2.1568589910704282E-2
498 499 2.071072493992294E-2
498 500 3.5156160089594844E-2
498 501 3.0332974467346053E-2
498 503 1.831563888873418E-2
498 505 2.1441547690059026E-2
498 506 1.831563888873418E-2
498 510 2.1199372186273293E-2
498 511 1.8926677274932004E-2
498 512 7.610939512954193E-2
498 513 5.3688926800690207E-2
498 527 2.5513156389320328E-2
498 539 4.237760558836802E-2
498 544 2.031556044096114E-2
498 548 1.831563888873418E-2
498 550 1.9871298832449626E-2
498 553 2.3422286160753678E-2
498 554 1.8345940352751618E-2
498 559 1.9265125253321188E-2
498 560 2.6416371661058806E-2
498 570 1.8585852359497904E-2
499 45 1.8302190565185235E-2
499 52 9.246278383781868E-2
499 53 3.5955327129526676E-2
499 69 1.831563888873418E-2
499 214 2.9326414870658315E-2
499 322 1.9779039738117357E-2
499 333 2.8290029980733777E-2
499 334 3.030855732147218E-2
499 337 3.166701841709146E-2
499 463 1.831563888873418E-2
499 485 3.1750562966845364E-2
499 497 4.264379862957238E-2
499 498 2.071072493992294E-2
499 500 3.344896402530565E-2
499 501 2.9060946194371568E-2
499 502 1.71457367613732E-2
499 540 3.290809011636143E-2
500 35 2.9969278065883415E-2
500 45 3.1502807459790345E-2
500 48 1.5502448340375237E-2
500 52 1.825840537852072E-2
500 69 3.088151522298188E-2
500 120 1.9596757411164137E-2
500 143 1.942898292022374E-2
500 169 1.6893142704799267E-2
500 170 3.0527114955960902E-2
500 187 2.8046873769568013E-2
500 322 3.132256042911864E-2
500 366 1.831563888873418E-2
500 390 2.1362070240366116E-2
500 391 2.3234820928844966E-2
500 498 3.5156160089594844E-2
500 499 3.344896402530565E-2
500 501 1.831563888873418E-2
500 502 2.582462194295421E-2
500 533 1.8946658596965926E-2
500 539 2.0754893459485026E-2
501 30 1.5702276554749352E-2
501 34 1.831563888873418E-2
501 35 2.7177733142923766E-2
501 45 2.536522924806276E-2
501 48 2.1401253736930845E-2
501 69 2.3255473894562347E-2
501 83 2.397045498939735E-2
501 99 3.1178656235920452E-2
501 101 1.1461586622073744E-1
501 108 2.932970949308296E-2
501 143 2.3311940854125166E-2
501 170 2.276941619728127E-2
501 175 1.2110577123367059E-2
501 185 2.146888162357934E-2
501 229 2.2201932727179987E-2
501 238 2.3576928202435385E-2
501 252 1.9995616072906797E-1
501 253 2.574549304718635E-1
501 255 4.513532315269522E-2
501 283 2.5830753760829574E-2
501 284 2.6786551628930733E-2
501 308 1.831563888873418E-2
501 314 3.63620865263105E-2
501 322 1.8673602212968882E-1
501 333 1.831563888873418E-2
501 334 1.7852405937147545E-2
501 336 1.0247976849479281E-2
501 337 1.796875544180601E-2
501 366 2.5411104618970334E-2
501 369 2.1519796903830643E-2
501 390 2.215757320947631E-2
501 391 2.2109831049374334E-2
501 452 2.920605380174502E-2
501 498 3.0332974467346053E-2
501 499 2.9060946194371568E-2
501 500 1.831563888873418E-2
501 506 3.9057023606186736E-2
501 512 1.7186754582456023E-2
501 517 4.467403780229025E-2
501 533 1.831563888873418E-2
501 537 1.5105714136702472E-1
501 544 2.3654974467930495E-2
501 549 1.7581341472161817E-2
501 565 4.754429176638194E-2
502 47 2.1893808339803658E-2
502 50 2.52219721721206E-2
502 172 3.38114163789701E-2
502 229 2.8306324394608035E-2
502 249 2.1882260849631623E-2
502 256 2.844798333935611E-2
502 315 3.288449313675659E-2
502 437 1.831563888873418E-2
502 438 6.967784840540792E-2
502 464 1.8991626727885156E-2
502 499 1.71457367613732E-2
502 500 2.582462194295421E-2
502 514 3.798693645765891E-2
502 517 1.8681836114835235E-2
503 35 1.7866090504761845E-2
503 45 1.8543446606042412E-2
503 69 1.8648888106724708E-2
503 139 3.447184622100539E-2
503 140 2.2422215462921508E-1
503 141 3.8493585538534064E-1
503 153 1.3394411775999487E-2
503 154 7.844112232433859E-2
503 155 1.0700893193780037E-1
503 170 1.841527346252993E-2
503 177 3.186086512642335E-2
503 178 6.308772679009254E-2
503 210 1.5798370138517183E-2
503 212 1.6331912419377554E-2
503 213 2.150472425756211E-2
503 214 3.272294990026674E-2
503 215 2.528019041403437E-2
503 464 2.5935840012036478E-2
503 465 1.831563888873418E-2
503 498 1.831563888873418E-2
503 504 3.522220241157048E-1
504 45 1.825657378966413E-2
504 69 1.831563888873418E-2
504 136 1.820680081725966E-2
504 138 2.5897548794532165E-2
504 140 3.4300524147149236E-1
504 141 3.839731441984816E-1
504 154 1.066415468073619E-1
504 155 1.2631287424560042E-1
504 177 4.721976297922658E-2
504 178 5.3036025139908724E-2
504 210 4.050315942226431E-2
504 211 2.450864585438361E-2
504 212 3.0217224554178187E-2
504 213 4.449282337337833E-2
504 214 5.1720232994807304E-2
504 215 2.7077843448860366E-2
504 464 2.84245007231741E-2
504 503 3.522220241157048E-1
505 35 2.4018697345246257E-2
505 45 2.1593651031883154E-2
505 69 2.1676547118483262E-2
505 96 2.550964642975121E-2
505 120 1.831563888873418E-2
505 169 1.7315057118694164E-2
505 170 2.1812307824906806E-2
505 320 1.975554571917963E-2
505 498 2.1441547690059026E-2
505 512 2.6119182479251286E-2
505 513 2.483357333067555E-2
506 34 2.4568517854088076E-2
506 36 1.831563888873418E-2
506 53 1.824486875591361E-2
506 101 1.912081381802397E-2
506 142 3.929863609867927E-2
506 152 3.723923629586857E-2
506 153 2.4524921124821023E-2
506 173 3.530875212455301E-2
506 174 5.028411416010774E-2
506 253 2.347991601999456E-2
506 283 1.7706311308339887E-2
506 314 2.817662440992853E-2
506 322 4.465929480274057E-2
506 323 4.8593441724426485E-2
506 333 1.696353353900673E-2
506 422 1.8844382827975518E-2
506 452 1.831563888873418E-2
506 497 2.9909098255802923E-2
506 498 1.831563888873418E-2
506 501 3.9057023606186736E-2
506 537 2.7465104369229196E-2
506 543 6.89993193654468E-2
506 544 2.8140776721578686E-1
506 565 1.0207986522068679E-2
507 71 5.458798993017129E-2
507 72 9.12815576882889E-2
507 295 1.654462867071834E-2
507 432 5.23420619457375E-2
507 495 6.400147616871638E-2
507 496 7.09393558906718E-2
507 509 3.1333985962174814E-2
507 510 1.1980362249435498E-2
507 529 1.831563888873418E-2
507 549 3.1872048320721776E-2
507 556 4.060762615798284E-2
508 70 5.189887586647931E-2
508 73 6.787192127863328E-2
508 78 4.740847416253507E-2
508 260 2.8248619532127067E-2
508 413 1.831563888873418E-2
508 509 2.171034683119753E-1
508 511 3.125732618859301E-2
508 526 1.7261213391011214E-2
508 530 2.3833154976643307E-2
508 550 2.3896167382175794E-2
508 551 1.073978644877643E-2
509 46 1.85527002867383E-2
509 78 1.4348913647762146E-1
509 83 2.9203655525509645E-2
509 369 1.831563888873418E-2
509 413 2.4264650748140014E-2
509 507 3.1333985962174814E-2
509 508 2.171034683119753E-1
509 511 4.6664405282944646E-2
509 513 1.820107965205781E-2
509 527 2.3258846563219835E-2
509 550 2.0614379315429393E-2
510 35 2.09589998237819E-2
510 45 2.111364363724051E-2
510 69 2.095768387664003E-2
510 71 1.831563888873418E-2
510 72 2.5554898254980137E-2
510 120 1.831563888873418E-2
510 169 1.6787629853851096E-2
510 170 2.077147802598649E-2
510 322 1.9662918961921856E-2
510 495 8.088886927352423E-2
510 496 1.0471822452102295E-1
510 498 2.1199372186273293E-2
510 507 1.1980362249435498E-2
510 512 1.2246596711612537E-1
510 513 1.94723831545136E-1
510 549 8.916577499424991E-2
510 556 5.065055481497445E-2
511 44 7.757636074975975E-2
511 45 1.831563888873418E-2
511 46 3.474566592046702E-2
511 70 3.090197516570847E-2
511 73 4.11570198386198E-2
511 78 2.1995275203938854E-2
511 106 1.9360800823865966E-2
511 120 1.8264263846258177E-2
511 232 3.112755037489218E-2
511 259 1.0717121354128017E-1
511 260 6.552083715194759E-2
511 404 2.234155629423405E-2
511 413 2.238781595866366E-2
511 498 1.8926677274932004E-2
511 508 3.125732618859301E-2
511 509 4.6664405282944646E-2
511 512 2.255563748181049E-2
511 513 3.716070924732176E-2
511 526 1.826712316742538E-2
511 527 3.673452175926436E-2
511 550 6.328802252359349E-2
511 552 1.7536232726433513E-2
511 555 3.061270637060643E-2
512 35 7.006230789890253E-2
512 45 7.510653065007877E-2
512 69 7.387960573727795E-2
512 82 1.7265383689783764E-2
512 83 3.070748558943818E-2
512 99 1.9029740960766435E-2
512 107 3.3371912167701294E-2
512 108 3.438263735397151E-2
512 120 2.895745781777636E-2
512 143 1.9829590888858464E-2
512 169 1.952138882125894E-2
512 170 7.094967924768421E-2
512 185 2.8138626455836355E-2
512 216 1.9214672510924093E-2
512 217 1.831563888873418E-2
512 252 1.863332562118809E-2
512 253 1.7748275677734796E-2
512 281 1.8340608595047794E-2
512 309 1.8134445015088846E-2
512 313 1.7712202443695875E-2
512 320 2.0459396319244424E-2
512 322 1.831563888873418E-2
512 352 1.8058809270960235E-2
512 384 1.824501793853136E-2
512 390 1.664294676415641E-2
512 495 1.3934117129159936E-2
512 496 1.8987860440047098E-2
512 498 7.610939512954193E-2
512 501 1.7186754582456023E-2
512 505 2.6119182479251286E-2
512 510 1.2246596711612537E-1
512 511 2.255563748181049E-2
512 513 5.097299730357453E-1
512 541 1.9775559559643725E-2
512 549 3.883587245923819E-2
512 556 1.831563888873418E-2
512 559 1.791034845101786E-2
513 35 5.027725490906857E-2
513 45 5.249293041780505E-2
513 69 5.1616214923632525E-2
513 78 1.831563888873418E-2
513 82 1.831563888873418E-2
513 83 3.624007613232649E-2
513 107 4.228448468838565E-2
513 108 3.438959844970953E-2
513 120 2.7297267019966882E-2
513 169 1.831563888873418E-2
513 170 5.014638401848642E-2
513 185 3.3505225929838706E-2
513 216 2.142695676494019E-2
513 217 1.960859248322534E-2
513 259 1.885609083878489E-2
513 313 1.6879670229862486E-2
513 320 2.0499011385632565E-2
513 322 1.9906084691063253E-2
513 413 1.831563888873418E-2
513 495 1.831563888873418E-2
513 496 2.5507080672347228E-2
513 498 5.3688926800690207E-2
513 505 2.483357333067555E-2
513 509 1.820107965205781E-2
513 510 1.94723831545136E-1
513 511 3.716070924732176E-2
513 512 5.097299730357453E-1
513 527 1.75258308001032E-2
513 541 2.203619553139583E-2
513 549 4.828076928712498E-2
513 556 2.2956041675825184E-2
514 31 1.6901535455868696E-1
514 47 1.497675764372461E-1
514 50 1.38154199453378E-1
514 172 2.4365904530111913E-2
514 229 4.1866793768574107E-1
514 231 2.0080592203472598E-2
514 248 1.831563888873418E-2
514 249 3.770393083450672E-1
514 250 2.355791963475781E-2
514 251 1.831563888873418E-2
514 256 4.244565612348765E-2
514 279 5.284861520474459E-2
514 315 2.2513550317921176E-2
514 361 1.7812020644981164E-2
514 366 1.831563888873418E-2
514 379 1.9389155151785516E-2
514 438 3.035902878791501E-2
514 448 2.1926108336125773E-2
514 464 4.419759911315288E-2
514 465 1.9968090380620196E-2
514 466 2.7519600798817788E-2
514 471 5.1008227077463004E-2
514 474 1.5469272038768463E-2
514 502 3.798693645765891E-2
514 533 4.3353797974400615E-2
514 565 1.588790830487352E-2
515 39 3.4099269331415855E-2
515 40 3.0698799070578934E-2
515 134 1.8280285886589556E-2
515 135 1.5430663275304327E-1
515 230 2.9767695357423272E-2
515 246 2.219599708927183E-2
515 247 2.937347321547353E-2
515 248 2.1216165938759517E-2
515 250 2.8753050630359742E-2
515 251 1.9368547655393045E-2
515 261 3.0215712892115365E-1
515 367 5.024139764440489E-2
515 379 1.7656468209120785E-2
515 421 6.715735365617247E-2
515 447 8.802613976127235E-2
515 466 4.7610200774427056E-2
515 467 3.117840586379162E-1
515 472 6.39666199450516E-2
515 535 2.9158105390801256E-2
515 562 2.037480722037795E-2
516 42 2.0054064802044744E-1
516 43 2.5640138991836425E-2
516 69 1.8224702205919787E-2
516 105 3.356652618799114E-2
516 110 1.831563888873418E-2
516 111 2.6811876614216634E-2
516 170 1.831563888873418E-2
516 257 4.3579658828260606E-2
516 258 3.483144230680666E-2
516 297 3.414606086102763E-2
516 305 1.9719078538548485E-2
516 306 1.9598638846422784E-2
516 320 1.831563888873418E-2
516 342 1.831563888873418E-2
516 354 5.219818709841676E-2
516 362 3.2382779616450114E-2
516 363 1.1370356351150596E-1
516 365 6.663406550564831E-2
516 374 4.57323376487216E-2
516 375 3.2217197570684614E-1
516 384 2.7712117092261214E-2
516 385 1.723597241472768E-2
516 403 7.26153997678634E-2
516 404 4.018059611054288E-2
516 423 1.8810687472127555E-2
516 425 2.078612794606502E-2
516 426 1.831563888873418E-2
516 470 1.5656952585270262E-1
517 101 1.831563888873418E-2
517 171 2.1424738711754876E-2
517 175 1.831563888873418E-2
517 252 3.696882023285037E-2
517 253 4.699368474246092E-2
517 255 3.3788368038697586E-2
517 314 2.027484398794929E-2
517 333 1.9002847187773682E-2
517 336 3.680571439229759E-2
517 401 2.0927986594931208E-2
517 462 1.8768926990536467E-2
517 463 1.6462167471413706E-2
517 501 4.467403780229025E-2
517 502 1.8681836114835235E-2
517 518 2.7506779560138817E-1
517 519 5.141769084799415E-2
517 537 3.382466621806539E-2
517 565 2.5333500042184466E-2
518 175 1.8910194433301115E-2
518 252 1.831563888873418E-2
518 253 1.9009470762797027E-2
518 255 2.8278590653241564E-2
518 335 1.8169246040077337E-2
518 336 3.315327870525379E-2
518 337 2.25904928611349E-2
518 400 2.369323413919621E-2
518 401 3.148943803426718E-2
518 437 1.8799502545680552E-2
518 461 2.2814852152334628E-2
518 517 2.7506779560138817E-1
518 519 2.0877257261166443E-1
518 565 1.888942865925145E-2
519 314 1.9996194510071022E-2
519 335 2.307329993262578E-2
519 336 1.831563888873418E-2
519 337 2.2650979471132447E-2
519 400 1.6116936971635888E-2
519 401 2.619991313052579E-2
519 460 1.9529947837517835E-2
519 462 1.7872386083017288E-2
519 463 4.989996334471596E-2
519 517 5.141769084799415E-2
519 518 2.0877257261166443E-1
520 42 1.831563888873418E-2
520 43 3.044506622411584E-2
520 104 1.005509429001956E-1
520 321 2.1316858028470914E-2
520 341 2.5147774956780545E-2
520 354 1.603218944744768E-2
520 356 6.854320679891814E-2
520 357 1.1069011713114045E-1
520 372 2.2638873093015605E-1
520 373 3.4161021972118477E-1
520 374 8.45469176463354E-2
520 375 3.330342849954924E-2
520 386 3.317638762228338E-2
520 395 1.831563888873418E-2
520 424 4.0437864524848904E-2
520 427 3.20817786067163E-2
520 469 1.7630644075987006E-1
520 521 2.6191425555561015E-1
521 42 4.3113063992662064E-2
521 43 3.732119766382373E-2
521 104 6.468141069334465E-2
521 257 1.732084015549626E-2
521 258 3.447711664027178E-2
521 307 1.7694610632897935E-2
521 321 1.831563888873418E-2
521 341 2.126955176429648E-2
521 342 1.5861800377033792E-2
521 354 4.951194768901577E-2
521 356 3.081513559204944E-2
521 357 3.709017910680104E-2
521 372 6.64128685075758E-2
521 373 1.0127230257207127E-1
521 374 4.8915658696538844E-1
521 375 9.816707294701502E-2
521 386 2.1480793974978592E-2
521 395 2.381033542170278E-2
521 403 1.831563888873418E-2
521 424 1.8038291134197856E-2
521 425 1.3877938793145483E-2
521 426 2.040951030495837E-2
521 427 3.752723987912093E-2
521 469 1.2550916858452354E-1
521 470 2.3664781875589166E-2
521 520 2.6191425555561015E-1
522 1 5.049428515043134E-2
522 58 3.541510169463975E-2
522 75 2.8986510909618422E-2
522 76 1.8717511258160905E-2
522 93 1.831563888873418E-2
522 271 3.975464480636581E-2
522 285 6.496297278787322E-2
522 286 2.4185104621565506E-2
522 287 5.556855184354691E-2
522 405 1.9414545701836317E-2
522 406 1.956659227281421E-2
522 407 2.3740311536297964E-2
522 441 5.889140288778488E-2
522 445 1.831563888873418E-2
522 484 4.7873591139611066E-2
522 523 4.520189549972939E-2
522 525 1.7882893444959344E-2
522 547 2.032544937306602E-2
523 1 1.831563888873418E-2
523 271 1.7816426514707336E-2
523 273 9.013989689562457E-2
523 290 6.245043593385566E-2
523 405 2.544394391775073E-2
523 407 4.043507631263214E-2
523 440 3.27615387086493E-2
523 441 2.197750905152942E-2
523 443 1.7544527491446964E-2
523 484 3.6031902051288096E-2
523 486 9.015052143531126E-2
523 522 4.520189549972939E-2
523 525 2.5944524339291154E-2
524 60 3.561262397644544E-2
524 77 4.43053087972044E-2
524 272 1.8068660631795276E-2
524 288 7.05516098823504E-2
524 289 4.244568189562216E-2
524 318 1.831563888873418E-2
524 319 2.421699471576103E-1
524 408 6.965830088973993E-2
524 429 7.545133032481936E-2
524 442 1.831563888873418E-2
524 444 8.316016130221922E-2
524 483 6.559913824242801E-2
524 487 9.261070425541217E-2
525 1 3.541080771785093E-2
525 58 1.9267823286960414E-2
525 74 1.831563888873418E-2
525 271 2.6391050806953264E-2
525 285 2.2806041741390032E-2
525 290 1.831563888873418E-2
525 316 2.475664173942233E-2
525 317 3.6074177027864675E-2
525 405 4.073966053695049E-2
525 407 1.2987339668496503E-1
525 440 5.023123400894917E-2
525 441 4.4059320072010855E-2
525 443 2.6930002009197745E-2
525 485 1.994059502360368E-2
525 522 1.7882893444959344E-2
525 523 2.5944524339291154E-2
526 46 1.831563888873418E-2
526 83 2.6572372500976077E-2
526 106 4.2960947471921876E-2
526 180 4.400140539311964E-2
526 181 4.936863958709729E-2
526 296 1.654034736337364E-2
526 413 9.754057675368721E-2
526 508 1.7261213391011214E-2
526 511 1.826712316742538E-2
526 527 1.2537255591668264E-1
526 528 1.831563888873418E-2
526 529 3.9937017477571224E-2
526 530 3.368549936718155E-1
526 550 2.7278955643771943E-2
527 35 2.1766690190363362E-2
527 44 1.766305748868046E-2
527 45 2.3376713091073566E-2
527 46 2.4819525460044504E-2
527 69 2.262351382796398E-2
527 70 1.639130668726358E-2
527 73 1.831563888873418E-2
527 78 3.346900318891526E-2
527 82 2.7012638875945405E-2
527 83 2.4067243603791807E-2
527 96 2.1181071820395483E-2
527 106 7.264643872992155E-2
527 109 1.1817606533077384E-2
527 120 1.831563888873418E-2
527 170 2.251571007584613E-2
527 180 3.1803188741810796E-2
527 181 4.0954346451869295E-2
527 185 1.831563888873418E-2
527 232 1.831563888873418E-2
527 259 2.9724483632153714E-2
527 260 2.594955175856304E-2
527 413 1.849132984166354E-1
527 414 9.16272157725358E-3
527 498 2.5513156389320328E-2
527 509 2.3258846563219835E-2
527 511 3.673452175926436E-2
527 513 1.75258308001032E-2
527 526 1.2537255591668264E-1
527 529 1.831563888873418E-2
527 530 8.032125077840609E-2
527 550 4.699621669457381E-2
527 555 2.1491064807072566E-2
528 106 3.931250263527149E-2
528 109 3.554724455256965E-2
528 180 1.458937139645373E-1
528 181 7.519525672441572E-2
528 182 1.679117876486021E-1
528 183 1.3565927549922227E-1
528 184 2.6930892018365054E-2
528 296 1.9793681816452174E-2
528 413 1.563448971545247E-2
528 414 1.0408093247124661E-1
528 526 1.831563888873418E-2
528 530 3.868481918916871E-2
528 552 4.779888676335178E-2
529 78 1.851512330155833E-2
529 82 2.0171819008253537E-2
529 83 3.361860289349817E-2
529 107 3.337007602531571E-2
529 185 8.814955371864663E-2
529 295 1.831563888873418E-2
529 507 1.831563888873418E-2
529 526 3.9937017477571224E-2
529 527 1.831563888873418E-2
529 530 2.0824545380072657E-2
529 549 1.5978791803546725E-2
529 556 2.2885795169521217E-2
530 25 2.4295966826231752E-2
530 70 2.3393346124097623E-2
530 73 2.045786504901702E-2
530 83 1.995829695569549E-2
530 106 3.472798474934543E-2
530 180 7.045314800618657E-2
530 181 1.5095221792731567E-1
530 182 2.070418214581767E-2
530 183 2.070943286391584E-2
530 184 3.841321249975574E-2
530 296 2.15918577376566E-2
530 413 1.0472243534898712E-1
530 414 1.6936385674634125E-2
530 508 2.3833154976643307E-2
530 526 3.368549936718155E-1
530 527 8.032125077840609E-2
530 528 3.868481918916871E-2
530 529 2.0824545380072657E-2
530 550 2.467605673806582E-2
531 54 2.8792311576936146E-2
531 55 5.249511141249122E-2
531 56 1.831563888873418E-2
531 57 1.7933362085926885E-2
531 102 2.0388465963501873E-1
531 103 5.466296385454585E-2
531 240 1.831563888873418E-2
531 241 1.711889502203287E-2
531 269 4.620878830161369E-1
531 454 9.663859035216052E-2
531 455 6.0004845169497695E-2
531 471 3.783393380193028E-2
531 473 2.1227413004264947E-2
531 474 8.091087840382409E-2
531 532 2.3889046956003993E-1
532 34 1.831563888873418E-2
532 46 1.798320065725137E-2
532 54 5.71532673721508E-2
532 55 4.303264596370346E-2
532 56 2.9335117087005747E-2
532 57 2.310417432510239E-2
532 94 1.8727664559589068E-2
532 100 4.6862019470060884E-2
532 101 2.04079126151552E-2
532 102 7.099595320056278E-2
532 103 2.601006439970687E-2
532 240 3.299945150124715E-2
532 245 1.905631851964779E-2
532 269 1.2114859295478211E-1
532 270 1.831563888873418E-2
532 280 4.1296629873377635E-2
532 358 1.98296770522808E-2
532 359 1.700469292904508E-2
532 369 2.755403327737839E-2
532 393 2.3774095889763314E-2
532 394 1.186359786890672E-1
532 454 2.025151920683537E-2
532 455 2.13255122911868E-2
532 473 9.693796426685405E-2
532 474 4.283918921558696E-2
532 531 2.3889046956003993E-1
532 534 1.9384274916740905E-2
533 29 3.492397689820488E-2
533 31 7.776583461294793E-2
533 35 1.8334720036970995E-2
533 47 8.614538116655748E-2
533 48 5.2360221790014025E-2
533 50 4.17448363522373E-2
533 101 3.30765182878445E-2
533 143 1.831563888873418E-2
533 229 9.0624791029594E-2
533 249 1.6893820681253224E-1
533 279 1.1846614728914556E-1
533 281 5.024857623306393E-2
533 308 2.3015869189878684E-2
533 322 2.9584761233141764E-2
533 360 1.8499003289949894E-2
533 366 3.3477430321485084E-2
533 391 2.009024580372274E-2
533 448 2.0732495400774417E-2
533 464 1.5400692523099158E-2
533 471 1.819164142900482E-2
533 482 1.770361536961111E-2
533 500 1.8946658596965926E-2
533 501 1.831563888873418E-2
533 514 4.3353797974400615E-2
533 537 1.9385183401117997E-2
534 34 2.592916557078442E-2
534 36 8.124736327777846E-2
534 37 8.155856009483389E-2
534 56 2.9533821925002007E-2
534 94 4.381053603584728E-2
534 95 5.885248997441106E-2
534 101 1.831563888873418E-2
534 240 1.3836409364581739E-2
534 241 2.2572063031066517E-2
534 392 3.687694720898015E-2
534 393 3.720434766401612E-2
534 394 2.551908643042591E-2
534 422 1.6904249832576163E-1
534 452 2.2488620738798253E-2
534 457 5.652029757419316E-2
534 532 1.9384274916740905E-2
534 537 2.7796264938897874E-2
534 565 2.600466160185423E-2
535 23 2.3102585225087693E-2
535 40 1.790537624689613E-2
535 135 4.277424484906599E-2
535 230 3.256402753062527E-2
535 367 1.831563888873418E-2
535 419 2.1358086056823454E-2
535 420 1.831563888873418E-2
535 421 2.5742071321293282E-2
535 447 1.7450630439997977E-2
535 467 3.301095793637344E-2
535 515 2.9158105390801256E-2
535 536 2.2211389594022474E-1
535 538 1.9934990333349084E-2
535 564 1.6449185412683767E-2
536 23 6.196814683116553E-2
536 24 3.494666500398091E-2
536 135 2.408794885306397E-2
536 247 1.936876697063833E-2
536 360 3.9234888585533464E-2
536 420 4.735377413449615E-2
536 421 7.737509353298119E-2
536 447 1.831563888873418E-2
536 466 2.64599520539388E-2
536 535 2.2211389594022474E-1
536 537 1.4476138079798894E-2
536 538 6.2172161606010565E-2
537 23 4.259752150084007E-2
537 24 1.831563888873418E-2
537 30 7.140762379271301E-2
537 32 2.4832513597845326E-2
537 34 1.831563888873418E-2
537 36 2.0246319802190067E-2
537 37 1.7746602298485813E-2
537 47 1.800599277542793E-2
537 48 1.926017820688316E-2
537 94 2.5490444894587915E-2
537 101 1.071713715274763E-1
537 142 2.6619050025618034E-2
537 171 2.201896461376376E-2
537 175 2.4735168355189113E-2
537 237 2.5660918501953768E-2
537 238 8.851799116073047E-2
537 242 3.205462522795491E-2
537 244 1.831563888873418E-2
537 245 2.1859644161988236E-2
537 246 1.5043243123553799E-2
537 247 1.831563888873418E-2
537 249 1.831563888873418E-2
537 252 3.163106800545961E-1
537 253 3.1541099112139326E-1
537 255 6.0003815051261566E-2
537 268 2.811738842650697E-2
537 282 3.391915452667264E-2
537 283 3.228451495573487E-2
537 284 3.688858569057463E-2
537 322 8.29313029014677E-2
537 323 2.137439238198939E-2
537 369 3.93612228933682E-2
537 370 5.709099896700873E-2
537 391 1.831563888873418E-2
537 393 1.8320396459799215E-2
537 421 1.831563888873418E-2
537 422 1.9300126760953145E-2
537 452 1.1600856225853272E-1
537 453 3.500432961623338E-2
537 466 3.128872014623364E-2
537 501 1.5105714136702472E-1
537 506 2.7465104369229196E-2
537 517 3.382466621806539E-2
537 533 1.9385183401117997E-2
537 534 2.7796264938897874E-2
537 536 1.4476138079798894E-2
537 538 1.7946619365964428E-1
537 565 1.9462623645687938E-1
538 23 1.1271189298757467E-1
538 24 3.149623794888858E-2
538 30 1.831563888873418E-2
538 100 1.831563888873418E-2
538 101 1.5250891769320905E-2
538 230 2.800316755769834E-2
538 238 4.9539524355100076E-2
538 252 4.767330792299346E-2
538 253 3.879388863468553E-2
538 280 1.831563888873418E-2
538 360 2.038981046529214E-2
538 370 2.2707399137055724E-2
538 416 1.6398383921156227E-2
538 420 1.7533929810061265E-2
538 421 2.5004432061883845E-2
538 452 2.7114640248006246E-2
538 453 1.3307694866256745E-2
538 466 1.9889312075582043E-2
538 535 1.9934990333349084E-2
538 536 6.2172161606010565E-2
538 537 1.7946619365964428E-1
538 561 2.220588873854353E-2
538 562 1.831563888873418E-2
538 565 1.011555403303699E-1
539 34 1.831563888873418E-2
539 35 3.969628416897178E-2
539 45 4.164325883822803E-2
539 69 4.202939501396656E-2
539 96 1.7362197934228184E-2
539 120 2.5833468080710353E-2
539 169 2.2261028442717698E-2
539 170 4.154973101066646E-2
539 187 5.156184691737486E-2
539 313 2.1487965477261253E-2
539 498 4.237760558836802E-2
539 500 2.0754893459485026E-2
539 540 1.831563888873418E-2
540 52 2.232936023594988E-2
540 214 2.1796697511706074E-2
540 333 2.1694027057178673E-2
540 334 2.278184386334068E-2
540 335 1.8671534869197495E-2
540 337 2.444263961186538E-2
540 449 1.924590350912575E-2
540 485 1.814712616279908E-2
540 499 3.290809011636143E-2
540 539 1.831563888873418E-2
541 35 1.831563888873418E-2
541 106 2.112427717290227E-2
541 107 2.484953110911653E-2
541 143 4.2949965916607595E-2
541 170 1.8234924920251375E-2
541 216 2.548235621741176E-1
541 217 3.452050285092392E-1
541 405 2.1296057065671514E-2
541 512 1.9775559559643725E-2
541 513 2.203619553139583E-2
542 53 1.831563888873418E-2
542 140 2.7267705654543294E-2
542 141 2.7722705134444456E-2
542 147 7.817224526342194E-2
542 149 1.807350413362005E-1
542 175 1.831563888873418E-2
542 176 1.831563888873418E-2
542 177 2.513938208007961E-1
542 178 1.1234668259456265E-1
542 214 3.6523064800983544E-2
542 215 5.141166398839725E-2
542 336 1.797515075499536E-2
542 337 2.5622534875771458E-2
542 450 2.7245922845623938E-2
543 147 2.9938880853454808E-2
543 149 2.248469282036882E-2
543 152 2.054446206874721E-1
543 153 1.7454199503296924E-1
543 173 3.071067940653654E-1
543 174 2.720429042027174E-1
543 177 1.7295464975450345E-2
543 178 2.140155299933922E-2
543 214 2.0100713461145073E-2
543 215 1.831563888873418E-2
543 450 2.018095301622761E-2
543 506 6.89993193654468E-2
543 544 2.3992095207644987E-1
544 34 2.0202470929628114E-2
544 35 1.836810448219403E-2
544 45 1.831563888873418E-2
544 69 1.8241491428220985E-2
544 147 3.155891813639065E-2
544 149 2.497305625641648E-2
544 152 1.1089156139154611E-1
544 153 6.719082299113587E-2
544 173 9.537240308144733E-2
544 174 1.828863870143697E-1
544 322 2.674293670222287E-2
544 498 2.031556044096114E-2
544 501 2.3654974467930495E-2
544 506 2.8140776721578686E-1
544 543 2.3992095207644987E-1
545 74 2.515745840640888E-2
545 76 3.554375977550874E-2
545 77 1.3816620240815484E-2
545 266 2.2509645200619044E-2
545 272 2.579474590361204E-2
545 274 1.638675424225197E-2
545 285 1.6779504386912215E-2
545 287 1.831563888873418E-2
545 289 1.508328777152527E-2
545 406 3.5847380848622976E-2
545 428 3.2056846232368555E-2
545 440 5.2336066696253805E-2
545 444 2.2669743736709574E-2
545 445 3.857573865095203E-2
545 483 1.831563888873418E-2
545 546 3.575738980783104E-1
546 74 2.1318925954437275E-2
546 76 2.0016415388952E-2
546 289 1.6098224629093737E-2
546 406 2.623834110153853E-2
546 428 2.1521713345464252E-2
546 440 3.1308689715080135E-2
546 444 1.831563888873418E-2
546 445 3.243918769405613E-2
546 483 3.00412151120408E-2
546 545 3.575738980783104E-1
547 75 1.8837299383394623E-2
547 92 2.4580346135366894E-2
547 93 2.0000867421514155E-2
547 312 2.0533818662160072E-2
547 397 2.0573180540296457E-2
547 398 1.8911583461086283E-2
547 405 1.7198059857164157E-2
547 407 1.9307843164552915E-2
547 441 1.831563888873418E-2
547 522 2.032544937306602E-2
548 35 1.7451950205328012E-2
548 45 1.880648771050235E-2
548 51 2.9165804097837818E-2
548 69 1.9397854830007603E-2
548 85 2.2465575695359574E-2
548 87 1.831563888873418E-2
548 88 1.3494457066106181E-2
548 89 3.530800418054378E-2
548 91 6.268768227436126E-2
548 92 1.8424807686459547E-2
548 93 1.8216667648773773E-2
548 116 2.1146819193792542E-2
548 170 1.9976916665917284E-2
548 220 1.830292285378971E-2
548 233 5.062435950084625E-2
548 234 2.961497751478278E-2
548 312 1.772476495648741E-2
548 313 1.4167890375958125E-1
548 338 2.1012685769380268E-2
548 339 1.831563888873418E-2
548 381 2.678119318798629E-1
548 382 2.20699140164983E-1
548 397 3.490246616897503E-2
548 398 4.8056961803220714E-2
548 399 1.902457691336014E-2
548 433 1.3603144594622266E-2
548 434 1.3015163882126719E-2
548 435 2.4792707914459887E-2
548 498 1.831563888873418E-2
548 554 1.809806777640198E-2
549 71 1.1504536042696643E-1
549 72 1.8951382274366302E-1
549 82 2.6983730200051556E-2
549 83 7.222213777054771E-2
549 107 1.831563888873418E-2
549 108 4.25003316794108E-2
549 295 1.9729247878077883E-2
549 432 3.227140122372325E-2
549 495 2.9955247046866057E-1
549 496 3.374540337965082E-1
549 501 1.7581341472161817E-2
549 507 3.1872048320721776E-2
549 510 8.916577499424991E-2
549 512 3.883587245923819E-2
549 513 4.828076928712498E-2
549 529 1.5978791803546725E-2
549 556 2.9672959349033856E-1
549 557 2.97622521830072E-2
550 25 8.83864139128379E-2
550 44 3.5251508469009665E-2
550 45 1.8012887804368945E-2
550 46 1.1572036276695903E-1
550 70 9.80854219214741E-2
550 73 1.594853821798485E-1
550 78 2.0204672124209785E-2
550 96 2.242972872754049E-2
550 181 1.831563888873418E-2
550 232 4.635424457497819E-2
550 259 2.646429868333259E-2
550 260 1.908528572098392E-1
550 322 2.1432517904105046E-2
550 333 1.8683737138639172E-2
550 334 1.831563888873418E-2
550 413 4.1193502287538535E-2
550 498 1.9871298832449626E-2
550 508 2.3896167382175794E-2
550 509 2.0614379315429393E-2
550 511 6.328802252359349E-2
550 526 2.7278955643771943E-2
550 527 4.699621669457381E-2
550 530 2.467605673806582E-2
550 555 4.964469837467795E-2
551 25 2.6387790787048983E-2
551 26 7.22572351448392E-2
551 44 1.831563888873418E-2
551 70 6.936680024130573E-2
551 73 3.778773399874478E-2
551 260 1.9591316850355648E-2
551 430 9.408581985171618E-2
551 431 1.2059743081844904E-1
551 508 1.073978644877643E-2
551 552 1.0164294275546985E-1
551 558 2.3047339475693034E-2
552 26 1.831563888873418E-2
552 70 6.076648641999683E-2
552 73 5.1827545774363305E-2
552 180 1.8802642005871027E-2
552 182 1.831563888873418E-2
552 232 3.0430067109955813E-2
552 260 5.139308587170864E-2
552 414 2.5261249358338178E-2
552 430 1.831563888873418E-2
552 431 2.0363279020633823E-2
552 511 1.7536232726433513E-2
552 528 4.779888676335178E-2
552 551 1.0164294275546985E-1
552 558 1.3609630044896489E-2
553 34 1.6383577629083088E-2
553 35 2.3114788341227918E-2
553 45 2.3512952596456128E-2
553 69 2.368807976701583E-2
553 120 1.9720386508802465E-2
553 169 1.8567628195406916E-2
553 170 2.352584798380168E-2
553 233 2.0912331455347467E-2
553 313 1.831563888873418E-2
553 498 2.3422286160753678E-2
553 554 2.5527300601724125E-2
554 35 1.831563888873418E-2
554 45 1.8341771307009664E-2
554 69 1.8362443434008585E-2
554 170 1.835851543263906E-2
554 233 1.9108560014131623E-2
554 234 1.874065057348836E-2
554 322 1.89211958989443E-2
554 498 1.8345940352751618E-2
554 548 1.809806777640198E-2
554 553 2.5527300601724125E-2
555 25 1.6022910497842206E-2
555 26 1.4764868589356406E-2
555 44 3.4972984755470234E-2
555 46 1.831563888873418E-2
555 70 2.2399352782381816E-2
555 73 5.8390988687394625E-2
555 260 4.084972301413597E-2
555 413 1.8903905566323025E-2
555 430 1.4651838149532926E-2
555 511 3.061270637060643E-2
555 527 2.1491064807072566E-2
555 550 4.964469837467795E-2
556 71 1.7421700699839068E-1
556 72 2.861464727530916E-1
556 83 4.431965838738174E-2
556 107 1.8162287616877826E-2
556 108 3.221461730597931E-2
556 295 3.065152245234253E-2
556 432 7.412976575954275E-2
556 495 3.404000262032828E-1
556 496 2.73677884257427E-1
556 507 4.060762615798284E-2
556 510 5.065055481497445E-2
556 512 1.831563888873418E-2
556 513 2.2956041675825184E-2
556 529 2.2885795169521217E-2
556 549 2.9672959349033856E-1
556 557 4.306457540861762E-2
557 71 4.9698200482400506E-2
557 72 7.388460608285521E-2
557 82 1.912028081224536E-2
557 83 1.3565892616456554E-2
557 295 1.3681475093257303E-1
557 432 6.866793746516626E-2
557 495 4.220626380341333E-2
557 496 2.502663858656805E-2
557 549 2.97622521830072E-2
557 556 4.306457540861762E-2
558 25 7.322577596291749E-2
558 26 1.3995588485865995E-1
558 70 4.760966685353775E-2
558 73 3.365682983252474E-2
558 184 2.5397487806134635E-2
558 260 1.831563888873418E-2
558 430 1.6039087318481343E-1
558 431 1.8192272667347198E-1
558 551 2.3047339475693034E-2
558 552 1.3609630044896489E-2
559 35 1.9208078673499548E-2
559 45 1.9283097009162795E-2
559 69 1.9304586676847868E-2
559 120 1.875466043157801E-2
559 169 1.831563888873418E-2
559 170 1.9284159193754962E-2
559 225 2.5799319332480374E-2
559 227 2.1930879003719823E-2
559 313 1.8315910033487478E-2
559 352 2.0884947804469825E-2
559 498 1.9265125253321188E-2
559 512 1.791034845101786E-2
560 35 2.5935548928317342E-2
560 45 2.66647210986805E-2
560 69 2.6827278720615008E-2
560 120 2.8284738486804576E-2
560 169 1.831563888873418E-2
560 170 2.6665578348382128E-2
560 221 5.0716825758833246E-2
560 222 5.0850019611348836E-2
560 223 4.000329450961371E-2
560 225 3.701168273200782E-2
560 226 1.440205459801761E-1
560 313 1.9224286107505546E-2
560 343 1.2556878670575933E-1
560 346 1.648110931122298E-2
560 348 5.235491522171283E-2
560 349 9.029324798696867E-2
560 352 2.2661313588310465E-2
560 498 2.6416371661058806E-2
561 23 2.1843629993110743E-2
561 100 1.831563888873418E-2
561 190 2.5320381343871122E-2
561 192 2.1008508446489327E-2
561 193 2.822248295491081E-2
561 246 1.8968605544016755E-2
561 247 1.6957500670129307E-2
561 270 1.916244697249773E-2
561 280 1.9492735289490914E-2
561 394 1.833062261610613E-2
561 538 2.220588873854353E-2
561 562 1.449901723212143E-1
561 564 2.7549059193151332E-2
561 565 2.1131274848655707E-2
562 23 2.641614839131677E-2
562 39 4.939249041247893E-2
562 230 2.5767371945761827E-2
562 246 7.9245964727045E-2
562 247 5.770613806593661E-2
562 267 4.2555261248368614E-2
562 447 2.642572782987284E-2
562 453 2.474081040800883E-2
562 466 2.4725567887050368E-2
562 472 4.994307344952035E-2
562 515 2.037480722037795E-2
562 538 1.831563888873418E-2
562 561 1.449901723212143E-1
562 564 4.969166858648835E-2
562 565 1.5453773546318385E-2
563 28 2.224080908844491E-2
563 134 2.3212783481414388E-2
563 172 3.5677663513793416E-2
563 248 6.338543678934856E-2
563 250 1.7665250560828526E-2
563 256 2.0582905843454458E-2
563 262 3.900870249136565E-2
563 315 3.463817256449595E-2
563 438 1.831563888873418E-2
563 471 2.0645581223888383E-2
564 39 3.7638033024289586E-2
564 135 2.1434323990710075E-2
564 261 1.831563888873418E-2
564 267 7.684832697907704E-2
564 367 1.924788564268748E-2
564 415 2.2769967173275955E-2
564 472 2.762279518420075E-2
564 535 1.6449185412683767E-2
564 561 2.7549059193151332E-2
564 562 4.969166858648835E-2
565 23 2.721970943212704E-2
565 30 2.0728368203981093E-2
565 32 3.0663983090864922E-2
565 94 1.919548256301777E-2
565 101 4.5396998580270055E-2
565 142 2.923655172156301E-2
565 171 3.95429553914675E-2
565 175 4.424666509281451E-2
565 238 3.7279704982130304E-2
565 242 1.799684894453163E-2
565 246 3.4559929037446896E-2
565 247 5.22299064933429E-2
565 252 8.080220211020427E-2
565 253 8.842541755104599E-2
565 255 7.50637814089652E-2
565 268 2.8336513795070337E-2
565 280 1.5336165916610111E-2
565 284 3.444177736266542E-2
565 322 1.831563888873418E-2
565 340 1.9459123942333914E-2
565 370 2.403324329661285E-2
565 391 1.8156568766863584E-2
565 422 1.783932238086758E-2
565 452 2.1868066460547095E-1
565 453 1.0178221124750979E-1
565 466 2.5384391793489024E-2
565 501 4.754429176638194E-2
565 506 1.0207986522068679E-2
565 514 1.588790830487352E-2
565 517 2.5333500042184466E-2
565 518 1.888942865925145E-2
565 534 2.600466160185423E-2
565 537 1.9462623645687938E-1
565 538 1.011555403303699E-1
565 561 2.1131274848655707E-2
565 562 1.5453773546318385E-2
566 9 2.005322233056698E-2
566 10 4.05030803670367E-2
566 15 2.1767928079459296E-2
566 16 2.3423823866843142E-2
566 19 6.024324141202853E-2
566 63 1.831563888873418E-2
566 64 1.346671647141424E-2
566 65 1.831563888873418E-2
566 156 6.432825552529273E-1
566 162 2.8735769905710785E-2
566 302 1.875083880004847E-1
566 303 3.944177072146972E-2
566 489 2.3322729275288528E-1
566 491 8.2285929729323E-2
566 492 1.2286536815069853E-2
566 568 1.3518501427722018E-1
566 569 2.4636813999507265E-1
567 6 6.407366581829169E-2
567 7 4.209567251526198E-2
567 11 4.1236750437035216E-2
567 12 3.0681157844389545E-2
567 14 4.778580792770676E-2
567 18 1.9840661586949825E-2
567 22 3.486011926202967E-2
567 62 1.831563888873418E-2
567 157 1.522720776015054E-1
567 158 7.792578785607984E-2
567 159 1.645105489596858E-2
567 163 1.903730846936208E-2
567 164 2.6022233033149994E-1
567 165 8.002129999141473E-2
567 304 5.529199291861205E-2
567 387 1.2344688955276115E-2
567 388 6.37608633402602E-2
567 490 2.1541294097134667E-1
568 9 2.336218082452874E-2
568 10 3.9645666603344766E-2
568 15 3.9271962167294436E-2
568 16 1.9513416967319958E-1
568 19 3.651553584521498E-2
568 156 5.090844190425595E-2
568 162 1.394468963338984E-1
568 302 1.831563888873418E-2
568 489 2.1833315632467824E-2
568 492 4.052269177406303E-2
568 493 2.3806101588302892E-2
568 566 1.3518501427722018E-1
568 569 2.424584940171862E-1
569 9 1.831563888873418E-2
569 10 3.574105353554624E-2
569 15 2.9470237793457775E-2
569 16 7.207958585552998E-2
569 19 6.752332466649809E-2
569 65 1.831563888873418E-2
569 66 1.2979563081177916E-2
569 156 1.2292305580727428E-1
569 162 1.334072334309117E-1
569 302 4.309619397775458E-2
569 303 2.3495190792495988E-2
569 489 7.479848683870625E-2
569 491 1.9951039088881836E-2
569 492 2.037987408766093E-2
569 493 1.831563888873418E-2
569 566 2.4636813999507265E-1
569 568 2.424584940171862E-1
570 35 1.831563888873418E-2
570 45 1.8874509827710415E-2
570 69 1.912337356090112E-2
570 120 5.5680749503484214E-2
570 121 1.831563888873418E-2
570 167 1.735249408058699E-1
570 170 1.8738662437592517E-2
570 179 1.785844932227304E-2
570 346 2.02699855771838E-1
570 347 1.274085884409542E-1
570 498 1.8585852359497904E-2
570 571 2.005019241294408E-1
571 97 1.4861954149329814E-2
571 98 1.854281576881401E-2
571 120 3.1035019674713723E-2
571 121 2.6173116557750536E-2
571 122 1.831563888873418E-2
571 167 1.04648251022248E-1
571 179 2.8408871299516077E-2
571 345 2.6675525010318037E-2
571 346 1.0398191835002232E-1
571 347 9.463537806623717E-2
571 570 2.005019241294408E-1
