%%MatrixMarket matrix coordinate real general
%
383 383 14542
1 2 1
1 4 1
1 7 1
1 9 1
1 13 1
1 15 1
1 18 1
1 20 1
1 25 1
1 27 1
1 30 1
1 32 1
1 36 1
1 38 1
1 41 1
1 43 1
1 49 1
1 51 1
1 54 1
1 56 1
1 60 1
1 62 1
1 65 1
1 67 1
1 72 1
1 74 1
1 77 1
1 79 1
1 83 1
1 85 1
1 88 1
1 90 1
1 97 1
1 99 1
1 102 1
1 104 1
1 108 1
1 110 1
1 113 1
1 115 1
1 120 1
1 122 1
1 125 1
1 127 1
1 131 1
1 133 1
1 136 1
1 138 1
1 144 1
1 146 1
1 149 1
1 151 1
1 155 1
1 157 1
1 160 1
1 162 1
1 167 1
1 169 1
1 172 1
1 174 1
1 178 1
1 180 1
1 183 1
1 185 1
1 193 1
1 195 1
1 198 1
1 200 1
1 204 1
1 206 1
1 209 1
1 211 1
1 216 1
1 218 1
1 221 1
1 223 1
1 227 1
1 229 1
1 232 1
1 234 1
1 240 1
1 242 1
1 245 1
1 247 1
1 251 1
1 253 1
1 256 1
1 258 1
1 263 1
1 265 1
1 268 1
1 270 1
1 274 1
1 276 1
1 279 1
1 281 1
1 288 1
1 290 1
1 293 1
1 295 1
1 299 1
1 301 1
1 304 1
1 306 1
1 311 1
1 313 1
1 316 1
1 318 1
1 322 1
1 324 1
1 327 1
1 329 1
1 335 1
1 337 1
1 340 1
1 342 1
1 346 1
1 348 1
1 351 1
1 353 1
1 358 1
1 360 1
1 363 1
1 365 1
1 369 1
1 371 1
1 374 1
1 376 1
2 1 1
2 3 1
2 6 1
2 8 1
2 12 1
2 14 1
2 17 1
2 19 1
2 24 1
2 26 1
2 29 1
2 31 1
2 35 1
2 37 1
2 40 1
2 42 1
2 48 1
2 50 1
2 53 1
2 55 1
2 59 1
2 61 1
2 64 1
2 66 1
2 71 1
2 73 1
2 76 1
2 78 1
2 82 1
2 84 1
2 87 1
2 89 1
2 96 1
2 98 1
2 101 1
2 103 1
2 107 1
2 109 1
2 112 1
2 114 1
2 119 1
2 121 1
2 124 1
2 126 1
2 130 1
2 132 1
2 135 1
2 137 1
2 143 1
2 145 1
2 148 1
2 150 1
2 154 1
2 156 1
2 159 1
2 161 1
2 166 1
2 168 1
2 171 1
2 173 1
2 177 1
2 179 1
2 182 1
2 184 1
2 192 1
2 194 1
2 197 1
2 199 1
2 203 1
2 205 1
2 208 1
2 210 1
2 215 1
2 217 1
2 220 1
2 222 1
2 226 1
2 228 1
2 231 1
2 233 1
2 239 1
2 241 1
2 244 1
2 246 1
2 250 1
2 252 1
2 255 1
2 257 1
2 262 1
2 264 1
2 267 1
2 269 1
2 273 1
2 275 1
2 278 1
2 280 1
2 287 1
2 289 1
2 292 1
2 294 1
2 298 1
2 300 1
2 303 1
2 305 1
2 310 1
2 312 1
2 315 1
2 317 1
2 321 1
2 323 1
2 326 1
2 328 1
2 334 1
2 336 1
2 339 1
2 341 1
2 345 1
2 347 1
2 350 1
2 352 1
2 357 1
2 359 1
2 362 1
2 364 1
2 368 1
2 370 1
2 373 1
2 375 1
3 2 1
3 5 1
3 7 1
3 10 1
3 13 1
3 16 1
3 18 1
3 21 1
3 25 1
3 28 1
3 30 1
3 33 1
3 36 1
3 39 1
3 41 1
3 44 1
3 49 1
3 52 1
3 54 1
3 57 1
3 60 1
3 63 1
3 65 1
3 68 1
3 72 1
3 75 1
3 77 1
3 80 1
3 83 1
3 86 1
3 88 1
3 91 1
3 97 1
3 100 1
3 102 1
3 105 1
3 108 1
3 111 1
3 113 1
3 116 1
3 120 1
3 123 1
3 125 1
3 128 1
3 131 1
3 134 1
3 136 1
3 139 1
3 144 1
3 147 1
3 149 1
3 152 1
3 155 1
3 158 1
3 160 1
3 163 1
3 167 1
3 170 1
3 172 1
3 175 1
3 178 1
3 181 1
3 183 1
3 186 1
3 193 1
3 196 1
3 198 1
3 201 1
3 204 1
3 207 1
3 209 1
3 212 1
3 216 1
3 219 1
3 221 1
3 224 1
3 227 1
3 230 1
3 232 1
3 235 1
3 240 1
3 243 1
3 245 1
3 248 1
3 251 1
3 254 1
3 256 1
3 259 1
3 263 1
3 266 1
3 268 1
3 271 1
3 274 1
3 277 1
3 279 1
3 282 1
3 288 1
3 291 1
3 293 1
3 296 1
3 299 1
3 302 1
3 304 1
3 307 1
3 311 1
3 314 1
3 316 1
3 319 1
3 322 1
3 325 1
3 327 1
3 330 1
3 335 1
3 338 1
3 340 1
3 343 1
3 346 1
3 349 1
3 351 1
3 354 1
3 358 1
3 361 1
3 363 1
3 366 1
3 369 1
3 372 1
3 374 1
3 377 1
4 1 1
4 5 1
4 6 1
4 10 1
4 12 1
4 16 1
4 17 1
4 21 1
4 24 1
4 28 1
4 29 1
4 33 1
4 35 1
4 39 1
4 40 1
4 44 1
4 48 1
4 52 1
4 53 1
4 57 1
4 59 1
4 63 1
4 64 1
4 68 1
4 71 1
4 75 1
4 76 1
4 80 1
4 82 1
4 86 1
4 87 1
4 91 1
4 96 1
4 100 1
4 101 1
4 105 1
4 107 1
4 111 1
4 112 1
4 116 1
4 119 1
4 123 1
4 124 1
4 128 1
4 130 1
4 134 1
4 135 1
4 139 1
4 143 1
4 147 1
4 148 1
4 152 1
4 154 1
4 158 1
4 159 1
4 163 1
4 166 1
4 170 1
4 171 1
4 175 1
4 177 1
4 181 1
4 182 1
4 186 1
4 192 1
4 196 1
4 197 1
4 201 1
4 203 1
4 207 1
4 208 1
4 212 1
4 215 1
4 219 1
4 220 1
4 224 1
4 226 1
4 230 1
4 231 1
4 235 1
4 239 1
4 243 1
4 244 1
4 248 1
4 250 1
4 254 1
4 255 1
4 259 1
4 262 1
4 266 1
4 267 1
4 271 1
4 273 1
4 277 1
4 278 1
4 282 1
4 287 1
4 291 1
4 292 1
4 296 1
4 298 1
4 302 1
4 303 1
4 307 1
4 310 1
4 314 1
4 315 1
4 319 1
4 321 1
4 325 1
4 326 1
4 330 1
4 334 1
4 338 1
4 339 1
4 343 1
4 345 1
4 349 1
4 350 1
4 354 1
4 357 1
4 361 1
4 362 1
4 366 1
4 368 1
4 372 1
4 373 1
4 377 1
5 3 1
5 4 1
5 8 1
5 9 1
5 14 1
5 15 1
5 19 1
5 20 1
5 26 1
5 27 1
5 31 1
5 32 1
5 37 1
5 38 1
5 42 1
5 43 1
5 50 1
5 51 1
5 55 1
5 56 1
5 61 1
5 62 1
5 66 1
5 67 1
5 73 1
5 74 1
5 78 1
5 79 1
5 84 1
5 85 1
5 89 1
5 90 1
5 98 1
5 99 1
5 103 1
5 104 1
5 109 1
5 110 1
5 114 1
5 115 1
5 121 1
5 122 1
5 126 1
5 127 1
5 132 1
5 133 1
5 137 1
5 138 1
5 145 1
5 146 1
5 150 1
5 151 1
5 156 1
5 157 1
5 161 1
5 162 1
5 168 1
5 169 1
5 173 1
5 174 1
5 179 1
5 180 1
5 184 1
5 185 1
5 194 1
5 195 1
5 199 1
5 200 1
5 205 1
5 206 1
5 210 1
5 211 1
5 217 1
5 218 1
5 222 1
5 223 1
5 228 1
5 229 1
5 233 1
5 234 1
5 241 1
5 242 1
5 246 1
5 247 1
5 252 1
5 253 1
5 257 1
5 258 1
5 264 1
5 265 1
5 269 1
5 270 1
5 275 1
5 276 1
5 280 1
5 281 1
5 289 1
5 290 1
5 294 1
5 295 1
5 300 1
5 301 1
5 305 1
5 306 1
5 312 1
5 313 1
5 317 1
5 318 1
5 323 1
5 324 1
5 328 1
5 329 1
5 336 1
5 337 1
5 341 1
5 342 1
5 347 1
5 348 1
5 352 1
5 353 1
5 359 1
5 360 1
5 364 1
5 365 1
5 370 1
5 371 1
5 375 1
5 376 1
6 2 1
6 4 1
6 11 1
6 13 1
6 15 1
6 22 1
6 25 1
6 27 1
6 34 1
6 36 1
6 38 1
6 45 1
6 49 1
6 51 1
6 58 1
6 60 1
6 62 1
6 69 1
6 72 1
6 74 1
6 81 1
6 83 1
6 85 1
6 92 1
6 97 1
6 99 1
6 106 1
6 108 1
6 110 1
6 117 1
6 120 1
6 122 1
6 129 1
6 131 1
6 133 1
6 140 1
6 144 1
6 146 1
6 153 1
6 155 1
6 157 1
6 164 1
6 167 1
6 169 1
6 176 1
6 178 1
6 180 1
6 187 1
6 193 1
6 195 1
6 202 1
6 204 1
6 206 1
6 213 1
6 216 1
6 218 1
6 225 1
6 227 1
6 229 1
6 236 1
6 240 1
6 242 1
6 249 1
6 251 1
6 253 1
6 260 1
6 263 1
6 265 1
6 272 1
6 274 1
6 276 1
6 283 1
6 288 1
6 290 1
6 297 1
6 299 1
6 301 1
6 308 1
6 311 1
6 313 1
6 320 1
6 322 1
6 324 1
6 331 1
6 335 1
6 337 1
6 344 1
6 346 1
6 348 1
6 355 1
6 358 1
6 360 1
6 367 1
6 369 1
6 371 1
6 378 1
7 1 1
7 3 1
7 11 1
7 12 1
7 14 1
7 22 1
7 24 1
7 26 1
7 34 1
7 35 1
7 37 1
7 45 1
7 48 1
7 50 1
7 58 1
7 59 1
7 61 1
7 69 1
7 71 1
7 73 1
7 81 1
7 82 1
7 84 1
7 92 1
7 96 1
7 98 1
7 106 1
7 107 1
7 109 1
7 117 1
7 119 1
7 121 1
7 129 1
7 130 1
7 132 1
7 140 1
7 143 1
7 145 1
7 153 1
7 154 1
7 156 1
7 164 1
7 166 1
7 168 1
7 176 1
7 177 1
7 179 1
7 187 1
7 192 1
7 194 1
7 202 1
7 203 1
7 205 1
7 213 1
7 215 1
7 217 1
7 225 1
7 226 1
7 228 1
7 236 1
7 239 1
7 241 1
7 249 1
7 250 1
7 252 1
7 260 1
7 262 1
7 264 1
7 272 1
7 273 1
7 275 1
7 283 1
7 287 1
7 289 1
7 297 1
7 298 1
7 300 1
7 308 1
7 310 1
7 312 1
7 320 1
7 321 1
7 323 1
7 331 1
7 334 1
7 336 1
7 344 1
7 345 1
7 347 1
7 355 1
7 357 1
7 359 1
7 367 1
7 368 1
7 370 1
7 378 1
8 2 1
8 5 1
8 11 1
8 13 1
8 16 1
8 22 1
8 25 1
8 28 1
8 34 1
8 36 1
8 39 1
8 45 1
8 49 1
8 52 1
8 58 1
8 60 1
8 63 1
8 69 1
8 72 1
8 75 1
8 81 1
8 83 1
8 86 1
8 92 1
8 97 1
8 100 1
8 106 1
8 108 1
8 111 1
8 117 1
8 120 1
8 123 1
8 129 1
8 131 1
8 134 1
8 140 1
8 144 1
8 147 1
8 153 1
8 155 1
8 158 1
8 164 1
8 167 1
8 170 1
8 176 1
8 178 1
8 181 1
8 187 1
8 193 1
8 196 1
8 202 1
8 204 1
8 207 1
8 213 1
8 216 1
8 219 1
8 225 1
8 227 1
8 230 1
8 236 1
8 240 1
8 243 1
8 249 1
8 251 1
8 254 1
8 260 1
8 263 1
8 266 1
8 272 1
8 274 1
8 277 1
8 283 1
8 288 1
8 291 1
8 297 1
8 299 1
8 302 1
8 308 1
8 311 1
8 314 1
8 320 1
8 322 1
8 325 1
8 331 1
8 335 1
8 338 1
8 344 1
8 346 1
8 349 1
8 355 1
8 358 1
8 361 1
8 367 1
8 369 1
8 372 1
8 378 1
9 1 1
9 5 1
9 11 1
9 12 1
9 16 1
9 22 1
9 24 1
9 28 1
9 34 1
9 35 1
9 39 1
9 45 1
9 48 1
9 52 1
9 58 1
9 59 1
9 63 1
9 69 1
9 71 1
9 75 1
9 81 1
9 82 1
9 86 1
9 92 1
9 96 1
9 100 1
9 106 1
9 107 1
9 111 1
9 117 1
9 119 1
9 123 1
9 129 1
9 130 1
9 134 1
9 140 1
9 143 1
9 147 1
9 153 1
9 154 1
9 158 1
9 164 1
9 166 1
9 170 1
9 176 1
9 177 1
9 181 1
9 187 1
9 192 1
9 196 1
9 202 1
9 203 1
9 207 1
9 213 1
9 215 1
9 219 1
9 225 1
9 226 1
9 230 1
9 236 1
9 239 1
9 243 1
9 249 1
9 250 1
9 254 1
9 260 1
9 262 1
9 266 1
9 272 1
9 273 1
9 277 1
9 283 1
9 287 1
9 291 1
9 297 1
9 298 1
9 302 1
9 308 1
9 310 1
9 314 1
9 320 1
9 321 1
9 325 1
9 331 1
9 334 1
9 338 1
9 344 1
9 345 1
9 349 1
9 355 1
9 357 1
9 361 1
9 367 1
9 368 1
9 372 1
9 378 1
10 3 1
10 4 1
10 11 1
10 14 1
10 15 1
10 22 1
10 26 1
10 27 1
10 34 1
10 37 1
10 38 1
10 45 1
10 50 1
10 51 1
10 58 1
10 61 1
10 62 1
10 69 1
10 73 1
10 74 1
10 81 1
10 84 1
10 85 1
10 92 1
10 98 1
10 99 1
10 106 1
10 109 1
10 110 1
10 117 1
10 121 1
10 122 1
10 129 1
10 132 1
10 133 1
10 140 1
10 145 1
10 146 1
10 153 1
10 156 1
10 157 1
10 164 1
10 168 1
10 169 1
10 176 1
10 179 1
10 180 1
10 187 1
10 194 1
10 195 1
10 202 1
10 205 1
10 206 1
10 213 1
10 217 1
10 218 1
10 225 1
10 228 1
10 229 1
10 236 1
10 241 1
10 242 1
10 249 1
10 252 1
10 253 1
10 260 1
10 264 1
10 265 1
10 272 1
10 275 1
10 276 1
10 283 1
10 289 1
10 290 1
10 297 1
10 300 1
10 301 1
10 308 1
10 312 1
10 313 1
10 320 1
10 323 1
10 324 1
10 331 1
10 336 1
10 337 1
10 344 1
10 347 1
10 348 1
10 355 1
10 359 1
10 360 1
10 367 1
10 370 1
10 371 1
10 378 1
11 6 1
11 7 1
11 8 1
11 9 1
11 10 1
11 17 1
11 18 1
11 19 1
11 20 1
11 21 1
11 29 1
11 30 1
11 31 1
11 32 1
11 33 1
11 40 1
11 41 1
11 42 1
11 43 1
11 44 1
11 53 1
11 54 1
11 55 1
11 56 1
11 57 1
11 64 1
11 65 1
11 66 1
11 67 1
11 68 1
11 76 1
11 77 1
11 78 1
11 79 1
11 80 1
11 87 1
11 88 1
11 89 1
11 90 1
11 91 1
11 101 1
11 102 1
11 103 1
11 104 1
11 105 1
11 112 1
11 113 1
11 114 1
11 115 1
11 116 1
11 124 1
11 125 1
11 126 1
11 127 1
11 128 1
11 135 1
11 136 1
11 137 1
11 138 1
11 139 1
11 148 1
11 149 1
11 150 1
11 151 1
11 152 1
11 159 1
11 160 1
11 161 1
11 162 1
11 163 1
11 171 1
11 172 1
11 173 1
11 174 1
11 175 1
11 182 1
11 183 1
11 184 1
11 185 1
11 186 1
11 197 1
11 198 1
11 199 1
11 200 1
11 201 1
11 208 1
11 209 1
11 210 1
11 211 1
11 212 1
11 220 1
11 221 1
11 222 1
11 223 1
11 224 1
11 231 1
11 232 1
11 233 1
11 234 1
11 235 1
11 244 1
11 245 1
11 246 1
11 247 1
11 248 1
11 255 1
11 256 1
11 257 1
11 258 1
11 259 1
11 267 1
11 268 1
11 269 1
11 270 1
11 271 1
11 278 1
11 279 1
11 280 1
11 281 1
11 282 1
11 292 1
11 293 1
11 294 1
11 295 1
11 296 1
11 303 1
11 304 1
11 305 1
11 306 1
11 307 1
11 315 1
11 316 1
11 317 1
11 318 1
11 319 1
11 326 1
11 327 1
11 328 1
11 329 1
11 330 1
11 339 1
11 340 1
11 341 1
11 342 1
11 343 1
11 350 1
11 351 1
11 352 1
11 353 1
11 354 1
11 362 1
11 363 1
11 364 1
11 365 1
11 366 1
11 373 1
11 374 1
11 375 1
11 376 1
11 377 1
12 2 1
12 4 1
12 7 1
12 9 1
12 23 1
12 25 1
12 27 1
12 30 1
12 32 1
12 46 1
12 49 1
12 51 1
12 54 1
12 56 1
12 70 1
12 72 1
12 74 1
12 77 1
12 79 1
12 93 1
12 97 1
12 99 1
12 102 1
12 104 1
12 118 1
12 120 1
12 122 1
12 125 1
12 127 1
12 141 1
12 144 1
12 146 1
12 149 1
12 151 1
12 165 1
12 167 1
12 169 1
12 172 1
12 174 1
12 188 1
12 193 1
12 195 1
12 198 1
12 200 1
12 214 1
12 216 1
12 218 1
12 221 1
12 223 1
12 237 1
12 240 1
12 242 1
12 245 1
12 247 1
12 261 1
12 263 1
12 265 1
12 268 1
12 270 1
12 284 1
12 288 1
12 290 1
12 293 1
12 295 1
12 309 1
12 311 1
12 313 1
12 316 1
12 318 1
12 332 1
12 335 1
12 337 1
12 340 1
12 342 1
12 356 1
12 358 1
12 360 1
12 363 1
12 365 1
12 379 1
13 1 1
13 3 1
13 6 1
13 8 1
13 23 1
13 24 1
13 26 1
13 29 1
13 31 1
13 46 1
13 48 1
13 50 1
13 53 1
13 55 1
13 70 1
13 71 1
13 73 1
13 76 1
13 78 1
13 93 1
13 96 1
13 98 1
13 101 1
13 103 1
13 118 1
13 119 1
13 121 1
13 124 1
13 126 1
13 141 1
13 143 1
13 145 1
13 148 1
13 150 1
13 165 1
13 166 1
13 168 1
13 171 1
13 173 1
13 188 1
13 192 1
13 194 1
13 197 1
13 199 1
13 214 1
13 215 1
13 217 1
13 220 1
13 222 1
13 237 1
13 239 1
13 241 1
13 244 1
13 246 1
13 261 1
13 262 1
13 264 1
13 267 1
13 269 1
13 284 1
13 287 1
13 289 1
13 292 1
13 294 1
13 309 1
13 310 1
13 312 1
13 315 1
13 317 1
13 332 1
13 334 1
13 336 1
13 339 1
13 341 1
13 356 1
13 357 1
13 359 1
13 362 1
13 364 1
13 379 1
14 2 1
14 5 1
14 7 1
14 10 1
14 23 1
14 25 1
14 28 1
14 30 1
14 33 1
14 46 1
14 49 1
14 52 1
14 54 1
14 57 1
14 70 1
14 72 1
14 75 1
14 77 1
14 80 1
14 93 1
14 97 1
14 100 1
14 102 1
14 105 1
14 118 1
14 120 1
14 123 1
14 125 1
14 128 1
14 141 1
14 144 1
14 147 1
14 149 1
14 152 1
14 165 1
14 167 1
14 170 1
14 172 1
14 175 1
14 188 1
14 193 1
14 196 1
14 198 1
14 201 1
14 214 1
14 216 1
14 219 1
14 221 1
14 224 1
14 237 1
14 240 1
14 243 1
14 245 1
14 248 1
14 261 1
14 263 1
14 266 1
14 268 1
14 271 1
14 284 1
14 288 1
14 291 1
14 293 1
14 296 1
14 309 1
14 311 1
14 314 1
14 316 1
14 319 1
14 332 1
14 335 1
14 338 1
14 340 1
14 343 1
14 356 1
14 358 1
14 361 1
14 363 1
14 366 1
14 379 1
15 1 1
15 5 1
15 6 1
15 10 1
15 23 1
15 24 1
15 28 1
15 29 1
15 33 1
15 46 1
15 48 1
15 52 1
15 53 1
15 57 1
15 70 1
15 71 1
15 75 1
15 76 1
15 80 1
15 93 1
15 96 1
15 100 1
15 101 1
15 105 1
15 118 1
15 119 1
15 123 1
15 124 1
15 128 1
15 141 1
15 143 1
15 147 1
15 148 1
15 152 1
15 165 1
15 166 1
15 170 1
15 171 1
15 175 1
15 188 1
15 192 1
15 196 1
15 197 1
15 201 1
15 214 1
15 215 1
15 219 1
15 220 1
15 224 1
15 237 1
15 239 1
15 243 1
15 244 1
15 248 1
15 261 1
15 262 1
15 266 1
15 267 1
15 271 1
15 284 1
15 287 1
15 291 1
15 292 1
15 296 1
15 309 1
15 310 1
15 314 1
15 315 1
15 319 1
15 332 1
15 334 1
15 338 1
15 339 1
15 343 1
15 356 1
15 357 1
15 361 1
15 362 1
15 366 1
15 379 1
16 3 1
16 4 1
16 8 1
16 9 1
16 23 1
16 26 1
16 27 1
16 31 1
16 32 1
16 46 1
16 50 1
16 51 1
16 55 1
16 56 1
16 70 1
16 73 1
16 74 1
16 78 1
16 79 1
16 93 1
16 98 1
16 99 1
16 103 1
16 104 1
16 118 1
16 121 1
16 122 1
16 126 1
16 127 1
16 141 1
16 145 1
16 146 1
16 150 1
16 151 1
16 165 1
16 168 1
16 169 1
16 173 1
16 174 1
16 188 1
16 194 1
16 195 1
16 199 1
16 200 1
16 214 1
16 217 1
16 218 1
16 222 1
16 223 1
16 237 1
16 241 1
16 242 1
16 246 1
16 247 1
16 261 1
16 264 1
16 265 1
16 269 1
16 270 1
16 284 1
16 289 1
16 290 1
16 294 1
16 295 1
16 309 1
16 312 1
16 313 1
16 317 1
16 318 1
16 332 1
16 336 1
16 337 1
16 341 1
16 342 1
16 356 1
16 359 1
16 360 1
16 364 1
16 365 1
16 379 1
17 2 1
17 4 1
17 11 1
17 23 1
17 25 1
17 27 1
17 34 1
17 46 1
17 49 1
17 51 1
17 58 1
17 70 1
17 72 1
17 74 1
17 81 1
17 93 1
17 97 1
17 99 1
17 106 1
17 118 1
17 120 1
17 122 1
17 129 1
17 141 1
17 144 1
17 146 1
17 153 1
17 165 1
17 167 1
17 169 1
17 176 1
17 188 1
17 193 1
17 195 1
17 202 1
17 214 1
17 216 1
17 218 1
17 225 1
17 237 1
17 240 1
17 242 1
17 249 1
17 261 1
17 263 1
17 265 1
17 272 1
17 284 1
17 288 1
17 290 1
17 297 1
17 309 1
17 311 1
17 313 1
17 320 1
17 332 1
17 335 1
17 337 1
17 344 1
17 356 1
17 358 1
17 360 1
17 367 1
17 379 1
18 1 1
18 3 1
18 11 1
18 23 1
18 24 1
18 26 1
18 34 1
18 46 1
18 48 1
18 50 1
18 58 1
18 70 1
18 71 1
18 73 1
18 81 1
18 93 1
18 96 1
18 98 1
18 106 1
18 118 1
18 119 1
18 121 1
18 129 1
18 141 1
18 143 1
18 145 1
18 153 1
18 165 1
18 166 1
18 168 1
18 176 1
18 188 1
18 192 1
18 194 1
18 202 1
18 214 1
18 215 1
18 217 1
18 225 1
18 237 1
18 239 1
18 241 1
18 249 1
18 261 1
18 262 1
18 264 1
18 272 1
18 284 1
18 287 1
18 289 1
18 297 1
18 309 1
18 310 1
18 312 1
18 320 1
18 332 1
18 334 1
18 336 1
18 344 1
18 356 1
18 357 1
18 359 1
18 367 1
18 379 1
19 2 1
19 5 1
19 11 1
19 23 1
19 25 1
19 28 1
19 34 1
19 46 1
19 49 1
19 52 1
19 58 1
19 70 1
19 72 1
19 75 1
19 81 1
19 93 1
19 97 1
19 100 1
19 106 1
19 118 1
19 120 1
19 123 1
19 129 1
19 141 1
19 144 1
19 147 1
19 153 1
19 165 1
19 167 1
19 170 1
19 176 1
19 188 1
19 193 1
19 196 1
19 202 1
19 214 1
19 216 1
19 219 1
19 225 1
19 237 1
19 240 1
19 243 1
19 249 1
19 261 1
19 263 1
19 266 1
19 272 1
19 284 1
19 288 1
19 291 1
19 297 1
19 309 1
19 311 1
19 314 1
19 320 1
19 332 1
19 335 1
19 338 1
19 344 1
19 356 1
19 358 1
19 361 1
19 367 1
19 379 1
20 1 1
20 5 1
20 11 1
20 23 1
20 24 1
20 28 1
20 34 1
20 46 1
20 48 1
20 52 1
20 58 1
20 70 1
20 71 1
20 75 1
20 81 1
20 93 1
20 96 1
20 100 1
20 106 1
20 118 1
20 119 1
20 123 1
20 129 1
20 141 1
20 143 1
20 147 1
20 153 1
20 165 1
20 166 1
20 170 1
20 176 1
20 188 1
20 192 1
20 196 1
20 202 1
20 214 1
20 215 1
20 219 1
20 225 1
20 237 1
20 239 1
20 243 1
20 249 1
20 261 1
20 262 1
20 266 1
20 272 1
20 284 1
20 287 1
20 291 1
20 297 1
20 309 1
20 310 1
20 314 1
20 320 1
20 332 1
20 334 1
20 338 1
20 344 1
20 356 1
20 357 1
20 361 1
20 367 1
20 379 1
21 3 1
21 4 1
21 11 1
21 23 1
21 26 1
21 27 1
21 34 1
21 46 1
21 50 1
21 51 1
21 58 1
21 70 1
21 73 1
21 74 1
21 81 1
21 93 1
21 98 1
21 99 1
21 106 1
21 118 1
21 121 1
21 122 1
21 129 1
21 141 1
21 145 1
21 146 1
21 153 1
21 165 1
21 168 1
21 169 1
21 176 1
21 188 1
21 194 1
21 195 1
21 202 1
21 214 1
21 217 1
21 218 1
21 225 1
21 237 1
21 241 1
21 242 1
21 249 1
21 261 1
21 264 1
21 265 1
21 272 1
21 284 1
21 289 1
21 290 1
21 297 1
21 309 1
21 312 1
21 313 1
21 320 1
21 332 1
21 336 1
21 337 1
21 344 1
21 356 1
21 359 1
21 360 1
21 367 1
21 379 1
22 6 1
22 7 1
22 8 1
22 9 1
22 10 1
22 23 1
22 29 1
22 30 1
22 31 1
22 32 1
22 33 1
22 46 1
22 53 1
22 54 1
22 55 1
22 56 1
22 57 1
22 70 1
22 76 1
22 77 1
22 78 1
22 79 1
22 80 1
22 93 1
22 101 1
22 102 1
22 103 1
22 104 1
22 105 1
22 118 1
22 124 1
22 125 1
22 126 1
22 127 1
22 128 1
22 141 1
22 148 1
22 149 1
22 150 1
22 151 1
22 152 1
22 165 1
22 171 1
22 172 1
22 173 1
22 174 1
22 175 1
22 188 1
22 197 1
22 198 1
22 199 1
22 200 1
22 201 1
22 214 1
22 220 1
22 221 1
22 222 1
22 223 1
22 224 1
22 237 1
22 244 1
22 245 1
22 246 1
22 247 1
22 248 1
22 261 1
22 267 1
22 268 1
22 269 1
22 270 1
22 271 1
22 284 1
22 292 1
22 293 1
22 294 1
22 295 1
22 296 1
22 309 1
22 315 1
22 316 1
22 317 1
22 318 1
22 319 1
22 332 1
22 339 1
22 340 1
22 341 1
22 342 1
22 343 1
22 356 1
22 362 1
22 363 1
22 364 1
22 365 1
22 366 1
22 379 1
23 12 1
23 13 1
23 14 1
23 15 1
23 16 1
23 17 1
23 18 1
23 19 1
23 20 1
23 21 1
23 22 1
23 35 1
23 36 1
23 37 1
23 38 1
23 39 1
23 40 1
23 41 1
23 42 1
23 43 1
23 44 1
23 45 1
23 59 1
23 60 1
23 61 1
23 62 1
23 63 1
23 64 1
23 65 1
23 66 1
23 67 1
23 68 1
23 69 1
23 82 1
23 83 1
23 84 1
23 85 1
23 86 1
23 87 1
23 88 1
23 89 1
23 90 1
23 91 1
23 92 1
23 107 1
23 108 1
23 109 1
23 110 1
23 111 1
23 112 1
23 113 1
23 114 1
23 115 1
23 116 1
23 117 1
23 130 1
23 131 1
23 132 1
23 133 1
23 134 1
23 135 1
23 136 1
23 137 1
23 138 1
23 139 1
23 140 1
23 154 1
23 155 1
23 156 1
23 157 1
23 158 1
23 159 1
23 160 1
23 161 1
23 162 1
23 163 1
23 164 1
23 177 1
23 178 1
23 179 1
23 180 1
23 181 1
23 182 1
23 183 1
23 184 1
23 185 1
23 186 1
23 187 1
23 203 1
23 204 1
23 205 1
23 206 1
23 207 1
23 208 1
23 209 1
23 210 1
23 211 1
23 212 1
23 213 1
23 226 1
23 227 1
23 228 1
23 229 1
23 230 1
23 231 1
23 232 1
23 233 1
23 234 1
23 235 1
23 236 1
23 250 1
23 251 1
23 252 1
23 253 1
23 254 1
23 255 1
23 256 1
23 257 1
23 258 1
23 259 1
23 260 1
23 273 1
23 274 1
23 275 1
23 276 1
23 277 1
23 278 1
23 279 1
23 280 1
23 281 1
23 282 1
23 283 1
23 298 1
23 299 1
23 300 1
23 301 1
23 302 1
23 303 1
23 304 1
23 305 1
23 306 1
23 307 1
23 308 1
23 321 1
23 322 1
23 323 1
23 324 1
23 325 1
23 326 1
23 327 1
23 328 1
23 329 1
23 330 1
23 331 1
23 345 1
23 346 1
23 347 1
23 348 1
23 349 1
23 350 1
23 351 1
23 352 1
23 353 1
23 354 1
23 355 1
23 368 1
23 369 1
23 370 1
23 371 1
23 372 1
23 373 1
23 374 1
23 375 1
23 376 1
23 377 1
23 378 1
24 2 1
24 4 1
24 7 1
24 9 1
24 13 1
24 15 1
24 18 1
24 20 1
24 47 1
24 49 1
24 51 1
24 54 1
24 56 1
24 60 1
24 62 1
24 65 1
24 67 1
24 94 1
24 97 1
24 99 1
24 102 1
24 104 1
24 108 1
24 110 1
24 113 1
24 115 1
24 142 1
24 144 1
24 146 1
24 149 1
24 151 1
24 155 1
24 157 1
24 160 1
24 162 1
24 189 1
24 193 1
24 195 1
24 198 1
24 200 1
24 204 1
24 206 1
24 209 1
24 211 1
24 238 1
24 240 1
24 242 1
24 245 1
24 247 1
24 251 1
24 253 1
24 256 1
24 258 1
24 285 1
24 288 1
24 290 1
24 293 1
24 295 1
24 299 1
24 301 1
24 304 1
24 306 1
24 333 1
24 335 1
24 337 1
24 340 1
24 342 1
24 346 1
24 348 1
24 351 1
24 353 1
24 380 1
25 1 1
25 3 1
25 6 1
25 8 1
25 12 1
25 14 1
25 17 1
25 19 1
25 47 1
25 48 1
25 50 1
25 53 1
25 55 1
25 59 1
25 61 1
25 64 1
25 66 1
25 94 1
25 96 1
25 98 1
25 101 1
25 103 1
25 107 1
25 109 1
25 112 1
25 114 1
25 142 1
25 143 1
25 145 1
25 148 1
25 150 1
25 154 1
25 156 1
25 159 1
25 161 1
25 189 1
25 192 1
25 194 1
25 197 1
25 199 1
25 203 1
25 205 1
25 208 1
25 210 1
25 238 1
25 239 1
25 241 1
25 244 1
25 246 1
25 250 1
25 252 1
25 255 1
25 257 1
25 285 1
25 287 1
25 289 1
25 292 1
25 294 1
25 298 1
25 300 1
25 303 1
25 305 1
25 333 1
25 334 1
25 336 1
25 339 1
25 341 1
25 345 1
25 347 1
25 350 1
25 352 1
25 380 1
26 2 1
26 5 1
26 7 1
26 10 1
26 13 1
26 16 1
26 18 1
26 21 1
26 47 1
26 49 1
26 52 1
26 54 1
26 57 1
26 60 1
26 63 1
26 65 1
26 68 1
26 94 1
26 97 1
26 100 1
26 102 1
26 105 1
26 108 1
26 111 1
26 113 1
26 116 1
26 142 1
26 144 1
26 147 1
26 149 1
26 152 1
26 155 1
26 158 1
26 160 1
26 163 1
26 189 1
26 193 1
26 196 1
26 198 1
26 201 1
26 204 1
26 207 1
26 209 1
26 212 1
26 238 1
26 240 1
26 243 1
26 245 1
26 248 1
26 251 1
26 254 1
26 256 1
26 259 1
26 285 1
26 288 1
26 291 1
26 293 1
26 296 1
26 299 1
26 302 1
26 304 1
26 307 1
26 333 1
26 335 1
26 338 1
26 340 1
26 343 1
26 346 1
26 349 1
26 351 1
26 354 1
26 380 1
27 1 1
27 5 1
27 6 1
27 10 1
27 12 1
27 16 1
27 17 1
27 21 1
27 47 1
27 48 1
27 52 1
27 53 1
27 57 1
27 59 1
27 63 1
27 64 1
27 68 1
27 94 1
27 96 1
27 100 1
27 101 1
27 105 1
27 107 1
27 111 1
27 112 1
27 116 1
27 142 1
27 143 1
27 147 1
27 148 1
27 152 1
27 154 1
27 158 1
27 159 1
27 163 1
27 189 1
27 192 1
27 196 1
27 197 1
27 201 1
27 203 1
27 207 1
27 208 1
27 212 1
27 238 1
27 239 1
27 243 1
27 244 1
27 248 1
27 250 1
27 254 1
27 255 1
27 259 1
27 285 1
27 287 1
27 291 1
27 292 1
27 296 1
27 298 1
27 302 1
27 303 1
27 307 1
27 333 1
27 334 1
27 338 1
27 339 1
27 343 1
27 345 1
27 349 1
27 350 1
27 354 1
27 380 1
28 3 1
28 4 1
28 8 1
28 9 1
28 14 1
28 15 1
28 19 1
28 20 1
28 47 1
28 50 1
28 51 1
28 55 1
28 56 1
28 61 1
28 62 1
28 66 1
28 67 1
28 94 1
28 98 1
28 99 1
28 103 1
28 104 1
28 109 1
28 110 1
28 114 1
28 115 1
28 142 1
28 145 1
28 146 1
28 150 1
28 151 1
28 156 1
28 157 1
28 161 1
28 162 1
28 189 1
28 194 1
28 195 1
28 199 1
28 200 1
28 205 1
28 206 1
28 210 1
28 211 1
28 238 1
28 241 1
28 242 1
28 246 1
28 247 1
28 252 1
28 253 1
28 257 1
28 258 1
28 285 1
28 289 1
28 290 1
28 294 1
28 295 1
28 300 1
28 301 1
28 305 1
28 306 1
28 333 1
28 336 1
28 337 1
28 341 1
28 342 1
28 347 1
28 348 1
28 352 1
28 353 1
28 380 1
29 2 1
29 4 1
29 11 1
29 13 1
29 15 1
29 22 1
29 47 1
29 49 1
29 51 1
29 58 1
29 60 1
29 62 1
29 69 1
29 94 1
29 97 1
29 99 1
29 106 1
29 108 1
29 110 1
29 117 1
29 142 1
29 144 1
29 146 1
29 153 1
29 155 1
29 157 1
29 164 1
29 189 1
29 193 1
29 195 1
29 202 1
29 204 1
29 206 1
29 213 1
29 238 1
29 240 1
29 242 1
29 249 1
29 251 1
29 253 1
29 260 1
29 285 1
29 288 1
29 290 1
29 297 1
29 299 1
29 301 1
29 308 1
29 333 1
29 335 1
29 337 1
29 344 1
29 346 1
29 348 1
29 355 1
29 380 1
30 1 1
30 3 1
30 11 1
30 12 1
30 14 1
30 22 1
30 47 1
30 48 1
30 50 1
30 58 1
30 59 1
30 61 1
30 69 1
30 94 1
30 96 1
30 98 1
30 106 1
30 107 1
30 109 1
30 117 1
30 142 1
30 143 1
30 145 1
30 153 1
30 154 1
30 156 1
30 164 1
30 189 1
30 192 1
30 194 1
30 202 1
30 203 1
30 205 1
30 213 1
30 238 1
30 239 1
30 241 1
30 249 1
30 250 1
30 252 1
30 260 1
30 285 1
30 287 1
30 289 1
30 297 1
30 298 1
30 300 1
30 308 1
30 333 1
30 334 1
30 336 1
30 344 1
30 345 1
30 347 1
30 355 1
30 380 1
31 2 1
31 5 1
31 11 1
31 13 1
31 16 1
31 22 1
31 47 1
31 49 1
31 52 1
31 58 1
31 60 1
31 63 1
31 69 1
31 94 1
31 97 1
31 100 1
31 106 1
31 108 1
31 111 1
31 117 1
31 142 1
31 144 1
31 147 1
31 153 1
31 155 1
31 158 1
31 164 1
31 189 1
31 193 1
31 196 1
31 202 1
31 204 1
31 207 1
31 213 1
31 238 1
31 240 1
31 243 1
31 249 1
31 251 1
31 254 1
31 260 1
31 285 1
31 288 1
31 291 1
31 297 1
31 299 1
31 302 1
31 308 1
31 333 1
31 335 1
31 338 1
31 344 1
31 346 1
31 349 1
31 355 1
31 380 1
32 1 1
32 5 1
32 11 1
32 12 1
32 16 1
32 22 1
32 47 1
32 48 1
32 52 1
32 58 1
32 59 1
32 63 1
32 69 1
32 94 1
32 96 1
32 100 1
32 106 1
32 107 1
32 111 1
32 117 1
32 142 1
32 143 1
32 147 1
32 153 1
32 154 1
32 158 1
32 164 1
32 189 1
32 192 1
32 196 1
32 202 1
32 203 1
32 207 1
32 213 1
32 238 1
32 239 1
32 243 1
32 249 1
32 250 1
32 254 1
32 260 1
32 285 1
32 287 1
32 291 1
32 297 1
32 298 1
32 302 1
32 308 1
32 333 1
32 334 1
32 338 1
32 344 1
32 345 1
32 349 1
32 355 1
32 380 1
33 3 1
33 4 1
33 11 1
33 14 1
33 15 1
33 22 1
33 47 1
33 50 1
33 51 1
33 58 1
33 61 1
33 62 1
33 69 1
33 94 1
33 98 1
33 99 1
33 106 1
33 109 1
33 110 1
33 117 1
33 142 1
33 145 1
33 146 1
33 153 1
33 156 1
33 157 1
33 164 1
33 189 1
33 194 1
33 195 1
33 202 1
33 205 1
33 206 1
33 213 1
33 238 1
33 241 1
33 242 1
33 249 1
33 252 1
33 253 1
33 260 1
33 285 1
33 289 1
33 290 1
33 297 1
33 300 1
33 301 1
33 308 1
33 333 1
33 336 1
33 337 1
33 344 1
33 347 1
33 348 1
33 355 1
33 380 1
34 6 1
34 7 1
34 8 1
34 9 1
34 10 1
34 17 1
34 18 1
34 19 1
34 20 1
34 21 1
34 47 1
34 53 1
34 54 1
34 55 1
34 56 1
34 57 1
34 64 1
34 65 1
34 66 1
34 67 1
34 68 1
34 94 1
34 101 1
34 102 1
34 103 1
34 104 1
34 105 1
34 112 1
34 113 1
34 114 1
34 115 1
34 116 1
34 142 1
34 148 1
34 149 1
34 150 1
34 151 1
34 152 1
34 159 1
34 160 1
34 161 1
34 162 1
34 163 1
34 189 1
34 197 1
34 198 1
34 199 1
34 200 1
34 201 1
34 208 1
34 209 1
34 210 1
34 211 1
34 212 1
34 238 1
34 244 1
34 245 1
34 246 1
34 247 1
34 248 1
34 255 1
34 256 1
34 257 1
34 258 1
34 259 1
34 285 1
34 292 1
34 293 1
34 294 1
34 295 1
34 296 1
34 303 1
34 304 1
34 305 1
34 306 1
34 307 1
34 333 1
34 339 1
34 340 1
34 341 1
34 342 1
34 343 1
34 350 1
34 351 1
34 352 1
34 353 1
34 354 1
34 380 1
35 2 1
35 4 1
35 7 1
35 9 1
35 23 1
35 47 1
35 49 1
35 51 1
35 54 1
35 56 1
35 70 1
35 94 1
35 97 1
35 99 1
35 102 1
35 104 1
35 118 1
35 142 1
35 144 1
35 146 1
35 149 1
35 151 1
35 165 1
35 189 1
35 193 1
35 195 1
35 198 1
35 200 1
35 214 1
35 238 1
35 240 1
35 242 1
35 245 1
35 247 1
35 261 1
35 285 1
35 288 1
35 290 1
35 293 1
35 295 1
35 309 1
35 333 1
35 335 1
35 337 1
35 340 1
35 342 1
35 356 1
35 380 1
36 1 1
36 3 1
36 6 1
36 8 1
36 23 1
36 47 1
36 48 1
36 50 1
36 53 1
36 55 1
36 70 1
36 94 1
36 96 1
36 98 1
36 101 1
36 103 1
36 118 1
36 142 1
36 143 1
36 145 1
36 148 1
36 150 1
36 165 1
36 189 1
36 192 1
36 194 1
36 197 1
36 199 1
36 214 1
36 238 1
36 239 1
36 241 1
36 244 1
36 246 1
36 261 1
36 285 1
36 287 1
36 289 1
36 292 1
36 294 1
36 309 1
36 333 1
36 334 1
36 336 1
36 339 1
36 341 1
36 356 1
36 380 1
37 2 1
37 5 1
37 7 1
37 10 1
37 23 1
37 47 1
37 49 1
37 52 1
37 54 1
37 57 1
37 70 1
37 94 1
37 97 1
37 100 1
37 102 1
37 105 1
37 118 1
37 142 1
37 144 1
37 147 1
37 149 1
37 152 1
37 165 1
37 189 1
37 193 1
37 196 1
37 198 1
37 201 1
37 214 1
37 238 1
37 240 1
37 243 1
37 245 1
37 248 1
37 261 1
37 285 1
37 288 1
37 291 1
37 293 1
37 296 1
37 309 1
37 333 1
37 335 1
37 338 1
37 340 1
37 343 1
37 356 1
37 380 1
38 1 1
38 5 1
38 6 1
38 10 1
38 23 1
38 47 1
38 48 1
38 52 1
38 53 1
38 57 1
38 70 1
38 94 1
38 96 1
38 100 1
38 101 1
38 105 1
38 118 1
38 142 1
38 143 1
38 147 1
38 148 1
38 152 1
38 165 1
38 189 1
38 192 1
38 196 1
38 197 1
38 201 1
38 214 1
38 238 1
38 239 1
38 243 1
38 244 1
38 248 1
38 261 1
38 285 1
38 287 1
38 291 1
38 292 1
38 296 1
38 309 1
38 333 1
38 334 1
38 338 1
38 339 1
38 343 1
38 356 1
38 380 1
39 3 1
39 4 1
39 8 1
39 9 1
39 23 1
39 47 1
39 50 1
39 51 1
39 55 1
39 56 1
39 70 1
39 94 1
39 98 1
39 99 1
39 103 1
39 104 1
39 118 1
39 142 1
39 145 1
39 146 1
39 150 1
39 151 1
39 165 1
39 189 1
39 194 1
39 195 1
39 199 1
39 200 1
39 214 1
39 238 1
39 241 1
39 242 1
39 246 1
39 247 1
39 261 1
39 285 1
39 289 1
39 290 1
39 294 1
39 295 1
39 309 1
39 333 1
39 336 1
39 337 1
39 341 1
39 342 1
39 356 1
39 380 1
40 2 1
40 4 1
40 11 1
40 23 1
40 47 1
40 49 1
40 51 1
40 58 1
40 70 1
40 94 1
40 97 1
40 99 1
40 106 1
40 118 1
40 142 1
40 144 1
40 146 1
40 153 1
40 165 1
40 189 1
40 193 1
40 195 1
40 202 1
40 214 1
40 238 1
40 240 1
40 242 1
40 249 1
40 261 1
40 285 1
40 288 1
40 290 1
40 297 1
40 309 1
40 333 1
40 335 1
40 337 1
40 344 1
40 356 1
40 380 1
41 1 1
41 3 1
41 11 1
41 23 1
41 47 1
41 48 1
41 50 1
41 58 1
41 70 1
41 94 1
41 96 1
41 98 1
41 106 1
41 118 1
41 142 1
41 143 1
41 145 1
41 153 1
41 165 1
41 189 1
41 192 1
41 194 1
41 202 1
41 214 1
41 238 1
41 239 1
41 241 1
41 249 1
41 261 1
41 285 1
41 287 1
41 289 1
41 297 1
41 309 1
41 333 1
41 334 1
41 336 1
41 344 1
41 356 1
41 380 1
42 2 1
42 5 1
42 11 1
42 23 1
42 47 1
42 49 1
42 52 1
42 58 1
42 70 1
42 94 1
42 97 1
42 100 1
42 106 1
42 118 1
42 142 1
42 144 1
42 147 1
42 153 1
42 165 1
42 189 1
42 193 1
42 196 1
42 202 1
42 214 1
42 238 1
42 240 1
42 243 1
42 249 1
42 261 1
42 285 1
42 288 1
42 291 1
42 297 1
42 309 1
42 333 1
42 335 1
42 338 1
42 344 1
42 356 1
42 380 1
43 1 1
43 5 1
43 11 1
43 23 1
43 47 1
43 48 1
43 52 1
43 58 1
43 70 1
43 94 1
43 96 1
43 100 1
43 106 1
43 118 1
43 142 1
43 143 1
43 147 1
43 153 1
43 165 1
43 189 1
43 192 1
43 196 1
43 202 1
43 214 1
43 238 1
43 239 1
43 243 1
43 249 1
43 261 1
43 285 1
43 287 1
43 291 1
43 297 1
43 309 1
43 333 1
43 334 1
43 338 1
43 344 1
43 356 1
43 380 1
44 3 1
44 4 1
44 11 1
44 23 1
44 47 1
44 50 1
44 51 1
44 58 1
44 70 1
44 94 1
44 98 1
44 99 1
44 106 1
44 118 1
44 142 1
44 145 1
44 146 1
44 153 1
44 165 1
44 189 1
44 194 1
44 195 1
44 202 1
44 214 1
44 238 1
44 241 1
44 242 1
44 249 1
44 261 1
44 285 1
44 289 1
44 290 1
44 297 1
44 309 1
44 333 1
44 336 1
44 337 1
44 344 1
44 356 1
44 380 1
45 6 1
45 7 1
45 8 1
45 9 1
45 10 1
45 23 1
45 47 1
45 53 1
45 54 1
45 55 1
45 56 1
45 57 1
45 70 1
45 94 1
45 101 1
45 102 1
45 103 1
45 104 1
45 105 1
45 118 1
45 142 1
45 148 1
45 149 1
45 150 1
45 151 1
45 152 1
45 165 1
45 189 1
45 197 1
45 198 1
45 199 1
45 200 1
45 201 1
45 214 1
45 238 1
45 244 1
45 245 1
45 246 1
45 247 1
45 248 1
45 261 1
45 285 1
45 292 1
45 293 1
45 294 1
45 295 1
45 296 1
45 309 1
45 333 1
45 339 1
45 340 1
45 341 1
45 342 1
45 343 1
45 356 1
45 380 1
46 12 1
46 13 1
46 14 1
46 15 1
46 16 1
46 17 1
46 18 1
46 19 1
46 20 1
46 21 1
46 22 1
46 47 1
46 59 1
46 60 1
46 61 1
46 62 1
46 63 1
46 64 1
46 65 1
46 66 1
46 67 1
46 68 1
46 69 1
46 94 1
46 107 1
46 108 1
46 109 1
46 110 1
46 111 1
46 112 1
46 113 1
46 114 1
46 115 1
46 116 1
46 117 1
46 142 1
46 154 1
46 155 1
46 156 1
46 157 1
46 158 1
46 159 1
46 160 1
46 161 1
46 162 1
46 163 1
46 164 1
46 189 1
46 203 1
46 204 1
46 205 1
46 206 1
46 207 1
46 208 1
46 209 1
46 210 1
46 211 1
46 212 1
46 213 1
46 238 1
46 250 1
46 251 1
46 252 1
46 253 1
46 254 1
46 255 1
46 256 1
46 257 1
46 258 1
46 259 1
46 260 1
46 285 1
46 298 1
46 299 1
46 300 1
46 301 1
46 302 1
46 303 1
46 304 1
46 305 1
46 306 1
46 307 1
46 308 1
46 333 1
46 345 1
46 346 1
46 347 1
46 348 1
46 349 1
46 350 1
46 351 1
46 352 1
46 353 1
46 354 1
46 355 1
46 380 1
47 24 1
47 25 1
47 26 1
47 27 1
47 28 1
47 29 1
47 30 1
47 31 1
47 32 1
47 33 1
47 34 1
47 35 1
47 36 1
47 37 1
47 38 1
47 39 1
47 40 1
47 41 1
47 42 1
47 43 1
47 44 1
47 45 1
47 46 1
47 71 1
47 72 1
47 73 1
47 74 1
47 75 1
47 76 1
47 77 1
47 78 1
47 79 1
47 80 1
47 81 1
47 82 1
47 83 1
47 84 1
47 85 1
47 86 1
47 87 1
47 88 1
47 89 1
47 90 1
47 91 1
47 92 1
47 93 1
47 119 1
47 120 1
47 121 1
47 122 1
47 123 1
47 124 1
47 125 1
47 126 1
47 127 1
47 128 1
47 129 1
47 130 1
47 131 1
47 132 1
47 133 1
47 134 1
47 135 1
47 136 1
47 137 1
47 138 1
47 139 1
47 140 1
47 141 1
47 166 1
47 167 1
47 168 1
47 169 1
47 170 1
47 171 1
47 172 1
47 173 1
47 174 1
47 175 1
47 176 1
47 177 1
47 178 1
47 179 1
47 180 1
47 181 1
47 182 1
47 183 1
47 184 1
47 185 1
47 186 1
47 187 1
47 188 1
47 215 1
47 216 1
47 217 1
47 218 1
47 219 1
47 220 1
47 221 1
47 222 1
47 223 1
47 224 1
47 225 1
47 226 1
47 227 1
47 228 1
47 229 1
47 230 1
47 231 1
47 232 1
47 233 1
47 234 1
47 235 1
47 236 1
47 237 1
47 262 1
47 263 1
47 264 1
47 265 1
47 266 1
47 267 1
47 268 1
47 269 1
47 270 1
47 271 1
47 272 1
47 273 1
47 274 1
47 275 1
47 276 1
47 277 1
47 278 1
47 279 1
47 280 1
47 281 1
47 282 1
47 283 1
47 284 1
47 310 1
47 311 1
47 312 1
47 313 1
47 314 1
47 315 1
47 316 1
47 317 1
47 318 1
47 319 1
47 320 1
47 321 1
47 322 1
47 323 1
47 324 1
47 325 1
47 326 1
47 327 1
47 328 1
47 329 1
47 330 1
47 331 1
47 332 1
47 357 1
47 358 1
47 359 1
47 360 1
47 361 1
47 362 1
47 363 1
47 364 1
47 365 1
47 366 1
47 367 1
47 368 1
47 369 1
47 370 1
47 371 1
47 372 1
47 373 1
47 374 1
47 375 1
47 376 1
47 377 1
47 378 1
47 379 1
48 2 1
48 4 1
48 7 1
48 9 1
48 13 1
48 15 1
48 18 1
48 20 1
48 25 1
48 27 1
48 30 1
48 32 1
48 36 1
48 38 1
48 41 1
48 43 1
48 95 1
48 97 1
48 99 1
48 102 1
48 104 1
48 108 1
48 110 1
48 113 1
48 115 1
48 120 1
48 122 1
48 125 1
48 127 1
48 131 1
48 133 1
48 136 1
48 138 1
48 190 1
48 193 1
48 195 1
48 198 1
48 200 1
48 204 1
48 206 1
48 209 1
48 211 1
48 216 1
48 218 1
48 221 1
48 223 1
48 227 1
48 229 1
48 232 1
48 234 1
48 286 1
48 288 1
48 290 1
48 293 1
48 295 1
48 299 1
48 301 1
48 304 1
48 306 1
48 311 1
48 313 1
48 316 1
48 318 1
48 322 1
48 324 1
48 327 1
48 329 1
48 381 1
49 1 1
49 3 1
49 6 1
49 8 1
49 12 1
49 14 1
49 17 1
49 19 1
49 24 1
49 26 1
49 29 1
49 31 1
49 35 1
49 37 1
49 40 1
49 42 1
49 95 1
49 96 1
49 98 1
49 101 1
49 103 1
49 107 1
49 109 1
49 112 1
49 114 1
49 119 1
49 121 1
49 124 1
49 126 1
49 130 1
49 132 1
49 135 1
49 137 1
49 190 1
49 192 1
49 194 1
49 197 1
49 199 1
49 203 1
49 205 1
49 208 1
49 210 1
49 215 1
49 217 1
49 220 1
49 222 1
49 226 1
49 228 1
49 231 1
49 233 1
49 286 1
49 287 1
49 289 1
49 292 1
49 294 1
49 298 1
49 300 1
49 303 1
49 305 1
49 310 1
49 312 1
49 315 1
49 317 1
49 321 1
49 323 1
49 326 1
49 328 1
49 381 1
50 2 1
50 5 1
50 7 1
50 10 1
50 13 1
50 16 1
50 18 1
50 21 1
50 25 1
50 28 1
50 30 1
50 33 1
50 36 1
50 39 1
50 41 1
50 44 1
50 95 1
50 97 1
50 100 1
50 102 1
50 105 1
50 108 1
50 111 1
50 113 1
50 116 1
50 120 1
50 123 1
50 125 1
50 128 1
50 131 1
50 134 1
50 136 1
50 139 1
50 190 1
50 193 1
50 196 1
50 198 1
50 201 1
50 204 1
50 207 1
50 209 1
50 212 1
50 216 1
50 219 1
50 221 1
50 224 1
50 227 1
50 230 1
50 232 1
50 235 1
50 286 1
50 288 1
50 291 1
50 293 1
50 296 1
50 299 1
50 302 1
50 304 1
50 307 1
50 311 1
50 314 1
50 316 1
50 319 1
50 322 1
50 325 1
50 327 1
50 330 1
50 381 1
51 1 1
51 5 1
51 6 1
51 10 1
51 12 1
51 16 1
51 17 1
51 21 1
51 24 1
51 28 1
51 29 1
51 33 1
51 35 1
51 39 1
51 40 1
51 44 1
51 95 1
51 96 1
51 100 1
51 101 1
51 105 1
51 107 1
51 111 1
51 112 1
51 116 1
51 119 1
51 123 1
51 124 1
51 128 1
51 130 1
51 134 1
51 135 1
51 139 1
51 190 1
51 192 1
51 196 1
51 197 1
51 201 1
51 203 1
51 207 1
51 208 1
51 212 1
51 215 1
51 219 1
51 220 1
51 224 1
51 226 1
51 230 1
51 231 1
51 235 1
51 286 1
51 287 1
51 291 1
51 292 1
51 296 1
51 298 1
51 302 1
51 303 1
51 307 1
51 310 1
51 314 1
51 315 1
51 319 1
51 321 1
51 325 1
51 326 1
51 330 1
51 381 1
52 3 1
52 4 1
52 8 1
52 9 1
52 14 1
52 15 1
52 19 1
52 20 1
52 26 1
52 27 1
52 31 1
52 32 1
52 37 1
52 38 1
52 42 1
52 43 1
52 95 1
52 98 1
52 99 1
52 103 1
52 104 1
52 109 1
52 110 1
52 114 1
52 115 1
52 121 1
52 122 1
52 126 1
52 127 1
52 132 1
52 133 1
52 137 1
52 138 1
52 190 1
52 194 1
52 195 1
52 199 1
52 200 1
52 205 1
52 206 1
52 210 1
52 211 1
52 217 1
52 218 1
52 222 1
52 223 1
52 228 1
52 229 1
52 233 1
52 234 1
52 286 1
52 289 1
52 290 1
52 294 1
52 295 1
52 300 1
52 301 1
52 305 1
52 306 1
52 312 1
52 313 1
52 317 1
52 318 1
52 323 1
52 324 1
52 328 1
52 329 1
52 381 1
53 2 1
53 4 1
53 11 1
53 13 1
53 15 1
53 22 1
53 25 1
53 27 1
53 34 1
53 36 1
53 38 1
53 45 1
53 95 1
53 97 1
53 99 1
53 106 1
53 108 1
53 110 1
53 117 1
53 120 1
53 122 1
53 129 1
53 131 1
53 133 1
53 140 1
53 190 1
53 193 1
53 195 1
53 202 1
53 204 1
53 206 1
53 213 1
53 216 1
53 218 1
53 225 1
53 227 1
53 229 1
53 236 1
53 286 1
53 288 1
53 290 1
53 297 1
53 299 1
53 301 1
53 308 1
53 311 1
53 313 1
53 320 1
53 322 1
53 324 1
53 331 1
53 381 1
54 1 1
54 3 1
54 11 1
54 12 1
54 14 1
54 22 1
54 24 1
54 26 1
54 34 1
54 35 1
54 37 1
54 45 1
54 95 1
54 96 1
54 98 1
54 106 1
54 107 1
54 109 1
54 117 1
54 119 1
54 121 1
54 129 1
54 130 1
54 132 1
54 140 1
54 190 1
54 192 1
54 194 1
54 202 1
54 203 1
54 205 1
54 213 1
54 215 1
54 217 1
54 225 1
54 226 1
54 228 1
54 236 1
54 286 1
54 287 1
54 289 1
54 297 1
54 298 1
54 300 1
54 308 1
54 310 1
54 312 1
54 320 1
54 321 1
54 323 1
54 331 1
54 381 1
55 2 1
55 5 1
55 11 1
55 13 1
55 16 1
55 22 1
55 25 1
55 28 1
55 34 1
55 36 1
55 39 1
55 45 1
55 95 1
55 97 1
55 100 1
55 106 1
55 108 1
55 111 1
55 117 1
55 120 1
55 123 1
55 129 1
55 131 1
55 134 1
55 140 1
55 190 1
55 193 1
55 196 1
55 202 1
55 204 1
55 207 1
55 213 1
55 216 1
55 219 1
55 225 1
55 227 1
55 230 1
55 236 1
55 286 1
55 288 1
55 291 1
55 297 1
55 299 1
55 302 1
55 308 1
55 311 1
55 314 1
55 320 1
55 322 1
55 325 1
55 331 1
55 381 1
56 1 1
56 5 1
56 11 1
56 12 1
56 16 1
56 22 1
56 24 1
56 28 1
56 34 1
56 35 1
56 39 1
56 45 1
56 95 1
56 96 1
56 100 1
56 106 1
56 107 1
56 111 1
56 117 1
56 119 1
56 123 1
56 129 1
56 130 1
56 134 1
56 140 1
56 190 1
56 192 1
56 196 1
56 202 1
56 203 1
56 207 1
56 213 1
56 215 1
56 219 1
56 225 1
56 226 1
56 230 1
56 236 1
56 286 1
56 287 1
56 291 1
56 297 1
56 298 1
56 302 1
56 308 1
56 310 1
56 314 1
56 320 1
56 321 1
56 325 1
56 331 1
56 381 1
57 3 1
57 4 1
57 11 1
57 14 1
57 15 1
57 22 1
57 26 1
57 27 1
57 34 1
57 37 1
57 38 1
57 45 1
57 95 1
57 98 1
57 99 1
57 106 1
57 109 1
57 110 1
57 117 1
57 121 1
57 122 1
57 129 1
57 132 1
57 133 1
57 140 1
57 190 1
57 194 1
57 195 1
57 202 1
57 205 1
57 206 1
57 213 1
57 217 1
57 218 1
57 225 1
57 228 1
57 229 1
57 236 1
57 286 1
57 289 1
57 290 1
57 297 1
57 300 1
57 301 1
57 308 1
57 312 1
57 313 1
57 320 1
57 323 1
57 324 1
57 331 1
57 381 1
58 6 1
58 7 1
58 8 1
58 9 1
58 10 1
58 17 1
58 18 1
58 19 1
58 20 1
58 21 1
58 29 1
58 30 1
58 31 1
58 32 1
58 33 1
58 40 1
58 41 1
58 42 1
58 43 1
58 44 1
58 95 1
58 101 1
58 102 1
58 103 1
58 104 1
58 105 1
58 112 1
58 113 1
58 114 1
58 115 1
58 116 1
58 124 1
58 125 1
58 126 1
58 127 1
58 128 1
58 135 1
58 136 1
58 137 1
58 138 1
58 139 1
58 190 1
58 197 1
58 198 1
58 199 1
58 200 1
58 201 1
58 208 1
58 209 1
58 210 1
58 211 1
58 212 1
58 220 1
58 221 1
58 222 1
58 223 1
58 224 1
58 231 1
58 232 1
58 233 1
58 234 1
58 235 1
58 286 1
58 292 1
58 293 1
58 294 1
58 295 1
58 296 1
58 303 1
58 304 1
58 305 1
58 306 1
58 307 1
58 315 1
58 316 1
58 317 1
58 318 1
58 319 1
58 326 1
58 327 1
58 328 1
58 329 1
58 330 1
58 381 1
59 2 1
59 4 1
59 7 1
59 9 1
59 23 1
59 25 1
59 27 1
59 30 1
59 32 1
59 46 1
59 95 1
59 97 1
59 99 1
59 102 1
59 104 1
59 118 1
59 120 1
59 122 1
59 125 1
59 127 1
59 141 1
59 190 1
59 193 1
59 195 1
59 198 1
59 200 1
59 214 1
59 216 1
59 218 1
59 221 1
59 223 1
59 237 1
59 286 1
59 288 1
59 290 1
59 293 1
59 295 1
59 309 1
59 311 1
59 313 1
59 316 1
59 318 1
59 332 1
59 381 1
60 1 1
60 3 1
60 6 1
60 8 1
60 23 1
60 24 1
60 26 1
60 29 1
60 31 1
60 46 1
60 95 1
60 96 1
60 98 1
60 101 1
60 103 1
60 118 1
60 119 1
60 121 1
60 124 1
60 126 1
60 141 1
60 190 1
60 192 1
60 194 1
60 197 1
60 199 1
60 214 1
60 215 1
60 217 1
60 220 1
60 222 1
60 237 1
60 286 1
60 287 1
60 289 1
60 292 1
60 294 1
60 309 1
60 310 1
60 312 1
60 315 1
60 317 1
60 332 1
60 381 1
61 2 1
61 5 1
61 7 1
61 10 1
61 23 1
61 25 1
61 28 1
61 30 1
61 33 1
61 46 1
61 95 1
61 97 1
61 100 1
61 102 1
61 105 1
61 118 1
61 120 1
61 123 1
61 125 1
61 128 1
61 141 1
61 190 1
61 193 1
61 196 1
61 198 1
61 201 1
61 214 1
61 216 1
61 219 1
61 221 1
61 224 1
61 237 1
61 286 1
61 288 1
61 291 1
61 293 1
61 296 1
61 309 1
61 311 1
61 314 1
61 316 1
61 319 1
61 332 1
61 381 1
62 1 1
62 5 1
62 6 1
62 10 1
62 23 1
62 24 1
62 28 1
62 29 1
62 33 1
62 46 1
62 95 1
62 96 1
62 100 1
62 101 1
62 105 1
62 118 1
62 119 1
62 123 1
62 124 1
62 128 1
62 141 1
62 190 1
62 192 1
62 196 1
62 197 1
62 201 1
62 214 1
62 215 1
62 219 1
62 220 1
62 224 1
62 237 1
62 286 1
62 287 1
62 291 1
62 292 1
62 296 1
62 309 1
62 310 1
62 314 1
62 315 1
62 319 1
62 332 1
62 381 1
63 3 1
63 4 1
63 8 1
63 9 1
63 23 1
63 26 1
63 27 1
63 31 1
63 32 1
63 46 1
63 95 1
63 98 1
63 99 1
63 103 1
63 104 1
63 118 1
63 121 1
63 122 1
63 126 1
63 127 1
63 141 1
63 190 1
63 194 1
63 195 1
63 199 1
63 200 1
63 214 1
63 217 1
63 218 1
63 222 1
63 223 1
63 237 1
63 286 1
63 289 1
63 290 1
63 294 1
63 295 1
63 309 1
63 312 1
63 313 1
63 317 1
63 318 1
63 332 1
63 381 1
64 2 1
64 4 1
64 11 1
64 23 1
64 25 1
64 27 1
64 34 1
64 46 1
64 95 1
64 97 1
64 99 1
64 106 1
64 118 1
64 120 1
64 122 1
64 129 1
64 141 1
64 190 1
64 193 1
64 195 1
64 202 1
64 214 1
64 216 1
64 218 1
64 225 1
64 237 1
64 286 1
64 288 1
64 290 1
64 297 1
64 309 1
64 311 1
64 313 1
64 320 1
64 332 1
64 381 1
65 1 1
65 3 1
65 11 1
65 23 1
65 24 1
65 26 1
65 34 1
65 46 1
65 95 1
65 96 1
65 98 1
65 106 1
65 118 1
65 119 1
65 121 1
65 129 1
65 141 1
65 190 1
65 192 1
65 194 1
65 202 1
65 214 1
65 215 1
65 217 1
65 225 1
65 237 1
65 286 1
65 287 1
65 289 1
65 297 1
65 309 1
65 310 1
65 312 1
65 320 1
65 332 1
65 381 1
66 2 1
66 5 1
66 11 1
66 23 1
66 25 1
66 28 1
66 34 1
66 46 1
66 95 1
66 97 1
66 100 1
66 106 1
66 118 1
66 120 1
66 123 1
66 129 1
66 141 1
66 190 1
66 193 1
66 196 1
66 202 1
66 214 1
66 216 1
66 219 1
66 225 1
66 237 1
66 286 1
66 288 1
66 291 1
66 297 1
66 309 1
66 311 1
66 314 1
66 320 1
66 332 1
66 381 1
67 1 1
67 5 1
67 11 1
67 23 1
67 24 1
67 28 1
67 34 1
67 46 1
67 95 1
67 96 1
67 100 1
67 106 1
67 118 1
67 119 1
67 123 1
67 129 1
67 141 1
67 190 1
67 192 1
67 196 1
67 202 1
67 214 1
67 215 1
67 219 1
67 225 1
67 237 1
67 286 1
67 287 1
67 291 1
67 297 1
67 309 1
67 310 1
67 314 1
67 320 1
67 332 1
67 381 1
68 3 1
68 4 1
68 11 1
68 23 1
68 26 1
68 27 1
68 34 1
68 46 1
68 95 1
68 98 1
68 99 1
68 106 1
68 118 1
68 121 1
68 122 1
68 129 1
68 141 1
68 190 1
68 194 1
68 195 1
68 202 1
68 214 1
68 217 1
68 218 1
68 225 1
68 237 1
68 286 1
68 289 1
68 290 1
68 297 1
68 309 1
68 312 1
68 313 1
68 320 1
68 332 1
68 381 1
69 6 1
69 7 1
69 8 1
69 9 1
69 10 1
69 23 1
69 29 1
69 30 1
69 31 1
69 32 1
69 33 1
69 46 1
69 95 1
69 101 1
69 102 1
69 103 1
69 104 1
69 105 1
69 118 1
69 124 1
69 125 1
69 126 1
69 127 1
69 128 1
69 141 1
69 190 1
69 197 1
69 198 1
69 199 1
69 200 1
69 201 1
69 214 1
69 220 1
69 221 1
69 222 1
69 223 1
69 224 1
69 237 1
69 286 1
69 292 1
69 293 1
69 294 1
69 295 1
69 296 1
69 309 1
69 315 1
69 316 1
69 317 1
69 318 1
69 319 1
69 332 1
69 381 1
70 12 1
70 13 1
70 14 1
70 15 1
70 16 1
70 17 1
70 18 1
70 19 1
70 20 1
70 21 1
70 22 1
70 35 1
70 36 1
70 37 1
70 38 1
70 39 1
70 40 1
70 41 1
70 42 1
70 43 1
70 44 1
70 45 1
70 95 1
70 107 1
70 108 1
70 109 1
70 110 1
70 111 1
70 112 1
70 113 1
70 114 1
70 115 1
70 116 1
70 117 1
70 130 1
70 131 1
70 132 1
70 133 1
70 134 1
70 135 1
70 136 1
70 137 1
70 138 1
70 139 1
70 140 1
70 190 1
70 203 1
70 204 1
70 205 1
70 206 1
70 207 1
70 208 1
70 209 1
70 210 1
70 211 1
70 212 1
70 213 1
70 226 1
70 227 1
70 228 1
70 229 1
70 230 1
70 231 1
70 232 1
70 233 1
70 234 1
70 235 1
70 236 1
70 286 1
70 298 1
70 299 1
70 300 1
70 301 1
70 302 1
70 303 1
70 304 1
70 305 1
70 306 1
70 307 1
70 308 1
70 321 1
70 322 1
70 323 1
70 324 1
70 325 1
70 326 1
70 327 1
70 328 1
70 329 1
70 330 1
70 331 1
70 381 1
71 2 1
71 4 1
71 7 1
71 9 1
71 13 1
71 15 1
71 18 1
71 20 1
71 47 1
71 95 1
71 97 1
71 99 1
71 102 1
71 104 1
71 108 1
71 110 1
71 113 1
71 115 1
71 142 1
71 190 1
71 193 1
71 195 1
71 198 1
71 200 1
71 204 1
71 206 1
71 209 1
71 211 1
71 238 1
71 286 1
71 288 1
71 290 1
71 293 1
71 295 1
71 299 1
71 301 1
71 304 1
71 306 1
71 333 1
71 381 1
72 1 1
72 3 1
72 6 1
72 8 1
72 12 1
72 14 1
72 17 1
72 19 1
72 47 1
72 95 1
72 96 1
72 98 1
72 101 1
72 103 1
72 107 1
72 109 1
72 112 1
72 114 1
72 142 1
72 190 1
72 192 1
72 194 1
72 197 1
72 199 1
72 203 1
72 205 1
72 208 1
72 210 1
72 238 1
72 286 1
72 287 1
72 289 1
72 292 1
72 294 1
72 298 1
72 300 1
72 303 1
72 305 1
72 333 1
72 381 1
73 2 1
73 5 1
73 7 1
73 10 1
73 13 1
73 16 1
73 18 1
73 21 1
73 47 1
73 95 1
73 97 1
73 100 1
73 102 1
73 105 1
73 108 1
73 111 1
73 113 1
73 116 1
73 142 1
73 190 1
73 193 1
73 196 1
73 198 1
73 201 1
73 204 1
73 207 1
73 209 1
73 212 1
73 238 1
73 286 1
73 288 1
73 291 1
73 293 1
73 296 1
73 299 1
73 302 1
73 304 1
73 307 1
73 333 1
73 381 1
74 1 1
74 5 1
74 6 1
74 10 1
74 12 1
74 16 1
74 17 1
74 21 1
74 47 1
74 95 1
74 96 1
74 100 1
74 101 1
74 105 1
74 107 1
74 111 1
74 112 1
74 116 1
74 142 1
74 190 1
74 192 1
74 196 1
74 197 1
74 201 1
74 203 1
74 207 1
74 208 1
74 212 1
74 238 1
74 286 1
74 287 1
74 291 1
74 292 1
74 296 1
74 298 1
74 302 1
74 303 1
74 307 1
74 333 1
74 381 1
75 3 1
75 4 1
75 8 1
75 9 1
75 14 1
75 15 1
75 19 1
75 20 1
75 47 1
75 95 1
75 98 1
75 99 1
75 103 1
75 104 1
75 109 1
75 110 1
75 114 1
75 115 1
75 142 1
75 190 1
75 194 1
75 195 1
75 199 1
75 200 1
75 205 1
75 206 1
75 210 1
75 211 1
75 238 1
75 286 1
75 289 1
75 290 1
75 294 1
75 295 1
75 300 1
75 301 1
75 305 1
75 306 1
75 333 1
75 381 1
76 2 1
76 4 1
76 11 1
76 13 1
76 15 1
76 22 1
76 47 1
76 95 1
76 97 1
76 99 1
76 106 1
76 108 1
76 110 1
76 117 1
76 142 1
76 190 1
76 193 1
76 195 1
76 202 1
76 204 1
76 206 1
76 213 1
76 238 1
76 286 1
76 288 1
76 290 1
76 297 1
76 299 1
76 301 1
76 308 1
76 333 1
76 381 1
77 1 1
77 3 1
77 11 1
77 12 1
77 14 1
77 22 1
77 47 1
77 95 1
77 96 1
77 98 1
77 106 1
77 107 1
77 109 1
77 117 1
77 142 1
77 190 1
77 192 1
77 194 1
77 202 1
77 203 1
77 205 1
77 213 1
77 238 1
77 286 1
77 287 1
77 289 1
77 297 1
77 298 1
77 300 1
77 308 1
77 333 1
77 381 1
78 2 1
78 5 1
78 11 1
78 13 1
78 16 1
78 22 1
78 47 1
78 95 1
78 97 1
78 100 1
78 106 1
78 108 1
78 111 1
78 117 1
78 142 1
78 190 1
78 193 1
78 196 1
78 202 1
78 204 1
78 207 1
78 213 1
78 238 1
78 286 1
78 288 1
78 291 1
78 297 1
78 299 1
78 302 1
78 308 1
78 333 1
78 381 1
79 1 1
79 5 1
79 11 1
79 12 1
79 16 1
79 22 1
79 47 1
79 95 1
79 96 1
79 100 1
79 106 1
79 107 1
79 111 1
79 117 1
79 142 1
79 190 1
79 192 1
79 196 1
79 202 1
79 203 1
79 207 1
79 213 1
79 238 1
79 286 1
79 287 1
79 291 1
79 297 1
79 298 1
79 302 1
79 308 1
79 333 1
79 381 1
80 3 1
80 4 1
80 11 1
80 14 1
80 15 1
80 22 1
80 47 1
80 95 1
80 98 1
80 99 1
80 106 1
80 109 1
80 110 1
80 117 1
80 142 1
80 190 1
80 194 1
80 195 1
80 202 1
80 205 1
80 206 1
80 213 1
80 238 1
80 286 1
80 289 1
80 290 1
80 297 1
80 300 1
80 301 1
80 308 1
80 333 1
80 381 1
81 6 1
81 7 1
81 8 1
81 9 1
81 10 1
81 17 1
81 18 1
81 19 1
81 20 1
81 21 1
81 47 1
81 95 1
81 101 1
81 102 1
81 103 1
81 104 1
81 105 1
81 112 1
81 113 1
81 114 1
81 115 1
81 116 1
81 142 1
81 190 1
81 197 1
81 198 1
81 199 1
81 200 1
81 201 1
81 208 1
81 209 1
81 210 1
81 211 1
81 212 1
81 238 1
81 286 1
81 292 1
81 293 1
81 294 1
81 295 1
81 296 1
81 303 1
81 304 1
81 305 1
81 306 1
81 307 1
81 333 1
81 381 1
82 2 1
82 4 1
82 7 1
82 9 1
82 23 1
82 47 1
82 95 1
82 97 1
82 99 1
82 102 1
82 104 1
82 118 1
82 142 1
82 190 1
82 193 1
82 195 1
82 198 1
82 200 1
82 214 1
82 238 1
82 286 1
82 288 1
82 290 1
82 293 1
82 295 1
82 309 1
82 333 1
82 381 1
83 1 1
83 3 1
83 6 1
83 8 1
83 23 1
83 47 1
83 95 1
83 96 1
83 98 1
83 101 1
83 103 1
83 118 1
83 142 1
83 190 1
83 192 1
83 194 1
83 197 1
83 199 1
83 214 1
83 238 1
83 286 1
83 287 1
83 289 1
83 292 1
83 294 1
83 309 1
83 333 1
83 381 1
84 2 1
84 5 1
84 7 1
84 10 1
84 23 1
84 47 1
84 95 1
84 97 1
84 100 1
84 102 1
84 105 1
84 118 1
84 142 1
84 190 1
84 193 1
84 196 1
84 198 1
84 201 1
84 214 1
84 238 1
84 286 1
84 288 1
84 291 1
84 293 1
84 296 1
84 309 1
84 333 1
84 381 1
85 1 1
85 5 1
85 6 1
85 10 1
85 23 1
85 47 1
85 95 1
85 96 1
85 100 1
85 101 1
85 105 1
85 118 1
85 142 1
85 190 1
85 192 1
85 196 1
85 197 1
85 201 1
85 214 1
85 238 1
85 286 1
85 287 1
85 291 1
85 292 1
85 296 1
85 309 1
85 333 1
85 381 1
86 3 1
86 4 1
86 8 1
86 9 1
86 23 1
86 47 1
86 95 1
86 98 1
86 99 1
86 103 1
86 104 1
86 118 1
86 142 1
86 190 1
86 194 1
86 195 1
86 199 1
86 200 1
86 214 1
86 238 1
86 286 1
86 289 1
86 290 1
86 294 1
86 295 1
86 309 1
86 333 1
86 381 1
87 2 1
87 4 1
87 11 1
87 23 1
87 47 1
87 95 1
87 97 1
87 99 1
87 106 1
87 118 1
87 142 1
87 190 1
87 193 1
87 195 1
87 202 1
87 214 1
87 238 1
87 286 1
87 288 1
87 290 1
87 297 1
87 309 1
87 333 1
87 381 1
88 1 1
88 3 1
88 11 1
88 23 1
88 47 1
88 95 1
88 96 1
88 98 1
88 106 1
88 118 1
88 142 1
88 190 1
88 192 1
88 194 1
88 202 1
88 214 1
88 238 1
88 286 1
88 287 1
88 289 1
88 297 1
88 309 1
88 333 1
88 381 1
89 2 1
89 5 1
89 11 1
89 23 1
89 47 1
89 95 1
89 97 1
89 100 1
89 106 1
89 118 1
89 142 1
89 190 1
89 193 1
89 196 1
89 202 1
89 214 1
89 238 1
89 286 1
89 288 1
89 291 1
89 297 1
89 309 1
89 333 1
89 381 1
90 1 1
90 5 1
90 11 1
90 23 1
90 47 1
90 95 1
90 96 1
90 100 1
90 106 1
90 118 1
90 142 1
90 190 1
90 192 1
90 196 1
90 202 1
90 214 1
90 238 1
90 286 1
90 287 1
90 291 1
90 297 1
90 309 1
90 333 1
90 381 1
91 3 1
91 4 1
91 11 1
91 23 1
91 47 1
91 95 1
91 98 1
91 99 1
91 106 1
91 118 1
91 142 1
91 190 1
91 194 1
91 195 1
91 202 1
91 214 1
91 238 1
91 286 1
91 289 1
91 290 1
91 297 1
91 309 1
91 333 1
91 381 1
92 6 1
92 7 1
92 8 1
92 9 1
92 10 1
92 23 1
92 47 1
92 95 1
92 101 1
92 102 1
92 103 1
92 104 1
92 105 1
92 118 1
92 142 1
92 190 1
92 197 1
92 198 1
92 199 1
92 200 1
92 201 1
92 214 1
92 238 1
92 286 1
92 292 1
92 293 1
92 294 1
92 295 1
92 296 1
92 309 1
92 333 1
92 381 1
93 12 1
93 13 1
93 14 1
93 15 1
93 16 1
93 17 1
93 18 1
93 19 1
93 20 1
93 21 1
93 22 1
93 47 1
93 95 1
93 107 1
93 108 1
93 109 1
93 110 1
93 111 1
93 112 1
93 113 1
93 114 1
93 115 1
93 116 1
93 117 1
93 142 1
93 190 1
93 203 1
93 204 1
93 205 1
93 206 1
93 207 1
93 208 1
93 209 1
93 210 1
93 211 1
93 212 1
93 213 1
93 238 1
93 286 1
93 298 1
93 299 1
93 300 1
93 301 1
93 302 1
93 303 1
93 304 1
93 305 1
93 306 1
93 307 1
93 308 1
93 333 1
93 381 1
94 24 1
94 25 1
94 26 1
94 27 1
94 28 1
94 29 1
94 30 1
94 31 1
94 32 1
94 33 1
94 34 1
94 35 1
94 36 1
94 37 1
94 38 1
94 39 1
94 40 1
94 41 1
94 42 1
94 43 1
94 44 1
94 45 1
94 46 1
94 95 1
94 119 1
94 120 1
94 121 1
94 122 1
94 123 1
94 124 1
94 125 1
94 126 1
94 127 1
94 128 1
94 129 1
94 130 1
94 131 1
94 132 1
94 133 1
94 134 1
94 135 1
94 136 1
94 137 1
94 138 1
94 139 1
94 140 1
94 141 1
94 190 1
94 215 1
94 216 1
94 217 1
94 218 1
94 219 1
94 220 1
94 221 1
94 222 1
94 223 1
94 224 1
94 225 1
94 226 1
94 227 1
94 228 1
94 229 1
94 230 1
94 231 1
94 232 1
94 233 1
94 234 1
94 235 1
94 236 1
94 237 1
94 286 1
94 310 1
94 311 1
94 312 1
94 313 1
94 314 1
94 315 1
94 316 1
94 317 1
94 318 1
94 319 1
94 320 1
94 321 1
94 322 1
94 323 1
94 324 1
94 325 1
94 326 1
94 327 1
94 328 1
94 329 1
94 330 1
94 331 1
94 332 1
94 381 1
95 48 1
95 49 1
95 50 1
95 51 1
95 52 1
95 53 1
95 54 1
95 55 1
95 56 1
95 57 1
95 58 1
95 59 1
95 60 1
95 61 1
95 62 1
95 63 1
95 64 1
95 65 1
95 66 1
95 67 1
95 68 1
95 69 1
95 70 1
95 71 1
95 72 1
95 73 1
95 74 1
95 75 1
95 76 1
95 77 1
95 78 1
95 79 1
95 80 1
95 81 1
95 82 1
95 83 1
95 84 1
95 85 1
95 86 1
95 87 1
95 88 1
95 89 1
95 90 1
95 91 1
95 92 1
95 93 1
95 94 1
95 143 1
95 144 1
95 145 1
95 146 1
95 147 1
95 148 1
95 149 1
95 150 1
95 151 1
95 152 1
95 153 1
95 154 1
95 155 1
95 156 1
95 157 1
95 158 1
95 159 1
95 160 1
95 161 1
95 162 1
95 163 1
95 164 1
95 165 1
95 166 1
95 167 1
95 168 1
95 169 1
95 170 1
95 171 1
95 172 1
95 173 1
95 174 1
95 175 1
95 176 1
95 177 1
95 178 1
95 179 1
95 180 1
95 181 1
95 182 1
95 183 1
95 184 1
95 185 1
95 186 1
95 187 1
95 188 1
95 189 1
95 239 1
95 240 1
95 241 1
95 242 1
95 243 1
95 244 1
95 245 1
95 246 1
95 247 1
95 248 1
95 249 1
95 250 1
95 251 1
95 252 1
95 253 1
95 254 1
95 255 1
95 256 1
95 257 1
95 258 1
95 259 1
95 260 1
95 261 1
95 262 1
95 263 1
95 264 1
95 265 1
95 266 1
95 267 1
95 268 1
95 269 1
95 270 1
95 271 1
95 272 1
95 273 1
95 274 1
95 275 1
95 276 1
95 277 1
95 278 1
95 279 1
95 280 1
95 281 1
95 282 1
95 283 1
95 284 1
95 285 1
95 334 1
95 335 1
95 336 1
95 337 1
95 338 1
95 339 1
95 340 1
95 341 1
95 342 1
95 343 1
95 344 1
95 345 1
95 346 1
95 347 1
95 348 1
95 349 1
95 350 1
95 351 1
95 352 1
95 353 1
95 354 1
95 355 1
95 356 1
95 357 1
95 358 1
95 359 1
95 360 1
95 361 1
95 362 1
95 363 1
95 364 1
95 365 1
95 366 1
95 367 1
95 368 1
95 369 1
95 370 1
95 371 1
95 372 1
95 373 1
95 374 1
95 375 1
95 376 1
95 377 1
95 378 1
95 379 1
95 380 1
96 2 1
96 4 1
96 7 1
96 9 1
96 13 1
96 15 1
96 18 1
96 20 1
96 25 1
96 27 1
96 30 1
96 32 1
96 36 1
96 38 1
96 41 1
96 43 1
96 49 1
96 51 1
96 54 1
96 56 1
96 60 1
96 62 1
96 65 1
96 67 1
96 72 1
96 74 1
96 77 1
96 79 1
96 83 1
96 85 1
96 88 1
96 90 1
96 191 1
96 193 1
96 195 1
96 198 1
96 200 1
96 204 1
96 206 1
96 209 1
96 211 1
96 216 1
96 218 1
96 221 1
96 223 1
96 227 1
96 229 1
96 232 1
96 234 1
96 240 1
96 242 1
96 245 1
96 247 1
96 251 1
96 253 1
96 256 1
96 258 1
96 263 1
96 265 1
96 268 1
96 270 1
96 274 1
96 276 1
96 279 1
96 281 1
96 382 1
97 1 1
97 3 1
97 6 1
97 8 1
97 12 1
97 14 1
97 17 1
97 19 1
97 24 1
97 26 1
97 29 1
97 31 1
97 35 1
97 37 1
97 40 1
97 42 1
97 48 1
97 50 1
97 53 1
97 55 1
97 59 1
97 61 1
97 64 1
97 66 1
97 71 1
97 73 1
97 76 1
97 78 1
97 82 1
97 84 1
97 87 1
97 89 1
97 191 1
97 192 1
97 194 1
97 197 1
97 199 1
97 203 1
97 205 1
97 208 1
97 210 1
97 215 1
97 217 1
97 220 1
97 222 1
97 226 1
97 228 1
97 231 1
97 233 1
97 239 1
97 241 1
97 244 1
97 246 1
97 250 1
97 252 1
97 255 1
97 257 1
97 262 1
97 264 1
97 267 1
97 269 1
97 273 1
97 275 1
97 278 1
97 280 1
97 382 1
98 2 1
98 5 1
98 7 1
98 10 1
98 13 1
98 16 1
98 18 1
98 21 1
98 25 1
98 28 1
98 30 1
98 33 1
98 36 1
98 39 1
98 41 1
98 44 1
98 49 1
98 52 1
98 54 1
98 57 1
98 60 1
98 63 1
98 65 1
98 68 1
98 72 1
98 75 1
98 77 1
98 80 1
98 83 1
98 86 1
98 88 1
98 91 1
98 191 1
98 193 1
98 196 1
98 198 1
98 201 1
98 204 1
98 207 1
98 209 1
98 212 1
98 216 1
98 219 1
98 221 1
98 224 1
98 227 1
98 230 1
98 232 1
98 235 1
98 240 1
98 243 1
98 245 1
98 248 1
98 251 1
98 254 1
98 256 1
98 259 1
98 263 1
98 266 1
98 268 1
98 271 1
98 274 1
98 277 1
98 279 1
98 282 1
98 382 1
99 1 1
99 5 1
99 6 1
99 10 1
99 12 1
99 16 1
99 17 1
99 21 1
99 24 1
99 28 1
99 29 1
99 33 1
99 35 1
99 39 1
99 40 1
99 44 1
99 48 1
99 52 1
99 53 1
99 57 1
99 59 1
99 63 1
99 64 1
99 68 1
99 71 1
99 75 1
99 76 1
99 80 1
99 82 1
99 86 1
99 87 1
99 91 1
99 191 1
99 192 1
99 196 1
99 197 1
99 201 1
99 203 1
99 207 1
99 208 1
99 212 1
99 215 1
99 219 1
99 220 1
99 224 1
99 226 1
99 230 1
99 231 1
99 235 1
99 239 1
99 243 1
99 244 1
99 248 1
99 250 1
99 254 1
99 255 1
99 259 1
99 262 1
99 266 1
99 267 1
99 271 1
99 273 1
99 277 1
99 278 1
99 282 1
99 382 1
100 3 1
100 4 1
100 8 1
100 9 1
100 14 1
100 15 1
100 19 1
100 20 1
100 26 1
100 27 1
100 31 1
100 32 1
100 37 1
100 38 1
100 42 1
100 43 1
100 50 1
100 51 1
100 55 1
100 56 1
100 61 1
100 62 1
100 66 1
100 67 1
100 73 1
100 74 1
100 78 1
100 79 1
100 84 1
100 85 1
100 89 1
100 90 1
100 191 1
100 194 1
100 195 1
100 199 1
100 200 1
100 205 1
100 206 1
100 210 1
100 211 1
100 217 1
100 218 1
100 222 1
100 223 1
100 228 1
100 229 1
100 233 1
100 234 1
100 241 1
100 242 1
100 246 1
100 247 1
100 252 1
100 253 1
100 257 1
100 258 1
100 264 1
100 265 1
100 269 1
100 270 1
100 275 1
100 276 1
100 280 1
100 281 1
100 382 1
101 2 1
101 4 1
101 11 1
101 13 1
101 15 1
101 22 1
101 25 1
101 27 1
101 34 1
101 36 1
101 38 1
101 45 1
101 49 1
101 51 1
101 58 1
101 60 1
101 62 1
101 69 1
101 72 1
101 74 1
101 81 1
101 83 1
101 85 1
101 92 1
101 191 1
101 193 1
101 195 1
101 202 1
101 204 1
101 206 1
101 213 1
101 216 1
101 218 1
101 225 1
101 227 1
101 229 1
101 236 1
101 240 1
101 242 1
101 249 1
101 251 1
101 253 1
101 260 1
101 263 1
101 265 1
101 272 1
101 274 1
101 276 1
101 283 1
101 382 1
102 1 1
102 3 1
102 11 1
102 12 1
102 14 1
102 22 1
102 24 1
102 26 1
102 34 1
102 35 1
102 37 1
102 45 1
102 48 1
102 50 1
102 58 1
102 59 1
102 61 1
102 69 1
102 71 1
102 73 1
102 81 1
102 82 1
102 84 1
102 92 1
102 191 1
102 192 1
102 194 1
102 202 1
102 203 1
102 205 1
102 213 1
102 215 1
102 217 1
102 225 1
102 226 1
102 228 1
102 236 1
102 239 1
102 241 1
102 249 1
102 250 1
102 252 1
102 260 1
102 262 1
102 264 1
102 272 1
102 273 1
102 275 1
102 283 1
102 382 1
103 2 1
103 5 1
103 11 1
103 13 1
103 16 1
103 22 1
103 25 1
103 28 1
103 34 1
103 36 1
103 39 1
103 45 1
103 49 1
103 52 1
103 58 1
103 60 1
103 63 1
103 69 1
103 72 1
103 75 1
103 81 1
103 83 1
103 86 1
103 92 1
103 191 1
103 193 1
103 196 1
103 202 1
103 204 1
103 207 1
103 213 1
103 216 1
103 219 1
103 225 1
103 227 1
103 230 1
103 236 1
103 240 1
103 243 1
103 249 1
103 251 1
103 254 1
103 260 1
103 263 1
103 266 1
103 272 1
103 274 1
103 277 1
103 283 1
103 382 1
104 1 1
104 5 1
104 11 1
104 12 1
104 16 1
104 22 1
104 24 1
104 28 1
104 34 1
104 35 1
104 39 1
104 45 1
104 48 1
104 52 1
104 58 1
104 59 1
104 63 1
104 69 1
104 71 1
104 75 1
104 81 1
104 82 1
104 86 1
104 92 1
104 191 1
104 192 1
104 196 1
104 202 1
104 203 1
104 207 1
104 213 1
104 215 1
104 219 1
104 225 1
104 226 1
104 230 1
104 236 1
104 239 1
104 243 1
104 249 1
104 250 1
104 254 1
104 260 1
104 262 1
104 266 1
104 272 1
104 273 1
104 277 1
104 283 1
104 382 1
105 3 1
105 4 1
105 11 1
105 14 1
105 15 1
105 22 1
105 26 1
105 27 1
105 34 1
105 37 1
105 38 1
105 45 1
105 50 1
105 51 1
105 58 1
105 61 1
105 62 1
105 69 1
105 73 1
105 74 1
105 81 1
105 84 1
105 85 1
105 92 1
105 191 1
105 194 1
105 195 1
105 202 1
105 205 1
105 206 1
105 213 1
105 217 1
105 218 1
105 225 1
105 228 1
105 229 1
105 236 1
105 241 1
105 242 1
105 249 1
105 252 1
105 253 1
105 260 1
105 264 1
105 265 1
105 272 1
105 275 1
105 276 1
105 283 1
105 382 1
106 6 1
106 7 1
106 8 1
106 9 1
106 10 1
106 17 1
106 18 1
106 19 1
106 20 1
106 21 1
106 29 1
106 30 1
106 31 1
106 32 1
106 33 1
106 40 1
106 41 1
106 42 1
106 43 1
106 44 1
106 53 1
106 54 1
106 55 1
106 56 1
106 57 1
106 64 1
106 65 1
106 66 1
106 67 1
106 68 1
106 76 1
106 77 1
106 78 1
106 79 1
106 80 1
106 87 1
106 88 1
106 89 1
106 90 1
106 91 1
106 191 1
106 197 1
106 198 1
106 199 1
106 200 1
106 201 1
106 208 1
106 209 1
106 210 1
106 211 1
106 212 1
106 220 1
106 221 1
106 222 1
106 223 1
106 224 1
106 231 1
106 232 1
106 233 1
106 234 1
106 235 1
106 244 1
106 245 1
106 246 1
106 247 1
106 248 1
106 255 1
106 256 1
106 257 1
106 258 1
106 259 1
106 267 1
106 268 1
106 269 1
106 270 1
106 271 1
106 278 1
106 279 1
106 280 1
106 281 1
106 282 1
106 382 1
107 2 1
107 4 1
107 7 1
107 9 1
107 23 1
107 25 1
107 27 1
107 30 1
107 32 1
107 46 1
107 49 1
107 51 1
107 54 1
107 56 1
107 70 1
107 72 1
107 74 1
107 77 1
107 79 1
107 93 1
107 191 1
107 193 1
107 195 1
107 198 1
107 200 1
107 214 1
107 216 1
107 218 1
107 221 1
107 223 1
107 237 1
107 240 1
107 242 1
107 245 1
107 247 1
107 261 1
107 263 1
107 265 1
107 268 1
107 270 1
107 284 1
107 382 1
108 1 1
108 3 1
108 6 1
108 8 1
108 23 1
108 24 1
108 26 1
108 29 1
108 31 1
108 46 1
108 48 1
108 50 1
108 53 1
108 55 1
108 70 1
108 71 1
108 73 1
108 76 1
108 78 1
108 93 1
108 191 1
108 192 1
108 194 1
108 197 1
108 199 1
108 214 1
108 215 1
108 217 1
108 220 1
108 222 1
108 237 1
108 239 1
108 241 1
108 244 1
108 246 1
108 261 1
108 262 1
108 264 1
108 267 1
108 269 1
108 284 1
108 382 1
109 2 1
109 5 1
109 7 1
109 10 1
109 23 1
109 25 1
109 28 1
109 30 1
109 33 1
109 46 1
109 49 1
109 52 1
109 54 1
109 57 1
109 70 1
109 72 1
109 75 1
109 77 1
109 80 1
109 93 1
109 191 1
109 193 1
109 196 1
109 198 1
109 201 1
109 214 1
109 216 1
109 219 1
109 221 1
109 224 1
109 237 1
109 240 1
109 243 1
109 245 1
109 248 1
109 261 1
109 263 1
109 266 1
109 268 1
109 271 1
109 284 1
109 382 1
110 1 1
110 5 1
110 6 1
110 10 1
110 23 1
110 24 1
110 28 1
110 29 1
110 33 1
110 46 1
110 48 1
110 52 1
110 53 1
110 57 1
110 70 1
110 71 1
110 75 1
110 76 1
110 80 1
110 93 1
110 191 1
110 192 1
110 196 1
110 197 1
110 201 1
110 214 1
110 215 1
110 219 1
110 220 1
110 224 1
110 237 1
110 239 1
110 243 1
110 244 1
110 248 1
110 261 1
110 262 1
110 266 1
110 267 1
110 271 1
110 284 1
110 382 1
111 3 1
111 4 1
111 8 1
111 9 1
111 23 1
111 26 1
111 27 1
111 31 1
111 32 1
111 46 1
111 50 1
111 51 1
111 55 1
111 56 1
111 70 1
111 73 1
111 74 1
111 78 1
111 79 1
111 93 1
111 191 1
111 194 1
111 195 1
111 199 1
111 200 1
111 214 1
111 217 1
111 218 1
111 222 1
111 223 1
111 237 1
111 241 1
111 242 1
111 246 1
111 247 1
111 261 1
111 264 1
111 265 1
111 269 1
111 270 1
111 284 1
111 382 1
112 2 1
112 4 1
112 11 1
112 23 1
112 25 1
112 27 1
112 34 1
112 46 1
112 49 1
112 51 1
112 58 1
112 70 1
112 72 1
112 74 1
112 81 1
112 93 1
112 191 1
112 193 1
112 195 1
112 202 1
112 214 1
112 216 1
112 218 1
112 225 1
112 237 1
112 240 1
112 242 1
112 249 1
112 261 1
112 263 1
112 265 1
112 272 1
112 284 1
112 382 1
113 1 1
113 3 1
113 11 1
113 23 1
113 24 1
113 26 1
113 34 1
113 46 1
113 48 1
113 50 1
113 58 1
113 70 1
113 71 1
113 73 1
113 81 1
113 93 1
113 191 1
113 192 1
113 194 1
113 202 1
113 214 1
113 215 1
113 217 1
113 225 1
113 237 1
113 239 1
113 241 1
113 249 1
113 261 1
113 262 1
113 264 1
113 272 1
113 284 1
113 382 1
114 2 1
114 5 1
114 11 1
114 23 1
114 25 1
114 28 1
114 34 1
114 46 1
114 49 1
114 52 1
114 58 1
114 70 1
114 72 1
114 75 1
114 81 1
114 93 1
114 191 1
114 193 1
114 196 1
114 202 1
114 214 1
114 216 1
114 219 1
114 225 1
114 237 1
114 240 1
114 243 1
114 249 1
114 261 1
114 263 1
114 266 1
114 272 1
114 284 1
114 382 1
115 1 1
115 5 1
115 11 1
115 23 1
115 24 1
115 28 1
115 34 1
115 46 1
115 48 1
115 52 1
115 58 1
115 70 1
115 71 1
115 75 1
115 81 1
115 93 1
115 191 1
115 192 1
115 196 1
115 202 1
115 214 1
115 215 1
115 219 1
115 225 1
115 237 1
115 239 1
115 243 1
115 249 1
115 261 1
115 262 1
115 266 1
115 272 1
115 284 1
115 382 1
116 3 1
116 4 1
116 11 1
116 23 1
116 26 1
116 27 1
116 34 1
116 46 1
116 50 1
116 51 1
116 58 1
116 70 1
116 73 1
116 74 1
116 81 1
116 93 1
116 191 1
116 194 1
116 195 1
116 202 1
116 214 1
116 217 1
116 218 1
116 225 1
116 237 1
116 241 1
116 242 1
116 249 1
116 261 1
116 264 1
116 265 1
116 272 1
116 284 1
116 382 1
117 6 1
117 7 1
117 8 1
117 9 1
117 10 1
117 23 1
117 29 1
117 30 1
117 31 1
117 32 1
117 33 1
117 46 1
117 53 1
117 54 1
117 55 1
117 56 1
117 57 1
117 70 1
117 76 1
117 77 1
117 78 1
117 79 1
117 80 1
117 93 1
117 191 1
117 197 1
117 198 1
117 199 1
117 200 1
117 201 1
117 214 1
117 220 1
117 221 1
117 222 1
117 223 1
117 224 1
117 237 1
117 244 1
117 245 1
117 246 1
117 247 1
117 248 1
117 261 1
117 267 1
117 268 1
117 269 1
117 270 1
117 271 1
117 284 1
117 382 1
118 12 1
118 13 1
118 14 1
118 15 1
118 16 1
118 17 1
118 18 1
118 19 1
118 20 1
118 21 1
118 22 1
118 35 1
118 36 1
118 37 1
118 38 1
118 39 1
118 40 1
118 41 1
118 42 1
118 43 1
118 44 1
118 45 1
118 59 1
118 60 1
118 61 1
118 62 1
118 63 1
118 64 1
118 65 1
118 66 1
118 67 1
118 68 1
118 69 1
118 82 1
118 83 1
118 84 1
118 85 1
118 86 1
118 87 1
118 88 1
118 89 1
118 90 1
118 91 1
118 92 1
118 191 1
118 203 1
118 204 1
118 205 1
118 206 1
118 207 1
118 208 1
118 209 1
118 210 1
118 211 1
118 212 1
118 213 1
118 226 1
118 227 1
118 228 1
118 229 1
118 230 1
118 231 1
118 232 1
118 233 1
118 234 1
118 235 1
118 236 1
118 250 1
118 251 1
118 252 1
118 253 1
118 254 1
118 255 1
118 256 1
118 257 1
118 258 1
118 259 1
118 260 1
118 273 1
118 274 1
118 275 1
118 276 1
118 277 1
118 278 1
118 279 1
118 280 1
118 281 1
118 282 1
118 283 1
118 382 1
119 2 1
119 4 1
119 7 1
119 9 1
119 13 1
119 15 1
119 18 1
119 20 1
119 47 1
119 49 1
119 51 1
119 54 1
119 56 1
119 60 1
119 62 1
119 65 1
119 67 1
119 94 1
119 191 1
119 193 1
119 195 1
119 198 1
119 200 1
119 204 1
119 206 1
119 209 1
119 211 1
119 238 1
119 240 1
119 242 1
119 245 1
119 247 1
119 251 1
119 253 1
119 256 1
119 258 1
119 285 1
119 382 1
120 1 1
120 3 1
120 6 1
120 8 1
120 12 1
120 14 1
120 17 1
120 19 1
120 47 1
120 48 1
120 50 1
120 53 1
120 55 1
120 59 1
120 61 1
120 64 1
120 66 1
120 94 1
120 191 1
120 192 1
120 194 1
120 197 1
120 199 1
120 203 1
120 205 1
120 208 1
120 210 1
120 238 1
120 239 1
120 241 1
120 244 1
120 246 1
120 250 1
120 252 1
120 255 1
120 257 1
120 285 1
120 382 1
121 2 1
121 5 1
121 7 1
121 10 1
121 13 1
121 16 1
121 18 1
121 21 1
121 47 1
121 49 1
121 52 1
121 54 1
121 57 1
121 60 1
121 63 1
121 65 1
121 68 1
121 94 1
121 191 1
121 193 1
121 196 1
121 198 1
121 201 1
121 204 1
121 207 1
121 209 1
121 212 1
121 238 1
121 240 1
121 243 1
121 245 1
121 248 1
121 251 1
121 254 1
121 256 1
121 259 1
121 285 1
121 382 1
122 1 1
122 5 1
122 6 1
122 10 1
122 12 1
122 16 1
122 17 1
122 21 1
122 47 1
122 48 1
122 52 1
122 53 1
122 57 1
122 59 1
122 63 1
122 64 1
122 68 1
122 94 1
122 191 1
122 192 1
122 196 1
122 197 1
122 201 1
122 203 1
122 207 1
122 208 1
122 212 1
122 238 1
122 239 1
122 243 1
122 244 1
122 248 1
122 250 1
122 254 1
122 255 1
122 259 1
122 285 1
122 382 1
123 3 1
123 4 1
123 8 1
123 9 1
123 14 1
123 15 1
123 19 1
123 20 1
123 47 1
123 50 1
123 51 1
123 55 1
123 56 1
123 61 1
123 62 1
123 66 1
123 67 1
123 94 1
123 191 1
123 194 1
123 195 1
123 199 1
123 200 1
123 205 1
123 206 1
123 210 1
123 211 1
123 238 1
123 241 1
123 242 1
123 246 1
123 247 1
123 252 1
123 253 1
123 257 1
123 258 1
123 285 1
123 382 1
124 2 1
124 4 1
124 11 1
124 13 1
124 15 1
124 22 1
124 47 1
124 49 1
124 51 1
124 58 1
124 60 1
124 62 1
124 69 1
124 94 1
124 191 1
124 193 1
124 195 1
124 202 1
124 204 1
124 206 1
124 213 1
124 238 1
124 240 1
124 242 1
124 249 1
124 251 1
124 253 1
124 260 1
124 285 1
124 382 1
125 1 1
125 3 1
125 11 1
125 12 1
125 14 1
125 22 1
125 47 1
125 48 1
125 50 1
125 58 1
125 59 1
125 61 1
125 69 1
125 94 1
125 191 1
125 192 1
125 194 1
125 202 1
125 203 1
125 205 1
125 213 1
125 238 1
125 239 1
125 241 1
125 249 1
125 250 1
125 252 1
125 260 1
125 285 1
125 382 1
126 2 1
126 5 1
126 11 1
126 13 1
126 16 1
126 22 1
126 47 1
126 49 1
126 52 1
126 58 1
126 60 1
126 63 1
126 69 1
126 94 1
126 191 1
126 193 1
126 196 1
126 202 1
126 204 1
126 207 1
126 213 1
126 238 1
126 240 1
126 243 1
126 249 1
126 251 1
126 254 1
126 260 1
126 285 1
126 382 1
127 1 1
127 5 1
127 11 1
127 12 1
127 16 1
127 22 1
127 47 1
127 48 1
127 52 1
127 58 1
127 59 1
127 63 1
127 69 1
127 94 1
127 191 1
127 192 1
127 196 1
127 202 1
127 203 1
127 207 1
127 213 1
127 238 1
127 239 1
127 243 1
127 249 1
127 250 1
127 254 1
127 260 1
127 285 1
127 382 1
128 3 1
128 4 1
128 11 1
128 14 1
128 15 1
128 22 1
128 47 1
128 50 1
128 51 1
128 58 1
128 61 1
128 62 1
128 69 1
128 94 1
128 191 1
128 194 1
128 195 1
128 202 1
128 205 1
128 206 1
128 213 1
128 238 1
128 241 1
128 242 1
128 249 1
128 252 1
128 253 1
128 260 1
128 285 1
128 382 1
129 6 1
129 7 1
129 8 1
129 9 1
129 10 1
129 17 1
129 18 1
129 19 1
129 20 1
129 21 1
129 47 1
129 53 1
129 54 1
129 55 1
129 56 1
129 57 1
129 64 1
129 65 1
129 66 1
129 67 1
129 68 1
129 94 1
129 191 1
129 197 1
129 198 1
129 199 1
129 200 1
129 201 1
129 208 1
129 209 1
129 210 1
129 211 1
129 212 1
129 238 1
129 244 1
129 245 1
129 246 1
129 247 1
129 248 1
129 255 1
129 256 1
129 257 1
129 258 1
129 259 1
129 285 1
129 382 1
130 2 1
130 4 1
130 7 1
130 9 1
130 23 1
130 47 1
130 49 1
130 51 1
130 54 1
130 56 1
130 70 1
130 94 1
130 191 1
130 193 1
130 195 1
130 198 1
130 200 1
130 214 1
130 238 1
130 240 1
130 242 1
130 245 1
130 247 1
130 261 1
130 285 1
130 382 1
131 1 1
131 3 1
131 6 1
131 8 1
131 23 1
131 47 1
131 48 1
131 50 1
131 53 1
131 55 1
131 70 1
131 94 1
131 191 1
131 192 1
131 194 1
131 197 1
131 199 1
131 214 1
131 238 1
131 239 1
131 241 1
131 244 1
131 246 1
131 261 1
131 285 1
131 382 1
132 2 1
132 5 1
132 7 1
132 10 1
132 23 1
132 47 1
132 49 1
132 52 1
132 54 1
132 57 1
132 70 1
132 94 1
132 191 1
132 193 1
132 196 1
132 198 1
132 201 1
132 214 1
132 238 1
132 240 1
132 243 1
132 245 1
132 248 1
132 261 1
132 285 1
132 382 1
133 1 1
133 5 1
133 6 1
133 10 1
133 23 1
133 47 1
133 48 1
133 52 1
133 53 1
133 57 1
133 70 1
133 94 1
133 191 1
133 192 1
133 196 1
133 197 1
133 201 1
133 214 1
133 238 1
133 239 1
133 243 1
133 244 1
133 248 1
133 261 1
133 285 1
133 382 1
134 3 1
134 4 1
134 8 1
134 9 1
134 23 1
134 47 1
134 50 1
134 51 1
134 55 1
134 56 1
134 70 1
134 94 1
134 191 1
134 194 1
134 195 1
134 199 1
134 200 1
134 214 1
134 238 1
134 241 1
134 242 1
134 246 1
134 247 1
134 261 1
134 285 1
134 382 1
135 2 1
135 4 1
135 11 1
135 23 1
135 47 1
135 49 1
135 51 1
135 58 1
135 70 1
135 94 1
135 191 1
135 193 1
135 195 1
135 202 1
135 214 1
135 238 1
135 240 1
135 242 1
135 249 1
135 261 1
135 285 1
135 382 1
136 1 1
136 3 1
136 11 1
136 23 1
136 47 1
136 48 1
136 50 1
136 58 1
136 70 1
136 94 1
136 191 1
136 192 1
136 194 1
136 202 1
136 214 1
136 238 1
136 239 1
136 241 1
136 249 1
136 261 1
136 285 1
136 382 1
137 2 1
137 5 1
137 11 1
137 23 1
137 47 1
137 49 1
137 52 1
137 58 1
137 70 1
137 94 1
137 191 1
137 193 1
137 196 1
137 202 1
137 214 1
137 238 1
137 240 1
137 243 1
137 249 1
137 261 1
137 285 1
137 382 1
138 1 1
138 5 1
138 11 1
138 23 1
138 47 1
138 48 1
138 52 1
138 58 1
138 70 1
138 94 1
138 191 1
138 192 1
138 196 1
138 202 1
138 214 1
138 238 1
138 239 1
138 243 1
138 249 1
138 261 1
138 285 1
138 382 1
139 3 1
139 4 1
139 11 1
139 23 1
139 47 1
139 50 1
139 51 1
139 58 1
139 70 1
139 94 1
139 191 1
139 194 1
139 195 1
139 202 1
139 214 1
139 238 1
139 241 1
139 242 1
139 249 1
139 261 1
139 285 1
139 382 1
140 6 1
140 7 1
140 8 1
140 9 1
140 10 1
140 23 1
140 47 1
140 53 1
140 54 1
140 55 1
140 56 1
140 57 1
140 70 1
140 94 1
140 191 1
140 197 1
140 198 1
140 199 1
140 200 1
140 201 1
140 214 1
140 238 1
140 244 1
140 245 1
140 246 1
140 247 1
140 248 1
140 261 1
140 285 1
140 382 1
141 12 1
141 13 1
141 14 1
141 15 1
141 16 1
141 17 1
141 18 1
141 19 1
141 20 1
141 21 1
141 22 1
141 47 1
141 59 1
141 60 1
141 61 1
141 62 1
141 63 1
141 64 1
141 65 1
141 66 1
141 67 1
141 68 1
141 69 1
141 94 1
141 191 1
141 203 1
141 204 1
141 205 1
141 206 1
141 207 1
141 208 1
141 209 1
141 210 1
141 211 1
141 212 1
141 213 1
141 238 1
141 250 1
141 251 1
141 252 1
141 253 1
141 254 1
141 255 1
141 256 1
141 257 1
141 258 1
141 259 1
141 260 1
141 285 1
141 382 1
142 24 1
142 25 1
142 26 1
142 27 1
142 28 1
142 29 1
142 30 1
142 31 1
142 32 1
142 33 1
142 34 1
142 35 1
142 36 1
142 37 1
142 38 1
142 39 1
142 40 1
142 41 1
142 42 1
142 43 1
142 44 1
142 45 1
142 46 1
142 71 1
142 72 1
142 73 1
142 74 1
142 75 1
142 76 1
142 77 1
142 78 1
142 79 1
142 80 1
142 81 1
142 82 1
142 83 1
142 84 1
142 85 1
142 86 1
142 87 1
142 88 1
142 89 1
142 90 1
142 91 1
142 92 1
142 93 1
142 191 1
142 215 1
142 216 1
142 217 1
142 218 1
142 219 1
142 220 1
142 221 1
142 222 1
142 223 1
142 224 1
142 225 1
142 226 1
142 227 1
142 228 1
142 229 1
142 230 1
142 231 1
142 232 1
142 233 1
142 234 1
142 235 1
142 236 1
142 237 1
142 262 1
142 263 1
142 264 1
142 265 1
142 266 1
142 267 1
142 268 1
142 269 1
142 270 1
142 271 1
142 272 1
142 273 1
142 274 1
142 275 1
142 276 1
142 277 1
142 278 1
142 279 1
142 280 1
142 281 1
142 282 1
142 283 1
142 284 1
142 382 1
143 2 1
143 4 1
143 7 1
143 9 1
143 13 1
143 15 1
143 18 1
143 20 1
143 25 1
143 27 1
143 30 1
143 32 1
143 36 1
143 38 1
143 41 1
143 43 1
143 95 1
143 191 1
143 193 1
143 195 1
143 198 1
143 200 1
143 204 1
143 206 1
143 209 1
143 211 1
143 216 1
143 218 1
143 221 1
143 223 1
143 227 1
143 229 1
143 232 1
143 234 1
143 286 1
143 382 1
144 1 1
144 3 1
144 6 1
144 8 1
144 12 1
144 14 1
144 17 1
144 19 1
144 24 1
144 26 1
144 29 1
144 31 1
144 35 1
144 37 1
144 40 1
144 42 1
144 95 1
144 191 1
144 192 1
144 194 1
144 197 1
144 199 1
144 203 1
144 205 1
144 208 1
144 210 1
144 215 1
144 217 1
144 220 1
144 222 1
144 226 1
144 228 1
144 231 1
144 233 1
144 286 1
144 382 1
145 2 1
145 5 1
145 7 1
145 10 1
145 13 1
145 16 1
145 18 1
145 21 1
145 25 1
145 28 1
145 30 1
145 33 1
145 36 1
145 39 1
145 41 1
145 44 1
145 95 1
145 191 1
145 193 1
145 196 1
145 198 1
145 201 1
145 204 1
145 207 1
145 209 1
145 212 1
145 216 1
145 219 1
145 221 1
145 224 1
145 227 1
145 230 1
145 232 1
145 235 1
145 286 1
145 382 1
146 1 1
146 5 1
146 6 1
146 10 1
146 12 1
146 16 1
146 17 1
146 21 1
146 24 1
146 28 1
146 29 1
146 33 1
146 35 1
146 39 1
146 40 1
146 44 1
146 95 1
146 191 1
146 192 1
146 196 1
146 197 1
146 201 1
146 203 1
146 207 1
146 208 1
146 212 1
146 215 1
146 219 1
146 220 1
146 224 1
146 226 1
146 230 1
146 231 1
146 235 1
146 286 1
146 382 1
147 3 1
147 4 1
147 8 1
147 9 1
147 14 1
147 15 1
147 19 1
147 20 1
147 26 1
147 27 1
147 31 1
147 32 1
147 37 1
147 38 1
147 42 1
147 43 1
147 95 1
147 191 1
147 194 1
147 195 1
147 199 1
147 200 1
147 205 1
147 206 1
147 210 1
147 211 1
147 217 1
147 218 1
147 222 1
147 223 1
147 228 1
147 229 1
147 233 1
147 234 1
147 286 1
147 382 1
148 2 1
148 4 1
148 11 1
148 13 1
148 15 1
148 22 1
148 25 1
148 27 1
148 34 1
148 36 1
148 38 1
148 45 1
148 95 1
148 191 1
148 193 1
148 195 1
148 202 1
148 204 1
148 206 1
148 213 1
148 216 1
148 218 1
148 225 1
148 227 1
148 229 1
148 236 1
148 286 1
148 382 1
149 1 1
149 3 1
149 11 1
149 12 1
149 14 1
149 22 1
149 24 1
149 26 1
149 34 1
149 35 1
149 37 1
149 45 1
149 95 1
149 191 1
149 192 1
149 194 1
149 202 1
149 203 1
149 205 1
149 213 1
149 215 1
149 217 1
149 225 1
149 226 1
149 228 1
149 236 1
149 286 1
149 382 1
150 2 1
150 5 1
150 11 1
150 13 1
150 16 1
150 22 1
150 25 1
150 28 1
150 34 1
150 36 1
150 39 1
150 45 1
150 95 1
150 191 1
150 193 1
150 196 1
150 202 1
150 204 1
150 207 1
150 213 1
150 216 1
150 219 1
150 225 1
150 227 1
150 230 1
150 236 1
150 286 1
150 382 1
151 1 1
151 5 1
151 11 1
151 12 1
151 16 1
151 22 1
151 24 1
151 28 1
151 34 1
151 35 1
151 39 1
151 45 1
151 95 1
151 191 1
151 192 1
151 196 1
151 202 1
151 203 1
151 207 1
151 213 1
151 215 1
151 219 1
151 225 1
151 226 1
151 230 1
151 236 1
151 286 1
151 382 1
152 3 1
152 4 1
152 11 1
152 14 1
152 15 1
152 22 1
152 26 1
152 27 1
152 34 1
152 37 1
152 38 1
152 45 1
152 95 1
152 191 1
152 194 1
152 195 1
152 202 1
152 205 1
152 206 1
152 213 1
152 217 1
152 218 1
152 225 1
152 228 1
152 229 1
152 236 1
152 286 1
152 382 1
153 6 1
153 7 1
153 8 1
153 9 1
153 10 1
153 17 1
153 18 1
153 19 1
153 20 1
153 21 1
153 29 1
153 30 1
153 31 1
153 32 1
153 33 1
153 40 1
153 41 1
153 42 1
153 43 1
153 44 1
153 95 1
153 191 1
153 197 1
153 198 1
153 199 1
153 200 1
153 201 1
153 208 1
153 209 1
153 210 1
153 211 1
153 212 1
153 220 1
153 221 1
153 222 1
153 223 1
153 224 1
153 231 1
153 232 1
153 233 1
153 234 1
153 235 1
153 286 1
153 382 1
154 2 1
154 4 1
154 7 1
154 9 1
154 23 1
154 25 1
154 27 1
154 30 1
154 32 1
154 46 1
154 95 1
154 191 1
154 193 1
154 195 1
154 198 1
154 200 1
154 214 1
154 216 1
154 218 1
154 221 1
154 223 1
154 237 1
154 286 1
154 382 1
155 1 1
155 3 1
155 6 1
155 8 1
155 23 1
155 24 1
155 26 1
155 29 1
155 31 1
155 46 1
155 95 1
155 191 1
155 192 1
155 194 1
155 197 1
155 199 1
155 214 1
155 215 1
155 217 1
155 220 1
155 222 1
155 237 1
155 286 1
155 382 1
156 2 1
156 5 1
156 7 1
156 10 1
156 23 1
156 25 1
156 28 1
156 30 1
156 33 1
156 46 1
156 95 1
156 191 1
156 193 1
156 196 1
156 198 1
156 201 1
156 214 1
156 216 1
156 219 1
156 221 1
156 224 1
156 237 1
156 286 1
156 382 1
157 1 1
157 5 1
157 6 1
157 10 1
157 23 1
157 24 1
157 28 1
157 29 1
157 33 1
157 46 1
157 95 1
157 191 1
157 192 1
157 196 1
157 197 1
157 201 1
157 214 1
157 215 1
157 219 1
157 220 1
157 224 1
157 237 1
157 286 1
157 382 1
158 3 1
158 4 1
158 8 1
158 9 1
158 23 1
158 26 1
158 27 1
158 31 1
158 32 1
158 46 1
158 95 1
158 191 1
158 194 1
158 195 1
158 199 1
158 200 1
158 214 1
158 217 1
158 218 1
158 222 1
158 223 1
158 237 1
158 286 1
158 382 1
159 2 1
159 4 1
159 11 1
159 23 1
159 25 1
159 27 1
159 34 1
159 46 1
159 95 1
159 191 1
159 193 1
159 195 1
159 202 1
159 214 1
159 216 1
159 218 1
159 225 1
159 237 1
159 286 1
159 382 1
160 1 1
160 3 1
160 11 1
160 23 1
160 24 1
160 26 1
160 34 1
160 46 1
160 95 1
160 191 1
160 192 1
160 194 1
160 202 1
160 214 1
160 215 1
160 217 1
160 225 1
160 237 1
160 286 1
160 382 1
161 2 1
161 5 1
161 11 1
161 23 1
161 25 1
161 28 1
161 34 1
161 46 1
161 95 1
161 191 1
161 193 1
161 196 1
161 202 1
161 214 1
161 216 1
161 219 1
161 225 1
161 237 1
161 286 1
161 382 1
162 1 1
162 5 1
162 11 1
162 23 1
162 24 1
162 28 1
162 34 1
162 46 1
162 95 1
162 191 1
162 192 1
162 196 1
162 202 1
162 214 1
162 215 1
162 219 1
162 225 1
162 237 1
162 286 1
162 382 1
163 3 1
163 4 1
163 11 1
163 23 1
163 26 1
163 27 1
163 34 1
163 46 1
163 95 1
163 191 1
163 194 1
163 195 1
163 202 1
163 214 1
163 217 1
163 218 1
163 225 1
163 237 1
163 286 1
163 382 1
164 6 1
164 7 1
164 8 1
164 9 1
164 10 1
164 23 1
164 29 1
164 30 1
164 31 1
164 32 1
164 33 1
164 46 1
164 95 1
164 191 1
164 197 1
164 198 1
164 199 1
164 200 1
164 201 1
164 214 1
164 220 1
164 221 1
164 222 1
164 223 1
164 224 1
164 237 1
164 286 1
164 382 1
165 12 1
165 13 1
165 14 1
165 15 1
165 16 1
165 17 1
165 18 1
165 19 1
165 20 1
165 21 1
165 22 1
165 35 1
165 36 1
165 37 1
165 38 1
165 39 1
165 40 1
165 41 1
165 42 1
165 43 1
165 44 1
165 45 1
165 95 1
165 191 1
165 203 1
165 204 1
165 205 1
165 206 1
165 207 1
165 208 1
165 209 1
165 210 1
165 211 1
165 212 1
165 213 1
165 226 1
165 227 1
165 228 1
165 229 1
165 230 1
165 231 1
165 232 1
165 233 1
165 234 1
165 235 1
165 236 1
165 286 1
165 382 1
166 2 1
166 4 1
166 7 1
166 9 1
166 13 1
166 15 1
166 18 1
166 20 1
166 47 1
166 95 1
166 191 1
166 193 1
166 195 1
166 198 1
166 200 1
166 204 1
166 206 1
166 209 1
166 211 1
166 238 1
166 286 1
166 382 1
167 1 1
167 3 1
167 6 1
167 8 1
167 12 1
167 14 1
167 17 1
167 19 1
167 47 1
167 95 1
167 191 1
167 192 1
167 194 1
167 197 1
167 199 1
167 203 1
167 205 1
167 208 1
167 210 1
167 238 1
167 286 1
167 382 1
168 2 1
168 5 1
168 7 1
168 10 1
168 13 1
168 16 1
168 18 1
168 21 1
168 47 1
168 95 1
168 191 1
168 193 1
168 196 1
168 198 1
168 201 1
168 204 1
168 207 1
168 209 1
168 212 1
168 238 1
168 286 1
168 382 1
169 1 1
169 5 1
169 6 1
169 10 1
169 12 1
169 16 1
169 17 1
169 21 1
169 47 1
169 95 1
169 191 1
169 192 1
169 196 1
169 197 1
169 201 1
169 203 1
169 207 1
169 208 1
169 212 1
169 238 1
169 286 1
169 382 1
170 3 1
170 4 1
170 8 1
170 9 1
170 14 1
170 15 1
170 19 1
170 20 1
170 47 1
170 95 1
170 191 1
170 194 1
170 195 1
170 199 1
170 200 1
170 205 1
170 206 1
170 210 1
170 211 1
170 238 1
170 286 1
170 382 1
171 2 1
171 4 1
171 11 1
171 13 1
171 15 1
171 22 1
171 47 1
171 95 1
171 191 1
171 193 1
171 195 1
171 202 1
171 204 1
171 206 1
171 213 1
171 238 1
171 286 1
171 382 1
172 1 1
172 3 1
172 11 1
172 12 1
172 14 1
172 22 1
172 47 1
172 95 1
172 191 1
172 192 1
172 194 1
172 202 1
172 203 1
172 205 1
172 213 1
172 238 1
172 286 1
172 382 1
173 2 1
173 5 1
173 11 1
173 13 1
173 16 1
173 22 1
173 47 1
173 95 1
173 191 1
173 193 1
173 196 1
173 202 1
173 204 1
173 207 1
173 213 1
173 238 1
173 286 1
173 382 1
174 1 1
174 5 1
174 11 1
174 12 1
174 16 1
174 22 1
174 47 1
174 95 1
174 191 1
174 192 1
174 196 1
174 202 1
174 203 1
174 207 1
174 213 1
174 238 1
174 286 1
174 382 1
175 3 1
175 4 1
175 11 1
175 14 1
175 15 1
175 22 1
175 47 1
175 95 1
175 191 1
175 194 1
175 195 1
175 202 1
175 205 1
175 206 1
175 213 1
175 238 1
175 286 1
175 382 1
176 6 1
176 7 1
176 8 1
176 9 1
176 10 1
176 17 1
176 18 1
176 19 1
176 20 1
176 21 1
176 47 1
176 95 1
176 191 1
176 197 1
176 198 1
176 199 1
176 200 1
176 201 1
176 208 1
176 209 1
176 210 1
176 211 1
176 212 1
176 238 1
176 286 1
176 382 1
177 2 1
177 4 1
177 7 1
177 9 1
177 23 1
177 47 1
177 95 1
177 191 1
177 193 1
177 195 1
177 198 1
177 200 1
177 214 1
177 238 1
177 286 1
177 382 1
178 1 1
178 3 1
178 6 1
178 8 1
178 23 1
178 47 1
178 95 1
178 191 1
178 192 1
178 194 1
178 197 1
178 199 1
178 214 1
178 238 1
178 286 1
178 382 1
179 2 1
179 5 1
179 7 1
179 10 1
179 23 1
179 47 1
179 95 1
179 191 1
179 193 1
179 196 1
179 198 1
179 201 1
179 214 1
179 238 1
179 286 1
179 382 1
180 1 1
180 5 1
180 6 1
180 10 1
180 23 1
180 47 1
180 95 1
180 191 1
180 192 1
180 196 1
180 197 1
180 201 1
180 214 1
180 238 1
180 286 1
180 382 1
181 3 1
181 4 1
181 8 1
181 9 1
181 23 1
181 47 1
181 95 1
181 191 1
181 194 1
181 195 1
181 199 1
181 200 1
181 214 1
181 238 1
181 286 1
181 382 1
182 2 1
182 4 1
182 11 1
182 23 1
182 47 1
182 95 1
182 191 1
182 193 1
182 195 1
182 202 1
182 214 1
182 238 1
182 286 1
182 382 1
183 1 1
183 3 1
183 11 1
183 23 1
183 47 1
183 95 1
183 191 1
183 192 1
183 194 1
183 202 1
183 214 1
183 238 1
183 286 1
183 382 1
184 2 1
184 5 1
184 11 1
184 23 1
184 47 1
184 95 1
184 191 1
184 193 1
184 196 1
184 202 1
184 214 1
184 238 1
184 286 1
184 382 1
185 1 1
185 5 1
185 11 1
185 23 1
185 47 1
185 95 1
185 191 1
185 192 1
185 196 1
185 202 1
185 214 1
185 238 1
185 286 1
185 382 1
186 3 1
186 4 1
186 11 1
186 23 1
186 47 1
186 95 1
186 191 1
186 194 1
186 195 1
186 202 1
186 214 1
186 238 1
186 286 1
186 382 1
187 6 1
187 7 1
187 8 1
187 9 1
187 10 1
187 23 1
187 47 1
187 95 1
187 191 1
187 197 1
187 198 1
187 199 1
187 200 1
187 201 1
187 214 1
187 238 1
187 286 1
187 382 1
188 12 1
188 13 1
188 14 1
188 15 1
188 16 1
188 17 1
188 18 1
188 19 1
188 20 1
188 21 1
188 22 1
188 47 1
188 95 1
188 191 1
188 203 1
188 204 1
188 205 1
188 206 1
188 207 1
188 208 1
188 209 1
188 210 1
188 211 1
188 212 1
188 213 1
188 238 1
188 286 1
188 382 1
189 24 1
189 25 1
189 26 1
189 27 1
189 28 1
189 29 1
189 30 1
189 31 1
189 32 1
189 33 1
189 34 1
189 35 1
189 36 1
189 37 1
189 38 1
189 39 1
189 40 1
189 41 1
189 42 1
189 43 1
189 44 1
189 45 1
189 46 1
189 95 1
189 191 1
189 215 1
189 216 1
189 217 1
189 218 1
189 219 1
189 220 1
189 221 1
189 222 1
189 223 1
189 224 1
189 225 1
189 226 1
189 227 1
189 228 1
189 229 1
189 230 1
189 231 1
189 232 1
189 233 1
189 234 1
189 235 1
189 236 1
189 237 1
189 286 1
189 382 1
190 48 1
190 49 1
190 50 1
190 51 1
190 52 1
190 53 1
190 54 1
190 55 1
190 56 1
190 57 1
190 58 1
190 59 1
190 60 1
190 61 1
190 62 1
190 63 1
190 64 1
190 65 1
190 66 1
190 67 1
190 68 1
190 69 1
190 70 1
190 71 1
190 72 1
190 73 1
190 74 1
190 75 1
190 76 1
190 77 1
190 78 1
190 79 1
190 80 1
190 81 1
190 82 1
190 83 1
190 84 1
190 85 1
190 86 1
190 87 1
190 88 1
190 89 1
190 90 1
190 91 1
190 92 1
190 93 1
190 94 1
190 191 1
190 239 1
190 240 1
190 241 1
190 242 1
190 243 1
190 244 1
190 245 1
190 246 1
190 247 1
190 248 1
190 249 1
190 250 1
190 251 1
190 252 1
190 253 1
190 254 1
190 255 1
190 256 1
190 257 1
190 258 1
190 259 1
190 260 1
190 261 1
190 262 1
190 263 1
190 264 1
190 265 1
190 266 1
190 267 1
190 268 1
190 269 1
190 270 1
190 271 1
190 272 1
190 273 1
190 274 1
190 275 1
190 276 1
190 277 1
190 278 1
190 279 1
190 280 1
190 281 1
190 282 1
190 283 1
190 284 1
190 285 1
190 382 1
191 96 1
191 97 1
191 98 1
191 99 1
191 100 1
191 101 1
191 102 1
191 103 1
191 104 1
191 105 1
191 106 1
191 107 1
191 108 1
191 109 1
191 110 1
191 111 1
191 112 1
191 113 1
191 114 1
191 115 1
191 116 1
191 117 1
191 118 1
191 119 1
191 120 1
191 121 1
191 122 1
191 123 1
191 124 1
191 125 1
191 126 1
191 127 1
191 128 1
191 129 1
191 130 1
191 131 1
191 132 1
191 133 1
191 134 1
191 135 1
191 136 1
191 137 1
191 138 1
191 139 1
191 140 1
191 141 1
191 142 1
191 143 1
191 144 1
191 145 1
191 146 1
191 147 1
191 148 1
191 149 1
191 150 1
191 151 1
191 152 1
191 153 1
191 154 1
191 155 1
191 156 1
191 157 1
191 158 1
191 159 1
191 160 1
191 161 1
191 162 1
191 163 1
191 164 1
191 165 1
191 166 1
191 167 1
191 168 1
191 169 1
191 170 1
191 171 1
191 172 1
191 173 1
191 174 1
191 175 1
191 176 1
191 177 1
191 178 1
191 179 1
191 180 1
191 181 1
191 182 1
191 183 1
191 184 1
191 185 1
191 186 1
191 187 1
191 188 1
191 189 1
191 190 1
191 287 1
191 288 1
191 289 1
191 290 1
191 291 1
191 292 1
191 293 1
191 294 1
191 295 1
191 296 1
191 297 1
191 298 1
191 299 1
191 300 1
191 301 1
191 302 1
191 303 1
191 304 1
191 305 1
191 306 1
191 307 1
191 308 1
191 309 1
191 310 1
191 311 1
191 312 1
191 313 1
191 314 1
191 315 1
191 316 1
191 317 1
191 318 1
191 319 1
191 320 1
191 321 1
191 322 1
191 323 1
191 324 1
191 325 1
191 326 1
191 327 1
191 328 1
191 329 1
191 330 1
191 331 1
191 332 1
191 333 1
191 334 1
191 335 1
191 336 1
191 337 1
191 338 1
191 339 1
191 340 1
191 341 1
191 342 1
191 343 1
191 344 1
191 345 1
191 346 1
191 347 1
191 348 1
191 349 1
191 350 1
191 351 1
191 352 1
191 353 1
191 354 1
191 355 1
191 356 1
191 357 1
191 358 1
191 359 1
191 360 1
191 361 1
191 362 1
191 363 1
191 364 1
191 365 1
191 366 1
191 367 1
191 368 1
191 369 1
191 370 1
191 371 1
191 372 1
191 373 1
191 374 1
191 375 1
191 376 1
191 377 1
191 378 1
191 379 1
191 380 1
191 381 1
192 2 1
192 4 1
192 7 1
192 9 1
192 13 1
192 15 1
192 18 1
192 20 1
192 25 1
192 27 1
192 30 1
192 32 1
192 36 1
192 38 1
192 41 1
192 43 1
192 49 1
192 51 1
192 54 1
192 56 1
192 60 1
192 62 1
192 65 1
192 67 1
192 72 1
192 74 1
192 77 1
192 79 1
192 83 1
192 85 1
192 88 1
192 90 1
192 97 1
192 99 1
192 102 1
192 104 1
192 108 1
192 110 1
192 113 1
192 115 1
192 120 1
192 122 1
192 125 1
192 127 1
192 131 1
192 133 1
192 136 1
192 138 1
192 144 1
192 146 1
192 149 1
192 151 1
192 155 1
192 157 1
192 160 1
192 162 1
192 167 1
192 169 1
192 172 1
192 174 1
192 178 1
192 180 1
192 183 1
192 185 1
192 383 1
193 1 1
193 3 1
193 6 1
193 8 1
193 12 1
193 14 1
193 17 1
193 19 1
193 24 1
193 26 1
193 29 1
193 31 1
193 35 1
193 37 1
193 40 1
193 42 1
193 48 1
193 50 1
193 53 1
193 55 1
193 59 1
193 61 1
193 64 1
193 66 1
193 71 1
193 73 1
193 76 1
193 78 1
193 82 1
193 84 1
193 87 1
193 89 1
193 96 1
193 98 1
193 101 1
193 103 1
193 107 1
193 109 1
193 112 1
193 114 1
193 119 1
193 121 1
193 124 1
193 126 1
193 130 1
193 132 1
193 135 1
193 137 1
193 143 1
193 145 1
193 148 1
193 150 1
193 154 1
193 156 1
193 159 1
193 161 1
193 166 1
193 168 1
193 171 1
193 173 1
193 177 1
193 179 1
193 182 1
193 184 1
193 383 1
194 2 1
194 5 1
194 7 1
194 10 1
194 13 1
194 16 1
194 18 1
194 21 1
194 25 1
194 28 1
194 30 1
194 33 1
194 36 1
194 39 1
194 41 1
194 44 1
194 49 1
194 52 1
194 54 1
194 57 1
194 60 1
194 63 1
194 65 1
194 68 1
194 72 1
194 75 1
194 77 1
194 80 1
194 83 1
194 86 1
194 88 1
194 91 1
194 97 1
194 100 1
194 102 1
194 105 1
194 108 1
194 111 1
194 113 1
194 116 1
194 120 1
194 123 1
194 125 1
194 128 1
194 131 1
194 134 1
194 136 1
194 139 1
194 144 1
194 147 1
194 149 1
194 152 1
194 155 1
194 158 1
194 160 1
194 163 1
194 167 1
194 170 1
194 172 1
194 175 1
194 178 1
194 181 1
194 183 1
194 186 1
194 383 1
195 1 1
195 5 1
195 6 1
195 10 1
195 12 1
195 16 1
195 17 1
195 21 1
195 24 1
195 28 1
195 29 1
195 33 1
195 35 1
195 39 1
195 40 1
195 44 1
195 48 1
195 52 1
195 53 1
195 57 1
195 59 1
195 63 1
195 64 1
195 68 1
195 71 1
195 75 1
195 76 1
195 80 1
195 82 1
195 86 1
195 87 1
195 91 1
195 96 1
195 100 1
195 101 1
195 105 1
195 107 1
195 111 1
195 112 1
195 116 1
195 119 1
195 123 1
195 124 1
195 128 1
195 130 1
195 134 1
195 135 1
195 139 1
195 143 1
195 147 1
195 148 1
195 152 1
195 154 1
195 158 1
195 159 1
195 163 1
195 166 1
195 170 1
195 171 1
195 175 1
195 177 1
195 181 1
195 182 1
195 186 1
195 383 1
196 3 1
196 4 1
196 8 1
196 9 1
196 14 1
196 15 1
196 19 1
196 20 1
196 26 1
196 27 1
196 31 1
196 32 1
196 37 1
196 38 1
196 42 1
196 43 1
196 50 1
196 51 1
196 55 1
196 56 1
196 61 1
196 62 1
196 66 1
196 67 1
196 73 1
196 74 1
196 78 1
196 79 1
196 84 1
196 85 1
196 89 1
196 90 1
196 98 1
196 99 1
196 103 1
196 104 1
196 109 1
196 110 1
196 114 1
196 115 1
196 121 1
196 122 1
196 126 1
196 127 1
196 132 1
196 133 1
196 137 1
196 138 1
196 145 1
196 146 1
196 150 1
196 151 1
196 156 1
196 157 1
196 161 1
196 162 1
196 168 1
196 169 1
196 173 1
196 174 1
196 179 1
196 180 1
196 184 1
196 185 1
196 383 1
197 2 1
197 4 1
197 11 1
197 13 1
197 15 1
197 22 1
197 25 1
197 27 1
197 34 1
197 36 1
197 38 1
197 45 1
197 49 1
197 51 1
197 58 1
197 60 1
197 62 1
197 69 1
197 72 1
197 74 1
197 81 1
197 83 1
197 85 1
197 92 1
197 97 1
197 99 1
197 106 1
197 108 1
197 110 1
197 117 1
197 120 1
197 122 1
197 129 1
197 131 1
197 133 1
197 140 1
197 144 1
197 146 1
197 153 1
197 155 1
197 157 1
197 164 1
197 167 1
197 169 1
197 176 1
197 178 1
197 180 1
197 187 1
197 383 1
198 1 1
198 3 1
198 11 1
198 12 1
198 14 1
198 22 1
198 24 1
198 26 1
198 34 1
198 35 1
198 37 1
198 45 1
198 48 1
198 50 1
198 58 1
198 59 1
198 61 1
198 69 1
198 71 1
198 73 1
198 81 1
198 82 1
198 84 1
198 92 1
198 96 1
198 98 1
198 106 1
198 107 1
198 109 1
198 117 1
198 119 1
198 121 1
198 129 1
198 130 1
198 132 1
198 140 1
198 143 1
198 145 1
198 153 1
198 154 1
198 156 1
198 164 1
198 166 1
198 168 1
198 176 1
198 177 1
198 179 1
198 187 1
198 383 1
199 2 1
199 5 1
199 11 1
199 13 1
199 16 1
199 22 1
199 25 1
199 28 1
199 34 1
199 36 1
199 39 1
199 45 1
199 49 1
199 52 1
199 58 1
199 60 1
199 63 1
199 69 1
199 72 1
199 75 1
199 81 1
199 83 1
199 86 1
199 92 1
199 97 1
199 100 1
199 106 1
199 108 1
199 111 1
199 117 1
199 120 1
199 123 1
199 129 1
199 131 1
199 134 1
199 140 1
199 144 1
199 147 1
199 153 1
199 155 1
199 158 1
199 164 1
199 167 1
199 170 1
199 176 1
199 178 1
199 181 1
199 187 1
199 383 1
200 1 1
200 5 1
200 11 1
200 12 1
200 16 1
200 22 1
200 24 1
200 28 1
200 34 1
200 35 1
200 39 1
200 45 1
200 48 1
200 52 1
200 58 1
200 59 1
200 63 1
200 69 1
200 71 1
200 75 1
200 81 1
200 82 1
200 86 1
200 92 1
200 96 1
200 100 1
200 106 1
200 107 1
200 111 1
200 117 1
200 119 1
200 123 1
200 129 1
200 130 1
200 134 1
200 140 1
200 143 1
200 147 1
200 153 1
200 154 1
200 158 1
200 164 1
200 166 1
200 170 1
200 176 1
200 177 1
200 181 1
200 187 1
200 383 1
201 3 1
201 4 1
201 11 1
201 14 1
201 15 1
201 22 1
201 26 1
201 27 1
201 34 1
201 37 1
201 38 1
201 45 1
201 50 1
201 51 1
201 58 1
201 61 1
201 62 1
201 69 1
201 73 1
201 74 1
201 81 1
201 84 1
201 85 1
201 92 1
201 98 1
201 99 1
201 106 1
201 109 1
201 110 1
201 117 1
201 121 1
201 122 1
201 129 1
201 132 1
201 133 1
201 140 1
201 145 1
201 146 1
201 153 1
201 156 1
201 157 1
201 164 1
201 168 1
201 169 1
201 176 1
201 179 1
201 180 1
201 187 1
201 383 1
202 6 1
202 7 1
202 8 1
202 9 1
202 10 1
202 17 1
202 18 1
202 19 1
202 20 1
202 21 1
202 29 1
202 30 1
202 31 1
202 32 1
202 33 1
202 40 1
202 41 1
202 42 1
202 43 1
202 44 1
202 53 1
202 54 1
202 55 1
202 56 1
202 57 1
202 64 1
202 65 1
202 66 1
202 67 1
202 68 1
202 76 1
202 77 1
202 78 1
202 79 1
202 80 1
202 87 1
202 88 1
202 89 1
202 90 1
202 91 1
202 101 1
202 102 1
202 103 1
202 104 1
202 105 1
202 112 1
202 113 1
202 114 1
202 115 1
202 116 1
202 124 1
202 125 1
202 126 1
202 127 1
202 128 1
202 135 1
202 136 1
202 137 1
202 138 1
202 139 1
202 148 1
202 149 1
202 150 1
202 151 1
202 152 1
202 159 1
202 160 1
202 161 1
202 162 1
202 163 1
202 171 1
202 172 1
202 173 1
202 174 1
202 175 1
202 182 1
202 183 1
202 184 1
202 185 1
202 186 1
202 383 1
203 2 1
203 4 1
203 7 1
203 9 1
203 23 1
203 25 1
203 27 1
203 30 1
203 32 1
203 46 1
203 49 1
203 51 1
203 54 1
203 56 1
203 70 1
203 72 1
203 74 1
203 77 1
203 79 1
203 93 1
203 97 1
203 99 1
203 102 1
203 104 1
203 118 1
203 120 1
203 122 1
203 125 1
203 127 1
203 141 1
203 144 1
203 146 1
203 149 1
203 151 1
203 165 1
203 167 1
203 169 1
203 172 1
203 174 1
203 188 1
203 383 1
204 1 1
204 3 1
204 6 1
204 8 1
204 23 1
204 24 1
204 26 1
204 29 1
204 31 1
204 46 1
204 48 1
204 50 1
204 53 1
204 55 1
204 70 1
204 71 1
204 73 1
204 76 1
204 78 1
204 93 1
204 96 1
204 98 1
204 101 1
204 103 1
204 118 1
204 119 1
204 121 1
204 124 1
204 126 1
204 141 1
204 143 1
204 145 1
204 148 1
204 150 1
204 165 1
204 166 1
204 168 1
204 171 1
204 173 1
204 188 1
204 383 1
205 2 1
205 5 1
205 7 1
205 10 1
205 23 1
205 25 1
205 28 1
205 30 1
205 33 1
205 46 1
205 49 1
205 52 1
205 54 1
205 57 1
205 70 1
205 72 1
205 75 1
205 77 1
205 80 1
205 93 1
205 97 1
205 100 1
205 102 1
205 105 1
205 118 1
205 120 1
205 123 1
205 125 1
205 128 1
205 141 1
205 144 1
205 147 1
205 149 1
205 152 1
205 165 1
205 167 1
205 170 1
205 172 1
205 175 1
205 188 1
205 383 1
206 1 1
206 5 1
206 6 1
206 10 1
206 23 1
206 24 1
206 28 1
206 29 1
206 33 1
206 46 1
206 48 1
206 52 1
206 53 1
206 57 1
206 70 1
206 71 1
206 75 1
206 76 1
206 80 1
206 93 1
206 96 1
206 100 1
206 101 1
206 105 1
206 118 1
206 119 1
206 123 1
206 124 1
206 128 1
206 141 1
206 143 1
206 147 1
206 148 1
206 152 1
206 165 1
206 166 1
206 170 1
206 171 1
206 175 1
206 188 1
206 383 1
207 3 1
207 4 1
207 8 1
207 9 1
207 23 1
207 26 1
207 27 1
207 31 1
207 32 1
207 46 1
207 50 1
207 51 1
207 55 1
207 56 1
207 70 1
207 73 1
207 74 1
207 78 1
207 79 1
207 93 1
207 98 1
207 99 1
207 103 1
207 104 1
207 118 1
207 121 1
207 122 1
207 126 1
207 127 1
207 141 1
207 145 1
207 146 1
207 150 1
207 151 1
207 165 1
207 168 1
207 169 1
207 173 1
207 174 1
207 188 1
207 383 1
208 2 1
208 4 1
208 11 1
208 23 1
208 25 1
208 27 1
208 34 1
208 46 1
208 49 1
208 51 1
208 58 1
208 70 1
208 72 1
208 74 1
208 81 1
208 93 1
208 97 1
208 99 1
208 106 1
208 118 1
208 120 1
208 122 1
208 129 1
208 141 1
208 144 1
208 146 1
208 153 1
208 165 1
208 167 1
208 169 1
208 176 1
208 188 1
208 383 1
209 1 1
209 3 1
209 11 1
209 23 1
209 24 1
209 26 1
209 34 1
209 46 1
209 48 1
209 50 1
209 58 1
209 70 1
209 71 1
209 73 1
209 81 1
209 93 1
209 96 1
209 98 1
209 106 1
209 118 1
209 119 1
209 121 1
209 129 1
209 141 1
209 143 1
209 145 1
209 153 1
209 165 1
209 166 1
209 168 1
209 176 1
209 188 1
209 383 1
210 2 1
210 5 1
210 11 1
210 23 1
210 25 1
210 28 1
210 34 1
210 46 1
210 49 1
210 52 1
210 58 1
210 70 1
210 72 1
210 75 1
210 81 1
210 93 1
210 97 1
210 100 1
210 106 1
210 118 1
210 120 1
210 123 1
210 129 1
210 141 1
210 144 1
210 147 1
210 153 1
210 165 1
210 167 1
210 170 1
210 176 1
210 188 1
210 383 1
211 1 1
211 5 1
211 11 1
211 23 1
211 24 1
211 28 1
211 34 1
211 46 1
211 48 1
211 52 1
211 58 1
211 70 1
211 71 1
211 75 1
211 81 1
211 93 1
211 96 1
211 100 1
211 106 1
211 118 1
211 119 1
211 123 1
211 129 1
211 141 1
211 143 1
211 147 1
211 153 1
211 165 1
211 166 1
211 170 1
211 176 1
211 188 1
211 383 1
212 3 1
212 4 1
212 11 1
212 23 1
212 26 1
212 27 1
212 34 1
212 46 1
212 50 1
212 51 1
212 58 1
212 70 1
212 73 1
212 74 1
212 81 1
212 93 1
212 98 1
212 99 1
212 106 1
212 118 1
212 121 1
212 122 1
212 129 1
212 141 1
212 145 1
212 146 1
212 153 1
212 165 1
212 168 1
212 169 1
212 176 1
212 188 1
212 383 1
213 6 1
213 7 1
213 8 1
213 9 1
213 10 1
213 23 1
213 29 1
213 30 1
213 31 1
213 32 1
213 33 1
213 46 1
213 53 1
213 54 1
213 55 1
213 56 1
213 57 1
213 70 1
213 76 1
213 77 1
213 78 1
213 79 1
213 80 1
213 93 1
213 101 1
213 102 1
213 103 1
213 104 1
213 105 1
213 118 1
213 124 1
213 125 1
213 126 1
213 127 1
213 128 1
213 141 1
213 148 1
213 149 1
213 150 1
213 151 1
213 152 1
213 165 1
213 171 1
213 172 1
213 173 1
213 174 1
213 175 1
213 188 1
213 383 1
214 12 1
214 13 1
214 14 1
214 15 1
214 16 1
214 17 1
214 18 1
214 19 1
214 20 1
214 21 1
214 22 1
214 35 1
214 36 1
214 37 1
214 38 1
214 39 1
214 40 1
214 41 1
214 42 1
214 43 1
214 44 1
214 45 1
214 59 1
214 60 1
214 61 1
214 62 1
214 63 1
214 64 1
214 65 1
214 66 1
214 67 1
214 68 1
214 69 1
214 82 1
214 83 1
214 84 1
214 85 1
214 86 1
214 87 1
214 88 1
214 89 1
214 90 1
214 91 1
214 92 1
214 107 1
214 108 1
214 109 1
214 110 1
214 111 1
214 112 1
214 113 1
214 114 1
214 115 1
214 116 1
214 117 1
214 130 1
214 131 1
214 132 1
214 133 1
214 134 1
214 135 1
214 136 1
214 137 1
214 138 1
214 139 1
214 140 1
214 154 1
214 155 1
214 156 1
214 157 1
214 158 1
214 159 1
214 160 1
214 161 1
214 162 1
214 163 1
214 164 1
214 177 1
214 178 1
214 179 1
214 180 1
214 181 1
214 182 1
214 183 1
214 184 1
214 185 1
214 186 1
214 187 1
214 383 1
215 2 1
215 4 1
215 7 1
215 9 1
215 13 1
215 15 1
215 18 1
215 20 1
215 47 1
215 49 1
215 51 1
215 54 1
215 56 1
215 60 1
215 62 1
215 65 1
215 67 1
215 94 1
215 97 1
215 99 1
215 102 1
215 104 1
215 108 1
215 110 1
215 113 1
215 115 1
215 142 1
215 144 1
215 146 1
215 149 1
215 151 1
215 155 1
215 157 1
215 160 1
215 162 1
215 189 1
215 383 1
216 1 1
216 3 1
216 6 1
216 8 1
216 12 1
216 14 1
216 17 1
216 19 1
216 47 1
216 48 1
216 50 1
216 53 1
216 55 1
216 59 1
216 61 1
216 64 1
216 66 1
216 94 1
216 96 1
216 98 1
216 101 1
216 103 1
216 107 1
216 109 1
216 112 1
216 114 1
216 142 1
216 143 1
216 145 1
216 148 1
216 150 1
216 154 1
216 156 1
216 159 1
216 161 1
216 189 1
216 383 1
217 2 1
217 5 1
217 7 1
217 10 1
217 13 1
217 16 1
217 18 1
217 21 1
217 47 1
217 49 1
217 52 1
217 54 1
217 57 1
217 60 1
217 63 1
217 65 1
217 68 1
217 94 1
217 97 1
217 100 1
217 102 1
217 105 1
217 108 1
217 111 1
217 113 1
217 116 1
217 142 1
217 144 1
217 147 1
217 149 1
217 152 1
217 155 1
217 158 1
217 160 1
217 163 1
217 189 1
217 383 1
218 1 1
218 5 1
218 6 1
218 10 1
218 12 1
218 16 1
218 17 1
218 21 1
218 47 1
218 48 1
218 52 1
218 53 1
218 57 1
218 59 1
218 63 1
218 64 1
218 68 1
218 94 1
218 96 1
218 100 1
218 101 1
218 105 1
218 107 1
218 111 1
218 112 1
218 116 1
218 142 1
218 143 1
218 147 1
218 148 1
218 152 1
218 154 1
218 158 1
218 159 1
218 163 1
218 189 1
218 383 1
219 3 1
219 4 1
219 8 1
219 9 1
219 14 1
219 15 1
219 19 1
219 20 1
219 47 1
219 50 1
219 51 1
219 55 1
219 56 1
219 61 1
219 62 1
219 66 1
219 67 1
219 94 1
219 98 1
219 99 1
219 103 1
219 104 1
219 109 1
219 110 1
219 114 1
219 115 1
219 142 1
219 145 1
219 146 1
219 150 1
219 151 1
219 156 1
219 157 1
219 161 1
219 162 1
219 189 1
219 383 1
220 2 1
220 4 1
220 11 1
220 13 1
220 15 1
220 22 1
220 47 1
220 49 1
220 51 1
220 58 1
220 60 1
220 62 1
220 69 1
220 94 1
220 97 1
220 99 1
220 106 1
220 108 1
220 110 1
220 117 1
220 142 1
220 144 1
220 146 1
220 153 1
220 155 1
220 157 1
220 164 1
220 189 1
220 383 1
221 1 1
221 3 1
221 11 1
221 12 1
221 14 1
221 22 1
221 47 1
221 48 1
221 50 1
221 58 1
221 59 1
221 61 1
221 69 1
221 94 1
221 96 1
221 98 1
221 106 1
221 107 1
221 109 1
221 117 1
221 142 1
221 143 1
221 145 1
221 153 1
221 154 1
221 156 1
221 164 1
221 189 1
221 383 1
222 2 1
222 5 1
222 11 1
222 13 1
222 16 1
222 22 1
222 47 1
222 49 1
222 52 1
222 58 1
222 60 1
222 63 1
222 69 1
222 94 1
222 97 1
222 100 1
222 106 1
222 108 1
222 111 1
222 117 1
222 142 1
222 144 1
222 147 1
222 153 1
222 155 1
222 158 1
222 164 1
222 189 1
222 383 1
223 1 1
223 5 1
223 11 1
223 12 1
223 16 1
223 22 1
223 47 1
223 48 1
223 52 1
223 58 1
223 59 1
223 63 1
223 69 1
223 94 1
223 96 1
223 100 1
223 106 1
223 107 1
223 111 1
223 117 1
223 142 1
223 143 1
223 147 1
223 153 1
223 154 1
223 158 1
223 164 1
223 189 1
223 383 1
224 3 1
224 4 1
224 11 1
224 14 1
224 15 1
224 22 1
224 47 1
224 50 1
224 51 1
224 58 1
224 61 1
224 62 1
224 69 1
224 94 1
224 98 1
224 99 1
224 106 1
224 109 1
224 110 1
224 117 1
224 142 1
224 145 1
224 146 1
224 153 1
224 156 1
224 157 1
224 164 1
224 189 1
224 383 1
225 6 1
225 7 1
225 8 1
225 9 1
225 10 1
225 17 1
225 18 1
225 19 1
225 20 1
225 21 1
225 47 1
225 53 1
225 54 1
225 55 1
225 56 1
225 57 1
225 64 1
225 65 1
225 66 1
225 67 1
225 68 1
225 94 1
225 101 1
225 102 1
225 103 1
225 104 1
225 105 1
225 112 1
225 113 1
225 114 1
225 115 1
225 116 1
225 142 1
225 148 1
225 149 1
225 150 1
225 151 1
225 152 1
225 159 1
225 160 1
225 161 1
225 162 1
225 163 1
225 189 1
225 383 1
226 2 1
226 4 1
226 7 1
226 9 1
226 23 1
226 47 1
226 49 1
226 51 1
226 54 1
226 56 1
226 70 1
226 94 1
226 97 1
226 99 1
226 102 1
226 104 1
226 118 1
226 142 1
226 144 1
226 146 1
226 149 1
226 151 1
226 165 1
226 189 1
226 383 1
227 1 1
227 3 1
227 6 1
227 8 1
227 23 1
227 47 1
227 48 1
227 50 1
227 53 1
227 55 1
227 70 1
227 94 1
227 96 1
227 98 1
227 101 1
227 103 1
227 118 1
227 142 1
227 143 1
227 145 1
227 148 1
227 150 1
227 165 1
227 189 1
227 383 1
228 2 1
228 5 1
228 7 1
228 10 1
228 23 1
228 47 1
228 49 1
228 52 1
228 54 1
228 57 1
228 70 1
228 94 1
228 97 1
228 100 1
228 102 1
228 105 1
228 118 1
228 142 1
228 144 1
228 147 1
228 149 1
228 152 1
228 165 1
228 189 1
228 383 1
229 1 1
229 5 1
229 6 1
229 10 1
229 23 1
229 47 1
229 48 1
229 52 1
229 53 1
229 57 1
229 70 1
229 94 1
229 96 1
229 100 1
229 101 1
229 105 1
229 118 1
229 142 1
229 143 1
229 147 1
229 148 1
229 152 1
229 165 1
229 189 1
229 383 1
230 3 1
230 4 1
230 8 1
230 9 1
230 23 1
230 47 1
230 50 1
230 51 1
230 55 1
230 56 1
230 70 1
230 94 1
230 98 1
230 99 1
230 103 1
230 104 1
230 118 1
230 142 1
230 145 1
230 146 1
230 150 1
230 151 1
230 165 1
230 189 1
230 383 1
231 2 1
231 4 1
231 11 1
231 23 1
231 47 1
231 49 1
231 51 1
231 58 1
231 70 1
231 94 1
231 97 1
231 99 1
231 106 1
231 118 1
231 142 1
231 144 1
231 146 1
231 153 1
231 165 1
231 189 1
231 383 1
232 1 1
232 3 1
232 11 1
232 23 1
232 47 1
232 48 1
232 50 1
232 58 1
232 70 1
232 94 1
232 96 1
232 98 1
232 106 1
232 118 1
232 142 1
232 143 1
232 145 1
232 153 1
232 165 1
232 189 1
232 383 1
233 2 1
233 5 1
233 11 1
233 23 1
233 47 1
233 49 1
233 52 1
233 58 1
233 70 1
233 94 1
233 97 1
233 100 1
233 106 1
233 118 1
233 142 1
233 144 1
233 147 1
233 153 1
233 165 1
233 189 1
233 383 1
234 1 1
234 5 1
234 11 1
234 23 1
234 47 1
234 48 1
234 52 1
234 58 1
234 70 1
234 94 1
234 96 1
234 100 1
234 106 1
234 118 1
234 142 1
234 143 1
234 147 1
234 153 1
234 165 1
234 189 1
234 383 1
235 3 1
235 4 1
235 11 1
235 23 1
235 47 1
235 50 1
235 51 1
235 58 1
235 70 1
235 94 1
235 98 1
235 99 1
235 106 1
235 118 1
235 142 1
235 145 1
235 146 1
235 153 1
235 165 1
235 189 1
235 383 1
236 6 1
236 7 1
236 8 1
236 9 1
236 10 1
236 23 1
236 47 1
236 53 1
236 54 1
236 55 1
236 56 1
236 57 1
236 70 1
236 94 1
236 101 1
236 102 1
236 103 1
236 104 1
236 105 1
236 118 1
236 142 1
236 148 1
236 149 1
236 150 1
236 151 1
236 152 1
236 165 1
236 189 1
236 383 1
237 12 1
237 13 1
237 14 1
237 15 1
237 16 1
237 17 1
237 18 1
237 19 1
237 20 1
237 21 1
237 22 1
237 47 1
237 59 1
237 60 1
237 61 1
237 62 1
237 63 1
237 64 1
237 65 1
237 66 1
237 67 1
237 68 1
237 69 1
237 94 1
237 107 1
237 108 1
237 109 1
237 110 1
237 111 1
237 112 1
237 113 1
237 114 1
237 115 1
237 116 1
237 117 1
237 142 1
237 154 1
237 155 1
237 156 1
237 157 1
237 158 1
237 159 1
237 160 1
237 161 1
237 162 1
237 163 1
237 164 1
237 189 1
237 383 1
238 24 1
238 25 1
238 26 1
238 27 1
238 28 1
238 29 1
238 30 1
238 31 1
238 32 1
238 33 1
238 34 1
238 35 1
238 36 1
238 37 1
238 38 1
238 39 1
238 40 1
238 41 1
238 42 1
238 43 1
238 44 1
238 45 1
238 46 1
238 71 1
238 72 1
238 73 1
238 74 1
238 75 1
238 76 1
238 77 1
238 78 1
238 79 1
238 80 1
238 81 1
238 82 1
238 83 1
238 84 1
238 85 1
238 86 1
238 87 1
238 88 1
238 89 1
238 90 1
238 91 1
238 92 1
238 93 1
238 119 1
238 120 1
238 121 1
238 122 1
238 123 1
238 124 1
238 125 1
238 126 1
238 127 1
238 128 1
238 129 1
238 130 1
238 131 1
238 132 1
238 133 1
238 134 1
238 135 1
238 136 1
238 137 1
238 138 1
238 139 1
238 140 1
238 141 1
238 166 1
238 167 1
238 168 1
238 169 1
238 170 1
238 171 1
238 172 1
238 173 1
238 174 1
238 175 1
238 176 1
238 177 1
238 178 1
238 179 1
238 180 1
238 181 1
238 182 1
238 183 1
238 184 1
238 185 1
238 186 1
238 187 1
238 188 1
238 383 1
239 2 1
239 4 1
239 7 1
239 9 1
239 13 1
239 15 1
239 18 1
239 20 1
239 25 1
239 27 1
239 30 1
239 32 1
239 36 1
239 38 1
239 41 1
239 43 1
239 95 1
239 97 1
239 99 1
239 102 1
239 104 1
239 108 1
239 110 1
239 113 1
239 115 1
239 120 1
239 122 1
239 125 1
239 127 1
239 131 1
239 133 1
239 136 1
239 138 1
239 190 1
239 383 1
240 1 1
240 3 1
240 6 1
240 8 1
240 12 1
240 14 1
240 17 1
240 19 1
240 24 1
240 26 1
240 29 1
240 31 1
240 35 1
240 37 1
240 40 1
240 42 1
240 95 1
240 96 1
240 98 1
240 101 1
240 103 1
240 107 1
240 109 1
240 112 1
240 114 1
240 119 1
240 121 1
240 124 1
240 126 1
240 130 1
240 132 1
240 135 1
240 137 1
240 190 1
240 383 1
241 2 1
241 5 1
241 7 1
241 10 1
241 13 1
241 16 1
241 18 1
241 21 1
241 25 1
241 28 1
241 30 1
241 33 1
241 36 1
241 39 1
241 41 1
241 44 1
241 95 1
241 97 1
241 100 1
241 102 1
241 105 1
241 108 1
241 111 1
241 113 1
241 116 1
241 120 1
241 123 1
241 125 1
241 128 1
241 131 1
241 134 1
241 136 1
241 139 1
241 190 1
241 383 1
242 1 1
242 5 1
242 6 1
242 10 1
242 12 1
242 16 1
242 17 1
242 21 1
242 24 1
242 28 1
242 29 1
242 33 1
242 35 1
242 39 1
242 40 1
242 44 1
242 95 1
242 96 1
242 100 1
242 101 1
242 105 1
242 107 1
242 111 1
242 112 1
242 116 1
242 119 1
242 123 1
242 124 1
242 128 1
242 130 1
242 134 1
242 135 1
242 139 1
242 190 1
242 383 1
243 3 1
243 4 1
243 8 1
243 9 1
243 14 1
243 15 1
243 19 1
243 20 1
243 26 1
243 27 1
243 31 1
243 32 1
243 37 1
243 38 1
243 42 1
243 43 1
243 95 1
243 98 1
243 99 1
243 103 1
243 104 1
243 109 1
243 110 1
243 114 1
243 115 1
243 121 1
243 122 1
243 126 1
243 127 1
243 132 1
243 133 1
243 137 1
243 138 1
243 190 1
243 383 1
244 2 1
244 4 1
244 11 1
244 13 1
244 15 1
244 22 1
244 25 1
244 27 1
244 34 1
244 36 1
244 38 1
244 45 1
244 95 1
244 97 1
244 99 1
244 106 1
244 108 1
244 110 1
244 117 1
244 120 1
244 122 1
244 129 1
244 131 1
244 133 1
244 140 1
244 190 1
244 383 1
245 1 1
245 3 1
245 11 1
245 12 1
245 14 1
245 22 1
245 24 1
245 26 1
245 34 1
245 35 1
245 37 1
245 45 1
245 95 1
245 96 1
245 98 1
245 106 1
245 107 1
245 109 1
245 117 1
245 119 1
245 121 1
245 129 1
245 130 1
245 132 1
245 140 1
245 190 1
245 383 1
246 2 1
246 5 1
246 11 1
246 13 1
246 16 1
246 22 1
246 25 1
246 28 1
246 34 1
246 36 1
246 39 1
246 45 1
246 95 1
246 97 1
246 100 1
246 106 1
246 108 1
246 111 1
246 117 1
246 120 1
246 123 1
246 129 1
246 131 1
246 134 1
246 140 1
246 190 1
246 383 1
247 1 1
247 5 1
247 11 1
247 12 1
247 16 1
247 22 1
247 24 1
247 28 1
247 34 1
247 35 1
247 39 1
247 45 1
247 95 1
247 96 1
247 100 1
247 106 1
247 107 1
247 111 1
247 117 1
247 119 1
247 123 1
247 129 1
247 130 1
247 134 1
247 140 1
247 190 1
247 383 1
248 3 1
248 4 1
248 11 1
248 14 1
248 15 1
248 22 1
248 26 1
248 27 1
248 34 1
248 37 1
248 38 1
248 45 1
248 95 1
248 98 1
248 99 1
248 106 1
248 109 1
248 110 1
248 117 1
248 121 1
248 122 1
248 129 1
248 132 1
248 133 1
248 140 1
248 190 1
248 383 1
249 6 1
249 7 1
249 8 1
249 9 1
249 10 1
249 17 1
249 18 1
249 19 1
249 20 1
249 21 1
249 29 1
249 30 1
249 31 1
249 32 1
249 33 1
249 40 1
249 41 1
249 42 1
249 43 1
249 44 1
249 95 1
249 101 1
249 102 1
249 103 1
249 104 1
249 105 1
249 112 1
249 113 1
249 114 1
249 115 1
249 116 1
249 124 1
249 125 1
249 126 1
249 127 1
249 128 1
249 135 1
249 136 1
249 137 1
249 138 1
249 139 1
249 190 1
249 383 1
250 2 1
250 4 1
250 7 1
250 9 1
250 23 1
250 25 1
250 27 1
250 30 1
250 32 1
250 46 1
250 95 1
250 97 1
250 99 1
250 102 1
250 104 1
250 118 1
250 120 1
250 122 1
250 125 1
250 127 1
250 141 1
250 190 1
250 383 1
251 1 1
251 3 1
251 6 1
251 8 1
251 23 1
251 24 1
251 26 1
251 29 1
251 31 1
251 46 1
251 95 1
251 96 1
251 98 1
251 101 1
251 103 1
251 118 1
251 119 1
251 121 1
251 124 1
251 126 1
251 141 1
251 190 1
251 383 1
252 2 1
252 5 1
252 7 1
252 10 1
252 23 1
252 25 1
252 28 1
252 30 1
252 33 1
252 46 1
252 95 1
252 97 1
252 100 1
252 102 1
252 105 1
252 118 1
252 120 1
252 123 1
252 125 1
252 128 1
252 141 1
252 190 1
252 383 1
253 1 1
253 5 1
253 6 1
253 10 1
253 23 1
253 24 1
253 28 1
253 29 1
253 33 1
253 46 1
253 95 1
253 96 1
253 100 1
253 101 1
253 105 1
253 118 1
253 119 1
253 123 1
253 124 1
253 128 1
253 141 1
253 190 1
253 383 1
254 3 1
254 4 1
254 8 1
254 9 1
254 23 1
254 26 1
254 27 1
254 31 1
254 32 1
254 46 1
254 95 1
254 98 1
254 99 1
254 103 1
254 104 1
254 118 1
254 121 1
254 122 1
254 126 1
254 127 1
254 141 1
254 190 1
254 383 1
255 2 1
255 4 1
255 11 1
255 23 1
255 25 1
255 27 1
255 34 1
255 46 1
255 95 1
255 97 1
255 99 1
255 106 1
255 118 1
255 120 1
255 122 1
255 129 1
255 141 1
255 190 1
255 383 1
256 1 1
256 3 1
256 11 1
256 23 1
256 24 1
256 26 1
256 34 1
256 46 1
256 95 1
256 96 1
256 98 1
256 106 1
256 118 1
256 119 1
256 121 1
256 129 1
256 141 1
256 190 1
256 383 1
257 2 1
257 5 1
257 11 1
257 23 1
257 25 1
257 28 1
257 34 1
257 46 1
257 95 1
257 97 1
257 100 1
257 106 1
257 118 1
257 120 1
257 123 1
257 129 1
257 141 1
257 190 1
257 383 1
258 1 1
258 5 1
258 11 1
258 23 1
258 24 1
258 28 1
258 34 1
258 46 1
258 95 1
258 96 1
258 100 1
258 106 1
258 118 1
258 119 1
258 123 1
258 129 1
258 141 1
258 190 1
258 383 1
259 3 1
259 4 1
259 11 1
259 23 1
259 26 1
259 27 1
259 34 1
259 46 1
259 95 1
259 98 1
259 99 1
259 106 1
259 118 1
259 121 1
259 122 1
259 129 1
259 141 1
259 190 1
259 383 1
260 6 1
260 7 1
260 8 1
260 9 1
260 10 1
260 23 1
260 29 1
260 30 1
260 31 1
260 32 1
260 33 1
260 46 1
260 95 1
260 101 1
260 102 1
260 103 1
260 104 1
260 105 1
260 118 1
260 124 1
260 125 1
260 126 1
260 127 1
260 128 1
260 141 1
260 190 1
260 383 1
261 12 1
261 13 1
261 14 1
261 15 1
261 16 1
261 17 1
261 18 1
261 19 1
261 20 1
261 21 1
261 22 1
261 35 1
261 36 1
261 37 1
261 38 1
261 39 1
261 40 1
261 41 1
261 42 1
261 43 1
261 44 1
261 45 1
261 95 1
261 107 1
261 108 1
261 109 1
261 110 1
261 111 1
261 112 1
261 113 1
261 114 1
261 115 1
261 116 1
261 117 1
261 130 1
261 131 1
261 132 1
261 133 1
261 134 1
261 135 1
261 136 1
261 137 1
261 138 1
261 139 1
261 140 1
261 190 1
261 383 1
262 2 1
262 4 1
262 7 1
262 9 1
262 13 1
262 15 1
262 18 1
262 20 1
262 47 1
262 95 1
262 97 1
262 99 1
262 102 1
262 104 1
262 108 1
262 110 1
262 113 1
262 115 1
262 142 1
262 190 1
262 383 1
263 1 1
263 3 1
263 6 1
263 8 1
263 12 1
263 14 1
263 17 1
263 19 1
263 47 1
263 95 1
263 96 1
263 98 1
263 101 1
263 103 1
263 107 1
263 109 1
263 112 1
263 114 1
263 142 1
263 190 1
263 383 1
264 2 1
264 5 1
264 7 1
264 10 1
264 13 1
264 16 1
264 18 1
264 21 1
264 47 1
264 95 1
264 97 1
264 100 1
264 102 1
264 105 1
264 108 1
264 111 1
264 113 1
264 116 1
264 142 1
264 190 1
264 383 1
265 1 1
265 5 1
265 6 1
265 10 1
265 12 1
265 16 1
265 17 1
265 21 1
265 47 1
265 95 1
265 96 1
265 100 1
265 101 1
265 105 1
265 107 1
265 111 1
265 112 1
265 116 1
265 142 1
265 190 1
265 383 1
266 3 1
266 4 1
266 8 1
266 9 1
266 14 1
266 15 1
266 19 1
266 20 1
266 47 1
266 95 1
266 98 1
266 99 1
266 103 1
266 104 1
266 109 1
266 110 1
266 114 1
266 115 1
266 142 1
266 190 1
266 383 1
267 2 1
267 4 1
267 11 1
267 13 1
267 15 1
267 22 1
267 47 1
267 95 1
267 97 1
267 99 1
267 106 1
267 108 1
267 110 1
267 117 1
267 142 1
267 190 1
267 383 1
268 1 1
268 3 1
268 11 1
268 12 1
268 14 1
268 22 1
268 47 1
268 95 1
268 96 1
268 98 1
268 106 1
268 107 1
268 109 1
268 117 1
268 142 1
268 190 1
268 383 1
269 2 1
269 5 1
269 11 1
269 13 1
269 16 1
269 22 1
269 47 1
269 95 1
269 97 1
269 100 1
269 106 1
269 108 1
269 111 1
269 117 1
269 142 1
269 190 1
269 383 1
270 1 1
270 5 1
270 11 1
270 12 1
270 16 1
270 22 1
270 47 1
270 95 1
270 96 1
270 100 1
270 106 1
270 107 1
270 111 1
270 117 1
270 142 1
270 190 1
270 383 1
271 3 1
271 4 1
271 11 1
271 14 1
271 15 1
271 22 1
271 47 1
271 95 1
271 98 1
271 99 1
271 106 1
271 109 1
271 110 1
271 117 1
271 142 1
271 190 1
271 383 1
272 6 1
272 7 1
272 8 1
272 9 1
272 10 1
272 17 1
272 18 1
272 19 1
272 20 1
272 21 1
272 47 1
272 95 1
272 101 1
272 102 1
272 103 1
272 104 1
272 105 1
272 112 1
272 113 1
272 114 1
272 115 1
272 116 1
272 142 1
272 190 1
272 383 1
273 2 1
273 4 1
273 7 1
273 9 1
273 23 1
273 47 1
273 95 1
273 97 1
273 99 1
273 102 1
273 104 1
273 118 1
273 142 1
273 190 1
273 383 1
274 1 1
274 3 1
274 6 1
274 8 1
274 23 1
274 47 1
274 95 1
274 96 1
274 98 1
274 101 1
274 103 1
274 118 1
274 142 1
274 190 1
274 383 1
275 2 1
275 5 1
275 7 1
275 10 1
275 23 1
275 47 1
275 95 1
275 97 1
275 100 1
275 102 1
275 105 1
275 118 1
275 142 1
275 190 1
275 383 1
276 1 1
276 5 1
276 6 1
276 10 1
276 23 1
276 47 1
276 95 1
276 96 1
276 100 1
276 101 1
276 105 1
276 118 1
276 142 1
276 190 1
276 383 1
277 3 1
277 4 1
277 8 1
277 9 1
277 23 1
277 47 1
277 95 1
277 98 1
277 99 1
277 103 1
277 104 1
277 118 1
277 142 1
277 190 1
277 383 1
278 2 1
278 4 1
278 11 1
278 23 1
278 47 1
278 95 1
278 97 1
278 99 1
278 106 1
278 118 1
278 142 1
278 190 1
278 383 1
279 1 1
279 3 1
279 11 1
279 23 1
279 47 1
279 95 1
279 96 1
279 98 1
279 106 1
279 118 1
279 142 1
279 190 1
279 383 1
280 2 1
280 5 1
280 11 1
280 23 1
280 47 1
280 95 1
280 97 1
280 100 1
280 106 1
280 118 1
280 142 1
280 190 1
280 383 1
281 1 1
281 5 1
281 11 1
281 23 1
281 47 1
281 95 1
281 96 1
281 100 1
281 106 1
281 118 1
281 142 1
281 190 1
281 383 1
282 3 1
282 4 1
282 11 1
282 23 1
282 47 1
282 95 1
282 98 1
282 99 1
282 106 1
282 118 1
282 142 1
282 190 1
282 383 1
283 6 1
283 7 1
283 8 1
283 9 1
283 10 1
283 23 1
283 47 1
283 95 1
283 101 1
283 102 1
283 103 1
283 104 1
283 105 1
283 118 1
283 142 1
283 190 1
283 383 1
284 12 1
284 13 1
284 14 1
284 15 1
284 16 1
284 17 1
284 18 1
284 19 1
284 20 1
284 21 1
284 22 1
284 47 1
284 95 1
284 107 1
284 108 1
284 109 1
284 110 1
284 111 1
284 112 1
284 113 1
284 114 1
284 115 1
284 116 1
284 117 1
284 142 1
284 190 1
284 383 1
285 24 1
285 25 1
285 26 1
285 27 1
285 28 1
285 29 1
285 30 1
285 31 1
285 32 1
285 33 1
285 34 1
285 35 1
285 36 1
285 37 1
285 38 1
285 39 1
285 40 1
285 41 1
285 42 1
285 43 1
285 44 1
285 45 1
285 46 1
285 95 1
285 119 1
285 120 1
285 121 1
285 122 1
285 123 1
285 124 1
285 125 1
285 126 1
285 127 1
285 128 1
285 129 1
285 130 1
285 131 1
285 132 1
285 133 1
285 134 1
285 135 1
285 136 1
285 137 1
285 138 1
285 139 1
285 140 1
285 141 1
285 190 1
285 383 1
286 48 1
286 49 1
286 50 1
286 51 1
286 52 1
286 53 1
286 54 1
286 55 1
286 56 1
286 57 1
286 58 1
286 59 1
286 60 1
286 61 1
286 62 1
286 63 1
286 64 1
286 65 1
286 66 1
286 67 1
286 68 1
286 69 1
286 70 1
286 71 1
286 72 1
286 73 1
286 74 1
286 75 1
286 76 1
286 77 1
286 78 1
286 79 1
286 80 1
286 81 1
286 82 1
286 83 1
286 84 1
286 85 1
286 86 1
286 87 1
286 88 1
286 89 1
286 90 1
286 91 1
286 92 1
286 93 1
286 94 1
286 143 1
286 144 1
286 145 1
286 146 1
286 147 1
286 148 1
286 149 1
286 150 1
286 151 1
286 152 1
286 153 1
286 154 1
286 155 1
286 156 1
286 157 1
286 158 1
286 159 1
286 160 1
286 161 1
286 162 1
286 163 1
286 164 1
286 165 1
286 166 1
286 167 1
286 168 1
286 169 1
286 170 1
286 171 1
286 172 1
286 173 1
286 174 1
286 175 1
286 176 1
286 177 1
286 178 1
286 179 1
286 180 1
286 181 1
286 182 1
286 183 1
286 184 1
286 185 1
286 186 1
286 187 1
286 188 1
286 189 1
286 383 1
287 2 1
287 4 1
287 7 1
287 9 1
287 13 1
287 15 1
287 18 1
287 20 1
287 25 1
287 27 1
287 30 1
287 32 1
287 36 1
287 38 1
287 41 1
287 43 1
287 49 1
287 51 1
287 54 1
287 56 1
287 60 1
287 62 1
287 65 1
287 67 1
287 72 1
287 74 1
287 77 1
287 79 1
287 83 1
287 85 1
287 88 1
287 90 1
287 191 1
287 383 1
288 1 1
288 3 1
288 6 1
288 8 1
288 12 1
288 14 1
288 17 1
288 19 1
288 24 1
288 26 1
288 29 1
288 31 1
288 35 1
288 37 1
288 40 1
288 42 1
288 48 1
288 50 1
288 53 1
288 55 1
288 59 1
288 61 1
288 64 1
288 66 1
288 71 1
288 73 1
288 76 1
288 78 1
288 82 1
288 84 1
288 87 1
288 89 1
288 191 1
288 383 1
289 2 1
289 5 1
289 7 1
289 10 1
289 13 1
289 16 1
289 18 1
289 21 1
289 25 1
289 28 1
289 30 1
289 33 1
289 36 1
289 39 1
289 41 1
289 44 1
289 49 1
289 52 1
289 54 1
289 57 1
289 60 1
289 63 1
289 65 1
289 68 1
289 72 1
289 75 1
289 77 1
289 80 1
289 83 1
289 86 1
289 88 1
289 91 1
289 191 1
289 383 1
290 1 1
290 5 1
290 6 1
290 10 1
290 12 1
290 16 1
290 17 1
290 21 1
290 24 1
290 28 1
290 29 1
290 33 1
290 35 1
290 39 1
290 40 1
290 44 1
290 48 1
290 52 1
290 53 1
290 57 1
290 59 1
290 63 1
290 64 1
290 68 1
290 71 1
290 75 1
290 76 1
290 80 1
290 82 1
290 86 1
290 87 1
290 91 1
290 191 1
290 383 1
291 3 1
291 4 1
291 8 1
291 9 1
291 14 1
291 15 1
291 19 1
291 20 1
291 26 1
291 27 1
291 31 1
291 32 1
291 37 1
291 38 1
291 42 1
291 43 1
291 50 1
291 51 1
291 55 1
291 56 1
291 61 1
291 62 1
291 66 1
291 67 1
291 73 1
291 74 1
291 78 1
291 79 1
291 84 1
291 85 1
291 89 1
291 90 1
291 191 1
291 383 1
292 2 1
292 4 1
292 11 1
292 13 1
292 15 1
292 22 1
292 25 1
292 27 1
292 34 1
292 36 1
292 38 1
292 45 1
292 49 1
292 51 1
292 58 1
292 60 1
292 62 1
292 69 1
292 72 1
292 74 1
292 81 1
292 83 1
292 85 1
292 92 1
292 191 1
292 383 1
293 1 1
293 3 1
293 11 1
293 12 1
293 14 1
293 22 1
293 24 1
293 26 1
293 34 1
293 35 1
293 37 1
293 45 1
293 48 1
293 50 1
293 58 1
293 59 1
293 61 1
293 69 1
293 71 1
293 73 1
293 81 1
293 82 1
293 84 1
293 92 1
293 191 1
293 383 1
294 2 1
294 5 1
294 11 1
294 13 1
294 16 1
294 22 1
294 25 1
294 28 1
294 34 1
294 36 1
294 39 1
294 45 1
294 49 1
294 52 1
294 58 1
294 60 1
294 63 1
294 69 1
294 72 1
294 75 1
294 81 1
294 83 1
294 86 1
294 92 1
294 191 1
294 383 1
295 1 1
295 5 1
295 11 1
295 12 1
295 16 1
295 22 1
295 24 1
295 28 1
295 34 1
295 35 1
295 39 1
295 45 1
295 48 1
295 52 1
295 58 1
295 59 1
295 63 1
295 69 1
295 71 1
295 75 1
295 81 1
295 82 1
295 86 1
295 92 1
295 191 1
295 383 1
296 3 1
296 4 1
296 11 1
296 14 1
296 15 1
296 22 1
296 26 1
296 27 1
296 34 1
296 37 1
296 38 1
296 45 1
296 50 1
296 51 1
296 58 1
296 61 1
296 62 1
296 69 1
296 73 1
296 74 1
296 81 1
296 84 1
296 85 1
296 92 1
296 191 1
296 383 1
297 6 1
297 7 1
297 8 1
297 9 1
297 10 1
297 17 1
297 18 1
297 19 1
297 20 1
297 21 1
297 29 1
297 30 1
297 31 1
297 32 1
297 33 1
297 40 1
297 41 1
297 42 1
297 43 1
297 44 1
297 53 1
297 54 1
297 55 1
297 56 1
297 57 1
297 64 1
297 65 1
297 66 1
297 67 1
297 68 1
297 76 1
297 77 1
297 78 1
297 79 1
297 80 1
297 87 1
297 88 1
297 89 1
297 90 1
297 91 1
297 191 1
297 383 1
298 2 1
298 4 1
298 7 1
298 9 1
298 23 1
298 25 1
298 27 1
298 30 1
298 32 1
298 46 1
298 49 1
298 51 1
298 54 1
298 56 1
298 70 1
298 72 1
298 74 1
298 77 1
298 79 1
298 93 1
298 191 1
298 383 1
299 1 1
299 3 1
299 6 1
299 8 1
299 23 1
299 24 1
299 26 1
299 29 1
299 31 1
299 46 1
299 48 1
299 50 1
299 53 1
299 55 1
299 70 1
299 71 1
299 73 1
299 76 1
299 78 1
299 93 1
299 191 1
299 383 1
300 2 1
300 5 1
300 7 1
300 10 1
300 23 1
300 25 1
300 28 1
300 30 1
300 33 1
300 46 1
300 49 1
300 52 1
300 54 1
300 57 1
300 70 1
300 72 1
300 75 1
300 77 1
300 80 1
300 93 1
300 191 1
300 383 1
301 1 1
301 5 1
301 6 1
301 10 1
301 23 1
301 24 1
301 28 1
301 29 1
301 33 1
301 46 1
301 48 1
301 52 1
301 53 1
301 57 1
301 70 1
301 71 1
301 75 1
301 76 1
301 80 1
301 93 1
301 191 1
301 383 1
302 3 1
302 4 1
302 8 1
302 9 1
302 23 1
302 26 1
302 27 1
302 31 1
302 32 1
302 46 1
302 50 1
302 51 1
302 55 1
302 56 1
302 70 1
302 73 1
302 74 1
302 78 1
302 79 1
302 93 1
302 191 1
302 383 1
303 2 1
303 4 1
303 11 1
303 23 1
303 25 1
303 27 1
303 34 1
303 46 1
303 49 1
303 51 1
303 58 1
303 70 1
303 72 1
303 74 1
303 81 1
303 93 1
303 191 1
303 383 1
304 1 1
304 3 1
304 11 1
304 23 1
304 24 1
304 26 1
304 34 1
304 46 1
304 48 1
304 50 1
304 58 1
304 70 1
304 71 1
304 73 1
304 81 1
304 93 1
304 191 1
304 383 1
305 2 1
305 5 1
305 11 1
305 23 1
305 25 1
305 28 1
305 34 1
305 46 1
305 49 1
305 52 1
305 58 1
305 70 1
305 72 1
305 75 1
305 81 1
305 93 1
305 191 1
305 383 1
306 1 1
306 5 1
306 11 1
306 23 1
306 24 1
306 28 1
306 34 1
306 46 1
306 48 1
306 52 1
306 58 1
306 70 1
306 71 1
306 75 1
306 81 1
306 93 1
306 191 1
306 383 1
307 3 1
307 4 1
307 11 1
307 23 1
307 26 1
307 27 1
307 34 1
307 46 1
307 50 1
307 51 1
307 58 1
307 70 1
307 73 1
307 74 1
307 81 1
307 93 1
307 191 1
307 383 1
308 6 1
308 7 1
308 8 1
308 9 1
308 10 1
308 23 1
308 29 1
308 30 1
308 31 1
308 32 1
308 33 1
308 46 1
308 53 1
308 54 1
308 55 1
308 56 1
308 57 1
308 70 1
308 76 1
308 77 1
308 78 1
308 79 1
308 80 1
308 93 1
308 191 1
308 383 1
309 12 1
309 13 1
309 14 1
309 15 1
309 16 1
309 17 1
309 18 1
309 19 1
309 20 1
309 21 1
309 22 1
309 35 1
309 36 1
309 37 1
309 38 1
309 39 1
309 40 1
309 41 1
309 42 1
309 43 1
309 44 1
309 45 1
309 59 1
309 60 1
309 61 1
309 62 1
309 63 1
309 64 1
309 65 1
309 66 1
309 67 1
309 68 1
309 69 1
309 82 1
309 83 1
309 84 1
309 85 1
309 86 1
309 87 1
309 88 1
309 89 1
309 90 1
309 91 1
309 92 1
309 191 1
309 383 1
310 2 1
310 4 1
310 7 1
310 9 1
310 13 1
310 15 1
310 18 1
310 20 1
310 47 1
310 49 1
310 51 1
310 54 1
310 56 1
310 60 1
310 62 1
310 65 1
310 67 1
310 94 1
310 191 1
310 383 1
311 1 1
311 3 1
311 6 1
311 8 1
311 12 1
311 14 1
311 17 1
311 19 1
311 47 1
311 48 1
311 50 1
311 53 1
311 55 1
311 59 1
311 61 1
311 64 1
311 66 1
311 94 1
311 191 1
311 383 1
312 2 1
312 5 1
312 7 1
312 10 1
312 13 1
312 16 1
312 18 1
312 21 1
312 47 1
312 49 1
312 52 1
312 54 1
312 57 1
312 60 1
312 63 1
312 65 1
312 68 1
312 94 1
312 191 1
312 383 1
313 1 1
313 5 1
313 6 1
313 10 1
313 12 1
313 16 1
313 17 1
313 21 1
313 47 1
313 48 1
313 52 1
313 53 1
313 57 1
313 59 1
313 63 1
313 64 1
313 68 1
313 94 1
313 191 1
313 383 1
314 3 1
314 4 1
314 8 1
314 9 1
314 14 1
314 15 1
314 19 1
314 20 1
314 47 1
314 50 1
314 51 1
314 55 1
314 56 1
314 61 1
314 62 1
314 66 1
314 67 1
314 94 1
314 191 1
314 383 1
315 2 1
315 4 1
315 11 1
315 13 1
315 15 1
315 22 1
315 47 1
315 49 1
315 51 1
315 58 1
315 60 1
315 62 1
315 69 1
315 94 1
315 191 1
315 383 1
316 1 1
316 3 1
316 11 1
316 12 1
316 14 1
316 22 1
316 47 1
316 48 1
316 50 1
316 58 1
316 59 1
316 61 1
316 69 1
316 94 1
316 191 1
316 383 1
317 2 1
317 5 1
317 11 1
317 13 1
317 16 1
317 22 1
317 47 1
317 49 1
317 52 1
317 58 1
317 60 1
317 63 1
317 69 1
317 94 1
317 191 1
317 383 1
318 1 1
318 5 1
318 11 1
318 12 1
318 16 1
318 22 1
318 47 1
318 48 1
318 52 1
318 58 1
318 59 1
318 63 1
318 69 1
318 94 1
318 191 1
318 383 1
319 3 1
319 4 1
319 11 1
319 14 1
319 15 1
319 22 1
319 47 1
319 50 1
319 51 1
319 58 1
319 61 1
319 62 1
319 69 1
319 94 1
319 191 1
319 383 1
320 6 1
320 7 1
320 8 1
320 9 1
320 10 1
320 17 1
320 18 1
320 19 1
320 20 1
320 21 1
320 47 1
320 53 1
320 54 1
320 55 1
320 56 1
320 57 1
320 64 1
320 65 1
320 66 1
320 67 1
320 68 1
320 94 1
320 191 1
320 383 1
321 2 1
321 4 1
321 7 1
321 9 1
321 23 1
321 47 1
321 49 1
321 51 1
321 54 1
321 56 1
321 70 1
321 94 1
321 191 1
321 383 1
322 1 1
322 3 1
322 6 1
322 8 1
322 23 1
322 47 1
322 48 1
322 50 1
322 53 1
322 55 1
322 70 1
322 94 1
322 191 1
322 383 1
323 2 1
323 5 1
323 7 1
323 10 1
323 23 1
323 47 1
323 49 1
323 52 1
323 54 1
323 57 1
323 70 1
323 94 1
323 191 1
323 383 1
324 1 1
324 5 1
324 6 1
324 10 1
324 23 1
324 47 1
324 48 1
324 52 1
324 53 1
324 57 1
324 70 1
324 94 1
324 191 1
324 383 1
325 3 1
325 4 1
325 8 1
325 9 1
325 23 1
325 47 1
325 50 1
325 51 1
325 55 1
325 56 1
325 70 1
325 94 1
325 191 1
325 383 1
326 2 1
326 4 1
326 11 1
326 23 1
326 47 1
326 49 1
326 51 1
326 58 1
326 70 1
326 94 1
326 191 1
326 383 1
327 1 1
327 3 1
327 11 1
327 23 1
327 47 1
327 48 1
327 50 1
327 58 1
327 70 1
327 94 1
327 191 1
327 383 1
328 2 1
328 5 1
328 11 1
328 23 1
328 47 1
328 49 1
328 52 1
328 58 1
328 70 1
328 94 1
328 191 1
328 383 1
329 1 1
329 5 1
329 11 1
329 23 1
329 47 1
329 48 1
329 52 1
329 58 1
329 70 1
329 94 1
329 191 1
329 383 1
330 3 1
330 4 1
330 11 1
330 23 1
330 47 1
330 50 1
330 51 1
330 58 1
330 70 1
330 94 1
330 191 1
330 383 1
331 6 1
331 7 1
331 8 1
331 9 1
331 10 1
331 23 1
331 47 1
331 53 1
331 54 1
331 55 1
331 56 1
331 57 1
331 70 1
331 94 1
331 191 1
331 383 1
332 12 1
332 13 1
332 14 1
332 15 1
332 16 1
332 17 1
332 18 1
332 19 1
332 20 1
332 21 1
332 22 1
332 47 1
332 59 1
332 60 1
332 61 1
332 62 1
332 63 1
332 64 1
332 65 1
332 66 1
332 67 1
332 68 1
332 69 1
332 94 1
332 191 1
332 383 1
333 24 1
333 25 1
333 26 1
333 27 1
333 28 1
333 29 1
333 30 1
333 31 1
333 32 1
333 33 1
333 34 1
333 35 1
333 36 1
333 37 1
333 38 1
333 39 1
333 40 1
333 41 1
333 42 1
333 43 1
333 44 1
333 45 1
333 46 1
333 71 1
333 72 1
333 73 1
333 74 1
333 75 1
333 76 1
333 77 1
333 78 1
333 79 1
333 80 1
333 81 1
333 82 1
333 83 1
333 84 1
333 85 1
333 86 1
333 87 1
333 88 1
333 89 1
333 90 1
333 91 1
333 92 1
333 93 1
333 191 1
333 383 1
334 2 1
334 4 1
334 7 1
334 9 1
334 13 1
334 15 1
334 18 1
334 20 1
334 25 1
334 27 1
334 30 1
334 32 1
334 36 1
334 38 1
334 41 1
334 43 1
334 95 1
334 191 1
334 383 1
335 1 1
335 3 1
335 6 1
335 8 1
335 12 1
335 14 1
335 17 1
335 19 1
335 24 1
335 26 1
335 29 1
335 31 1
335 35 1
335 37 1
335 40 1
335 42 1
335 95 1
335 191 1
335 383 1
336 2 1
336 5 1
336 7 1
336 10 1
336 13 1
336 16 1
336 18 1
336 21 1
336 25 1
336 28 1
336 30 1
336 33 1
336 36 1
336 39 1
336 41 1
336 44 1
336 95 1
336 191 1
336 383 1
337 1 1
337 5 1
337 6 1
337 10 1
337 12 1
337 16 1
337 17 1
337 21 1
337 24 1
337 28 1
337 29 1
337 33 1
337 35 1
337 39 1
337 40 1
337 44 1
337 95 1
337 191 1
337 383 1
338 3 1
338 4 1
338 8 1
338 9 1
338 14 1
338 15 1
338 19 1
338 20 1
338 26 1
338 27 1
338 31 1
338 32 1
338 37 1
338 38 1
338 42 1
338 43 1
338 95 1
338 191 1
338 383 1
339 2 1
339 4 1
339 11 1
339 13 1
339 15 1
339 22 1
339 25 1
339 27 1
339 34 1
339 36 1
339 38 1
339 45 1
339 95 1
339 191 1
339 383 1
340 1 1
340 3 1
340 11 1
340 12 1
340 14 1
340 22 1
340 24 1
340 26 1
340 34 1
340 35 1
340 37 1
340 45 1
340 95 1
340 191 1
340 383 1
341 2 1
341 5 1
341 11 1
341 13 1
341 16 1
341 22 1
341 25 1
341 28 1
341 34 1
341 36 1
341 39 1
341 45 1
341 95 1
341 191 1
341 383 1
342 1 1
342 5 1
342 11 1
342 12 1
342 16 1
342 22 1
342 24 1
342 28 1
342 34 1
342 35 1
342 39 1
342 45 1
342 95 1
342 191 1
342 383 1
343 3 1
343 4 1
343 11 1
343 14 1
343 15 1
343 22 1
343 26 1
343 27 1
343 34 1
343 37 1
343 38 1
343 45 1
343 95 1
343 191 1
343 383 1
344 6 1
344 7 1
344 8 1
344 9 1
344 10 1
344 17 1
344 18 1
344 19 1
344 20 1
344 21 1
344 29 1
344 30 1
344 31 1
344 32 1
344 33 1
344 40 1
344 41 1
344 42 1
344 43 1
344 44 1
344 95 1
344 191 1
344 383 1
345 2 1
345 4 1
345 7 1
345 9 1
345 23 1
345 25 1
345 27 1
345 30 1
345 32 1
345 46 1
345 95 1
345 191 1
345 383 1
346 1 1
346 3 1
346 6 1
346 8 1
346 23 1
346 24 1
346 26 1
346 29 1
346 31 1
346 46 1
346 95 1
346 191 1
346 383 1
347 2 1
347 5 1
347 7 1
347 10 1
347 23 1
347 25 1
347 28 1
347 30 1
347 33 1
347 46 1
347 95 1
347 191 1
347 383 1
348 1 1
348 5 1
348 6 1
348 10 1
348 23 1
348 24 1
348 28 1
348 29 1
348 33 1
348 46 1
348 95 1
348 191 1
348 383 1
349 3 1
349 4 1
349 8 1
349 9 1
349 23 1
349 26 1
349 27 1
349 31 1
349 32 1
349 46 1
349 95 1
349 191 1
349 383 1
350 2 1
350 4 1
350 11 1
350 23 1
350 25 1
350 27 1
350 34 1
350 46 1
350 95 1
350 191 1
350 383 1
351 1 1
351 3 1
351 11 1
351 23 1
351 24 1
351 26 1
351 34 1
351 46 1
351 95 1
351 191 1
351 383 1
352 2 1
352 5 1
352 11 1
352 23 1
352 25 1
352 28 1
352 34 1
352 46 1
352 95 1
352 191 1
352 383 1
353 1 1
353 5 1
353 11 1
353 23 1
353 24 1
353 28 1
353 34 1
353 46 1
353 95 1
353 191 1
353 383 1
354 3 1
354 4 1
354 11 1
354 23 1
354 26 1
354 27 1
354 34 1
354 46 1
354 95 1
354 191 1
354 383 1
355 6 1
355 7 1
355 8 1
355 9 1
355 10 1
355 23 1
355 29 1
355 30 1
355 31 1
355 32 1
355 33 1
355 46 1
355 95 1
355 191 1
355 383 1
356 12 1
356 13 1
356 14 1
356 15 1
356 16 1
356 17 1
356 18 1
356 19 1
356 20 1
356 21 1
356 22 1
356 35 1
356 36 1
356 37 1
356 38 1
356 39 1
356 40 1
356 41 1
356 42 1
356 43 1
356 44 1
356 45 1
356 95 1
356 191 1
356 383 1
357 2 1
357 4 1
357 7 1
357 9 1
357 13 1
357 15 1
357 18 1
357 20 1
357 47 1
357 95 1
357 191 1
357 383 1
358 1 1
358 3 1
358 6 1
358 8 1
358 12 1
358 14 1
358 17 1
358 19 1
358 47 1
358 95 1
358 191 1
358 383 1
359 2 1
359 5 1
359 7 1
359 10 1
359 13 1
359 16 1
359 18 1
359 21 1
359 47 1
359 95 1
359 191 1
359 383 1
360 1 1
360 5 1
360 6 1
360 10 1
360 12 1
360 16 1
360 17 1
360 21 1
360 47 1
360 95 1
360 191 1
360 383 1
361 3 1
361 4 1
361 8 1
361 9 1
361 14 1
361 15 1
361 19 1
361 20 1
361 47 1
361 95 1
361 191 1
361 383 1
362 2 1
362 4 1
362 11 1
362 13 1
362 15 1
362 22 1
362 47 1
362 95 1
362 191 1
362 383 1
363 1 1
363 3 1
363 11 1
363 12 1
363 14 1
363 22 1
363 47 1
363 95 1
363 191 1
363 383 1
364 2 1
364 5 1
364 11 1
364 13 1
364 16 1
364 22 1
364 47 1
364 95 1
364 191 1
364 383 1
365 1 1
365 5 1
365 11 1
365 12 1
365 16 1
365 22 1
365 47 1
365 95 1
365 191 1
365 383 1
366 3 1
366 4 1
366 11 1
366 14 1
366 15 1
366 22 1
366 47 1
366 95 1
366 191 1
366 383 1
367 6 1
367 7 1
367 8 1
367 9 1
367 10 1
367 17 1
367 18 1
367 19 1
367 20 1
367 21 1
367 47 1
367 95 1
367 191 1
367 383 1
368 2 1
368 4 1
368 7 1
368 9 1
368 23 1
368 47 1
368 95 1
368 191 1
368 383 1
369 1 1
369 3 1
369 6 1
369 8 1
369 23 1
369 47 1
369 95 1
369 191 1
369 383 1
370 2 1
370 5 1
370 7 1
370 10 1
370 23 1
370 47 1
370 95 1
370 191 1
370 383 1
371 1 1
371 5 1
371 6 1
371 10 1
371 23 1
371 47 1
371 95 1
371 191 1
371 383 1
372 3 1
372 4 1
372 8 1
372 9 1
372 23 1
372 47 1
372 95 1
372 191 1
372 383 1
373 2 1
373 4 1
373 11 1
373 23 1
373 47 1
373 95 1
373 191 1
373 383 1
374 1 1
374 3 1
374 11 1
374 23 1
374 47 1
374 95 1
374 191 1
374 383 1
375 2 1
375 5 1
375 11 1
375 23 1
375 47 1
375 95 1
375 191 1
375 383 1
376 1 1
376 5 1
376 11 1
376 23 1
376 47 1
376 95 1
376 191 1
376 383 1
377 3 1
377 4 1
377 11 1
377 23 1
377 47 1
377 95 1
377 191 1
377 383 1
378 6 1
378 7 1
378 8 1
378 9 1
378 10 1
378 23 1
378 47 1
378 95 1
378 191 1
378 383 1
379 12 1
379 13 1
379 14 1
379 15 1
379 16 1
379 17 1
379 18 1
379 19 1
379 20 1
379 21 1
379 22 1
379 47 1
379 95 1
379 191 1
379 383 1
380 24 1
380 25 1
380 26 1
380 27 1
380 28 1
380 29 1
380 30 1
380 31 1
380 32 1
380 33 1
380 34 1
380 35 1
380 36 1
380 37 1
380 38 1
380 39 1
380 40 1
380 41 1
380 42 1
380 43 1
380 44 1
380 45 1
380 46 1
380 95 1
380 191 1
380 383 1
381 48 1
381 49 1
381 50 1
381 51 1
381 52 1
381 53 1
381 54 1
381 55 1
381 56 1
381 57 1
381 58 1
381 59 1
381 60 1
381 61 1
381 62 1
381 63 1
381 64 1
381 65 1
381 66 1
381 67 1
381 68 1
381 69 1
381 70 1
381 71 1
381 72 1
381 73 1
381 74 1
381 75 1
381 76 1
381 77 1
381 78 1
381 79 1
381 80 1
381 81 1
381 82 1
381 83 1
381 84 1
381 85 1
381 86 1
381 87 1
381 88 1
381 89 1
381 90 1
381 91 1
381 92 1
381 93 1
381 94 1
381 191 1
381 383 1
382 96 1
382 97 1
382 98 1
382 99 1
382 100 1
382 101 1
382 102 1
382 103 1
382 104 1
382 105 1
382 106 1
382 107 1
382 108 1
382 109 1
382 110 1
382 111 1
382 112 1
382 113 1
382 114 1
382 115 1
382 116 1
382 117 1
382 118 1
382 119 1
382 120 1
382 121 1
382 122 1
382 123 1
382 124 1
382 125 1
382 126 1
382 127 1
382 128 1
382 129 1
382 130 1
382 131 1
382 132 1
382 133 1
382 134 1
382 135 1
382 136 1
382 137 1
382 138 1
382 139 1
382 140 1
382 141 1
382 142 1
382 143 1
382 144 1
382 145 1
382 146 1
382 147 1
382 148 1
382 149 1
382 150 1
382 151 1
382 152 1
382 153 1
382 154 1
382 155 1
382 156 1
382 157 1
382 158 1
382 159 1
382 160 1
382 161 1
382 162 1
382 163 1
382 164 1
382 165 1
382 166 1
382 167 1
382 168 1
382 169 1
382 170 1
382 171 1
382 172 1
382 173 1
382 174 1
382 175 1
382 176 1
382 177 1
382 178 1
382 179 1
382 180 1
382 181 1
382 182 1
382 183 1
382 184 1
382 185 1
382 186 1
382 187 1
382 188 1
382 189 1
382 190 1
382 383 1
383 192 1
383 193 1
383 194 1
383 195 1
383 196 1
383 197 1
383 198 1
383 199 1
383 200 1
383 201 1
383 202 1
383 203 1
383 204 1
383 205 1
383 206 1
383 207 1
383 208 1
383 209 1
383 210 1
383 211 1
383 212 1
383 213 1
383 214 1
383 215 1
383 216 1
383 217 1
383 218 1
383 219 1
383 220 1
383 221 1
383 222 1
383 223 1
383 224 1
383 225 1
383 226 1
383 227 1
383 228 1
383 229 1
383 230 1
383 231 1
383 232 1
383 233 1
383 234 1
383 235 1
383 236 1
383 237 1
383 238 1
383 239 1
383 240 1
383 241 1
383 242 1
383 243 1
383 244 1
383 245 1
383 246 1
383 247 1
383 248 1
383 249 1
383 250 1
383 251 1
383 252 1
383 253 1
383 254 1
383 255 1
383 256 1
383 257 1
383 258 1
383 259 1
383 260 1
383 261 1
383 262 1
383 263 1
383 264 1
383 265 1
383 266 1
383 267 1
383 268 1
383 269 1
383 270 1
383 271 1
383 272 1
383 273 1
383 274 1
383 275 1
383 276 1
383 277 1
383 278 1
383 279 1
383 280 1
383 281 1
383 282 1
383 283 1
383 284 1
383 285 1
383 286 1
383 287 1
383 288 1
383 289 1
383 290 1
383 291 1
383 292 1
383 293 1
383 294 1
383 295 1
383 296 1
383 297 1
383 298 1
383 299 1
383 300 1
383 301 1
383 302 1
383 303 1
383 304 1
383 305 1
383 306 1
383 307 1
383 308 1
383 309 1
383 310 1
383 311 1
383 312 1
383 313 1
383 314 1
383 315 1
383 316 1
383 317 1
383 318 1
383 319 1
383 320 1
383 321 1
383 322 1
383 323 1
383 324 1
383 325 1
383 326 1
383 327 1
383 328 1
383 329 1
383 330 1
383 331 1
383 332 1
383 333 1
383 334 1
383 335 1
383 336 1
383 337 1
383 338 1
383 339 1
383 340 1
383 341 1
383 342 1
383 343 1
383 344 1
383 345 1
383 346 1
383 347 1
383 348 1
383 349 1
383 350 1
383 351 1
383 352 1
383 353 1
383 354 1
383 355 1
383 356 1
383 357 1
383 358 1
383 359 1
383 360 1
383 361 1
383 362 1
383 363 1
383 364 1
383 365 1
383 366 1
383 367 1
383 368 1
383 369 1
383 370 1
383 371 1
383 372 1
383 373 1
383 374 1
383 375 1
383 376 1
383 377 1
383 378 1
383 379 1
383 380 1
383 381 1
383 382 1
