%%MatrixMarket matrix coordinate real general
%
191 191 4720
1 2 1
1 4 1
1 7 1
1 9 1
1 13 1
1 15 1
1 18 1
1 20 1
1 25 1
1 27 1
1 30 1
1 32 1
1 36 1
1 38 1
1 41 1
1 43 1
1 49 1
1 51 1
1 54 1
1 56 1
1 60 1
1 62 1
1 65 1
1 67 1
1 72 1
1 74 1
1 77 1
1 79 1
1 83 1
1 85 1
1 88 1
1 90 1
1 97 1
1 99 1
1 102 1
1 104 1
1 108 1
1 110 1
1 113 1
1 115 1
1 120 1
1 122 1
1 125 1
1 127 1
1 131 1
1 133 1
1 136 1
1 138 1
1 144 1
1 146 1
1 149 1
1 151 1
1 155 1
1 157 1
1 160 1
1 162 1
1 167 1
1 169 1
1 172 1
1 174 1
1 178 1
1 180 1
1 183 1
1 185 1
2 1 1
2 3 1
2 6 1
2 8 1
2 12 1
2 14 1
2 17 1
2 19 1
2 24 1
2 26 1
2 29 1
2 31 1
2 35 1
2 37 1
2 40 1
2 42 1
2 48 1
2 50 1
2 53 1
2 55 1
2 59 1
2 61 1
2 64 1
2 66 1
2 71 1
2 73 1
2 76 1
2 78 1
2 82 1
2 84 1
2 87 1
2 89 1
2 96 1
2 98 1
2 101 1
2 103 1
2 107 1
2 109 1
2 112 1
2 114 1
2 119 1
2 121 1
2 124 1
2 126 1
2 130 1
2 132 1
2 135 1
2 137 1
2 143 1
2 145 1
2 148 1
2 150 1
2 154 1
2 156 1
2 159 1
2 161 1
2 166 1
2 168 1
2 171 1
2 173 1
2 177 1
2 179 1
2 182 1
2 184 1
3 2 1
3 5 1
3 7 1
3 10 1
3 13 1
3 16 1
3 18 1
3 21 1
3 25 1
3 28 1
3 30 1
3 33 1
3 36 1
3 39 1
3 41 1
3 44 1
3 49 1
3 52 1
3 54 1
3 57 1
3 60 1
3 63 1
3 65 1
3 68 1
3 72 1
3 75 1
3 77 1
3 80 1
3 83 1
3 86 1
3 88 1
3 91 1
3 97 1
3 100 1
3 102 1
3 105 1
3 108 1
3 111 1
3 113 1
3 116 1
3 120 1
3 123 1
3 125 1
3 128 1
3 131 1
3 134 1
3 136 1
3 139 1
3 144 1
3 147 1
3 149 1
3 152 1
3 155 1
3 158 1
3 160 1
3 163 1
3 167 1
3 170 1
3 172 1
3 175 1
3 178 1
3 181 1
3 183 1
3 186 1
4 1 1
4 5 1
4 6 1
4 10 1
4 12 1
4 16 1
4 17 1
4 21 1
4 24 1
4 28 1
4 29 1
4 33 1
4 35 1
4 39 1
4 40 1
4 44 1
4 48 1
4 52 1
4 53 1
4 57 1
4 59 1
4 63 1
4 64 1
4 68 1
4 71 1
4 75 1
4 76 1
4 80 1
4 82 1
4 86 1
4 87 1
4 91 1
4 96 1
4 100 1
4 101 1
4 105 1
4 107 1
4 111 1
4 112 1
4 116 1
4 119 1
4 123 1
4 124 1
4 128 1
4 130 1
4 134 1
4 135 1
4 139 1
4 143 1
4 147 1
4 148 1
4 152 1
4 154 1
4 158 1
4 159 1
4 163 1
4 166 1
4 170 1
4 171 1
4 175 1
4 177 1
4 181 1
4 182 1
4 186 1
5 3 1
5 4 1
5 8 1
5 9 1
5 14 1
5 15 1
5 19 1
5 20 1
5 26 1
5 27 1
5 31 1
5 32 1
5 37 1
5 38 1
5 42 1
5 43 1
5 50 1
5 51 1
5 55 1
5 56 1
5 61 1
5 62 1
5 66 1
5 67 1
5 73 1
5 74 1
5 78 1
5 79 1
5 84 1
5 85 1
5 89 1
5 90 1
5 98 1
5 99 1
5 103 1
5 104 1
5 109 1
5 110 1
5 114 1
5 115 1
5 121 1
5 122 1
5 126 1
5 127 1
5 132 1
5 133 1
5 137 1
5 138 1
5 145 1
5 146 1
5 150 1
5 151 1
5 156 1
5 157 1
5 161 1
5 162 1
5 168 1
5 169 1
5 173 1
5 174 1
5 179 1
5 180 1
5 184 1
5 185 1
6 2 1
6 4 1
6 11 1
6 13 1
6 15 1
6 22 1
6 25 1
6 27 1
6 34 1
6 36 1
6 38 1
6 45 1
6 49 1
6 51 1
6 58 1
6 60 1
6 62 1
6 69 1
6 72 1
6 74 1
6 81 1
6 83 1
6 85 1
6 92 1
6 97 1
6 99 1
6 106 1
6 108 1
6 110 1
6 117 1
6 120 1
6 122 1
6 129 1
6 131 1
6 133 1
6 140 1
6 144 1
6 146 1
6 153 1
6 155 1
6 157 1
6 164 1
6 167 1
6 169 1
6 176 1
6 178 1
6 180 1
6 187 1
7 1 1
7 3 1
7 11 1
7 12 1
7 14 1
7 22 1
7 24 1
7 26 1
7 34 1
7 35 1
7 37 1
7 45 1
7 48 1
7 50 1
7 58 1
7 59 1
7 61 1
7 69 1
7 71 1
7 73 1
7 81 1
7 82 1
7 84 1
7 92 1
7 96 1
7 98 1
7 106 1
7 107 1
7 109 1
7 117 1
7 119 1
7 121 1
7 129 1
7 130 1
7 132 1
7 140 1
7 143 1
7 145 1
7 153 1
7 154 1
7 156 1
7 164 1
7 166 1
7 168 1
7 176 1
7 177 1
7 179 1
7 187 1
8 2 1
8 5 1
8 11 1
8 13 1
8 16 1
8 22 1
8 25 1
8 28 1
8 34 1
8 36 1
8 39 1
8 45 1
8 49 1
8 52 1
8 58 1
8 60 1
8 63 1
8 69 1
8 72 1
8 75 1
8 81 1
8 83 1
8 86 1
8 92 1
8 97 1
8 100 1
8 106 1
8 108 1
8 111 1
8 117 1
8 120 1
8 123 1
8 129 1
8 131 1
8 134 1
8 140 1
8 144 1
8 147 1
8 153 1
8 155 1
8 158 1
8 164 1
8 167 1
8 170 1
8 176 1
8 178 1
8 181 1
8 187 1
9 1 1
9 5 1
9 11 1
9 12 1
9 16 1
9 22 1
9 24 1
9 28 1
9 34 1
9 35 1
9 39 1
9 45 1
9 48 1
9 52 1
9 58 1
9 59 1
9 63 1
9 69 1
9 71 1
9 75 1
9 81 1
9 82 1
9 86 1
9 92 1
9 96 1
9 100 1
9 106 1
9 107 1
9 111 1
9 117 1
9 119 1
9 123 1
9 129 1
9 130 1
9 134 1
9 140 1
9 143 1
9 147 1
9 153 1
9 154 1
9 158 1
9 164 1
9 166 1
9 170 1
9 176 1
9 177 1
9 181 1
9 187 1
10 3 1
10 4 1
10 11 1
10 14 1
10 15 1
10 22 1
10 26 1
10 27 1
10 34 1
10 37 1
10 38 1
10 45 1
10 50 1
10 51 1
10 58 1
10 61 1
10 62 1
10 69 1
10 73 1
10 74 1
10 81 1
10 84 1
10 85 1
10 92 1
10 98 1
10 99 1
10 106 1
10 109 1
10 110 1
10 117 1
10 121 1
10 122 1
10 129 1
10 132 1
10 133 1
10 140 1
10 145 1
10 146 1
10 153 1
10 156 1
10 157 1
10 164 1
10 168 1
10 169 1
10 176 1
10 179 1
10 180 1
10 187 1
11 6 1
11 7 1
11 8 1
11 9 1
11 10 1
11 17 1
11 18 1
11 19 1
11 20 1
11 21 1
11 29 1
11 30 1
11 31 1
11 32 1
11 33 1
11 40 1
11 41 1
11 42 1
11 43 1
11 44 1
11 53 1
11 54 1
11 55 1
11 56 1
11 57 1
11 64 1
11 65 1
11 66 1
11 67 1
11 68 1
11 76 1
11 77 1
11 78 1
11 79 1
11 80 1
11 87 1
11 88 1
11 89 1
11 90 1
11 91 1
11 101 1
11 102 1
11 103 1
11 104 1
11 105 1
11 112 1
11 113 1
11 114 1
11 115 1
11 116 1
11 124 1
11 125 1
11 126 1
11 127 1
11 128 1
11 135 1
11 136 1
11 137 1
11 138 1
11 139 1
11 148 1
11 149 1
11 150 1
11 151 1
11 152 1
11 159 1
11 160 1
11 161 1
11 162 1
11 163 1
11 171 1
11 172 1
11 173 1
11 174 1
11 175 1
11 182 1
11 183 1
11 184 1
11 185 1
11 186 1
12 2 1
12 4 1
12 7 1
12 9 1
12 23 1
12 25 1
12 27 1
12 30 1
12 32 1
12 46 1
12 49 1
12 51 1
12 54 1
12 56 1
12 70 1
12 72 1
12 74 1
12 77 1
12 79 1
12 93 1
12 97 1
12 99 1
12 102 1
12 104 1
12 118 1
12 120 1
12 122 1
12 125 1
12 127 1
12 141 1
12 144 1
12 146 1
12 149 1
12 151 1
12 165 1
12 167 1
12 169 1
12 172 1
12 174 1
12 188 1
13 1 1
13 3 1
13 6 1
13 8 1
13 23 1
13 24 1
13 26 1
13 29 1
13 31 1
13 46 1
13 48 1
13 50 1
13 53 1
13 55 1
13 70 1
13 71 1
13 73 1
13 76 1
13 78 1
13 93 1
13 96 1
13 98 1
13 101 1
13 103 1
13 118 1
13 119 1
13 121 1
13 124 1
13 126 1
13 141 1
13 143 1
13 145 1
13 148 1
13 150 1
13 165 1
13 166 1
13 168 1
13 171 1
13 173 1
13 188 1
14 2 1
14 5 1
14 7 1
14 10 1
14 23 1
14 25 1
14 28 1
14 30 1
14 33 1
14 46 1
14 49 1
14 52 1
14 54 1
14 57 1
14 70 1
14 72 1
14 75 1
14 77 1
14 80 1
14 93 1
14 97 1
14 100 1
14 102 1
14 105 1
14 118 1
14 120 1
14 123 1
14 125 1
14 128 1
14 141 1
14 144 1
14 147 1
14 149 1
14 152 1
14 165 1
14 167 1
14 170 1
14 172 1
14 175 1
14 188 1
15 1 1
15 5 1
15 6 1
15 10 1
15 23 1
15 24 1
15 28 1
15 29 1
15 33 1
15 46 1
15 48 1
15 52 1
15 53 1
15 57 1
15 70 1
15 71 1
15 75 1
15 76 1
15 80 1
15 93 1
15 96 1
15 100 1
15 101 1
15 105 1
15 118 1
15 119 1
15 123 1
15 124 1
15 128 1
15 141 1
15 143 1
15 147 1
15 148 1
15 152 1
15 165 1
15 166 1
15 170 1
15 171 1
15 175 1
15 188 1
16 3 1
16 4 1
16 8 1
16 9 1
16 23 1
16 26 1
16 27 1
16 31 1
16 32 1
16 46 1
16 50 1
16 51 1
16 55 1
16 56 1
16 70 1
16 73 1
16 74 1
16 78 1
16 79 1
16 93 1
16 98 1
16 99 1
16 103 1
16 104 1
16 118 1
16 121 1
16 122 1
16 126 1
16 127 1
16 141 1
16 145 1
16 146 1
16 150 1
16 151 1
16 165 1
16 168 1
16 169 1
16 173 1
16 174 1
16 188 1
17 2 1
17 4 1
17 11 1
17 23 1
17 25 1
17 27 1
17 34 1
17 46 1
17 49 1
17 51 1
17 58 1
17 70 1
17 72 1
17 74 1
17 81 1
17 93 1
17 97 1
17 99 1
17 106 1
17 118 1
17 120 1
17 122 1
17 129 1
17 141 1
17 144 1
17 146 1
17 153 1
17 165 1
17 167 1
17 169 1
17 176 1
17 188 1
18 1 1
18 3 1
18 11 1
18 23 1
18 24 1
18 26 1
18 34 1
18 46 1
18 48 1
18 50 1
18 58 1
18 70 1
18 71 1
18 73 1
18 81 1
18 93 1
18 96 1
18 98 1
18 106 1
18 118 1
18 119 1
18 121 1
18 129 1
18 141 1
18 143 1
18 145 1
18 153 1
18 165 1
18 166 1
18 168 1
18 176 1
18 188 1
19 2 1
19 5 1
19 11 1
19 23 1
19 25 1
19 28 1
19 34 1
19 46 1
19 49 1
19 52 1
19 58 1
19 70 1
19 72 1
19 75 1
19 81 1
19 93 1
19 97 1
19 100 1
19 106 1
19 118 1
19 120 1
19 123 1
19 129 1
19 141 1
19 144 1
19 147 1
19 153 1
19 165 1
19 167 1
19 170 1
19 176 1
19 188 1
20 1 1
20 5 1
20 11 1
20 23 1
20 24 1
20 28 1
20 34 1
20 46 1
20 48 1
20 52 1
20 58 1
20 70 1
20 71 1
20 75 1
20 81 1
20 93 1
20 96 1
20 100 1
20 106 1
20 118 1
20 119 1
20 123 1
20 129 1
20 141 1
20 143 1
20 147 1
20 153 1
20 165 1
20 166 1
20 170 1
20 176 1
20 188 1
21 3 1
21 4 1
21 11 1
21 23 1
21 26 1
21 27 1
21 34 1
21 46 1
21 50 1
21 51 1
21 58 1
21 70 1
21 73 1
21 74 1
21 81 1
21 93 1
21 98 1
21 99 1
21 106 1
21 118 1
21 121 1
21 122 1
21 129 1
21 141 1
21 145 1
21 146 1
21 153 1
21 165 1
21 168 1
21 169 1
21 176 1
21 188 1
22 6 1
22 7 1
22 8 1
22 9 1
22 10 1
22 23 1
22 29 1
22 30 1
22 31 1
22 32 1
22 33 1
22 46 1
22 53 1
22 54 1
22 55 1
22 56 1
22 57 1
22 70 1
22 76 1
22 77 1
22 78 1
22 79 1
22 80 1
22 93 1
22 101 1
22 102 1
22 103 1
22 104 1
22 105 1
22 118 1
22 124 1
22 125 1
22 126 1
22 127 1
22 128 1
22 141 1
22 148 1
22 149 1
22 150 1
22 151 1
22 152 1
22 165 1
22 171 1
22 172 1
22 173 1
22 174 1
22 175 1
22 188 1
23 12 1
23 13 1
23 14 1
23 15 1
23 16 1
23 17 1
23 18 1
23 19 1
23 20 1
23 21 1
23 22 1
23 35 1
23 36 1
23 37 1
23 38 1
23 39 1
23 40 1
23 41 1
23 42 1
23 43 1
23 44 1
23 45 1
23 59 1
23 60 1
23 61 1
23 62 1
23 63 1
23 64 1
23 65 1
23 66 1
23 67 1
23 68 1
23 69 1
23 82 1
23 83 1
23 84 1
23 85 1
23 86 1
23 87 1
23 88 1
23 89 1
23 90 1
23 91 1
23 92 1
23 107 1
23 108 1
23 109 1
23 110 1
23 111 1
23 112 1
23 113 1
23 114 1
23 115 1
23 116 1
23 117 1
23 130 1
23 131 1
23 132 1
23 133 1
23 134 1
23 135 1
23 136 1
23 137 1
23 138 1
23 139 1
23 140 1
23 154 1
23 155 1
23 156 1
23 157 1
23 158 1
23 159 1
23 160 1
23 161 1
23 162 1
23 163 1
23 164 1
23 177 1
23 178 1
23 179 1
23 180 1
23 181 1
23 182 1
23 183 1
23 184 1
23 185 1
23 186 1
23 187 1
24 2 1
24 4 1
24 7 1
24 9 1
24 13 1
24 15 1
24 18 1
24 20 1
24 47 1
24 49 1
24 51 1
24 54 1
24 56 1
24 60 1
24 62 1
24 65 1
24 67 1
24 94 1
24 97 1
24 99 1
24 102 1
24 104 1
24 108 1
24 110 1
24 113 1
24 115 1
24 142 1
24 144 1
24 146 1
24 149 1
24 151 1
24 155 1
24 157 1
24 160 1
24 162 1
24 189 1
25 1 1
25 3 1
25 6 1
25 8 1
25 12 1
25 14 1
25 17 1
25 19 1
25 47 1
25 48 1
25 50 1
25 53 1
25 55 1
25 59 1
25 61 1
25 64 1
25 66 1
25 94 1
25 96 1
25 98 1
25 101 1
25 103 1
25 107 1
25 109 1
25 112 1
25 114 1
25 142 1
25 143 1
25 145 1
25 148 1
25 150 1
25 154 1
25 156 1
25 159 1
25 161 1
25 189 1
26 2 1
26 5 1
26 7 1
26 10 1
26 13 1
26 16 1
26 18 1
26 21 1
26 47 1
26 49 1
26 52 1
26 54 1
26 57 1
26 60 1
26 63 1
26 65 1
26 68 1
26 94 1
26 97 1
26 100 1
26 102 1
26 105 1
26 108 1
26 111 1
26 113 1
26 116 1
26 142 1
26 144 1
26 147 1
26 149 1
26 152 1
26 155 1
26 158 1
26 160 1
26 163 1
26 189 1
27 1 1
27 5 1
27 6 1
27 10 1
27 12 1
27 16 1
27 17 1
27 21 1
27 47 1
27 48 1
27 52 1
27 53 1
27 57 1
27 59 1
27 63 1
27 64 1
27 68 1
27 94 1
27 96 1
27 100 1
27 101 1
27 105 1
27 107 1
27 111 1
27 112 1
27 116 1
27 142 1
27 143 1
27 147 1
27 148 1
27 152 1
27 154 1
27 158 1
27 159 1
27 163 1
27 189 1
28 3 1
28 4 1
28 8 1
28 9 1
28 14 1
28 15 1
28 19 1
28 20 1
28 47 1
28 50 1
28 51 1
28 55 1
28 56 1
28 61 1
28 62 1
28 66 1
28 67 1
28 94 1
28 98 1
28 99 1
28 103 1
28 104 1
28 109 1
28 110 1
28 114 1
28 115 1
28 142 1
28 145 1
28 146 1
28 150 1
28 151 1
28 156 1
28 157 1
28 161 1
28 162 1
28 189 1
29 2 1
29 4 1
29 11 1
29 13 1
29 15 1
29 22 1
29 47 1
29 49 1
29 51 1
29 58 1
29 60 1
29 62 1
29 69 1
29 94 1
29 97 1
29 99 1
29 106 1
29 108 1
29 110 1
29 117 1
29 142 1
29 144 1
29 146 1
29 153 1
29 155 1
29 157 1
29 164 1
29 189 1
30 1 1
30 3 1
30 11 1
30 12 1
30 14 1
30 22 1
30 47 1
30 48 1
30 50 1
30 58 1
30 59 1
30 61 1
30 69 1
30 94 1
30 96 1
30 98 1
30 106 1
30 107 1
30 109 1
30 117 1
30 142 1
30 143 1
30 145 1
30 153 1
30 154 1
30 156 1
30 164 1
30 189 1
31 2 1
31 5 1
31 11 1
31 13 1
31 16 1
31 22 1
31 47 1
31 49 1
31 52 1
31 58 1
31 60 1
31 63 1
31 69 1
31 94 1
31 97 1
31 100 1
31 106 1
31 108 1
31 111 1
31 117 1
31 142 1
31 144 1
31 147 1
31 153 1
31 155 1
31 158 1
31 164 1
31 189 1
32 1 1
32 5 1
32 11 1
32 12 1
32 16 1
32 22 1
32 47 1
32 48 1
32 52 1
32 58 1
32 59 1
32 63 1
32 69 1
32 94 1
32 96 1
32 100 1
32 106 1
32 107 1
32 111 1
32 117 1
32 142 1
32 143 1
32 147 1
32 153 1
32 154 1
32 158 1
32 164 1
32 189 1
33 3 1
33 4 1
33 11 1
33 14 1
33 15 1
33 22 1
33 47 1
33 50 1
33 51 1
33 58 1
33 61 1
33 62 1
33 69 1
33 94 1
33 98 1
33 99 1
33 106 1
33 109 1
33 110 1
33 117 1
33 142 1
33 145 1
33 146 1
33 153 1
33 156 1
33 157 1
33 164 1
33 189 1
34 6 1
34 7 1
34 8 1
34 9 1
34 10 1
34 17 1
34 18 1
34 19 1
34 20 1
34 21 1
34 47 1
34 53 1
34 54 1
34 55 1
34 56 1
34 57 1
34 64 1
34 65 1
34 66 1
34 67 1
34 68 1
34 94 1
34 101 1
34 102 1
34 103 1
34 104 1
34 105 1
34 112 1
34 113 1
34 114 1
34 115 1
34 116 1
34 142 1
34 148 1
34 149 1
34 150 1
34 151 1
34 152 1
34 159 1
34 160 1
34 161 1
34 162 1
34 163 1
34 189 1
35 2 1
35 4 1
35 7 1
35 9 1
35 23 1
35 47 1
35 49 1
35 51 1
35 54 1
35 56 1
35 70 1
35 94 1
35 97 1
35 99 1
35 102 1
35 104 1
35 118 1
35 142 1
35 144 1
35 146 1
35 149 1
35 151 1
35 165 1
35 189 1
36 1 1
36 3 1
36 6 1
36 8 1
36 23 1
36 47 1
36 48 1
36 50 1
36 53 1
36 55 1
36 70 1
36 94 1
36 96 1
36 98 1
36 101 1
36 103 1
36 118 1
36 142 1
36 143 1
36 145 1
36 148 1
36 150 1
36 165 1
36 189 1
37 2 1
37 5 1
37 7 1
37 10 1
37 23 1
37 47 1
37 49 1
37 52 1
37 54 1
37 57 1
37 70 1
37 94 1
37 97 1
37 100 1
37 102 1
37 105 1
37 118 1
37 142 1
37 144 1
37 147 1
37 149 1
37 152 1
37 165 1
37 189 1
38 1 1
38 5 1
38 6 1
38 10 1
38 23 1
38 47 1
38 48 1
38 52 1
38 53 1
38 57 1
38 70 1
38 94 1
38 96 1
38 100 1
38 101 1
38 105 1
38 118 1
38 142 1
38 143 1
38 147 1
38 148 1
38 152 1
38 165 1
38 189 1
39 3 1
39 4 1
39 8 1
39 9 1
39 23 1
39 47 1
39 50 1
39 51 1
39 55 1
39 56 1
39 70 1
39 94 1
39 98 1
39 99 1
39 103 1
39 104 1
39 118 1
39 142 1
39 145 1
39 146 1
39 150 1
39 151 1
39 165 1
39 189 1
40 2 1
40 4 1
40 11 1
40 23 1
40 47 1
40 49 1
40 51 1
40 58 1
40 70 1
40 94 1
40 97 1
40 99 1
40 106 1
40 118 1
40 142 1
40 144 1
40 146 1
40 153 1
40 165 1
40 189 1
41 1 1
41 3 1
41 11 1
41 23 1
41 47 1
41 48 1
41 50 1
41 58 1
41 70 1
41 94 1
41 96 1
41 98 1
41 106 1
41 118 1
41 142 1
41 143 1
41 145 1
41 153 1
41 165 1
41 189 1
42 2 1
42 5 1
42 11 1
42 23 1
42 47 1
42 49 1
42 52 1
42 58 1
42 70 1
42 94 1
42 97 1
42 100 1
42 106 1
42 118 1
42 142 1
42 144 1
42 147 1
42 153 1
42 165 1
42 189 1
43 1 1
43 5 1
43 11 1
43 23 1
43 47 1
43 48 1
43 52 1
43 58 1
43 70 1
43 94 1
43 96 1
43 100 1
43 106 1
43 118 1
43 142 1
43 143 1
43 147 1
43 153 1
43 165 1
43 189 1
44 3 1
44 4 1
44 11 1
44 23 1
44 47 1
44 50 1
44 51 1
44 58 1
44 70 1
44 94 1
44 98 1
44 99 1
44 106 1
44 118 1
44 142 1
44 145 1
44 146 1
44 153 1
44 165 1
44 189 1
45 6 1
45 7 1
45 8 1
45 9 1
45 10 1
45 23 1
45 47 1
45 53 1
45 54 1
45 55 1
45 56 1
45 57 1
45 70 1
45 94 1
45 101 1
45 102 1
45 103 1
45 104 1
45 105 1
45 118 1
45 142 1
45 148 1
45 149 1
45 150 1
45 151 1
45 152 1
45 165 1
45 189 1
46 12 1
46 13 1
46 14 1
46 15 1
46 16 1
46 17 1
46 18 1
46 19 1
46 20 1
46 21 1
46 22 1
46 47 1
46 59 1
46 60 1
46 61 1
46 62 1
46 63 1
46 64 1
46 65 1
46 66 1
46 67 1
46 68 1
46 69 1
46 94 1
46 107 1
46 108 1
46 109 1
46 110 1
46 111 1
46 112 1
46 113 1
46 114 1
46 115 1
46 116 1
46 117 1
46 142 1
46 154 1
46 155 1
46 156 1
46 157 1
46 158 1
46 159 1
46 160 1
46 161 1
46 162 1
46 163 1
46 164 1
46 189 1
47 24 1
47 25 1
47 26 1
47 27 1
47 28 1
47 29 1
47 30 1
47 31 1
47 32 1
47 33 1
47 34 1
47 35 1
47 36 1
47 37 1
47 38 1
47 39 1
47 40 1
47 41 1
47 42 1
47 43 1
47 44 1
47 45 1
47 46 1
47 71 1
47 72 1
47 73 1
47 74 1
47 75 1
47 76 1
47 77 1
47 78 1
47 79 1
47 80 1
47 81 1
47 82 1
47 83 1
47 84 1
47 85 1
47 86 1
47 87 1
47 88 1
47 89 1
47 90 1
47 91 1
47 92 1
47 93 1
47 119 1
47 120 1
47 121 1
47 122 1
47 123 1
47 124 1
47 125 1
47 126 1
47 127 1
47 128 1
47 129 1
47 130 1
47 131 1
47 132 1
47 133 1
47 134 1
47 135 1
47 136 1
47 137 1
47 138 1
47 139 1
47 140 1
47 141 1
47 166 1
47 167 1
47 168 1
47 169 1
47 170 1
47 171 1
47 172 1
47 173 1
47 174 1
47 175 1
47 176 1
47 177 1
47 178 1
47 179 1
47 180 1
47 181 1
47 182 1
47 183 1
47 184 1
47 185 1
47 186 1
47 187 1
47 188 1
48 2 1
48 4 1
48 7 1
48 9 1
48 13 1
48 15 1
48 18 1
48 20 1
48 25 1
48 27 1
48 30 1
48 32 1
48 36 1
48 38 1
48 41 1
48 43 1
48 95 1
48 97 1
48 99 1
48 102 1
48 104 1
48 108 1
48 110 1
48 113 1
48 115 1
48 120 1
48 122 1
48 125 1
48 127 1
48 131 1
48 133 1
48 136 1
48 138 1
48 190 1
49 1 1
49 3 1
49 6 1
49 8 1
49 12 1
49 14 1
49 17 1
49 19 1
49 24 1
49 26 1
49 29 1
49 31 1
49 35 1
49 37 1
49 40 1
49 42 1
49 95 1
49 96 1
49 98 1
49 101 1
49 103 1
49 107 1
49 109 1
49 112 1
49 114 1
49 119 1
49 121 1
49 124 1
49 126 1
49 130 1
49 132 1
49 135 1
49 137 1
49 190 1
50 2 1
50 5 1
50 7 1
50 10 1
50 13 1
50 16 1
50 18 1
50 21 1
50 25 1
50 28 1
50 30 1
50 33 1
50 36 1
50 39 1
50 41 1
50 44 1
50 95 1
50 97 1
50 100 1
50 102 1
50 105 1
50 108 1
50 111 1
50 113 1
50 116 1
50 120 1
50 123 1
50 125 1
50 128 1
50 131 1
50 134 1
50 136 1
50 139 1
50 190 1
51 1 1
51 5 1
51 6 1
51 10 1
51 12 1
51 16 1
51 17 1
51 21 1
51 24 1
51 28 1
51 29 1
51 33 1
51 35 1
51 39 1
51 40 1
51 44 1
51 95 1
51 96 1
51 100 1
51 101 1
51 105 1
51 107 1
51 111 1
51 112 1
51 116 1
51 119 1
51 123 1
51 124 1
51 128 1
51 130 1
51 134 1
51 135 1
51 139 1
51 190 1
52 3 1
52 4 1
52 8 1
52 9 1
52 14 1
52 15 1
52 19 1
52 20 1
52 26 1
52 27 1
52 31 1
52 32 1
52 37 1
52 38 1
52 42 1
52 43 1
52 95 1
52 98 1
52 99 1
52 103 1
52 104 1
52 109 1
52 110 1
52 114 1
52 115 1
52 121 1
52 122 1
52 126 1
52 127 1
52 132 1
52 133 1
52 137 1
52 138 1
52 190 1
53 2 1
53 4 1
53 11 1
53 13 1
53 15 1
53 22 1
53 25 1
53 27 1
53 34 1
53 36 1
53 38 1
53 45 1
53 95 1
53 97 1
53 99 1
53 106 1
53 108 1
53 110 1
53 117 1
53 120 1
53 122 1
53 129 1
53 131 1
53 133 1
53 140 1
53 190 1
54 1 1
54 3 1
54 11 1
54 12 1
54 14 1
54 22 1
54 24 1
54 26 1
54 34 1
54 35 1
54 37 1
54 45 1
54 95 1
54 96 1
54 98 1
54 106 1
54 107 1
54 109 1
54 117 1
54 119 1
54 121 1
54 129 1
54 130 1
54 132 1
54 140 1
54 190 1
55 2 1
55 5 1
55 11 1
55 13 1
55 16 1
55 22 1
55 25 1
55 28 1
55 34 1
55 36 1
55 39 1
55 45 1
55 95 1
55 97 1
55 100 1
55 106 1
55 108 1
55 111 1
55 117 1
55 120 1
55 123 1
55 129 1
55 131 1
55 134 1
55 140 1
55 190 1
56 1 1
56 5 1
56 11 1
56 12 1
56 16 1
56 22 1
56 24 1
56 28 1
56 34 1
56 35 1
56 39 1
56 45 1
56 95 1
56 96 1
56 100 1
56 106 1
56 107 1
56 111 1
56 117 1
56 119 1
56 123 1
56 129 1
56 130 1
56 134 1
56 140 1
56 190 1
57 3 1
57 4 1
57 11 1
57 14 1
57 15 1
57 22 1
57 26 1
57 27 1
57 34 1
57 37 1
57 38 1
57 45 1
57 95 1
57 98 1
57 99 1
57 106 1
57 109 1
57 110 1
57 117 1
57 121 1
57 122 1
57 129 1
57 132 1
57 133 1
57 140 1
57 190 1
58 6 1
58 7 1
58 8 1
58 9 1
58 10 1
58 17 1
58 18 1
58 19 1
58 20 1
58 21 1
58 29 1
58 30 1
58 31 1
58 32 1
58 33 1
58 40 1
58 41 1
58 42 1
58 43 1
58 44 1
58 95 1
58 101 1
58 102 1
58 103 1
58 104 1
58 105 1
58 112 1
58 113 1
58 114 1
58 115 1
58 116 1
58 124 1
58 125 1
58 126 1
58 127 1
58 128 1
58 135 1
58 136 1
58 137 1
58 138 1
58 139 1
58 190 1
59 2 1
59 4 1
59 7 1
59 9 1
59 23 1
59 25 1
59 27 1
59 30 1
59 32 1
59 46 1
59 95 1
59 97 1
59 99 1
59 102 1
59 104 1
59 118 1
59 120 1
59 122 1
59 125 1
59 127 1
59 141 1
59 190 1
60 1 1
60 3 1
60 6 1
60 8 1
60 23 1
60 24 1
60 26 1
60 29 1
60 31 1
60 46 1
60 95 1
60 96 1
60 98 1
60 101 1
60 103 1
60 118 1
60 119 1
60 121 1
60 124 1
60 126 1
60 141 1
60 190 1
61 2 1
61 5 1
61 7 1
61 10 1
61 23 1
61 25 1
61 28 1
61 30 1
61 33 1
61 46 1
61 95 1
61 97 1
61 100 1
61 102 1
61 105 1
61 118 1
61 120 1
61 123 1
61 125 1
61 128 1
61 141 1
61 190 1
62 1 1
62 5 1
62 6 1
62 10 1
62 23 1
62 24 1
62 28 1
62 29 1
62 33 1
62 46 1
62 95 1
62 96 1
62 100 1
62 101 1
62 105 1
62 118 1
62 119 1
62 123 1
62 124 1
62 128 1
62 141 1
62 190 1
63 3 1
63 4 1
63 8 1
63 9 1
63 23 1
63 26 1
63 27 1
63 31 1
63 32 1
63 46 1
63 95 1
63 98 1
63 99 1
63 103 1
63 104 1
63 118 1
63 121 1
63 122 1
63 126 1
63 127 1
63 141 1
63 190 1
64 2 1
64 4 1
64 11 1
64 23 1
64 25 1
64 27 1
64 34 1
64 46 1
64 95 1
64 97 1
64 99 1
64 106 1
64 118 1
64 120 1
64 122 1
64 129 1
64 141 1
64 190 1
65 1 1
65 3 1
65 11 1
65 23 1
65 24 1
65 26 1
65 34 1
65 46 1
65 95 1
65 96 1
65 98 1
65 106 1
65 118 1
65 119 1
65 121 1
65 129 1
65 141 1
65 190 1
66 2 1
66 5 1
66 11 1
66 23 1
66 25 1
66 28 1
66 34 1
66 46 1
66 95 1
66 97 1
66 100 1
66 106 1
66 118 1
66 120 1
66 123 1
66 129 1
66 141 1
66 190 1
67 1 1
67 5 1
67 11 1
67 23 1
67 24 1
67 28 1
67 34 1
67 46 1
67 95 1
67 96 1
67 100 1
67 106 1
67 118 1
67 119 1
67 123 1
67 129 1
67 141 1
67 190 1
68 3 1
68 4 1
68 11 1
68 23 1
68 26 1
68 27 1
68 34 1
68 46 1
68 95 1
68 98 1
68 99 1
68 106 1
68 118 1
68 121 1
68 122 1
68 129 1
68 141 1
68 190 1
69 6 1
69 7 1
69 8 1
69 9 1
69 10 1
69 23 1
69 29 1
69 30 1
69 31 1
69 32 1
69 33 1
69 46 1
69 95 1
69 101 1
69 102 1
69 103 1
69 104 1
69 105 1
69 118 1
69 124 1
69 125 1
69 126 1
69 127 1
69 128 1
69 141 1
69 190 1
70 12 1
70 13 1
70 14 1
70 15 1
70 16 1
70 17 1
70 18 1
70 19 1
70 20 1
70 21 1
70 22 1
70 35 1
70 36 1
70 37 1
70 38 1
70 39 1
70 40 1
70 41 1
70 42 1
70 43 1
70 44 1
70 45 1
70 95 1
70 107 1
70 108 1
70 109 1
70 110 1
70 111 1
70 112 1
70 113 1
70 114 1
70 115 1
70 116 1
70 117 1
70 130 1
70 131 1
70 132 1
70 133 1
70 134 1
70 135 1
70 136 1
70 137 1
70 138 1
70 139 1
70 140 1
70 190 1
71 2 1
71 4 1
71 7 1
71 9 1
71 13 1
71 15 1
71 18 1
71 20 1
71 47 1
71 95 1
71 97 1
71 99 1
71 102 1
71 104 1
71 108 1
71 110 1
71 113 1
71 115 1
71 142 1
71 190 1
72 1 1
72 3 1
72 6 1
72 8 1
72 12 1
72 14 1
72 17 1
72 19 1
72 47 1
72 95 1
72 96 1
72 98 1
72 101 1
72 103 1
72 107 1
72 109 1
72 112 1
72 114 1
72 142 1
72 190 1
73 2 1
73 5 1
73 7 1
73 10 1
73 13 1
73 16 1
73 18 1
73 21 1
73 47 1
73 95 1
73 97 1
73 100 1
73 102 1
73 105 1
73 108 1
73 111 1
73 113 1
73 116 1
73 142 1
73 190 1
74 1 1
74 5 1
74 6 1
74 10 1
74 12 1
74 16 1
74 17 1
74 21 1
74 47 1
74 95 1
74 96 1
74 100 1
74 101 1
74 105 1
74 107 1
74 111 1
74 112 1
74 116 1
74 142 1
74 190 1
75 3 1
75 4 1
75 8 1
75 9 1
75 14 1
75 15 1
75 19 1
75 20 1
75 47 1
75 95 1
75 98 1
75 99 1
75 103 1
75 104 1
75 109 1
75 110 1
75 114 1
75 115 1
75 142 1
75 190 1
76 2 1
76 4 1
76 11 1
76 13 1
76 15 1
76 22 1
76 47 1
76 95 1
76 97 1
76 99 1
76 106 1
76 108 1
76 110 1
76 117 1
76 142 1
76 190 1
77 1 1
77 3 1
77 11 1
77 12 1
77 14 1
77 22 1
77 47 1
77 95 1
77 96 1
77 98 1
77 106 1
77 107 1
77 109 1
77 117 1
77 142 1
77 190 1
78 2 1
78 5 1
78 11 1
78 13 1
78 16 1
78 22 1
78 47 1
78 95 1
78 97 1
78 100 1
78 106 1
78 108 1
78 111 1
78 117 1
78 142 1
78 190 1
79 1 1
79 5 1
79 11 1
79 12 1
79 16 1
79 22 1
79 47 1
79 95 1
79 96 1
79 100 1
79 106 1
79 107 1
79 111 1
79 117 1
79 142 1
79 190 1
80 3 1
80 4 1
80 11 1
80 14 1
80 15 1
80 22 1
80 47 1
80 95 1
80 98 1
80 99 1
80 106 1
80 109 1
80 110 1
80 117 1
80 142 1
80 190 1
81 6 1
81 7 1
81 8 1
81 9 1
81 10 1
81 17 1
81 18 1
81 19 1
81 20 1
81 21 1
81 47 1
81 95 1
81 101 1
81 102 1
81 103 1
81 104 1
81 105 1
81 112 1
81 113 1
81 114 1
81 115 1
81 116 1
81 142 1
81 190 1
82 2 1
82 4 1
82 7 1
82 9 1
82 23 1
82 47 1
82 95 1
82 97 1
82 99 1
82 102 1
82 104 1
82 118 1
82 142 1
82 190 1
83 1 1
83 3 1
83 6 1
83 8 1
83 23 1
83 47 1
83 95 1
83 96 1
83 98 1
83 101 1
83 103 1
83 118 1
83 142 1
83 190 1
84 2 1
84 5 1
84 7 1
84 10 1
84 23 1
84 47 1
84 95 1
84 97 1
84 100 1
84 102 1
84 105 1
84 118 1
84 142 1
84 190 1
85 1 1
85 5 1
85 6 1
85 10 1
85 23 1
85 47 1
85 95 1
85 96 1
85 100 1
85 101 1
85 105 1
85 118 1
85 142 1
85 190 1
86 3 1
86 4 1
86 8 1
86 9 1
86 23 1
86 47 1
86 95 1
86 98 1
86 99 1
86 103 1
86 104 1
86 118 1
86 142 1
86 190 1
87 2 1
87 4 1
87 11 1
87 23 1
87 47 1
87 95 1
87 97 1
87 99 1
87 106 1
87 118 1
87 142 1
87 190 1
88 1 1
88 3 1
88 11 1
88 23 1
88 47 1
88 95 1
88 96 1
88 98 1
88 106 1
88 118 1
88 142 1
88 190 1
89 2 1
89 5 1
89 11 1
89 23 1
89 47 1
89 95 1
89 97 1
89 100 1
89 106 1
89 118 1
89 142 1
89 190 1
90 1 1
90 5 1
90 11 1
90 23 1
90 47 1
90 95 1
90 96 1
90 100 1
90 106 1
90 118 1
90 142 1
90 190 1
91 3 1
91 4 1
91 11 1
91 23 1
91 47 1
91 95 1
91 98 1
91 99 1
91 106 1
91 118 1
91 142 1
91 190 1
92 6 1
92 7 1
92 8 1
92 9 1
92 10 1
92 23 1
92 47 1
92 95 1
92 101 1
92 102 1
92 103 1
92 104 1
92 105 1
92 118 1
92 142 1
92 190 1
93 12 1
93 13 1
93 14 1
93 15 1
93 16 1
93 17 1
93 18 1
93 19 1
93 20 1
93 21 1
93 22 1
93 47 1
93 95 1
93 107 1
93 108 1
93 109 1
93 110 1
93 111 1
93 112 1
93 113 1
93 114 1
93 115 1
93 116 1
93 117 1
93 142 1
93 190 1
94 24 1
94 25 1
94 26 1
94 27 1
94 28 1
94 29 1
94 30 1
94 31 1
94 32 1
94 33 1
94 34 1
94 35 1
94 36 1
94 37 1
94 38 1
94 39 1
94 40 1
94 41 1
94 42 1
94 43 1
94 44 1
94 45 1
94 46 1
94 95 1
94 119 1
94 120 1
94 121 1
94 122 1
94 123 1
94 124 1
94 125 1
94 126 1
94 127 1
94 128 1
94 129 1
94 130 1
94 131 1
94 132 1
94 133 1
94 134 1
94 135 1
94 136 1
94 137 1
94 138 1
94 139 1
94 140 1
94 141 1
94 190 1
95 48 1
95 49 1
95 50 1
95 51 1
95 52 1
95 53 1
95 54 1
95 55 1
95 56 1
95 57 1
95 58 1
95 59 1
95 60 1
95 61 1
95 62 1
95 63 1
95 64 1
95 65 1
95 66 1
95 67 1
95 68 1
95 69 1
95 70 1
95 71 1
95 72 1
95 73 1
95 74 1
95 75 1
95 76 1
95 77 1
95 78 1
95 79 1
95 80 1
95 81 1
95 82 1
95 83 1
95 84 1
95 85 1
95 86 1
95 87 1
95 88 1
95 89 1
95 90 1
95 91 1
95 92 1
95 93 1
95 94 1
95 143 1
95 144 1
95 145 1
95 146 1
95 147 1
95 148 1
95 149 1
95 150 1
95 151 1
95 152 1
95 153 1
95 154 1
95 155 1
95 156 1
95 157 1
95 158 1
95 159 1
95 160 1
95 161 1
95 162 1
95 163 1
95 164 1
95 165 1
95 166 1
95 167 1
95 168 1
95 169 1
95 170 1
95 171 1
95 172 1
95 173 1
95 174 1
95 175 1
95 176 1
95 177 1
95 178 1
95 179 1
95 180 1
95 181 1
95 182 1
95 183 1
95 184 1
95 185 1
95 186 1
95 187 1
95 188 1
95 189 1
96 2 1
96 4 1
96 7 1
96 9 1
96 13 1
96 15 1
96 18 1
96 20 1
96 25 1
96 27 1
96 30 1
96 32 1
96 36 1
96 38 1
96 41 1
96 43 1
96 49 1
96 51 1
96 54 1
96 56 1
96 60 1
96 62 1
96 65 1
96 67 1
96 72 1
96 74 1
96 77 1
96 79 1
96 83 1
96 85 1
96 88 1
96 90 1
96 191 1
97 1 1
97 3 1
97 6 1
97 8 1
97 12 1
97 14 1
97 17 1
97 19 1
97 24 1
97 26 1
97 29 1
97 31 1
97 35 1
97 37 1
97 40 1
97 42 1
97 48 1
97 50 1
97 53 1
97 55 1
97 59 1
97 61 1
97 64 1
97 66 1
97 71 1
97 73 1
97 76 1
97 78 1
97 82 1
97 84 1
97 87 1
97 89 1
97 191 1
98 2 1
98 5 1
98 7 1
98 10 1
98 13 1
98 16 1
98 18 1
98 21 1
98 25 1
98 28 1
98 30 1
98 33 1
98 36 1
98 39 1
98 41 1
98 44 1
98 49 1
98 52 1
98 54 1
98 57 1
98 60 1
98 63 1
98 65 1
98 68 1
98 72 1
98 75 1
98 77 1
98 80 1
98 83 1
98 86 1
98 88 1
98 91 1
98 191 1
99 1 1
99 5 1
99 6 1
99 10 1
99 12 1
99 16 1
99 17 1
99 21 1
99 24 1
99 28 1
99 29 1
99 33 1
99 35 1
99 39 1
99 40 1
99 44 1
99 48 1
99 52 1
99 53 1
99 57 1
99 59 1
99 63 1
99 64 1
99 68 1
99 71 1
99 75 1
99 76 1
99 80 1
99 82 1
99 86 1
99 87 1
99 91 1
99 191 1
100 3 1
100 4 1
100 8 1
100 9 1
100 14 1
100 15 1
100 19 1
100 20 1
100 26 1
100 27 1
100 31 1
100 32 1
100 37 1
100 38 1
100 42 1
100 43 1
100 50 1
100 51 1
100 55 1
100 56 1
100 61 1
100 62 1
100 66 1
100 67 1
100 73 1
100 74 1
100 78 1
100 79 1
100 84 1
100 85 1
100 89 1
100 90 1
100 191 1
101 2 1
101 4 1
101 11 1
101 13 1
101 15 1
101 22 1
101 25 1
101 27 1
101 34 1
101 36 1
101 38 1
101 45 1
101 49 1
101 51 1
101 58 1
101 60 1
101 62 1
101 69 1
101 72 1
101 74 1
101 81 1
101 83 1
101 85 1
101 92 1
101 191 1
102 1 1
102 3 1
102 11 1
102 12 1
102 14 1
102 22 1
102 24 1
102 26 1
102 34 1
102 35 1
102 37 1
102 45 1
102 48 1
102 50 1
102 58 1
102 59 1
102 61 1
102 69 1
102 71 1
102 73 1
102 81 1
102 82 1
102 84 1
102 92 1
102 191 1
103 2 1
103 5 1
103 11 1
103 13 1
103 16 1
103 22 1
103 25 1
103 28 1
103 34 1
103 36 1
103 39 1
103 45 1
103 49 1
103 52 1
103 58 1
103 60 1
103 63 1
103 69 1
103 72 1
103 75 1
103 81 1
103 83 1
103 86 1
103 92 1
103 191 1
104 1 1
104 5 1
104 11 1
104 12 1
104 16 1
104 22 1
104 24 1
104 28 1
104 34 1
104 35 1
104 39 1
104 45 1
104 48 1
104 52 1
104 58 1
104 59 1
104 63 1
104 69 1
104 71 1
104 75 1
104 81 1
104 82 1
104 86 1
104 92 1
104 191 1
105 3 1
105 4 1
105 11 1
105 14 1
105 15 1
105 22 1
105 26 1
105 27 1
105 34 1
105 37 1
105 38 1
105 45 1
105 50 1
105 51 1
105 58 1
105 61 1
105 62 1
105 69 1
105 73 1
105 74 1
105 81 1
105 84 1
105 85 1
105 92 1
105 191 1
106 6 1
106 7 1
106 8 1
106 9 1
106 10 1
106 17 1
106 18 1
106 19 1
106 20 1
106 21 1
106 29 1
106 30 1
106 31 1
106 32 1
106 33 1
106 40 1
106 41 1
106 42 1
106 43 1
106 44 1
106 53 1
106 54 1
106 55 1
106 56 1
106 57 1
106 64 1
106 65 1
106 66 1
106 67 1
106 68 1
106 76 1
106 77 1
106 78 1
106 79 1
106 80 1
106 87 1
106 88 1
106 89 1
106 90 1
106 91 1
106 191 1
107 2 1
107 4 1
107 7 1
107 9 1
107 23 1
107 25 1
107 27 1
107 30 1
107 32 1
107 46 1
107 49 1
107 51 1
107 54 1
107 56 1
107 70 1
107 72 1
107 74 1
107 77 1
107 79 1
107 93 1
107 191 1
108 1 1
108 3 1
108 6 1
108 8 1
108 23 1
108 24 1
108 26 1
108 29 1
108 31 1
108 46 1
108 48 1
108 50 1
108 53 1
108 55 1
108 70 1
108 71 1
108 73 1
108 76 1
108 78 1
108 93 1
108 191 1
109 2 1
109 5 1
109 7 1
109 10 1
109 23 1
109 25 1
109 28 1
109 30 1
109 33 1
109 46 1
109 49 1
109 52 1
109 54 1
109 57 1
109 70 1
109 72 1
109 75 1
109 77 1
109 80 1
109 93 1
109 191 1
110 1 1
110 5 1
110 6 1
110 10 1
110 23 1
110 24 1
110 28 1
110 29 1
110 33 1
110 46 1
110 48 1
110 52 1
110 53 1
110 57 1
110 70 1
110 71 1
110 75 1
110 76 1
110 80 1
110 93 1
110 191 1
111 3 1
111 4 1
111 8 1
111 9 1
111 23 1
111 26 1
111 27 1
111 31 1
111 32 1
111 46 1
111 50 1
111 51 1
111 55 1
111 56 1
111 70 1
111 73 1
111 74 1
111 78 1
111 79 1
111 93 1
111 191 1
112 2 1
112 4 1
112 11 1
112 23 1
112 25 1
112 27 1
112 34 1
112 46 1
112 49 1
112 51 1
112 58 1
112 70 1
112 72 1
112 74 1
112 81 1
112 93 1
112 191 1
113 1 1
113 3 1
113 11 1
113 23 1
113 24 1
113 26 1
113 34 1
113 46 1
113 48 1
113 50 1
113 58 1
113 70 1
113 71 1
113 73 1
113 81 1
113 93 1
113 191 1
114 2 1
114 5 1
114 11 1
114 23 1
114 25 1
114 28 1
114 34 1
114 46 1
114 49 1
114 52 1
114 58 1
114 70 1
114 72 1
114 75 1
114 81 1
114 93 1
114 191 1
115 1 1
115 5 1
115 11 1
115 23 1
115 24 1
115 28 1
115 34 1
115 46 1
115 48 1
115 52 1
115 58 1
115 70 1
115 71 1
115 75 1
115 81 1
115 93 1
115 191 1
116 3 1
116 4 1
116 11 1
116 23 1
116 26 1
116 27 1
116 34 1
116 46 1
116 50 1
116 51 1
116 58 1
116 70 1
116 73 1
116 74 1
116 81 1
116 93 1
116 191 1
117 6 1
117 7 1
117 8 1
117 9 1
117 10 1
117 23 1
117 29 1
117 30 1
117 31 1
117 32 1
117 33 1
117 46 1
117 53 1
117 54 1
117 55 1
117 56 1
117 57 1
117 70 1
117 76 1
117 77 1
117 78 1
117 79 1
117 80 1
117 93 1
117 191 1
118 12 1
118 13 1
118 14 1
118 15 1
118 16 1
118 17 1
118 18 1
118 19 1
118 20 1
118 21 1
118 22 1
118 35 1
118 36 1
118 37 1
118 38 1
118 39 1
118 40 1
118 41 1
118 42 1
118 43 1
118 44 1
118 45 1
118 59 1
118 60 1
118 61 1
118 62 1
118 63 1
118 64 1
118 65 1
118 66 1
118 67 1
118 68 1
118 69 1
118 82 1
118 83 1
118 84 1
118 85 1
118 86 1
118 87 1
118 88 1
118 89 1
118 90 1
118 91 1
118 92 1
118 191 1
119 2 1
119 4 1
119 7 1
119 9 1
119 13 1
119 15 1
119 18 1
119 20 1
119 47 1
119 49 1
119 51 1
119 54 1
119 56 1
119 60 1
119 62 1
119 65 1
119 67 1
119 94 1
119 191 1
120 1 1
120 3 1
120 6 1
120 8 1
120 12 1
120 14 1
120 17 1
120 19 1
120 47 1
120 48 1
120 50 1
120 53 1
120 55 1
120 59 1
120 61 1
120 64 1
120 66 1
120 94 1
120 191 1
121 2 1
121 5 1
121 7 1
121 10 1
121 13 1
121 16 1
121 18 1
121 21 1
121 47 1
121 49 1
121 52 1
121 54 1
121 57 1
121 60 1
121 63 1
121 65 1
121 68 1
121 94 1
121 191 1
122 1 1
122 5 1
122 6 1
122 10 1
122 12 1
122 16 1
122 17 1
122 21 1
122 47 1
122 48 1
122 52 1
122 53 1
122 57 1
122 59 1
122 63 1
122 64 1
122 68 1
122 94 1
122 191 1
123 3 1
123 4 1
123 8 1
123 9 1
123 14 1
123 15 1
123 19 1
123 20 1
123 47 1
123 50 1
123 51 1
123 55 1
123 56 1
123 61 1
123 62 1
123 66 1
123 67 1
123 94 1
123 191 1
124 2 1
124 4 1
124 11 1
124 13 1
124 15 1
124 22 1
124 47 1
124 49 1
124 51 1
124 58 1
124 60 1
124 62 1
124 69 1
124 94 1
124 191 1
125 1 1
125 3 1
125 11 1
125 12 1
125 14 1
125 22 1
125 47 1
125 48 1
125 50 1
125 58 1
125 59 1
125 61 1
125 69 1
125 94 1
125 191 1
126 2 1
126 5 1
126 11 1
126 13 1
126 16 1
126 22 1
126 47 1
126 49 1
126 52 1
126 58 1
126 60 1
126 63 1
126 69 1
126 94 1
126 191 1
127 1 1
127 5 1
127 11 1
127 12 1
127 16 1
127 22 1
127 47 1
127 48 1
127 52 1
127 58 1
127 59 1
127 63 1
127 69 1
127 94 1
127 191 1
128 3 1
128 4 1
128 11 1
128 14 1
128 15 1
128 22 1
128 47 1
128 50 1
128 51 1
128 58 1
128 61 1
128 62 1
128 69 1
128 94 1
128 191 1
129 6 1
129 7 1
129 8 1
129 9 1
129 10 1
129 17 1
129 18 1
129 19 1
129 20 1
129 21 1
129 47 1
129 53 1
129 54 1
129 55 1
129 56 1
129 57 1
129 64 1
129 65 1
129 66 1
129 67 1
129 68 1
129 94 1
129 191 1
130 2 1
130 4 1
130 7 1
130 9 1
130 23 1
130 47 1
130 49 1
130 51 1
130 54 1
130 56 1
130 70 1
130 94 1
130 191 1
131 1 1
131 3 1
131 6 1
131 8 1
131 23 1
131 47 1
131 48 1
131 50 1
131 53 1
131 55 1
131 70 1
131 94 1
131 191 1
132 2 1
132 5 1
132 7 1
132 10 1
132 23 1
132 47 1
132 49 1
132 52 1
132 54 1
132 57 1
132 70 1
132 94 1
132 191 1
133 1 1
133 5 1
133 6 1
133 10 1
133 23 1
133 47 1
133 48 1
133 52 1
133 53 1
133 57 1
133 70 1
133 94 1
133 191 1
134 3 1
134 4 1
134 8 1
134 9 1
134 23 1
134 47 1
134 50 1
134 51 1
134 55 1
134 56 1
134 70 1
134 94 1
134 191 1
135 2 1
135 4 1
135 11 1
135 23 1
135 47 1
135 49 1
135 51 1
135 58 1
135 70 1
135 94 1
135 191 1
136 1 1
136 3 1
136 11 1
136 23 1
136 47 1
136 48 1
136 50 1
136 58 1
136 70 1
136 94 1
136 191 1
137 2 1
137 5 1
137 11 1
137 23 1
137 47 1
137 49 1
137 52 1
137 58 1
137 70 1
137 94 1
137 191 1
138 1 1
138 5 1
138 11 1
138 23 1
138 47 1
138 48 1
138 52 1
138 58 1
138 70 1
138 94 1
138 191 1
139 3 1
139 4 1
139 11 1
139 23 1
139 47 1
139 50 1
139 51 1
139 58 1
139 70 1
139 94 1
139 191 1
140 6 1
140 7 1
140 8 1
140 9 1
140 10 1
140 23 1
140 47 1
140 53 1
140 54 1
140 55 1
140 56 1
140 57 1
140 70 1
140 94 1
140 191 1
141 12 1
141 13 1
141 14 1
141 15 1
141 16 1
141 17 1
141 18 1
141 19 1
141 20 1
141 21 1
141 22 1
141 47 1
141 59 1
141 60 1
141 61 1
141 62 1
141 63 1
141 64 1
141 65 1
141 66 1
141 67 1
141 68 1
141 69 1
141 94 1
141 191 1
142 24 1
142 25 1
142 26 1
142 27 1
142 28 1
142 29 1
142 30 1
142 31 1
142 32 1
142 33 1
142 34 1
142 35 1
142 36 1
142 37 1
142 38 1
142 39 1
142 40 1
142 41 1
142 42 1
142 43 1
142 44 1
142 45 1
142 46 1
142 71 1
142 72 1
142 73 1
142 74 1
142 75 1
142 76 1
142 77 1
142 78 1
142 79 1
142 80 1
142 81 1
142 82 1
142 83 1
142 84 1
142 85 1
142 86 1
142 87 1
142 88 1
142 89 1
142 90 1
142 91 1
142 92 1
142 93 1
142 191 1
143 2 1
143 4 1
143 7 1
143 9 1
143 13 1
143 15 1
143 18 1
143 20 1
143 25 1
143 27 1
143 30 1
143 32 1
143 36 1
143 38 1
143 41 1
143 43 1
143 95 1
143 191 1
144 1 1
144 3 1
144 6 1
144 8 1
144 12 1
144 14 1
144 17 1
144 19 1
144 24 1
144 26 1
144 29 1
144 31 1
144 35 1
144 37 1
144 40 1
144 42 1
144 95 1
144 191 1
145 2 1
145 5 1
145 7 1
145 10 1
145 13 1
145 16 1
145 18 1
145 21 1
145 25 1
145 28 1
145 30 1
145 33 1
145 36 1
145 39 1
145 41 1
145 44 1
145 95 1
145 191 1
146 1 1
146 5 1
146 6 1
146 10 1
146 12 1
146 16 1
146 17 1
146 21 1
146 24 1
146 28 1
146 29 1
146 33 1
146 35 1
146 39 1
146 40 1
146 44 1
146 95 1
146 191 1
147 3 1
147 4 1
147 8 1
147 9 1
147 14 1
147 15 1
147 19 1
147 20 1
147 26 1
147 27 1
147 31 1
147 32 1
147 37 1
147 38 1
147 42 1
147 43 1
147 95 1
147 191 1
148 2 1
148 4 1
148 11 1
148 13 1
148 15 1
148 22 1
148 25 1
148 27 1
148 34 1
148 36 1
148 38 1
148 45 1
148 95 1
148 191 1
149 1 1
149 3 1
149 11 1
149 12 1
149 14 1
149 22 1
149 24 1
149 26 1
149 34 1
149 35 1
149 37 1
149 45 1
149 95 1
149 191 1
150 2 1
150 5 1
150 11 1
150 13 1
150 16 1
150 22 1
150 25 1
150 28 1
150 34 1
150 36 1
150 39 1
150 45 1
150 95 1
150 191 1
151 1 1
151 5 1
151 11 1
151 12 1
151 16 1
151 22 1
151 24 1
151 28 1
151 34 1
151 35 1
151 39 1
151 45 1
151 95 1
151 191 1
152 3 1
152 4 1
152 11 1
152 14 1
152 15 1
152 22 1
152 26 1
152 27 1
152 34 1
152 37 1
152 38 1
152 45 1
152 95 1
152 191 1
153 6 1
153 7 1
153 8 1
153 9 1
153 10 1
153 17 1
153 18 1
153 19 1
153 20 1
153 21 1
153 29 1
153 30 1
153 31 1
153 32 1
153 33 1
153 40 1
153 41 1
153 42 1
153 43 1
153 44 1
153 95 1
153 191 1
154 2 1
154 4 1
154 7 1
154 9 1
154 23 1
154 25 1
154 27 1
154 30 1
154 32 1
154 46 1
154 95 1
154 191 1
155 1 1
155 3 1
155 6 1
155 8 1
155 23 1
155 24 1
155 26 1
155 29 1
155 31 1
155 46 1
155 95 1
155 191 1
156 2 1
156 5 1
156 7 1
156 10 1
156 23 1
156 25 1
156 28 1
156 30 1
156 33 1
156 46 1
156 95 1
156 191 1
157 1 1
157 5 1
157 6 1
157 10 1
157 23 1
157 24 1
157 28 1
157 29 1
157 33 1
157 46 1
157 95 1
157 191 1
158 3 1
158 4 1
158 8 1
158 9 1
158 23 1
158 26 1
158 27 1
158 31 1
158 32 1
158 46 1
158 95 1
158 191 1
159 2 1
159 4 1
159 11 1
159 23 1
159 25 1
159 27 1
159 34 1
159 46 1
159 95 1
159 191 1
160 1 1
160 3 1
160 11 1
160 23 1
160 24 1
160 26 1
160 34 1
160 46 1
160 95 1
160 191 1
161 2 1
161 5 1
161 11 1
161 23 1
161 25 1
161 28 1
161 34 1
161 46 1
161 95 1
161 191 1
162 1 1
162 5 1
162 11 1
162 23 1
162 24 1
162 28 1
162 34 1
162 46 1
162 95 1
162 191 1
163 3 1
163 4 1
163 11 1
163 23 1
163 26 1
163 27 1
163 34 1
163 46 1
163 95 1
163 191 1
164 6 1
164 7 1
164 8 1
164 9 1
164 10 1
164 23 1
164 29 1
164 30 1
164 31 1
164 32 1
164 33 1
164 46 1
164 95 1
164 191 1
165 12 1
165 13 1
165 14 1
165 15 1
165 16 1
165 17 1
165 18 1
165 19 1
165 20 1
165 21 1
165 22 1
165 35 1
165 36 1
165 37 1
165 38 1
165 39 1
165 40 1
165 41 1
165 42 1
165 43 1
165 44 1
165 45 1
165 95 1
165 191 1
166 2 1
166 4 1
166 7 1
166 9 1
166 13 1
166 15 1
166 18 1
166 20 1
166 47 1
166 95 1
166 191 1
167 1 1
167 3 1
167 6 1
167 8 1
167 12 1
167 14 1
167 17 1
167 19 1
167 47 1
167 95 1
167 191 1
168 2 1
168 5 1
168 7 1
168 10 1
168 13 1
168 16 1
168 18 1
168 21 1
168 47 1
168 95 1
168 191 1
169 1 1
169 5 1
169 6 1
169 10 1
169 12 1
169 16 1
169 17 1
169 21 1
169 47 1
169 95 1
169 191 1
170 3 1
170 4 1
170 8 1
170 9 1
170 14 1
170 15 1
170 19 1
170 20 1
170 47 1
170 95 1
170 191 1
171 2 1
171 4 1
171 11 1
171 13 1
171 15 1
171 22 1
171 47 1
171 95 1
171 191 1
172 1 1
172 3 1
172 11 1
172 12 1
172 14 1
172 22 1
172 47 1
172 95 1
172 191 1
173 2 1
173 5 1
173 11 1
173 13 1
173 16 1
173 22 1
173 47 1
173 95 1
173 191 1
174 1 1
174 5 1
174 11 1
174 12 1
174 16 1
174 22 1
174 47 1
174 95 1
174 191 1
175 3 1
175 4 1
175 11 1
175 14 1
175 15 1
175 22 1
175 47 1
175 95 1
175 191 1
176 6 1
176 7 1
176 8 1
176 9 1
176 10 1
176 17 1
176 18 1
176 19 1
176 20 1
176 21 1
176 47 1
176 95 1
176 191 1
177 2 1
177 4 1
177 7 1
177 9 1
177 23 1
177 47 1
177 95 1
177 191 1
178 1 1
178 3 1
178 6 1
178 8 1
178 23 1
178 47 1
178 95 1
178 191 1
179 2 1
179 5 1
179 7 1
179 10 1
179 23 1
179 47 1
179 95 1
179 191 1
180 1 1
180 5 1
180 6 1
180 10 1
180 23 1
180 47 1
180 95 1
180 191 1
181 3 1
181 4 1
181 8 1
181 9 1
181 23 1
181 47 1
181 95 1
181 191 1
182 2 1
182 4 1
182 11 1
182 23 1
182 47 1
182 95 1
182 191 1
183 1 1
183 3 1
183 11 1
183 23 1
183 47 1
183 95 1
183 191 1
184 2 1
184 5 1
184 11 1
184 23 1
184 47 1
184 95 1
184 191 1
185 1 1
185 5 1
185 11 1
185 23 1
185 47 1
185 95 1
185 191 1
186 3 1
186 4 1
186 11 1
186 23 1
186 47 1
186 95 1
186 191 1
187 6 1
187 7 1
187 8 1
187 9 1
187 10 1
187 23 1
187 47 1
187 95 1
187 191 1
188 12 1
188 13 1
188 14 1
188 15 1
188 16 1
188 17 1
188 18 1
188 19 1
188 20 1
188 21 1
188 22 1
188 47 1
188 95 1
188 191 1
189 24 1
189 25 1
189 26 1
189 27 1
189 28 1
189 29 1
189 30 1
189 31 1
189 32 1
189 33 1
189 34 1
189 35 1
189 36 1
189 37 1
189 38 1
189 39 1
189 40 1
189 41 1
189 42 1
189 43 1
189 44 1
189 45 1
189 46 1
189 95 1
189 191 1
190 48 1
190 49 1
190 50 1
190 51 1
190 52 1
190 53 1
190 54 1
190 55 1
190 56 1
190 57 1
190 58 1
190 59 1
190 60 1
190 61 1
190 62 1
190 63 1
190 64 1
190 65 1
190 66 1
190 67 1
190 68 1
190 69 1
190 70 1
190 71 1
190 72 1
190 73 1
190 74 1
190 75 1
190 76 1
190 77 1
190 78 1
190 79 1
190 80 1
190 81 1
190 82 1
190 83 1
190 84 1
190 85 1
190 86 1
190 87 1
190 88 1
190 89 1
190 90 1
190 91 1
190 92 1
190 93 1
190 94 1
190 191 1
191 96 1
191 97 1
191 98 1
191 99 1
191 100 1
191 101 1
191 102 1
191 103 1
191 104 1
191 105 1
191 106 1
191 107 1
191 108 1
191 109 1
191 110 1
191 111 1
191 112 1
191 113 1
191 114 1
191 115 1
191 116 1
191 117 1
191 118 1
191 119 1
191 120 1
191 121 1
191 122 1
191 123 1
191 124 1
191 125 1
191 126 1
191 127 1
191 128 1
191 129 1
191 130 1
191 131 1
191 132 1
191 133 1
191 134 1
191 135 1
191 136 1
191 137 1
191 138 1
191 139 1
191 140 1
191 141 1
191 142 1
191 143 1
191 144 1
191 145 1
191 146 1
191 147 1
191 148 1
191 149 1
191 150 1
191 151 1
191 152 1
191 153 1
191 154 1
191 155 1
191 156 1
191 157 1
191 158 1
191 159 1
191 160 1
191 161 1
191 162 1
191 163 1
191 164 1
191 165 1
191 166 1
191 167 1
191 168 1
191 169 1
191 170 1
191 171 1
191 172 1
191 173 1
191 174 1
191 175 1
191 176 1
191 177 1
191 178 1
191 179 1
191 180 1
191 181 1
191 182 1
191 183 1
191 184 1
191 185 1
191 186 1
191 187 1
191 188 1
191 189 1
191 190 1
