%%MatrixMarket matrix coordinate real symmetric
%
95 95 755
2 1 1
3 2 1
4 1 1
5 3 1
5 4 1
6 2 1
6 4 1
7 1 1
7 3 1
8 2 1
8 5 1
9 1 1
9 5 1
10 3 1
10 4 1
11 6 1
11 7 1
11 8 1
11 9 1
11 10 1
12 2 1
12 4 1
12 7 1
12 9 1
13 1 1
13 3 1
13 6 1
13 8 1
14 2 1
14 5 1
14 7 1
14 10 1
15 1 1
15 5 1
15 6 1
15 10 1
16 3 1
16 4 1
16 8 1
16 9 1
17 2 1
17 4 1
17 11 1
18 1 1
18 3 1
18 11 1
19 2 1
19 5 1
19 11 1
20 1 1
20 5 1
20 11 1
21 3 1
21 4 1
21 11 1
22 6 1
22 7 1
22 8 1
22 9 1
22 10 1
23 12 1
23 13 1
23 14 1
23 15 1
23 16 1
23 17 1
23 18 1
23 19 1
23 20 1
23 21 1
23 22 1
24 2 1
24 4 1
24 7 1
24 9 1
24 13 1
24 15 1
24 18 1
24 20 1
25 1 1
25 3 1
25 6 1
25 8 1
25 12 1
25 14 1
25 17 1
25 19 1
26 2 1
26 5 1
26 7 1
26 10 1
26 13 1
26 16 1
26 18 1
26 21 1
27 1 1
27 5 1
27 6 1
27 10 1
27 12 1
27 16 1
27 17 1
27 21 1
28 3 1
28 4 1
28 8 1
28 9 1
28 14 1
28 15 1
28 19 1
28 20 1
29 2 1
29 4 1
29 11 1
29 13 1
29 15 1
29 22 1
30 1 1
30 3 1
30 11 1
30 12 1
30 14 1
30 22 1
31 2 1
31 5 1
31 11 1
31 13 1
31 16 1
31 22 1
32 1 1
32 5 1
32 11 1
32 12 1
32 16 1
32 22 1
33 3 1
33 4 1
33 11 1
33 14 1
33 15 1
33 22 1
34 6 1
34 7 1
34 8 1
34 9 1
34 10 1
34 17 1
34 18 1
34 19 1
34 20 1
34 21 1
35 2 1
35 4 1
35 7 1
35 9 1
35 23 1
36 1 1
36 3 1
36 6 1
36 8 1
36 23 1
37 2 1
37 5 1
37 7 1
37 10 1
37 23 1
38 1 1
38 5 1
38 6 1
38 10 1
38 23 1
39 3 1
39 4 1
39 8 1
39 9 1
39 23 1
40 2 1
40 4 1
40 11 1
40 23 1
41 1 1
41 3 1
41 11 1
41 23 1
42 2 1
42 5 1
42 11 1
42 23 1
43 1 1
43 5 1
43 11 1
43 23 1
44 3 1
44 4 1
44 11 1
44 23 1
45 6 1
45 7 1
45 8 1
45 9 1
45 10 1
45 23 1
46 12 1
46 13 1
46 14 1
46 15 1
46 16 1
46 17 1
46 18 1
46 19 1
46 20 1
46 21 1
46 22 1
47 24 1
47 25 1
47 26 1
47 27 1
47 28 1
47 29 1
47 30 1
47 31 1
47 32 1
47 33 1
47 34 1
47 35 1
47 36 1
47 37 1
47 38 1
47 39 1
47 40 1
47 41 1
47 42 1
47 43 1
47 44 1
47 45 1
47 46 1
48 2 1
48 4 1
48 7 1
48 9 1
48 13 1
48 15 1
48 18 1
48 20 1
48 25 1
48 27 1
48 30 1
48 32 1
48 36 1
48 38 1
48 41 1
48 43 1
49 1 1
49 3 1
49 6 1
49 8 1
49 12 1
49 14 1
49 17 1
49 19 1
49 24 1
49 26 1
49 29 1
49 31 1
49 35 1
49 37 1
49 40 1
49 42 1
50 2 1
50 5 1
50 7 1
50 10 1
50 13 1
50 16 1
50 18 1
50 21 1
50 25 1
50 28 1
50 30 1
50 33 1
50 36 1
50 39 1
50 41 1
50 44 1
51 1 1
51 5 1
51 6 1
51 10 1
51 12 1
51 16 1
51 17 1
51 21 1
51 24 1
51 28 1
51 29 1
51 33 1
51 35 1
51 39 1
51 40 1
51 44 1
52 3 1
52 4 1
52 8 1
52 9 1
52 14 1
52 15 1
52 19 1
52 20 1
52 26 1
52 27 1
52 31 1
52 32 1
52 37 1
52 38 1
52 42 1
52 43 1
53 2 1
53 4 1
53 11 1
53 13 1
53 15 1
53 22 1
53 25 1
53 27 1
53 34 1
53 36 1
53 38 1
53 45 1
54 1 1
54 3 1
54 11 1
54 12 1
54 14 1
54 22 1
54 24 1
54 26 1
54 34 1
54 35 1
54 37 1
54 45 1
55 2 1
55 5 1
55 11 1
55 13 1
55 16 1
55 22 1
55 25 1
55 28 1
55 34 1
55 36 1
55 39 1
55 45 1
56 1 1
56 5 1
56 11 1
56 12 1
56 16 1
56 22 1
56 24 1
56 28 1
56 34 1
56 35 1
56 39 1
56 45 1
57 3 1
57 4 1
57 11 1
57 14 1
57 15 1
57 22 1
57 26 1
57 27 1
57 34 1
57 37 1
57 38 1
57 45 1
58 6 1
58 7 1
58 8 1
58 9 1
58 10 1
58 17 1
58 18 1
58 19 1
58 20 1
58 21 1
58 29 1
58 30 1
58 31 1
58 32 1
58 33 1
58 40 1
58 41 1
58 42 1
58 43 1
58 44 1
59 2 1
59 4 1
59 7 1
59 9 1
59 23 1
59 25 1
59 27 1
59 30 1
59 32 1
59 46 1
60 1 1
60 3 1
60 6 1
60 8 1
60 23 1
60 24 1
60 26 1
60 29 1
60 31 1
60 46 1
61 2 1
61 5 1
61 7 1
61 10 1
61 23 1
61 25 1
61 28 1
61 30 1
61 33 1
61 46 1
62 1 1
62 5 1
62 6 1
62 10 1
62 23 1
62 24 1
62 28 1
62 29 1
62 33 1
62 46 1
63 3 1
63 4 1
63 8 1
63 9 1
63 23 1
63 26 1
63 27 1
63 31 1
63 32 1
63 46 1
64 2 1
64 4 1
64 11 1
64 23 1
64 25 1
64 27 1
64 34 1
64 46 1
65 1 1
65 3 1
65 11 1
65 23 1
65 24 1
65 26 1
65 34 1
65 46 1
66 2 1
66 5 1
66 11 1
66 23 1
66 25 1
66 28 1
66 34 1
66 46 1
67 1 1
67 5 1
67 11 1
67 23 1
67 24 1
67 28 1
67 34 1
67 46 1
68 3 1
68 4 1
68 11 1
68 23 1
68 26 1
68 27 1
68 34 1
68 46 1
69 6 1
69 7 1
69 8 1
69 9 1
69 10 1
69 23 1
69 29 1
69 30 1
69 31 1
69 32 1
69 33 1
69 46 1
70 12 1
70 13 1
70 14 1
70 15 1
70 16 1
70 17 1
70 18 1
70 19 1
70 20 1
70 21 1
70 22 1
70 35 1
70 36 1
70 37 1
70 38 1
70 39 1
70 40 1
70 41 1
70 42 1
70 43 1
70 44 1
70 45 1
71 2 1
71 4 1
71 7 1
71 9 1
71 13 1
71 15 1
71 18 1
71 20 1
71 47 1
72 1 1
72 3 1
72 6 1
72 8 1
72 12 1
72 14 1
72 17 1
72 19 1
72 47 1
73 2 1
73 5 1
73 7 1
73 10 1
73 13 1
73 16 1
73 18 1
73 21 1
73 47 1
74 1 1
74 5 1
74 6 1
74 10 1
74 12 1
74 16 1
74 17 1
74 21 1
74 47 1
75 3 1
75 4 1
75 8 1
75 9 1
75 14 1
75 15 1
75 19 1
75 20 1
75 47 1
76 2 1
76 4 1
76 11 1
76 13 1
76 15 1
76 22 1
76 47 1
77 1 1
77 3 1
77 11 1
77 12 1
77 14 1
77 22 1
77 47 1
78 2 1
78 5 1
78 11 1
78 13 1
78 16 1
78 22 1
78 47 1
79 1 1
79 5 1
79 11 1
79 12 1
79 16 1
79 22 1
79 47 1
80 3 1
80 4 1
80 11 1
80 14 1
80 15 1
80 22 1
80 47 1
81 6 1
81 7 1
81 8 1
81 9 1
81 10 1
81 17 1
81 18 1
81 19 1
81 20 1
81 21 1
81 47 1
82 2 1
82 4 1
82 7 1
82 9 1
82 23 1
82 47 1
83 1 1
83 3 1
83 6 1
83 8 1
83 23 1
83 47 1
84 2 1
84 5 1
84 7 1
84 10 1
84 23 1
84 47 1
85 1 1
85 5 1
85 6 1
85 10 1
85 23 1
85 47 1
86 3 1
86 4 1
86 8 1
86 9 1
86 23 1
86 47 1
87 2 1
87 4 1
87 11 1
87 23 1
87 47 1
88 1 1
88 3 1
88 11 1
88 23 1
88 47 1
89 2 1
89 5 1
89 11 1
89 23 1
89 47 1
90 1 1
90 5 1
90 11 1
90 23 1
90 47 1
91 3 1
91 4 1
91 11 1
91 23 1
91 47 1
92 6 1
92 7 1
92 8 1
92 9 1
92 10 1
92 23 1
92 47 1
93 12 1
93 13 1
93 14 1
93 15 1
93 16 1
93 17 1
93 18 1
93 19 1
93 20 1
93 21 1
93 22 1
93 47 1
94 24 1
94 25 1
94 26 1
94 27 1
94 28 1
94 29 1
94 30 1
94 31 1
94 32 1
94 33 1
94 34 1
94 35 1
94 36 1
94 37 1
94 38 1
94 39 1
94 40 1
94 41 1
94 42 1
94 43 1
94 44 1
94 45 1
94 46 1
95 48 1
95 49 1
95 50 1
95 51 1
95 52 1
95 53 1
95 54 1
95 55 1
95 56 1
95 57 1
95 58 1
95 59 1
95 60 1
95 61 1
95 62 1
95 63 1
95 64 1
95 65 1
95 66 1
95 67 1
95 68 1
95 69 1
95 70 1
95 71 1
95 72 1
95 73 1
95 74 1
95 75 1
95 76 1
95 77 1
95 78 1
95 79 1
95 80 1
95 81 1
95 82 1
95 83 1
95 84 1
95 85 1
95 86 1
95 87 1
95 88 1
95 89 1
95 90 1
95 91 1
95 92 1
95 93 1
95 94 1
