%%MatrixMarket matrix coordinate real symmetric
%
47 47 236
2 1 1
3 2 1
4 1 1
5 3 1
5 4 1
6 2 1
6 4 1
7 1 1
7 3 1
8 2 1
8 5 1
9 1 1
9 5 1
10 3 1
10 4 1
11 6 1
11 7 1
11 8 1
11 9 1
11 10 1
12 2 1
12 4 1
12 7 1
12 9 1
13 1 1
13 3 1
13 6 1
13 8 1
14 2 1
14 5 1
14 7 1
14 10 1
15 1 1
15 5 1
15 6 1
15 10 1
16 3 1
16 4 1
16 8 1
16 9 1
17 2 1
17 4 1
17 11 1
18 1 1
18 3 1
18 11 1
19 2 1
19 5 1
19 11 1
20 1 1
20 5 1
20 11 1
21 3 1
21 4 1
21 11 1
22 6 1
22 7 1
22 8 1
22 9 1
22 10 1
23 12 1
23 13 1
23 14 1
23 15 1
23 16 1
23 17 1
23 18 1
23 19 1
23 20 1
23 21 1
23 22 1
24 2 1
24 4 1
24 7 1
24 9 1
24 13 1
24 15 1
24 18 1
24 20 1
25 1 1
25 3 1
25 6 1
25 8 1
25 12 1
25 14 1
25 17 1
25 19 1
26 2 1
26 5 1
26 7 1
26 10 1
26 13 1
26 16 1
26 18 1
26 21 1
27 1 1
27 5 1
27 6 1
27 10 1
27 12 1
27 16 1
27 17 1
27 21 1
28 3 1
28 4 1
28 8 1
28 9 1
28 14 1
28 15 1
28 19 1
28 20 1
29 2 1
29 4 1
29 11 1
29 13 1
29 15 1
29 22 1
30 1 1
30 3 1
30 11 1
30 12 1
30 14 1
30 22 1
31 2 1
31 5 1
31 11 1
31 13 1
31 16 1
31 22 1
32 1 1
32 5 1
32 11 1
32 12 1
32 16 1
32 22 1
33 3 1
33 4 1
33 11 1
33 14 1
33 15 1
33 22 1
34 6 1
34 7 1
34 8 1
34 9 1
34 10 1
34 17 1
34 18 1
34 19 1
34 20 1
34 21 1
35 2 1
35 4 1
35 7 1
35 9 1
35 23 1
36 1 1
36 3 1
36 6 1
36 8 1
36 23 1
37 2 1
37 5 1
37 7 1
37 10 1
37 23 1
38 1 1
38 5 1
38 6 1
38 10 1
38 23 1
39 3 1
39 4 1
39 8 1
39 9 1
39 23 1
40 2 1
40 4 1
40 11 1
40 23 1
41 1 1
41 3 1
41 11 1
41 23 1
42 2 1
42 5 1
42 11 1
42 23 1
43 1 1
43 5 1
43 11 1
43 23 1
44 3 1
44 4 1
44 11 1
44 23 1
45 6 1
45 7 1
45 8 1
45 9 1
45 10 1
45 23 1
46 12 1
46 13 1
46 14 1
46 15 1
46 16 1
46 17 1
46 18 1
46 19 1
46 20 1
46 21 1
46 22 1
47 24 1
47 25 1
47 26 1
47 27 1
47 28 1
47 29 1
47 30 1
47 31 1
47 32 1
47 33 1
47 34 1
47 35 1
47 36 1
47 37 1
47 38 1
47 39 1
47 40 1
47 41 1
47 42 1
47 43 1
47 44 1
47 45 1
47 46 1
