%%MatrixMarket matrix coordinate real general
%
615 615 2342
1 2 1
1 3 1
2 1 1
2 4 1
2 5 1
3 1 1
3 4 1
3 7 1
4 2 1
4 3 1
4 6 1
4 8 1
5 2 1
5 6 1
5 10 1
6 4 1
6 5 1
6 9 1
6 11 1
7 3 1
7 8 1
7 13 1
8 4 1
8 7 1
8 9 1
8 14 1
9 6 1
9 8 1
9 12 1
9 15 1
10 5 1
10 11 1
10 17 1
11 6 1
11 10 1
11 12 1
11 18 1
12 9 1
12 11 1
12 16 1
12 19 1
13 7 1
13 14 1
13 21 1
14 8 1
14 13 1
14 15 1
14 22 1
15 9 1
15 14 1
15 16 1
15 23 1
16 12 1
16 15 1
16 20 1
16 24 1
17 10 1
17 18 1
17 26 1
18 11 1
18 17 1
18 19 1
18 27 1
19 12 1
19 18 1
19 20 1
19 28 1
20 16 1
20 19 1
20 25 1
20 29 1
21 13 1
21 22 1
21 31 1
22 14 1
22 21 1
22 23 1
22 32 1
23 15 1
23 22 1
23 24 1
23 33 1
24 16 1
24 23 1
24 25 1
24 34 1
25 20 1
25 24 1
25 30 1
25 35 1
26 17 1
26 27 1
26 37 1
27 18 1
27 26 1
27 28 1
27 38 1
28 19 1
28 27 1
28 29 1
28 39 1
29 20 1
29 28 1
29 30 1
29 40 1
30 25 1
30 29 1
30 36 1
30 41 1
31 21 1
31 32 1
31 43 1
32 22 1
32 31 1
32 33 1
32 44 1
33 23 1
33 32 1
33 34 1
33 45 1
34 24 1
34 33 1
34 35 1
34 46 1
35 25 1
35 34 1
35 36 1
35 47 1
36 30 1
36 35 1
36 42 1
36 48 1
37 26 1
37 38 1
37 50 1
38 27 1
38 37 1
38 39 1
38 51 1
39 28 1
39 38 1
39 40 1
39 52 1
40 29 1
40 39 1
40 41 1
40 53 1
41 30 1
41 40 1
41 42 1
41 54 1
42 36 1
42 41 1
42 49 1
42 55 1
43 31 1
43 44 1
43 57 1
44 32 1
44 43 1
44 45 1
44 58 1
45 33 1
45 44 1
45 46 1
45 59 1
46 34 1
46 45 1
46 47 1
46 60 1
47 35 1
47 46 1
47 48 1
47 61 1
48 36 1
48 47 1
48 49 1
48 62 1
49 42 1
49 48 1
49 56 1
49 63 1
50 37 1
50 51 1
50 65 1
51 38 1
51 50 1
51 52 1
51 66 1
52 39 1
52 51 1
52 53 1
52 67 1
53 40 1
53 52 1
53 54 1
53 68 1
54 41 1
54 53 1
54 55 1
54 69 1
55 42 1
55 54 1
55 56 1
55 70 1
56 49 1
56 55 1
56 64 1
56 71 1
57 43 1
57 58 1
57 73 1
58 44 1
58 57 1
58 59 1
58 74 1
59 45 1
59 58 1
59 60 1
59 75 1
60 46 1
60 59 1
60 61 1
60 76 1
61 47 1
61 60 1
61 62 1
61 77 1
62 48 1
62 61 1
62 63 1
62 78 1
63 49 1
63 62 1
63 64 1
63 79 1
64 56 1
64 63 1
64 72 1
64 80 1
65 50 1
65 66 1
65 83 1
66 51 1
66 65 1
66 67 1
66 82 1
67 52 1
67 66 1
67 68 1
67 84 1
68 53 1
68 67 1
68 69 1
68 85 1
69 54 1
69 68 1
69 70 1
69 86 1
70 55 1
70 69 1
70 71 1
70 87 1
71 56 1
71 70 1
71 72 1
71 88 1
72 64 1
72 71 1
72 81 1
72 89 1
73 57 1
73 74 1
73 91 1
74 58 1
74 73 1
74 75 1
74 91 1
75 59 1
75 74 1
75 76 1
75 93 1
76 60 1
76 75 1
76 77 1
76 93 1
77 61 1
77 76 1
77 78 1
77 94 1
78 62 1
78 77 1
78 79 1
78 94 1
79 63 1
79 78 1
79 80 1
79 97 1
80 64 1
80 79 1
80 81 1
80 97 1
81 72 1
81 80 1
81 90 1
81 98 1
82 66 1
82 83 1
82 84 1
82 102 1
83 65 1
83 82 1
83 103 1
84 67 1
84 82 1
84 85 1
84 101 1
85 68 1
85 84 1
85 86 1
85 104 1
86 69 1
86 85 1
86 87 1
86 105 1
87 70 1
87 86 1
87 88 1
87 106 1
88 71 1
88 87 1
88 89 1
88 107 1
89 72 1
89 88 1
89 90 1
89 108 1
90 81 1
90 89 1
90 98 1
90 109 1
91 73 1
91 74 1
91 92 1
91 93 1
92 91 1
92 95 1
92 111 1
93 75 1
93 76 1
93 91 1
93 95 1
94 77 1
94 78 1
94 96 1
94 97 1
95 92 1
95 93 1
95 96 1
95 112 1
96 94 1
96 95 1
96 100 1
96 113 1
97 79 1
97 80 1
97 94 1
97 100 1
98 81 1
98 90 1
98 99 1
98 110 1
99 98 1
99 100 1
99 115 1
99 117 1
100 96 1
100 97 1
100 99 1
100 114 1
101 84 1
101 102 1
101 104 1
101 119 1
102 82 1
102 101 1
102 103 1
102 120 1
103 83 1
103 102 1
103 121 1
104 85 1
104 101 1
104 105 1
104 118 1
105 86 1
105 104 1
105 106 1
105 122 1
106 87 1
106 105 1
106 107 1
106 123 1
107 88 1
107 106 1
107 108 1
107 124 1
108 89 1
108 107 1
108 109 1
108 125 1
109 90 1
109 108 1
109 110 1
109 126 1
110 98 1
110 109 1
110 115 1
110 126 1
111 92 1
111 112 1
111 131 1
112 95 1
112 111 1
112 113 1
112 131 1
113 96 1
113 112 1
113 114 1
113 132 1
114 100 1
114 113 1
114 117 1
114 132 1
115 99 1
115 110 1
115 116 1
115 128 1
116 115 1
116 117 1
116 135 1
116 136 1
117 99 1
117 114 1
117 116 1
117 135 1
118 104 1
118 119 1
118 122 1
118 138 1
119 101 1
119 118 1
119 120 1
119 140 1
120 102 1
120 119 1
120 121 1
120 141 1
121 103 1
121 120 1
121 142 1
122 105 1
122 118 1
122 123 1
122 139 1
123 106 1
123 122 1
123 124 1
123 143 1
124 107 1
124 123 1
124 125 1
124 144 1
125 108 1
125 124 1
125 126 1
125 145 1
126 109 1
126 110 1
126 125 1
126 129 1
127 128 1
127 129 1
127 146 1
127 149 1
128 115 1
128 127 1
128 136 1
128 147 1
129 126 1
129 127 1
129 145 1
129 149 1
130 131 1
130 134 1
130 152 1
131 111 1
131 112 1
131 130 1
131 132 1
132 113 1
132 114 1
132 131 1
132 134 1
133 134 1
133 135 1
133 154 1
133 155 1
134 130 1
134 132 1
134 133 1
134 153 1
135 116 1
135 117 1
135 133 1
135 137 1
136 116 1
136 128 1
136 137 1
136 150 1
137 135 1
137 136 1
137 150 1
137 154 1
138 118 1
138 139 1
138 140 1
138 160 1
139 122 1
139 138 1
139 143 1
139 161 1
140 119 1
140 138 1
140 141 1
140 162 1
141 120 1
141 140 1
141 142 1
141 164 1
142 121 1
142 141 1
142 165 1
143 123 1
143 139 1
143 144 1
143 163 1
144 124 1
144 143 1
144 145 1
144 166 1
145 125 1
145 129 1
145 144 1
145 151 1
146 127 1
146 147 1
146 148 1
146 170 1
147 128 1
147 146 1
147 150 1
147 169 1
148 146 1
148 149 1
148 170 1
148 172 1
149 127 1
149 129 1
149 148 1
149 151 1
150 136 1
150 137 1
150 147 1
150 157 1
151 145 1
151 149 1
151 166 1
151 172 1
152 130 1
152 153 1
152 174 1
153 134 1
153 152 1
153 155 1
153 175 1
154 133 1
154 137 1
154 156 1
154 159 1
155 133 1
155 153 1
155 156 1
155 177 1
156 154 1
156 155 1
156 177 1
156 179 1
157 150 1
157 158 1
157 169 1
157 180 1
158 157 1
158 159 1
158 180 1
158 183 1
159 154 1
159 158 1
159 179 1
159 182 1
160 138 1
160 161 1
160 162 1
160 186 1
161 139 1
161 160 1
161 163 1
161 187 1
162 140 1
162 160 1
162 164 1
162 188 1
163 143 1
163 161 1
163 166 1
163 189 1
164 141 1
164 162 1
164 165 1
164 190 1
165 142 1
165 164 1
165 191 1
166 144 1
166 151 1
166 163 1
166 173 1
167 168 1
167 170 1
167 192 1
167 193 1
168 167 1
168 169 1
168 192 1
168 195 1
169 147 1
169 157 1
169 168 1
169 181 1
170 146 1
170 148 1
170 167 1
170 171 1
171 170 1
171 172 1
171 193 1
171 197 1
172 148 1
172 151 1
172 171 1
172 173 1
173 166 1
173 172 1
173 189 1
173 197 1
174 152 1
174 176 1
174 200 1
175 153 1
175 176 1
175 178 1
175 203 1
176 174 1
176 175 1
176 201 1
176 202 1
177 155 1
177 156 1
177 178 1
177 179 1
178 175 1
178 177 1
178 204 1
178 207 1
179 156 1
179 159 1
179 177 1
179 185 1
180 157 1
180 158 1
180 181 1
180 184 1
181 169 1
181 180 1
181 195 1
181 211 1
182 159 1
182 183 1
182 185 1
182 215 1
183 158 1
183 182 1
183 184 1
183 218 1
184 180 1
184 183 1
184 211 1
184 218 1
185 179 1
185 182 1
185 206 1
185 219 1
186 160 1
186 187 1
186 188 1
186 221 1
187 161 1
187 186 1
187 189 1
187 222 1
188 162 1
188 186 1
188 190 1
188 223 1
189 163 1
189 173 1
189 187 1
189 199 1
190 164 1
190 188 1
190 191 1
190 224 1
191 165 1
191 190 1
191 225 1
192 167 1
192 168 1
192 194 1
192 196 1
193 167 1
193 171 1
193 194 1
193 198 1
194 192 1
194 193 1
194 226 1
194 227 1
195 168 1
195 181 1
195 196 1
195 214 1
196 192 1
196 195 1
196 214 1
196 226 1
197 171 1
197 173 1
197 198 1
197 199 1
198 193 1
198 197 1
198 227 1
198 230 1
199 189 1
199 197 1
199 222 1
199 230 1
200 174 1
200 201 1
200 233 1
201 176 1
201 200 1
201 205 1
201 234 1
202 176 1
202 203 1
202 205 1
203 175 1
203 202 1
203 204 1
204 178 1
204 203 1
204 210 1
205 201 1
205 202 1
205 235 1
206 185 1
206 208 1
206 219 1
206 236 1
207 178 1
207 209 1
207 210 1
207 239 1
208 206 1
208 209 1
208 238 1
208 242 1
209 207 1
209 208 1
209 241 1
209 243 1
210 204 1
210 207 1
210 240 1
211 181 1
211 184 1
211 213 1
211 220 1
212 213 1
212 214 1
212 247 1
212 249 1
213 211 1
213 212 1
213 246 1
213 247 1
214 195 1
214 196 1
214 212 1
214 229 1
215 182 1
215 217 1
215 219 1
215 252 1
216 217 1
216 218 1
216 253 1
216 255 1
217 215 1
217 216 1
217 251 1
217 253 1
218 183 1
218 184 1
218 216 1
218 220 1
219 185 1
219 206 1
219 215 1
219 237 1
220 211 1
220 218 1
220 246 1
220 255 1
221 186 1
221 222 1
221 223 1
221 260 1
222 187 1
222 199 1
222 221 1
222 232 1
223 188 1
223 221 1
223 224 1
223 261 1
224 190 1
224 223 1
224 225 1
224 262 1
225 191 1
225 224 1
225 263 1
226 194 1
226 196 1
226 228 1
226 229 1
227 194 1
227 198 1
227 228 1
227 231 1
228 226 1
228 227 1
228 264 1
228 265 1
229 214 1
229 226 1
229 249 1
229 264 1
230 198 1
230 199 1
230 231 1
230 232 1
231 227 1
231 230 1
231 265 1
231 268 1
232 222 1
232 230 1
232 260 1
232 268 1
233 200 1
233 234 1
233 271 1
234 201 1
234 233 1
234 235 1
234 272 1
235 205 1
235 234 1
235 273 1
236 206 1
236 237 1
236 238 1
236 274 1
237 219 1
237 236 1
237 252 1
237 274 1
238 208 1
238 236 1
238 244 1
238 278 1
239 207 1
239 240 1
239 241 1
239 272 1
240 210 1
240 239 1
240 273 1
241 209 1
241 239 1
241 245 1
241 283 1
242 208 1
242 243 1
242 244 1
243 209 1
243 242 1
243 245 1
244 238 1
244 242 1
244 281 1
245 241 1
245 243 1
245 284 1
246 213 1
246 220 1
246 250 1
246 259 1
247 212 1
247 213 1
247 248 1
247 250 1
248 247 1
248 249 1
248 285 1
248 286 1
249 212 1
249 229 1
249 248 1
249 267 1
250 246 1
250 247 1
250 259 1
250 285 1
251 217 1
251 252 1
251 256 1
251 289 1
252 215 1
252 237 1
252 251 1
252 280 1
253 216 1
253 217 1
253 254 1
253 256 1
254 253 1
254 255 1
254 291 1
254 293 1
255 216 1
255 220 1
255 254 1
255 258 1
256 251 1
256 253 1
256 289 1
256 291 1
257 258 1
257 259 1
257 296 1
257 297 1
258 255 1
258 257 1
258 293 1
258 296 1
259 246 1
259 250 1
259 257 1
259 288 1
260 221 1
260 232 1
260 261 1
260 270 1
261 223 1
261 260 1
261 262 1
261 300 1
262 224 1
262 261 1
262 263 1
262 301 1
263 225 1
263 262 1
263 302 1
264 228 1
264 229 1
264 266 1
264 267 1
265 228 1
265 231 1
265 266 1
265 269 1
266 264 1
266 265 1
266 303 1
266 304 1
267 249 1
267 264 1
267 286 1
267 303 1
268 231 1
268 232 1
268 269 1
268 270 1
269 265 1
269 268 1
269 304 1
269 307 1
270 260 1
270 268 1
270 300 1
270 307 1
271 233 1
271 272 1
271 282 1
272 234 1
272 239 1
272 271 1
272 273 1
273 235 1
273 240 1
273 272 1
274 236 1
274 237 1
274 276 1
274 280 1
275 276 1
275 277 1
275 311 1
275 313 1
276 274 1
276 275 1
276 310 1
276 311 1
277 275 1
277 279 1
277 314 1
277 317 1
278 238 1
278 279 1
278 281 1
278 320 1
279 277 1
279 278 1
279 316 1
279 321 1
280 252 1
280 274 1
280 290 1
280 310 1
281 244 1
281 278 1
281 319 1
282 271 1
282 283 1
282 324 1
283 241 1
283 282 1
283 284 1
283 325 1
284 245 1
284 283 1
284 326 1
285 248 1
285 250 1
285 287 1
285 288 1
286 248 1
286 267 1
286 287 1
286 306 1
287 285 1
287 286 1
287 327 1
287 328 1
288 259 1
288 285 1
288 297 1
288 327 1
289 251 1
289 256 1
289 290 1
289 295 1
290 280 1
290 289 1
290 323 1
290 331 1
291 254 1
291 256 1
291 292 1
291 295 1
292 291 1
292 294 1
292 334 1
292 335 1
293 254 1
293 258 1
293 294 1
293 299 1
294 292 1
294 293 1
294 299 1
294 338 1
295 289 1
295 291 1
295 331 1
295 334 1
296 257 1
296 258 1
296 298 1
296 299 1
297 257 1
297 288 1
297 298 1
297 330 1
298 296 1
298 297 1
298 339 1
298 341 1
299 293 1
299 294 1
299 296 1
299 339 1
300 261 1
300 270 1
300 301 1
300 309 1
301 262 1
301 300 1
301 302 1
301 343 1
302 263 1
302 301 1
302 344 1
303 266 1
303 267 1
303 305 1
303 306 1
304 266 1
304 269 1
304 305 1
304 308 1
305 303 1
305 304 1
305 345 1
305 346 1
306 286 1
306 303 1
306 328 1
306 345 1
307 269 1
307 270 1
307 308 1
307 309 1
308 304 1
308 307 1
308 346 1
308 349 1
309 300 1
309 307 1
309 343 1
309 349 1
310 276 1
310 280 1
310 315 1
310 323 1
311 275 1
311 276 1
311 312 1
311 315 1
312 311 1
312 313 1
312 353 1
312 354 1
313 275 1
313 312 1
313 314 1
313 356 1
314 277 1
314 313 1
314 318 1
314 358 1
315 310 1
315 311 1
315 352 1
315 353 1
316 279 1
316 317 1
316 322 1
317 277 1
317 316 1
317 318 1
318 314 1
318 317 1
318 359 1
319 281 1
319 320 1
319 326 1
320 278 1
320 319 1
320 321 1
320 325 1
321 279 1
321 320 1
321 322 1
321 362 1
322 316 1
322 321 1
322 363 1
323 290 1
323 310 1
323 333 1
323 352 1
324 282 1
324 325 1
324 361 1
325 283 1
325 320 1
325 324 1
325 326 1
326 284 1
326 319 1
326 325 1
327 287 1
327 288 1
327 329 1
327 330 1
328 287 1
328 306 1
328 329 1
328 348 1
329 327 1
329 328 1
329 365 1
329 366 1
330 297 1
330 327 1
330 341 1
330 365 1
331 290 1
331 295 1
331 332 1
331 340 1
332 331 1
332 333 1
332 340 1
332 369 1
333 323 1
333 332 1
333 364 1
333 370 1
334 292 1
334 295 1
334 337 1
334 340 1
335 292 1
335 336 1
335 338 1
335 373 1
336 335 1
336 337 1
336 373 1
336 376 1
337 334 1
337 336 1
337 371 1
337 377 1
338 294 1
338 335 1
338 339 1
338 374 1
339 298 1
339 299 1
339 338 1
339 342 1
340 331 1
340 332 1
340 334 1
340 371 1
341 298 1
341 330 1
341 342 1
341 368 1
342 339 1
342 341 1
342 374 1
342 380 1
343 301 1
343 309 1
343 344 1
343 351 1
344 302 1
344 343 1
344 382 1
345 305 1
345 306 1
345 347 1
345 348 1
346 305 1
346 308 1
346 347 1
346 350 1
347 345 1
347 346 1
347 383 1
347 384 1
348 328 1
348 345 1
348 366 1
348 383 1
349 308 1
349 309 1
349 350 1
349 351 1
350 346 1
350 349 1
350 384 1
350 387 1
351 343 1
351 349 1
351 382 1
351 387 1
352 315 1
352 323 1
352 360 1
352 364 1
353 312 1
353 315 1
353 355 1
353 360 1
354 312 1
354 355 1
354 356 1
355 353 1
355 354 1
355 391 1
356 313 1
356 354 1
356 357 1
357 356 1
357 358 1
357 392 1
358 314 1
358 357 1
358 359 1
358 393 1
359 318 1
359 358 1
359 394 1
360 352 1
360 353 1
360 390 1
360 391 1
361 324 1
361 362 1
361 396 1
362 321 1
362 361 1
362 363 1
362 397 1
363 322 1
363 362 1
363 398 1
364 333 1
364 352 1
364 372 1
364 390 1
365 329 1
365 330 1
365 367 1
365 368 1
366 329 1
366 348 1
366 367 1
366 386 1
367 365 1
367 366 1
367 400 1
367 402 1
368 341 1
368 365 1
368 380 1
368 400 1
369 332 1
369 370 1
369 371 1
369 378 1
370 333 1
370 369 1
370 372 1
370 407 1
371 337 1
371 340 1
371 369 1
371 378 1
372 364 1
372 370 1
372 399 1
372 408 1
373 335 1
373 336 1
373 374 1
373 375 1
374 338 1
374 342 1
374 373 1
374 381 1
375 373 1
375 376 1
375 381 1
375 410 1
376 336 1
376 375 1
376 377 1
376 411 1
377 337 1
377 376 1
377 379 1
377 413 1
378 369 1
378 371 1
378 379 1
378 406 1
379 377 1
379 378 1
379 413 1
379 414 1
380 342 1
380 368 1
380 381 1
380 404 1
381 374 1
381 375 1
381 380 1
381 412 1
382 344 1
382 351 1
382 389 1
383 347 1
383 348 1
383 385 1
383 386 1
384 347 1
384 350 1
384 385 1
384 388 1
385 383 1
385 384 1
385 416 1
385 417 1
386 366 1
386 383 1
386 401 1
386 416 1
387 350 1
387 351 1
387 388 1
387 389 1
388 384 1
388 387 1
388 417 1
388 420 1
389 382 1
389 387 1
389 420 1
390 360 1
390 364 1
390 395 1
390 399 1
391 355 1
391 360 1
391 395 1
392 357 1
392 393 1
392 396 1
393 358 1
393 392 1
393 394 1
393 397 1
394 359 1
394 393 1
394 398 1
395 390 1
395 391 1
395 422 1
396 361 1
396 392 1
396 397 1
397 362 1
397 393 1
397 396 1
397 398 1
398 363 1
398 394 1
398 397 1
399 372 1
399 390 1
399 409 1
399 422 1
400 367 1
400 368 1
400 403 1
400 404 1
401 386 1
401 402 1
401 419 1
401 425 1
402 367 1
402 401 1
402 403 1
402 426 1
403 400 1
403 402 1
403 424 1
403 428 1
404 380 1
404 400 1
404 412 1
404 424 1
405 406 1
405 407 1
405 431 1
405 433 1
406 378 1
406 405 1
406 414 1
406 433 1
407 370 1
407 405 1
407 408 1
407 432 1
408 372 1
408 407 1
408 409 1
408 437 1
409 399 1
409 408 1
409 423 1
409 438 1
410 375 1
410 411 1
410 412 1
410 440 1
411 376 1
411 410 1
411 413 1
411 442 1
412 381 1
412 404 1
412 410 1
412 430 1
413 377 1
413 379 1
413 411 1
413 415 1
414 379 1
414 406 1
414 415 1
414 436 1
415 413 1
415 414 1
415 436 1
415 442 1
416 385 1
416 386 1
416 418 1
416 419 1
417 385 1
417 388 1
417 418 1
417 421 1
418 416 1
418 417 1
418 445 1
418 446 1
419 401 1
419 416 1
419 427 1
419 445 1
420 388 1
420 389 1
420 421 1
421 417 1
421 420 1
421 446 1
422 395 1
422 399 1
422 423 1
423 409 1
423 422 1
423 439 1
424 403 1
424 404 1
424 429 1
424 430 1
425 401 1
425 426 1
425 427 1
425 450 1
426 402 1
426 425 1
426 428 1
426 451 1
427 419 1
427 425 1
427 448 1
427 452 1
428 403 1
428 426 1
428 429 1
428 453 1
429 424 1
429 428 1
429 449 1
429 455 1
430 412 1
430 424 1
430 440 1
430 449 1
431 405 1
431 432 1
431 434 1
432 407 1
432 431 1
432 437 1
433 405 1
433 406 1
433 434 1
433 435 1
434 431 1
434 433 1
434 458 1
435 433 1
435 436 1
435 458 1
435 460 1
436 414 1
436 415 1
436 435 1
436 444 1
437 408 1
437 432 1
437 438 1
438 409 1
438 437 1
438 439 1
439 423 1
439 438 1
440 410 1
440 430 1
440 441 1
440 457 1
441 440 1
441 442 1
441 457 1
441 463 1
442 411 1
442 415 1
442 441 1
442 443 1
443 442 1
443 444 1
443 463 1
443 465 1
444 436 1
444 443 1
444 460 1
444 465 1
445 418 1
445 419 1
445 447 1
445 448 1
446 418 1
446 421 1
446 447 1
447 445 1
447 446 1
447 468 1
448 427 1
448 445 1
448 454 1
448 468 1
449 429 1
449 430 1
449 456 1
449 457 1
450 425 1
450 451 1
450 452 1
450 470 1
451 426 1
451 450 1
451 453 1
451 471 1
452 427 1
452 450 1
452 454 1
452 472 1
453 428 1
453 451 1
453 455 1
453 473 1
454 448 1
454 452 1
454 469 1
454 474 1
455 429 1
455 453 1
455 456 1
455 475 1
456 449 1
456 455 1
456 464 1
456 477 1
457 440 1
457 441 1
457 449 1
457 464 1
458 434 1
458 435 1
458 462 1
459 460 1
459 461 1
459 467 1
459 479 1
460 435 1
460 444 1
460 459 1
460 467 1
461 459 1
461 462 1
461 480 1
461 485 1
462 458 1
462 461 1
462 485 1
463 441 1
463 443 1
463 464 1
463 466 1
464 456 1
464 457 1
464 463 1
464 478 1
465 443 1
465 444 1
465 466 1
465 467 1
466 463 1
466 465 1
466 478 1
466 482 1
467 459 1
467 460 1
467 465 1
467 482 1
468 447 1
468 448 1
468 469 1
469 454 1
469 468 1
469 476 1
470 450 1
470 471 1
470 472 1
470 488 1
471 451 1
471 470 1
471 473 1
471 489 1
472 452 1
472 470 1
472 474 1
472 490 1
473 453 1
473 471 1
473 475 1
473 491 1
474 454 1
474 472 1
474 476 1
474 492 1
475 455 1
475 473 1
475 477 1
475 493 1
476 469 1
476 474 1
476 494 1
477 456 1
477 475 1
477 478 1
477 495 1
478 464 1
478 466 1
478 477 1
478 487 1
479 459 1
479 480 1
479 481 1
479 496 1
480 461 1
480 479 1
480 483 1
480 497 1
481 479 1
481 482 1
481 496 1
481 498 1
482 466 1
482 467 1
482 481 1
482 486 1
483 480 1
483 484 1
483 497 1
483 500 1
484 483 1
484 485 1
484 501 1
485 461 1
485 462 1
485 484 1
486 482 1
486 487 1
486 498 1
486 506 1
487 478 1
487 486 1
487 495 1
487 506 1
488 470 1
488 489 1
488 490 1
488 508 1
489 471 1
489 488 1
489 491 1
489 509 1
490 472 1
490 488 1
490 492 1
490 510 1
491 473 1
491 489 1
491 493 1
491 511 1
492 474 1
492 490 1
492 494 1
492 512 1
493 475 1
493 491 1
493 495 1
493 513 1
494 476 1
494 492 1
494 514 1
495 477 1
495 487 1
495 493 1
495 507 1
496 479 1
496 481 1
496 497 1
496 499 1
497 480 1
497 483 1
497 496 1
497 503 1
498 481 1
498 486 1
498 499 1
498 505 1
499 496 1
499 498 1
499 503 1
499 515 1
500 483 1
500 501 1
500 502 1
500 518 1
501 484 1
501 500 1
501 504 1
501 519 1
502 500 1
502 503 1
502 518 1
502 521 1
503 497 1
503 499 1
503 502 1
503 517 1
504 501 1
504 519 1
504 522 1
505 498 1
505 506 1
505 515 1
505 526 1
506 486 1
506 487 1
506 505 1
506 507 1
507 495 1
507 506 1
507 513 1
507 526 1
508 488 1
508 509 1
508 510 1
508 528 1
509 489 1
509 508 1
509 511 1
509 529 1
510 490 1
510 508 1
510 512 1
510 530 1
511 491 1
511 509 1
511 513 1
511 531 1
512 492 1
512 510 1
512 514 1
512 532 1
513 493 1
513 507 1
513 511 1
513 527 1
514 494 1
514 512 1
514 533 1
515 499 1
515 505 1
515 516 1
515 525 1
516 515 1
516 517 1
516 534 1
516 535 1
517 503 1
517 516 1
517 521 1
517 535 1
518 500 1
518 502 1
518 519 1
518 520 1
519 501 1
519 504 1
519 518 1
519 524 1
520 518 1
520 521 1
520 524 1
520 538 1
521 502 1
521 517 1
521 520 1
521 537 1
522 504 1
522 523 1
522 541 1
523 522 1
523 524 1
523 541 1
523 542 1
524 519 1
524 520 1
524 523 1
524 539 1
525 515 1
525 526 1
525 534 1
525 544 1
526 505 1
526 507 1
526 525 1
526 527 1
527 513 1
527 526 1
527 531 1
527 544 1
528 508 1
528 529 1
528 530 1
528 547 1
529 509 1
529 528 1
529 531 1
529 548 1
530 510 1
530 528 1
530 532 1
530 549 1
531 511 1
531 527 1
531 529 1
531 546 1
532 512 1
532 530 1
532 533 1
532 550 1
533 514 1
533 532 1
533 551 1
534 516 1
534 525 1
534 536 1
534 545 1
535 516 1
535 517 1
535 536 1
535 537 1
536 534 1
536 535 1
536 552 1
536 553 1
537 521 1
537 535 1
537 538 1
537 553 1
538 520 1
538 537 1
538 540 1
538 555 1
539 524 1
539 540 1
539 542 1
539 557 1
540 538 1
540 539 1
540 556 1
540 557 1
541 522 1
541 523 1
541 543 1
542 523 1
542 539 1
542 543 1
542 558 1
543 541 1
543 542 1
543 560 1
544 525 1
544 527 1
544 545 1
544 546 1
545 534 1
545 544 1
545 552 1
545 561 1
546 531 1
546 544 1
546 548 1
546 561 1
547 528 1
547 548 1
547 549 1
547 564 1
548 529 1
548 546 1
548 547 1
548 563 1
549 530 1
549 547 1
549 550 1
549 565 1
550 532 1
550 549 1
550 551 1
550 566 1
551 533 1
551 550 1
551 567 1
552 536 1
552 545 1
552 554 1
552 562 1
553 536 1
553 537 1
553 554 1
553 555 1
554 552 1
554 553 1
554 568 1
554 569 1
555 538 1
555 553 1
555 556 1
555 569 1
556 540 1
556 555 1
556 559 1
556 571 1
557 539 1
557 540 1
557 558 1
557 559 1
558 542 1
558 557 1
558 560 1
558 573 1
559 556 1
559 557 1
559 572 1
559 573 1
560 543 1
560 558 1
560 574 1
561 545 1
561 546 1
561 562 1
561 563 1
562 552 1
562 561 1
562 568 1
562 576 1
563 548 1
563 561 1
563 564 1
563 576 1
564 547 1
564 563 1
564 565 1
564 578 1
565 549 1
565 564 1
565 566 1
565 579 1
566 550 1
566 565 1
566 567 1
566 580 1
567 551 1
567 566 1
567 581 1
568 554 1
568 562 1
568 570 1
568 577 1
569 554 1
569 555 1
569 570 1
569 571 1
570 568 1
570 569 1
570 582 1
570 583 1
571 556 1
571 569 1
571 572 1
571 583 1
572 559 1
572 571 1
572 575 1
572 585 1
573 558 1
573 559 1
573 574 1
573 575 1
574 560 1
574 573 1
574 587 1
575 572 1
575 573 1
575 586 1
575 587 1
576 562 1
576 563 1
576 577 1
576 578 1
577 568 1
577 576 1
577 582 1
577 589 1
578 564 1
578 576 1
578 579 1
578 589 1
579 565 1
579 578 1
579 580 1
579 591 1
580 566 1
580 579 1
580 581 1
580 592 1
581 567 1
581 580 1
581 593 1
582 570 1
582 577 1
582 584 1
582 590 1
583 570 1
583 571 1
583 584 1
583 585 1
584 582 1
584 583 1
584 594 1
584 595 1
585 572 1
585 583 1
585 586 1
585 595 1
586 575 1
586 585 1
586 588 1
586 597 1
587 574 1
587 575 1
587 588 1
588 586 1
588 587 1
588 598 1
589 577 1
589 578 1
589 590 1
589 591 1
590 582 1
590 589 1
590 594 1
590 599 1
591 579 1
591 589 1
591 592 1
591 599 1
592 580 1
592 591 1
592 593 1
592 601 1
593 581 1
593 592 1
593 602 1
594 584 1
594 590 1
594 596 1
594 600 1
595 584 1
595 585 1
595 596 1
595 597 1
596 594 1
596 595 1
596 603 1
596 604 1
597 586 1
597 595 1
597 598 1
597 604 1
598 588 1
598 597 1
598 606 1
599 590 1
599 591 1
599 600 1
599 601 1
600 594 1
600 599 1
600 603 1
600 607 1
601 592 1
601 599 1
601 602 1
601 607 1
602 593 1
602 601 1
602 609 1
603 596 1
603 600 1
603 605 1
603 608 1
604 596 1
604 597 1
604 605 1
604 606 1
605 603 1
605 604 1
605 610 1
605 611 1
606 598 1
606 604 1
606 611 1
607 600 1
607 601 1
607 608 1
607 609 1
608 603 1
608 607 1
608 610 1
608 613 1
609 602 1
609 607 1
609 613 1
610 605 1
610 608 1
610 612 1
610 614 1
611 605 1
611 606 1
611 612 1
612 610 1
612 611 1
612 615 1
613 608 1
613 609 1
613 614 1
614 610 1
614 613 1
614 615 1
615 612 1
615 614 1
