%%MatrixMarket matrix coordinate real general
%
400 400 5656
1 3 1.342122006242907E-1
1 7 7.135161440951664E-2
1 8 3.6505328503807215E-2
1 9 3.833241946790359E-2
1 73 1.831563888873418E-2
1 75 2.3093860919077558E-2
1 78 2.886841261828761E-2
1 152 5.013399553156688E-2
1 153 5.408008166397252E-2
1 159 1.8211461390020094E-2
1 160 5.1912745117767126E-2
1 176 1.6652537424996706E-2
1 177 2.259217984622139E-2
1 179 2.0715627050582365E-2
1 180 1.831563888873418E-2
2 5 6.2089665373414066E-2
2 10 3.9663948627201545E-2
2 40 2.4071251804761946E-2
2 74 5.209660500921401E-2
2 77 4.330559674594188E-2
2 80 8.508460789358979E-2
2 97 1.7455021174745827E-2
2 126 2.7841910113894735E-2
2 157 3.565936356687821E-2
2 378 2.7614517595196196E-2
3 1 1.342122006242907E-1
3 7 2.3717045766436955E-2
3 8 2.6203992857092906E-2
3 29 1.5594586996533561E-2
3 34 1.831563888873418E-2
3 152 3.573844897815495E-2
3 153 6.980051935513241E-2
3 160 6.141921070906181E-2
3 177 2.4853248853160734E-2
3 179 2.7226348603093815E-2
4 6 6.054254588928221E-2
4 36 1.831563888873418E-2
4 45 2.3416565767705767E-2
4 79 1.831563888873418E-2
4 127 1.8261966818261612E-2
4 166 4.143695422738496E-2
4 167 6.007051599312391E-2
4 170 4.555098717908211E-2
4 345 2.956665674912476E-2
4 397 3.789410232937962E-2
4 399 8.56087828628207E-2
5 2 6.2089665373414066E-2
5 10 4.684249006178881E-2
5 30 1.831563888873418E-2
5 35 2.6562820093403303E-2
5 80 1.831563888873418E-2
5 119 1.8488663668051547E-2
5 171 2.4536636348632956E-2
5 179 2.5781540158763525E-2
5 222 1.900078544892517E-2
5 374 3.314865937110336E-2
5 378 1.7288646733495533E-2
6 4 6.054254588928221E-2
6 36 2.5854372603144774E-2
6 45 2.089260094367269E-2
6 50 1.4332823055799283E-2
6 79 6.310068163532298E-2
6 127 1.831563888873418E-2
6 128 1.984058357386988E-2
6 158 2.3649872393717086E-2
6 397 4.974341154899195E-2
6 399 3.176412831750979E-2
7 1 7.135161440951664E-2
7 3 2.3717045766436955E-2
7 9 1.1443665458481397E-1
7 100 1.8829205353928777E-2
7 152 4.2686231847824684E-2
7 153 2.1852574991493446E-2
7 159 7.334129647166251E-2
7 160 2.1381588538105175E-2
7 177 1.9780980832443253E-2
7 178 1.831563888873418E-2
7 179 1.7943275399658683E-2
7 180 2.2379863853444225E-2
8 1 3.6505328503807215E-2
8 3 2.6203992857092906E-2
8 9 2.894417006847776E-2
8 79 1.9859844221593023E-2
8 116 3.856266757938718E-2
8 125 1.8058110074864166E-2
8 168 1.8521454227050822E-2
8 176 2.8569675067095828E-2
8 179 2.1438535811386494E-2
8 180 2.8330295904431965E-2
8 230 3.088665464479947E-2
8 392 2.0015833427146846E-2
9 1 3.833241946790359E-2
9 7 1.1443665458481397E-1
9 8 2.894417006847776E-2
9 50 1.831563888873418E-2
9 152 1.7494440253726765E-2
9 159 2.3286846217561316E-2
9 176 3.0198112447351565E-2
9 177 3.152938786539444E-2
9 179 3.9971545426094796E-2
9 180 3.933635781789143E-2
10 2 3.9663948627201545E-2
10 5 4.684249006178881E-2
10 30 1.8731582384309768E-2
10 35 1.831563888873418E-2
10 96 2.105521316409562E-2
10 118 2.699325145302436E-2
10 119 4.164584643297216E-2
10 374 2.960376411186587E-2
10 377 1.433634366015189E-2
10 378 3.44186775937569E-2
11 12 3.7413095819773694E-2
11 13 2.820732719801538E-2
11 14 3.842449164173208E-2
11 15 3.340647801390086E-2
11 16 3.877464799641127E-2
11 17 8.20573836560164E-2
11 18 1.340911123304157E-1
11 19 2.2590332473413764E-2
11 20 1.7561962809632298E-1
11 231 1.7339192242385955E-2
11 318 1.8689582501207953E-2
12 11 3.7413095819773694E-2
12 13 8.193079246400392E-2
12 14 7.261251109980599E-2
12 15 7.0636035720151E-2
12 16 1.4399182589537463E-1
12 18 5.421772422204296E-2
12 19 1.20813761484113E-1
12 20 3.510318303234174E-2
12 39 2.0815134974686043E-2
12 144 2.7085347455432437E-2
12 146 1.5225295523282036E-2
12 317 1.831563888873418E-2
13 11 2.820732719801538E-2
13 12 8.193079246400392E-2
13 14 8.648595172881937E-2
13 15 3.645689689599295E-2
13 16 3.391292843614057E-2
13 17 2.6253011259810832E-2
13 18 7.22129934235291E-2
13 19 3.679029174408678E-2
13 20 4.007434316045902E-2
13 126 1.7446299576141078E-2
14 11 3.842449164173208E-2
14 12 7.261251109980599E-2
14 13 8.648595172881937E-2
14 15 4.2433990501726575E-2
14 16 1.1823594880343909E-1
14 17 4.0487875568512216E-2
14 18 1.0335760281766061E-1
14 19 8.570802391332853E-2
14 20 4.525423339978182E-2
14 144 1.1853306554522686E-2
15 11 3.340647801390086E-2
15 12 7.0636035720151E-2
15 13 3.645689689599295E-2
15 14 4.2433990501726575E-2
15 16 3.05226501610143E-2
15 18 1.831563888873418E-2
15 19 2.8309823658017944E-2
15 141 1.831563888873418E-2
15 144 2.898606157335228E-2
15 146 2.7601015124313198E-2
15 317 1.9431427879409102E-2
16 11 3.877464799641127E-2
16 12 1.4399182589537463E-1
16 13 3.391292843614057E-2
16 14 1.1823594880343909E-1
16 15 3.05226501610143E-2
16 17 2.4262217950969937E-2
16 18 7.015767284398743E-2
16 19 4.0200750475643854E-1
16 20 4.1796076173824435E-2
16 144 1.831563888873418E-2
16 316 1.831563888873418E-2
17 11 8.20573836560164E-2
17 13 2.6253011259810832E-2
17 14 4.0487875568512216E-2
17 16 2.4262217950969937E-2
17 18 2.1041819370465628E-1
17 20 2.409615923300813E-1
17 190 2.407536348346374E-2
17 263 1.8092508585379617E-2
17 266 2.3467729788350152E-2
17 270 1.831563888873418E-2
18 11 1.340911123304157E-1
18 12 5.421772422204296E-2
18 13 7.22129934235291E-2
18 14 1.0335760281766061E-1
18 15 1.831563888873418E-2
18 16 7.015767284398743E-2
18 17 2.1041819370465628E-1
18 19 4.2703890686954724E-2
18 20 3.7296229066158954E-1
18 319 1.7903343046413955E-2
19 11 2.2590332473413764E-2
19 12 1.20813761484113E-1
19 13 3.679029174408678E-2
19 14 8.570802391332853E-2
19 15 2.8309823658017944E-2
19 16 4.0200750475643854E-1
19 18 4.2703890686954724E-2
19 20 2.0879931811124266E-2
19 144 1.831563888873418E-2
19 319 1.4196499959734675E-2
20 11 1.7561962809632298E-1
20 12 3.510318303234174E-2
20 13 4.007434316045902E-2
20 14 4.525423339978182E-2
20 16 4.1796076173824435E-2
20 17 2.409615923300813E-1
20 18 3.7296229066158954E-1
20 19 2.0879931811124266E-2
20 31 1.799451950160131E-2
20 190 1.831563888873418E-2
21 22 1.300658225584151E-1
21 23 5.939402304359569E-2
21 42 1.831563888873418E-2
21 43 2.509633846400078E-2
21 82 2.1327991009930717E-2
21 117 2.422993244539457E-2
21 132 2.0990377843922645E-2
21 163 2.5376434255143715E-2
21 164 3.2933593822124E-2
21 253 1.793908922685595E-2
21 254 4.746189507862504E-2
21 255 2.179062264004378E-2
21 258 1.831563888873418E-2
21 291 1.646306075613562E-2
21 362 1.831563888873418E-2
21 391 2.5027346355156525E-2
21 396 2.3120307785679892E-2
21 398 5.683163299454832E-2
22 21 1.300658225584151E-1
22 23 3.6949104574537767E-1
22 191 2.2106128739605484E-2
22 205 2.1922005704167025E-2
22 209 1.831563888873418E-2
22 254 2.659576702136942E-2
22 255 3.1171693912798868E-2
22 258 2.31996886270393E-2
22 291 1.9445330380875748E-2
22 293 1.80435793242518E-2
22 398 2.4980832947029734E-2
23 21 5.939402304359569E-2
23 22 3.6949104574537767E-1
23 93 2.1329857324305528E-2
23 94 2.3693501181226678E-2
23 139 2.0378568191383492E-2
23 147 1.8019794499126725E-2
23 150 2.1660560133921373E-2
23 191 1.3837894526295864E-2
23 200 2.284432456944386E-2
23 206 1.831563888873418E-2
23 209 2.409960460414279E-2
23 225 2.4020244073342172E-2
23 249 1.9231011733637733E-2
23 250 1.8325417253982974E-2
23 255 2.4571400770451272E-2
23 278 2.6488008239058253E-2
24 25 5.17611376547985E-1
24 26 2.922197951656011E-2
24 28 3.4928484023322104E-2
24 33 3.0149930275233598E-2
24 202 2.5353533048610728E-2
24 204 1.9102485507796453E-2
24 205 1.8425246917485403E-2
24 209 1.7555724572925698E-2
24 210 1.831563888873418E-2
24 256 2.3642648328244177E-2
24 287 2.236549186402337E-2
24 370 1.8917463896825054E-2
25 24 5.17611376547985E-1
25 28 3.8250370890314404E-2
25 33 1.71374430274798E-2
25 202 2.01584305468908E-2
25 204 1.831563888873418E-2
25 207 2.7408823609691983E-2
25 208 2.618092639733443E-2
25 210 2.9835899271070773E-2
25 287 2.360442270230633E-2
25 371 2.016488925020199E-2
26 24 2.922197951656011E-2
26 28 2.4619862893842517E-2
26 181 2.1983902331663426E-2
26 182 1.8119007083994488E-2
26 252 1.6060627844634183E-2
26 256 9.277731073107037E-2
26 259 2.2741395643057168E-2
26 361 1.831563888873418E-2
26 363 2.186205581563045E-2
26 367 2.307904867038618E-2
26 369 2.6398136685404812E-2
26 370 2.1478705761315907E-2
26 376 2.3659743469361002E-2
26 379 2.2179441372216415E-2
26 392 2.0099685728313145E-2
26 395 2.2073670723518013E-2
27 28 5.146490058673415E-2
27 29 2.0449680399699105E-2
27 49 1.898195123930329E-2
27 84 1.7931466575776392E-2
27 86 2.6260839769913214E-2
27 88 2.1721633669483417E-2
27 116 2.4930783644417306E-2
27 128 2.638418317567167E-2
27 207 1.971805339141952E-2
27 371 2.5574708157778757E-2
27 379 3.662274289764181E-2
27 392 1.77714019526131E-2
27 395 1.889201187263269E-2
28 24 3.4928484023322104E-2
28 25 3.8250370890314404E-2
28 26 2.4619862893842517E-2
28 27 5.146490058673415E-2
28 36 1.8505115048619514E-2
28 46 2.469673096752388E-2
28 49 1.598612526781495E-2
28 128 1.831563888873418E-2
28 207 2.4257089170028653E-2
28 256 1.570954054537583E-2
28 350 2.521120221723732E-2
28 371 2.165892006348849E-2
28 392 3.1147063202495016E-2
29 3 1.5594586996533561E-2
29 27 2.0449680399699105E-2
29 30 3.271178153096872E-1
29 34 2.3825433693665292E-2
29 37 1.8737368432501518E-2
29 91 2.599477592724922E-2
29 92 1.9757017747571375E-2
29 95 3.193353145345695E-2
29 96 2.212913149684989E-2
29 97 1.831563888873418E-2
29 98 5.383186533636547E-2
29 119 3.238779709016707E-2
29 120 2.9113523380138173E-2
29 125 4.1324939476544295E-2
29 129 1.7810726874559483E-2
29 130 2.2129747921129227E-2
29 134 1.7883620131441482E-2
29 137 1.831563888873418E-2
29 165 1.9750301801697526E-2
29 168 1.9420807262448957E-2
29 221 1.831563888873418E-2
29 228 2.7684374609165268E-2
29 243 1.8293927480945743E-2
29 247 2.0108910415713534E-2
29 271 1.831563888873418E-2
29 374 1.831563888873418E-2
29 393 2.343817923549182E-2
30 5 1.831563888873418E-2
30 10 1.8731582384309768E-2
30 29 3.271178153096872E-1
30 34 2.1435095648515944E-2
30 35 1.8354638300909824E-2
30 90 2.6662741293813894E-2
30 91 1.9273951619412543E-2
30 95 1.6088516850216054E-2
30 96 2.1655497629738996E-2
30 97 3.222280167592126E-2
30 98 2.3241584324667178E-2
30 119 2.2871664432992725E-2
30 125 2.782738774561032E-2
30 126 1.861976569716762E-2
30 129 2.403651729824985E-2
30 150 1.9799989763118087E-2
30 177 1.9572059839441318E-2
30 222 4.127680862835456E-2
30 228 5.194105634833055E-2
30 250 1.814039850238176E-2
30 278 1.831563888873418E-2
30 393 2.522404530107363E-2
31 20 1.799451950160131E-2
31 32 2.0952860299730015E-2
31 33 5.927178793462591E-2
31 34 2.609485962763233E-2
31 38 1.916099089123485E-1
31 39 2.2342289349827398E-2
31 88 2.335885326310875E-2
31 145 2.008589820407674E-2
31 147 1.831563888873418E-2
31 149 1.9271037240458956E-2
31 150 3.257954222759058E-2
31 205 1.9745284364414657E-2
32 31 2.0952860299730015E-2
32 34 3.157504299124844E-2
32 35 2.721341041431222E-2
32 39 6.053123455472742E-2
32 145 2.5314481328213748E-2
32 147 3.651164145869854E-2
32 149 2.3076010631275803E-2
32 150 4.541183961592103E-2
32 192 1.8129388365714247E-2
32 206 1.831563888873418E-2
32 278 2.1264210659931435E-2
33 24 3.0149930275233598E-2
33 25 1.71374430274798E-2
33 31 5.927178793462591E-2
33 38 8.339721604523984E-2
33 41 2.4022041831230825E-2
33 44 2.0192752250313164E-2
33 150 1.7965582924398343E-2
33 205 1.831563888873418E-2
33 245 1.9191050185515368E-2
33 296 2.7439373305500028E-2
33 299 1.9983044562825535E-2
34 3 1.831563888873418E-2
34 29 2.3825433693665292E-2
34 30 2.1435095648515944E-2
34 31 2.609485962763233E-2
34 32 3.157504299124844E-2
34 35 2.2785840498304583E-1
34 37 7.888117914945356E-2
34 38 2.0143052913434146E-2
34 39 2.604970151698716E-2
34 40 2.7052336933207168E-2
34 53 2.129818672832918E-2
34 61 1.7514389900317975E-2
34 65 1.5457357532765089E-2
34 67 1.9224045331030785E-2
34 68 1.8526434920590307E-2
34 73 1.9098260924507053E-2
34 100 3.648925980925129E-2
34 129 1.893246558932876E-2
34 150 2.1609420703165714E-2
34 152 1.749022317538446E-2
34 153 1.831563888873418E-2
34 154 3.605890889554305E-2
34 155 3.907027348280612E-2
34 160 1.831563888873418E-2
34 165 1.9344926374325926E-2
34 171 2.1474867592469072E-2
34 172 1.8139987607320794E-2
34 174 2.1822772103926174E-2
34 176 3.641401245014843E-2
34 177 1.6335340439180675E-2
34 178 2.3901999433363148E-2
34 187 2.1498451859410996E-2
34 188 1.8855699861870193E-2
34 189 1.831563888873418E-2
34 195 2.2993869493890973E-2
34 197 2.5597996629705678E-2
34 221 6.851145434882507E-2
34 222 2.3142529659132244E-2
34 228 3.6347949711105186E-2
34 257 4.322980585820963E-2
34 271 1.8560475868712383E-2
34 276 1.8877833301766813E-2
34 318 2.2361047710915377E-2
34 374 2.3747157965213362E-2
34 392 1.944541237333785E-2
34 393 2.3870840002707422E-2
34 395 1.84294810038202E-2
35 5 2.6562820093403303E-2
35 10 1.831563888873418E-2
35 30 1.8354638300909824E-2
35 32 2.721341041431222E-2
35 34 2.2785840498304583E-1
35 39 1.831563888873418E-2
35 40 6.050990684308112E-2
35 72 1.831563888873418E-2
35 73 2.6281737233995937E-2
35 77 2.0484628928495705E-2
35 78 1.831563888873418E-2
35 80 1.997848656128156E-2
35 100 1.792824081607563E-2
35 126 3.0185262426842063E-2
35 150 1.8347369950951303E-2
35 157 1.831563888873418E-2
35 171 2.332883326946092E-2
35 172 1.803587802007079E-2
35 221 3.607603770238153E-2
35 222 5.514013293276934E-2
35 228 4.8696872962021666E-2
35 250 2.0499104515129207E-2
35 278 2.1387355096371574E-2
35 374 3.489192672933522E-2
35 378 1.9211948279626377E-2
36 4 1.831563888873418E-2
36 6 2.5854372603144774E-2
36 28 1.8505115048619514E-2
36 37 2.0917785771254596E-2
36 45 1.831563888873418E-2
36 79 3.474700512649533E-2
36 99 1.831563888873418E-2
36 127 5.6198209760278464E-2
36 128 2.5881664848880548E-2
36 197 1.825730960469839E-2
36 199 1.884720110997792E-2
36 207 2.6598989120252825E-2
36 230 4.752308124116961E-2
36 371 1.7432790700921262E-2
36 397 7.847409539848452E-2
36 399 5.6739736203787965E-2
37 29 1.8737368432501518E-2
37 34 7.888117914945356E-2
37 36 2.0917785771254596E-2
37 63 2.170385571326852E-2
37 64 1.970120391946959E-2
37 65 1.8911983794018775E-2
37 66 2.5778459095466093E-2
37 68 1.9274591491762826E-2
37 69 1.901945702089014E-2
37 70 1.831563888873418E-2
37 123 2.4918622960708563E-2
37 125 3.3838294219585625E-2
37 130 1.986950856196558E-2
37 142 2.957681181467514E-2
37 145 2.8170105740386184E-2
37 149 1.901239849993377E-2
37 152 2.7127507558213936E-2
37 153 2.5040003543815026E-2
37 154 2.4743108993656334E-2
37 155 3.552693397837117E-2
37 160 2.4473278127199672E-2
37 177 3.776249596607245E-2
37 195 2.0716392576988745E-2
37 197 2.0409123648364426E-2
37 199 2.6927726811779455E-2
37 221 2.296887252178747E-2
37 226 1.831563888873418E-2
37 230 2.3092628585504038E-2
37 257 2.1901082084247986E-2
38 31 1.916099089123485E-1
38 33 8.339721604523984E-2
38 34 2.0143052913434146E-2
38 41 1.831563888873418E-2
38 88 2.4361085327597582E-2
38 142 2.0138782948569293E-2
38 145 2.3423168575653408E-2
38 149 1.925317414800044E-2
38 150 2.7134409066451058E-2
38 245 1.786406505443999E-2
39 12 2.0815134974686043E-2
39 31 2.2342289349827398E-2
39 32 6.053123455472742E-2
39 34 2.604970151698716E-2
39 35 1.831563888873418E-2
39 144 2.3612406522363825E-2
39 145 1.7581288116946932E-2
39 147 2.3940103567989524E-2
39 150 2.7226613591180747E-2
39 151 2.70740839856069E-2
39 209 2.924505205581867E-2
40 2 2.4071251804761946E-2
40 34 2.7052336933207168E-2
40 35 6.050990684308112E-2
40 74 2.8147006690824372E-2
40 77 2.935982532716992E-2
40 80 2.559283059782771E-2
40 126 7.6116406260096E-2
40 147 2.3442779630458897E-2
40 150 1.831563888873418E-2
40 157 2.874348072271572E-2
40 222 4.963419728468391E-2
40 228 4.163568748790679E-2
40 244 1.693569812464237E-2
40 246 2.3456508699033853E-2
40 250 1.835337204786753E-2
40 278 1.908432672020062E-2
40 317 1.8686340591877768E-2
41 33 2.4022041831230825E-2
41 38 1.831563888873418E-2
41 42 7.870506063117942E-2
41 43 2.4307520322577814E-2
41 44 6.713265410614354E-1
41 46 3.458762718415659E-2
41 47 1.0331615172171567E-1
41 48 3.936291827387266E-2
41 49 3.8696753520889846E-2
41 52 2.1919785782274173E-2
41 53 1.8089005684602796E-2
41 138 2.3486033508803898E-2
41 150 2.8552060597298947E-2
41 245 2.4731265977979602E-2
41 247 2.470618536434268E-2
41 252 1.7125126682119837E-2
41 296 1.831563888873418E-2
41 299 2.875869134637947E-2
41 348 1.763376453538327E-2
41 372 1.79866837661068E-2
41 377 1.831563888873418E-2
41 380 1.7724934556617965E-2
41 400 1.814361001311169E-2
42 21 1.831563888873418E-2
42 41 7.870506063117942E-2
42 43 2.987000567374106E-1
42 44 5.819049748334774E-2
42 133 1.4316447228280491E-2
42 139 1.831563888873418E-2
42 249 2.956779592884209E-2
42 254 1.831563888873418E-2
42 291 1.804718757769585E-2
42 300 2.2658508481614645E-2
42 315 1.8543219353137654E-2
42 344 1.831563888873418E-2
42 346 2.3743972943579366E-2
42 347 1.9842018302523134E-2
42 348 1.9386804251652796E-2
42 372 5.030937766341994E-2
42 373 3.1006794434906528E-2
42 375 2.6457923235015807E-2
42 377 2.1552740139176414E-2
42 396 3.7808342853144945E-2
43 21 2.509633846400078E-2
43 41 2.4307520322577814E-2
43 42 2.987000567374106E-1
43 44 2.011585957135951E-2
43 82 1.831563888873418E-2
43 254 1.681993127019745E-2
43 291 3.181581427714077E-2
43 300 2.7603849719315704E-2
43 342 1.831563888873418E-2
43 372 4.1278984745288363E-2
43 373 1.801166859510272E-2
43 375 1.885799232964459E-2
43 378 1.6868582937022494E-2
43 396 2.0442092329916534E-2
43 398 1.9774691815736718E-2
44 33 2.0192752250313164E-2
44 41 6.713265410614354E-1
44 42 5.819049748334774E-2
44 43 2.011585957135951E-2
44 45 1.831563888873418E-2
44 46 2.6227786063974922E-2
44 47 1.4423708211642605E-1
44 48 3.1651711888951044E-2
44 49 3.1361594524855284E-2
44 52 1.831563888873418E-2
44 138 2.294790227662672E-2
44 142 1.831563888873418E-2
44 150 2.82305037626114E-2
44 245 2.2947302105399595E-2
44 247 2.029619267253713E-2
44 296 1.8132076137095936E-2
44 299 2.7216539610199167E-2
45 4 2.3416565767705767E-2
45 6 2.089260094367269E-2
45 36 1.831563888873418E-2
45 44 1.831563888873418E-2
45 46 2.599759541326493E-1
45 47 1.9125218338237205E-2
45 48 2.992589155967286E-2
45 49 1.3511437965322287E-1
45 50 2.640902775740303E-2
45 59 2.083222519813872E-2
45 99 2.063337460124489E-2
45 166 3.155314443572107E-2
45 167 2.7440592000896824E-2
45 169 2.6813064505761028E-2
45 170 1.6937092365421576E-2
45 229 2.430436019154473E-2
45 248 1.8558285805242013E-2
45 345 2.9561610900288988E-2
45 349 2.946530983933895E-2
45 350 6.675382856541573E-2
45 354 1.8344192448176522E-2
45 397 3.4594342958278526E-2
45 399 4.3858619419161846E-2
46 28 2.469673096752388E-2
46 41 3.458762718415659E-2
46 44 2.6227786063974922E-2
46 45 2.599759541326493E-1
46 48 1.4973734179809112E-1
46 49 1.7706681858376894E-1
46 50 3.072410117766851E-2
46 64 2.3822320497954304E-2
46 166 2.4803535222854958E-2
46 169 3.0998036613923252E-2
46 207 1.831563888873418E-2
46 229 1.7235348794865702E-2
46 350 7.214452603249501E-2
46 353 1.831563888873418E-2
46 379 2.7089133630879336E-2
46 392 2.0838343517914915E-2
46 399 1.831563888873418E-2
47 41 1.0331615172171567E-1
47 44 1.4423708211642605E-1
47 45 1.9125218338237205E-2
47 49 2.1170601803754643E-2
47 142 3.656189683517843E-2
47 145 1.7473950384451212E-2
47 150 3.9050876401302614E-2
47 173 1.831563888873418E-2
47 175 1.831563888873418E-2
47 226 2.285015413271119E-2
47 245 2.2170633712897177E-2
47 248 2.845706197743876E-2
47 343 1.971984189280487E-2
47 358 2.4090851016698653E-2
47 359 1.8330453993400705E-2
47 394 3.926828194842448E-2
47 400 5.0514533573154594E-2
48 41 3.936291827387266E-2
48 44 3.1651711888951044E-2
48 45 2.992589155967286E-2
48 46 1.4973734179809112E-1
48 49 1.0877258776284551E-1
48 86 1.8436679826776915E-2
48 89 1.796539320793169E-2
48 207 1.831563888873418E-2
48 348 2.0986063355929944E-2
48 350 1.8598399879489427E-2
48 376 2.441347143800937E-2
48 379 1.941527530321224E-2
49 27 1.898195123930329E-2
49 28 1.598612526781495E-2
49 41 3.8696753520889846E-2
49 44 3.1361594524855284E-2
49 45 1.3511437965322287E-1
49 46 1.7706681858376894E-1
49 47 2.1170601803754643E-2
49 48 1.0877258776284551E-1
49 50 3.328166273745305E-2
49 86 1.8265802866387508E-2
49 111 1.9287075503754435E-2
49 116 1.831563888873418E-2
49 161 1.7121056702174783E-2
49 165 1.813806126487076E-2
49 168 1.842879406351704E-2
49 169 2.0075293522918307E-2
49 173 1.831563888873418E-2
49 180 1.831563888873418E-2
49 350 3.315759530183969E-2
49 392 2.2080069231402093E-2
50 6 1.4332823055799283E-2
50 9 1.831563888873418E-2
50 45 2.640902775740303E-2
50 46 3.072410117766851E-2
50 49 3.328166273745305E-2
50 54 8.891064473685751E-3
50 55 4.34101175675237E-2
50 57 2.08925893274722E-2
50 59 2.6109566686361198E-2
50 60 1.831563888873418E-2
50 63 1.6832897317083456E-2
50 65 2.1460676711775265E-2
50 70 1.7025362011544153E-2
50 221 1.831563888873418E-2
50 230 1.6315502661308802E-2
50 351 1.9258691870696808E-2
50 354 1.8783518764246682E-2
50 355 1.940148038599093E-2
50 360 2.791105431656022E-2
50 379 2.3793798244132743E-2
50 392 9.128803654813755E-2
50 393 2.2409605011531532E-2
50 395 1.3519460671283218E-1
50 397 1.986384589326157E-2
50 399 2.3950497134128425E-2
51 52 3.848246233398409E-1
51 53 4.4701932698731E-1
51 54 1.831563888873418E-2
51 56 1.2353857841695556E-2
51 58 4.461088819525488E-2
51 60 1.522900112874133E-2
51 157 2.1489806232197105E-2
51 172 1.7637629681406218E-2
51 221 2.5438632566353047E-2
51 222 3.006693375647553E-2
51 228 2.71802171994349E-2
51 241 2.021853636828187E-2
51 243 1.8737151122012057E-2
51 247 1.831563888873418E-2
52 41 2.1919785782274173E-2
52 44 1.831563888873418E-2
52 51 3.848246233398409E-1
52 53 2.830809378123874E-1
52 54 2.7154958308930388E-2
52 56 1.955056578350493E-2
52 58 3.400037247495723E-2
52 60 1.948147880630151E-2
52 157 1.9416747143104585E-2
52 175 2.0063639415040347E-2
52 221 2.0352242604167674E-2
52 241 2.1087395546006703E-2
52 243 1.8409990097897615E-2
52 247 2.0547076174539255E-2
53 34 2.129818672832918E-2
53 41 1.8089005684602796E-2
53 51 4.4701932698731E-1
53 52 2.830809378123874E-1
53 54 2.676700223739104E-2
53 55 1.831563888873418E-2
53 56 1.831563888873418E-2
53 58 3.552251643657039E-2
53 60 3.0096134567428615E-2
53 221 3.214064592933153E-2
53 222 1.831563888873418E-2
53 228 1.9148230860659574E-2
54 50 8.891064473685751E-3
54 51 1.831563888873418E-2
54 52 2.7154958308930388E-2
54 53 2.676700223739104E-2
54 55 1.909103598172104E-1
54 56 3.00043144920837E-1
54 57 1.1604202010459935E-1
54 58 1.450748148051491E-1
54 59 5.3077077548723726E-2
54 60 4.256019886842163E-1
55 50 4.34101175675237E-2
55 53 1.831563888873418E-2
55 54 1.909103598172104E-1
55 56 1.5888690045524673E-1
55 57 3.056280159767552E-1
55 58 6.881191310723417E-2
55 59 1.7858376371184112E-1
55 60 3.6518340965012985E-1
55 180 2.0447334214207455E-2
55 230 1.1542227169519095E-2
56 51 1.2353857841695556E-2
56 52 1.955056578350493E-2
56 53 1.831563888873418E-2
56 54 3.00043144920837E-1
56 55 1.5888690045524673E-1
56 57 1.5060832585256018E-1
56 58 1.8914863714520438E-1
56 59 5.26255283041752E-2
56 60 2.1556060509778685E-1
56 180 2.428155642406917E-2
57 50 2.08925893274722E-2
57 54 1.1604202010459935E-1
57 55 3.056280159767552E-1
57 56 1.5060832585256018E-1
57 58 4.2023938188387296E-2
57 59 3.2326818914270355E-1
57 60 1.1873749722587357E-1
57 180 2.2299467298487863E-2
57 229 1.1998185332474877E-2
57 397 1.831563888873418E-2
58 51 4.461088819525488E-2
58 52 3.400037247495723E-2
58 53 3.552251643657039E-2
58 54 1.450748148051491E-1
58 55 6.881191310723417E-2
58 56 1.8914863714520438E-1
58 57 4.2023938188387296E-2
58 59 1.6319766765814266E-2
58 60 1.0514779379523016E-1
58 179 1.831563888873418E-2
59 45 2.083222519813872E-2
59 50 2.6109566686361198E-2
59 54 5.3077077548723726E-2
59 55 1.7858376371184112E-1
59 56 5.26255283041752E-2
59 57 3.2326818914270355E-1
59 58 1.6319766765814266E-2
59 60 7.540753820269128E-2
59 180 1.831563888873418E-2
59 229 1.733968715117153E-2
59 397 2.6952383950204967E-2
60 50 1.831563888873418E-2
60 51 1.522900112874133E-2
60 52 1.948147880630151E-2
60 53 3.0096134567428615E-2
60 54 4.256019886842163E-1
60 55 3.6518340965012985E-1
60 56 2.1556060509778685E-1
60 57 1.1873749722587357E-1
60 58 1.0514779379523016E-1
60 59 7.540753820269128E-2
61 34 1.7514389900317975E-2
61 62 9.73775095646213E-2
61 64 4.5353771235089047E-2
61 65 1.1374995940001018E-1
61 67 2.5540008822964443E-2
61 68 1.6201792498613318E-1
61 70 5.499942309046201E-2
61 155 1.8084863637381418E-2
61 184 3.7924510830000195E-2
61 185 1.831563888873418E-2
61 187 3.1911293017218685E-2
61 188 2.1555084392383888E-2
61 189 2.0049771240213142E-2
61 351 2.930492988980539E-2
61 355 3.3129732874484535E-2
62 61 9.73775095646213E-2
62 65 1.860336650501985E-2
62 68 3.606294792126758E-2
62 70 4.111695718598713E-2
62 184 2.4602161067058034E-2
62 187 3.528462930040198E-2
62 188 2.1597176203056494E-2
62 189 1.831563888873418E-2
62 247 1.964166331683974E-2
62 320 1.8288217541727207E-2
63 37 2.170385571326852E-2
63 50 1.6832897317083456E-2
63 66 3.280089762167016E-1
63 68 2.504904290684494E-2
63 69 2.507883397319742E-1
63 173 1.831563888873418E-2
63 175 2.985387825190114E-2
63 178 2.7597911799303963E-2
63 180 2.763231779479952E-2
63 230 2.515361756096159E-2
64 37 1.970120391946959E-2
64 46 2.3822320497954304E-2
64 61 4.5353771235089047E-2
64 65 8.051051525664674E-2
64 68 2.6501720702588376E-2
64 70 2.0704866079881524E-2
64 168 1.7950319750378488E-2
64 224 1.831563888873418E-2
64 226 2.2311442072766134E-2
64 230 1.992904628752872E-2
64 354 2.2513832105176823E-2
65 34 1.5457357532765089E-2
65 37 1.8911983794018775E-2
65 50 2.1460676711775265E-2
65 61 1.1374995940001018E-1
65 62 1.860336650501985E-2
65 64 8.051051525664674E-2
65 67 3.523747574206444E-2
65 68 8.507060490519561E-2
65 70 5.353518701338894E-2
65 354 1.9165222929158593E-2
65 355 1.6764568032935873E-2
66 37 2.5778459095466093E-2
66 63 3.280089762167016E-1
66 68 2.3735592034054176E-2
66 69 1.3792618988194824E-1
66 130 1.831563888873418E-2
66 175 2.7646390586082207E-2
66 178 2.70433830371957E-2
66 180 2.6229429620520113E-2
66 221 1.7624724973995098E-2
66 230 2.8355083158818455E-2
67 34 1.9224045331030785E-2
67 61 2.5540008822964443E-2
67 65 3.523747574206444E-2
67 68 4.430527121809548E-2
67 184 1.903785538322151E-2
67 187 1.69314496687949E-2
67 188 1.9263897102837265E-2
67 189 2.076554505979045E-2
67 221 2.1670260672553555E-2
67 257 1.831563888873418E-2
68 34 1.8526434920590307E-2
68 37 1.9274591491762826E-2
68 61 1.6201792498613318E-1
68 62 3.606294792126758E-2
68 63 2.504904290684494E-2
68 64 2.6501720702588376E-2
68 65 8.507060490519561E-2
68 66 2.3735592034054176E-2
68 67 4.430527121809548E-2
68 69 3.3252433186575475E-2
68 70 3.825405509462183E-2
68 154 2.0730292096383558E-2
68 155 2.263790526323709E-2
68 184 2.3239010542518108E-2
68 185 2.5453430919554713E-2
68 188 2.1761578711068142E-2
68 189 1.831563888873418E-2
68 351 1.7902500812707063E-2
68 355 2.224498543190686E-2
69 37 1.901945702089014E-2
69 63 2.507883397319742E-1
69 66 1.3792618988194824E-1
69 68 3.3252433186575475E-2
69 173 1.831563888873418E-2
69 175 2.2880612000001813E-2
69 176 1.665155706321525E-2
69 178 2.6052468211791767E-2
69 180 3.0610383321857247E-2
69 230 2.3923716290871318E-2
70 37 1.831563888873418E-2
70 50 1.7025362011544153E-2
70 61 5.499942309046201E-2
70 62 4.111695718598713E-2
70 64 2.0704866079881524E-2
70 65 5.353518701338894E-2
70 68 3.825405509462183E-2
70 351 2.1661415788462382E-2
70 353 1.8904179671360405E-2
70 354 1.9554244897132506E-2
70 355 3.220177472294652E-2
70 358 2.6172550320118726E-2
71 72 2.158740656953152E-1
71 75 2.5362943155894793E-2
71 76 4.513076643635641E-2
71 78 2.138684233960596E-2
71 100 2.118593248610445E-2
71 101 1.831563888873418E-2
71 106 1.83933777966714E-2
71 188 1.8441648540351123E-2
71 189 2.3354881477724642E-2
71 318 1.4798613281325102E-2
72 35 1.831563888873418E-2
72 71 2.158740656953152E-1
72 73 2.368853843586363E-2
72 74 2.1630375292688665E-2
72 75 4.0775491046932406E-2
72 76 1.761204148295173E-2
72 77 5.940006222178102E-2
72 78 3.993728969917881E-2
72 80 2.3047199653474192E-2
72 92 2.371278515374218E-2
72 185 1.8649466737311687E-2
73 1 1.831563888873418E-2
73 34 1.9098260924507053E-2
73 35 2.6281737233995937E-2
73 72 2.368853843586363E-2
73 75 2.3801319801229137E-1
73 76 5.5577754124590824E-2
73 77 1.7899842160121162E-2
73 78 1.9873050225964153E-1
73 100 2.0956550622691642E-2
73 184 2.2552410404250503E-2
73 189 1.812041525706582E-2
74 2 5.209660500921401E-2
74 40 2.8147006690824372E-2
74 72 2.1630375292688665E-2
74 77 1.4808095977760402E-1
74 80 1.1638349486833093E-1
74 93 7.284126534703417E-2
74 94 8.169157947072989E-2
74 242 2.2538115173049048E-2
74 246 1.7242642787849982E-2
74 293 1.831563888873418E-2
75 1 2.3093860919077558E-2
75 71 2.5362943155894793E-2
75 72 4.0775491046932406E-2
75 73 2.3801319801229137E-1
75 76 1.6460515731868036E-1
75 78 4.15016959349111E-1
75 100 4.110472213167471E-2
75 179 2.1099278746530302E-2
75 184 2.1489965571252087E-2
75 185 1.831563888873418E-2
75 189 1.85599655661834E-2
76 71 4.513076643635641E-2
76 72 1.761204148295173E-2
76 73 5.5577754124590824E-2
76 75 1.6460515731868036E-1
76 78 5.4217720618640594E-2
76 100 7.091357731458767E-2
76 171 2.0141579160547464E-2
76 177 1.8479185791878353E-2
76 179 2.1156246157901E-2
76 188 1.7506840043137684E-2
76 189 1.8557532947090085E-2
77 2 4.330559674594188E-2
77 35 2.0484628928495705E-2
77 40 2.935982532716992E-2
77 72 5.940006222178102E-2
77 73 1.7899842160121162E-2
77 74 1.4808095977760402E-1
77 80 1.5113432619451247E-1
77 93 2.7561537856911334E-2
77 250 1.831563888873418E-2
77 378 1.9994463761332282E-2
78 1 2.886841261828761E-2
78 35 1.831563888873418E-2
78 71 2.138684233960596E-2
78 72 3.993728969917881E-2
78 73 1.9873050225964153E-1
78 75 4.15016959349111E-1
78 76 5.4217720618640594E-2
78 100 2.5013011818003476E-2
78 179 1.8277405050322052E-2
78 184 2.806183608350035E-2
78 185 2.7904684706520973E-2
79 4 1.831563888873418E-2
79 6 6.310068163532298E-2
79 8 1.9859844221593023E-2
79 36 3.474700512649533E-2
79 158 2.892103536549643E-2
79 176 2.0252657565051787E-2
79 180 3.0908914897855782E-2
79 230 1.728272824646624E-2
79 397 4.2322525155904275E-2
79 399 2.461523171218616E-2
80 2 8.508460789358979E-2
80 5 1.831563888873418E-2
80 35 1.997848656128156E-2
80 40 2.559283059782771E-2
80 72 2.3047199653474192E-2
80 74 1.1638349486833093E-1
80 77 1.5113432619451247E-1
80 93 2.1176913195441297E-2
80 96 1.6742987855947366E-2
80 378 2.078225302142198E-2
81 82 6.948755507806934E-2
81 83 4.0164892925987994E-1
81 84 5.572255090247835E-2
81 85 6.63571168942365E-2
81 89 9.116887487536368E-2
81 114 3.315343324383988E-2
81 115 3.711041398875717E-2
81 223 2.893585243655974E-2
81 225 2.7080191392820696E-2
81 227 1.99096990077209E-2
81 306 1.4620385107338625E-2
81 391 1.5601024581478934E-2
82 21 2.1327991009930717E-2
82 43 1.831563888873418E-2
82 81 6.948755507806934E-2
82 83 2.0183338120505429E-1
82 89 3.298911405346085E-2
82 90 2.38654828280113E-2
82 223 2.884530262511764E-2
82 225 1.9004642418918936E-2
82 291 2.7751522820682682E-2
82 293 2.335086274646858E-2
82 391 3.7521695303646414E-2
82 396 2.8140085586261823E-2
82 398 4.20911025281631E-2
83 81 4.0164892925987994E-1
83 82 2.0183338120505429E-1
83 84 2.010977616702029E-2
83 85 2.633271953325693E-2
83 89 1.0613023003530797E-1
83 112 2.181792190749946E-2
83 114 2.3383277249750225E-2
83 115 3.8710064320681165E-2
83 223 2.9494081633191206E-2
83 225 3.24720159543425E-2
83 306 2.0733954107938518E-2
83 309 2.8707415278955727E-2
84 27 1.7931466575776392E-2
84 81 5.572255090247835E-2
84 83 2.010977616702029E-2
84 85 2.9503821156961685E-1
84 86 1.2670005348462982E-1
84 87 7.170467029585632E-2
84 88 1.400905342468866E-1
84 89 1.2881856953279205E-1
84 90 2.0212010400489852E-2
84 98 1.831563888873418E-2
84 113 2.0048215048358225E-2
84 161 2.0064898116322956E-2
84 162 2.2261076027440773E-2
84 165 2.484271257026534E-2
84 224 1.705569123932509E-2
84 227 4.174935226905143E-2
84 299 1.6003794120168363E-2
84 394 1.831563888873418E-2
84 400 2.3687776635053694E-2
85 81 6.63571168942365E-2
85 83 2.633271953325693E-2
85 84 2.9503821156961685E-1
85 86 2.760424212951883E-2
85 87 1.831563888873418E-2
85 88 4.259226100877361E-2
85 89 8.978367648543423E-2
85 90 3.564557151665251E-2
85 150 1.831563888873418E-2
85 161 1.8788929838239498E-2
85 162 1.696284951862289E-2
85 165 2.6501884857845024E-2
85 223 1.8727709253792118E-2
85 227 3.490629154354987E-2
86 27 2.6260839769913214E-2
86 48 1.8436679826776915E-2
86 49 1.8265802866387508E-2
86 84 1.2670005348462982E-1
86 85 2.760424212951883E-2
86 87 1.0229894533056581E-1
86 88 9.563977855861476E-2
86 89 8.742084585174201E-2
86 169 1.831563888873418E-2
86 207 2.166273493525974E-2
86 226 2.0467804131181846E-2
86 227 1.831563888873418E-2
86 299 1.8033716424771692E-2
86 350 1.8647197115373878E-2
86 379 1.7965119970550926E-2
86 400 2.4039146760173845E-2
87 84 7.170467029585632E-2
87 85 1.831563888873418E-2
87 86 1.0229894533056581E-1
87 88 3.547956236076679E-2
87 99 1.9353120418249783E-2
87 124 1.6939637106794313E-2
87 128 1.8071683162427764E-2
87 224 3.393097609303509E-2
87 226 4.055215948629161E-2
87 229 1.831563888873418E-2
87 248 2.590734409584262E-2
87 345 1.7293176179747453E-2
87 394 3.971788497117397E-2
87 400 5.676233357179575E-2
88 27 2.1721633669483417E-2
88 31 2.335885326310875E-2
88 38 2.4361085327597582E-2
88 84 1.400905342468866E-1
88 85 4.259226100877361E-2
88 86 9.563977855861476E-2
88 87 3.547956236076679E-2
88 89 7.966386035516967E-2
88 90 2.793445614546931E-2
88 95 2.747914249876012E-2
88 98 1.921030114663092E-2
88 111 2.3226493800061546E-2
88 150 1.831563888873418E-2
88 161 1.888566049760177E-2
88 162 1.9026093378981826E-2
88 168 1.831563888873418E-2
88 173 2.3063228805374904E-2
88 178 2.3347534838973952E-2
88 227 2.50187650573944E-2
88 230 1.754621479279205E-2
88 299 1.750295235411193E-2
89 48 1.796539320793169E-2
89 81 9.116887487536368E-2
89 82 3.298911405346085E-2
89 83 1.0613023003530797E-1
89 84 1.2881856953279205E-1
89 85 8.978367648543423E-2
89 86 8.742084585174201E-2
89 88 7.966386035516967E-2
89 111 1.6724062388193343E-2
89 115 1.5153913172394158E-2
89 118 2.6187865067045048E-2
89 119 1.776283610571824E-2
89 161 1.976594173381894E-2
89 162 2.074888572002012E-2
89 223 4.8607255772883155E-2
89 227 5.041118356294254E-2
89 259 1.831563888873418E-2
89 299 1.1078373970983067E-2
89 380 2.342036813286614E-2
90 30 2.6662741293813894E-2
90 82 2.38654828280113E-2
90 84 2.0212010400489852E-2
90 85 3.564557151665251E-2
90 88 2.793445614546931E-2
90 98 1.8089267237159142E-2
90 119 3.557242491638808E-2
90 129 3.4412880634791684E-2
90 150 1.9143841578970724E-2
90 161 1.831563888873418E-2
90 162 1.831563888873418E-2
90 172 1.831563888873418E-2
90 174 1.831563888873418E-2
90 206 2.0574101038459712E-2
90 223 3.0580090613114456E-2
90 225 1.831563888873418E-2
90 228 2.3792112030292384E-2
90 279 1.6582270248409414E-2
90 391 5.1927089254082175E-2
90 393 1.909460071482077E-2
90 398 1.831563888873418E-2
91 29 2.599477592724922E-2
91 30 1.9273951619412543E-2
91 92 9.927081086626514E-2
91 98 4.897371989547915E-2
91 142 1.8696584940376917E-2
91 145 1.831563888873418E-2
91 149 1.702439527683322E-2
91 150 2.005539032677168E-2
91 243 2.0391660968410316E-2
91 244 2.1720178573130005E-2
92 29 1.9757017747571375E-2
92 72 2.371278515374218E-2
92 91 9.927081086626514E-2
92 93 4.2862190593587986E-2
92 94 2.9776859641575296E-2
92 95 3.392797620945078E-2
92 96 1.8586418419911464E-2
92 97 2.660851592493106E-2
92 98 9.204005149156394E-2
92 114 1.831563888873418E-2
92 235 1.5561468375268294E-2
92 243 1.8077452031854332E-2
92 249 2.146127205660632E-2
92 250 1.9186661894986287E-2
92 391 2.96951806014125E-2
93 23 2.1329857324305528E-2
93 74 7.284126534703417E-2
93 77 2.7561537856911334E-2
93 80 2.1176913195441297E-2
93 92 4.2862190593587986E-2
93 94 4.067543353638589E-1
93 96 2.689294423527736E-2
93 97 3.5142207660547854E-2
93 246 1.831563888873418E-2
93 250 2.3186856154579837E-2
93 293 3.3409062423241E-2
93 391 1.7809283691849698E-2
94 23 2.3693501181226678E-2
94 74 8.169157947072989E-2
94 92 2.9776859641575296E-2
94 93 4.067543353638589E-1
94 97 3.052811991331203E-2
94 242 3.264135558185429E-2
94 246 1.831563888873418E-2
94 250 1.9296995367209982E-2
94 255 1.6479542345913287E-2
94 293 2.898109935943749E-2
95 29 3.193353145345695E-2
95 30 1.6088516850216054E-2
95 88 2.747914249876012E-2
95 92 3.392797620945078E-2
95 96 1.1427529325161692E-1
95 98 1.095310718096684E-1
95 111 2.3146848368092908E-2
95 119 2.694242722414156E-2
95 120 2.7050492688393348E-2
95 221 1.831563888873418E-2
96 10 2.105521316409562E-2
96 29 2.212913149684989E-2
96 30 2.1655497629738996E-2
96 80 1.6742987855947366E-2
96 92 1.8586418419911464E-2
96 93 2.689294423527736E-2
96 95 1.1427529325161692E-1
96 97 6.084747638510063E-2
96 98 1.9399396213399134E-2
96 118 1.831563888873418E-2
96 119 2.6120930422474396E-2
96 222 1.6636784585339872E-2
96 374 1.9273544622471304E-2
97 2 1.7455021174745827E-2
97 29 1.831563888873418E-2
97 30 3.222280167592126E-2
97 92 2.660851592493106E-2
97 93 3.5142207660547854E-2
97 94 3.052811991331203E-2
97 96 6.084747638510063E-2
97 98 3.239146386669029E-2
97 222 2.9326453144481197E-2
97 228 2.3717375508636715E-2
97 250 1.9617924674962386E-2
98 29 5.383186533636547E-2
98 30 2.3241584324667178E-2
98 84 1.831563888873418E-2
98 88 1.921030114663092E-2
98 90 1.8089267237159142E-2
98 91 4.897371989547915E-2
98 92 9.204005149156394E-2
98 95 1.095310718096684E-1
98 96 1.9399396213399134E-2
98 97 3.239146386669029E-2
98 119 2.103886437138453E-2
98 120 1.831563888873418E-2
99 36 1.831563888873418E-2
99 45 2.063337460124489E-2
99 87 1.9353120418249783E-2
99 167 1.831563888873418E-2
99 229 2.7915928336809944E-2
99 230 1.7442252499659087E-2
99 248 2.8769791855242796E-2
99 345 5.5521547941552056E-2
99 349 4.092781199830833E-2
99 397 5.2722791457235504E-2
99 399 2.1575018793715605E-2
100 7 1.8829205353928777E-2
100 34 3.648925980925129E-2
100 35 1.792824081607563E-2
100 71 2.118593248610445E-2
100 73 2.0956550622691642E-2
100 75 4.110472213167471E-2
100 76 7.091357731458767E-2
100 78 2.5013011818003476E-2
100 159 1.831563888873418E-2
100 176 2.3203336202213196E-2
100 179 4.135363209161513E-2
100 221 3.437472740849473E-2
101 71 1.831563888873418E-2
101 102 1.0210970816961196E-1
101 103 1.502747305691323E-1
101 104 6.477759895694986E-2
101 106 1.0505725073242352E-1
101 107 5.582926046443839E-2
101 108 2.4418243954071977E-2
101 109 3.736003320186406E-2
101 110 2.1513443738627858E-1
101 184 2.012991216044076E-2
101 185 1.831563888873418E-2
101 187 2.0406025493376945E-2
101 188 3.180644034927754E-2
101 189 3.224551891553648E-2
101 274 1.9546656124975734E-2
101 275 1.831563888873418E-2
101 318 1.7302693232814734E-2
102 101 1.0210970816961196E-1
102 103 4.722698859550839E-1
102 104 3.973097096992325E-2
102 105 2.950391279463381E-2
102 106 3.3154702522155444E-1
102 107 3.848773948333862E-2
102 109 3.188440165150992E-2
102 110 8.296322689729219E-2
102 184 2.8409189861669928E-2
102 185 2.177213580104747E-2
102 188 1.831563888873418E-2
102 189 1.8236366320348054E-2
103 101 1.502747305691323E-1
103 102 4.722698859550839E-1
103 104 5.207196399334613E-2
103 105 2.8504400620806086E-2
103 106 3.1517511804951803E-1
103 107 4.54030108693152E-2
103 108 2.3197673007573964E-2
103 109 3.533901553674934E-2
103 110 1.4619950039195212E-1
103 184 2.5019100523662866E-2
103 185 1.9522898225347134E-2
103 188 1.831563888873418E-2
104 101 6.477759895694986E-2
104 102 3.973097096992325E-2
104 103 5.207196399334613E-2
104 106 4.048323964652315E-2
104 107 5.654121051135946E-2
104 109 2.0471435691737588E-1
104 110 7.08717714164722E-2
104 188 1.831563888873418E-2
104 189 2.3878539583564697E-2
104 274 1.831563888873418E-2
104 319 1.6641059386011126E-2
105 102 2.950391279463381E-2
105 103 2.8504400620806086E-2
105 106 6.252970426206565E-2
105 107 4.619301553700522E-2
105 108 1.0594090608070642E-1
105 110 2.536282009991541E-2
105 184 1.7211224413352245E-2
105 222 2.0385047051944653E-2
105 228 1.831563888873418E-2
105 244 2.00774927126172E-2
106 71 1.83933777966714E-2
106 101 1.0505725073242352E-1
106 102 3.3154702522155444E-1
106 103 3.1517511804951803E-1
106 104 4.048323964652315E-2
106 105 6.252970426206565E-2
106 107 9.214902151661632E-2
106 108 5.080898313826268E-2
106 109 3.82809993410708E-2
106 110 1.6188110274429496E-1
106 184 2.465870489060131E-2
106 185 2.5978856235394317E-2
106 188 1.831563888873418E-2
106 189 1.6771616460899117E-2
107 101 5.582926046443839E-2
107 102 3.848773948333862E-2
107 103 4.54030108693152E-2
107 104 5.654121051135946E-2
107 105 4.619301553700522E-2
107 106 9.214902151661632E-2
107 108 2.0161391099147025E-1
107 109 6.961626498338858E-2
107 110 1.5487878638605768E-1
107 184 2.0722473842945136E-2
107 185 1.9277241649817128E-2
107 187 1.6307624771390684E-2
107 189 1.9470577092401003E-2
108 101 2.4418243954071977E-2
108 103 2.3197673007573964E-2
108 105 1.0594090608070642E-1
108 106 5.080898313826268E-2
108 107 2.0161391099147025E-1
108 109 3.3284648174898346E-2
108 110 4.142733915764713E-2
108 184 2.0014473025279294E-2
108 188 1.6380051957616503E-2
108 189 1.8799032096641764E-2
109 101 3.736003320186406E-2
109 102 3.188440165150992E-2
109 103 3.533901553674934E-2
109 104 2.0471435691737588E-1
109 106 3.82809993410708E-2
109 107 6.961626498338858E-2
109 108 3.3284648174898346E-2
109 110 4.5374676717383204E-2
109 189 1.831563888873418E-2
109 274 1.739305776146633E-2
109 314 1.8218880693517292E-2
110 101 2.1513443738627858E-1
110 102 8.296322689729219E-2
110 103 1.4619950039195212E-1
110 104 7.08717714164722E-2
110 105 2.536282009991541E-2
110 106 1.6188110274429496E-1
110 107 1.5487878638605768E-1
110 108 4.142733915764713E-2
110 109 4.5374676717383204E-2
110 184 1.8904831462188236E-2
110 185 2.174272952145982E-2
110 189 1.8122736049904845E-2
111 49 1.9287075503754435E-2
111 88 2.3226493800061546E-2
111 89 1.6724062388193343E-2
111 95 2.3146848368092908E-2
111 116 1.1586970125035621E-1
111 118 2.9210994216590614E-2
111 119 6.832738603254752E-2
111 120 1.266256986323516E-1
111 176 2.0610701374539596E-2
111 392 2.668954717387382E-2
112 83 2.181792190749946E-2
112 113 7.397901431948706E-2
112 114 2.0363976186694128E-2
112 115 1.7350428784420258E-1
112 117 1.6517123170912312E-1
112 120 1.8735763670898704E-2
112 202 1.769913683103346E-2
112 203 1.831563888873418E-2
112 259 2.8273575514988117E-2
112 396 4.48093668413628E-2
113 84 2.0048215048358225E-2
113 112 7.397901431948706E-2
113 115 5.777593578110592E-2
113 117 3.6978877762055405E-2
113 203 2.3805516103363927E-2
113 207 3.0994297626670813E-2
113 210 1.675011381121637E-2
113 227 1.831563888873418E-2
113 394 2.5187716855297644E-2
113 400 2.4768018670052433E-2
114 81 3.315343324383988E-2
114 83 2.3383277249750225E-2
114 92 1.831563888873418E-2
114 112 2.0363976186694128E-2
114 115 9.880463960204934E-2
114 117 6.319421569628161E-2
114 121 2.113995195889119E-2
114 122 2.282003992925169E-2
114 225 2.1223276584928095E-2
114 227 1.588763448915916E-2
114 261 1.912246201868434E-2
114 391 1.831563888873418E-2
115 81 3.711041398875717E-2
115 83 3.8710064320681165E-2
115 89 1.5153913172394158E-2
115 112 1.7350428784420258E-1
115 113 5.777593578110592E-2
115 114 9.880463960204934E-2
115 117 2.5709540366259653E-1
115 259 2.6920635249671556E-2
115 391 1.831563888873418E-2
115 396 2.2295078623582522E-2
116 8 3.856266757938718E-2
116 27 2.4930783644417306E-2
116 49 1.831563888873418E-2
116 111 1.1586970125035621E-1
116 120 2.452730145970325E-2
116 128 2.000532509326323E-2
116 176 3.0899195357309506E-2
116 180 2.5874077505077267E-2
116 230 5.6873357384101195E-2
116 392 1.5949349313448147E-2
117 21 2.422993244539457E-2
117 112 1.6517123170912312E-1
117 113 3.6978877762055405E-2
117 114 6.319421569628161E-2
117 115 2.5709540366259653E-1
117 120 2.204438814832909E-2
117 259 1.831563888873418E-2
117 391 2.725113279097064E-2
117 396 3.652258212920827E-2
117 398 3.483867871236776E-2
118 10 2.699325145302436E-2
118 89 2.6187865067045048E-2
118 96 1.831563888873418E-2
118 111 2.9210994216590614E-2
118 119 1.0672971766835619E-1
118 120 4.398994936976597E-2
118 223 2.092158958588132E-2
118 259 3.705351678027721E-2
118 372 1.8209332516886556E-2
118 375 2.137654538929348E-2
118 377 1.831563888873418E-2
118 378 1.940645834072276E-2
119 5 1.8488663668051547E-2
119 10 4.164584643297216E-2
119 29 3.238779709016707E-2
119 30 2.2871664432992725E-2
119 89 1.776283610571824E-2
119 90 3.557242491638808E-2
119 95 2.694242722414156E-2
119 96 2.6120930422474396E-2
119 98 2.103886437138453E-2
119 111 6.832738603254752E-2
119 118 1.0672971766835619E-1
119 120 1.0129171902676483E-1
119 228 1.831563888873418E-2
119 391 2.887124099456805E-2
120 29 2.9113523380138173E-2
120 95 2.7050492688393348E-2
120 98 1.831563888873418E-2
120 111 1.266256986323516E-1
120 112 1.8735763670898704E-2
120 116 2.452730145970325E-2
120 117 2.204438814832909E-2
120 118 4.398994936976597E-2
120 119 1.0129171902676483E-1
120 259 2.4762949163216648E-2
120 396 1.8183913752941972E-2
121 114 2.113995195889119E-2
121 122 1.42142217827448E-1
121 124 2.935255358391939E-2
121 125 3.897048710255699E-2
121 130 6.175254714432265E-2
121 131 1.7692476304434827E-2
121 135 1.831563888873418E-2
121 142 3.7096690649686265E-2
121 145 4.05897851621297E-2
121 147 1.831563888873418E-2
121 149 2.174831274308918E-2
121 150 3.206941464766782E-2
121 245 1.467502301352425E-2
121 270 1.64885758026792E-2
122 114 2.282003992925169E-2
122 121 1.42142217827448E-1
122 125 2.2028564816419696E-2
122 142 2.381920270445647E-2
122 145 2.9667884805491297E-2
122 147 3.534465076582346E-2
122 149 3.473544664066768E-2
122 150 2.8725442971378128E-2
122 242 2.120671462602244E-2
122 243 1.4981739007475986E-2
122 246 2.9856066459506076E-2
122 249 1.831563888873418E-2
122 276 1.831563888873418E-2
122 302 1.831563888873418E-2
122 303 1.6769927237359802E-2
123 37 2.4918622960708563E-2
123 124 9.811863446832937E-2
123 130 1.831563888873418E-2
123 142 3.790235931293716E-2
123 145 2.3544499813600107E-2
123 149 1.9468303683361155E-2
123 158 1.8997197890765788E-2
123 169 1.8353133758988872E-2
123 224 2.8902781060002394E-2
123 226 3.129792507754629E-2
123 229 2.8626294710737382E-2
123 230 1.6068564177055187E-2
123 273 3.9693138023073685E-2
123 280 2.6152812079729474E-2
123 352 2.054736362626863E-2
123 353 1.7928856132407633E-2
123 354 1.9498027549874272E-2
123 356 1.9408044968737374E-2
123 357 1.812028256259014E-2
123 360 1.6945674686940332E-2
124 87 1.6939637106794313E-2
124 121 2.935255358391939E-2
124 123 9.811863446832937E-2
124 127 2.0629099610738756E-2
124 128 1.8376572328151927E-2
124 130 2.852111215859756E-2
124 142 1.831563888873418E-2
124 207 2.1734187353639342E-2
124 208 2.3172835188123242E-2
124 226 1.8415950792808042E-2
124 248 3.855708478500321E-2
124 273 1.831563888873418E-2
124 280 1.831563888873418E-2
124 394 3.543557676449034E-2
124 400 2.2998451621225408E-2
125 8 1.8058110074864166E-2
125 29 4.1324939476544295E-2
125 30 2.782738774561032E-2
125 37 3.3838294219585625E-2
125 121 3.897048710255699E-2
125 122 2.2028564816419696E-2
125 126 1.6758469872469373E-2
125 127 2.1437543617543353E-2
125 129 5.1259160428068225E-2
125 130 2.4394854243500383E-1
125 134 1.9876489955884185E-2
125 142 4.493518129096578E-2
125 145 3.5603982299334765E-2
125 149 1.831563888873418E-2
125 150 2.861926559116969E-2
125 165 1.831563888873418E-2
125 195 2.0788376108951078E-2
125 197 2.0839680746465198E-2
125 199 1.800266144603519E-2
125 271 2.3470868941569342E-2
125 276 2.1932270368352443E-2
125 360 2.0816056321846972E-2
126 2 2.7841910113894735E-2
126 13 1.7446299576141078E-2
126 30 1.861976569716762E-2
126 35 3.0185262426842063E-2
126 40 7.6116406260096E-2
126 125 1.6758469872469373E-2
126 142 1.907858371670768E-2
126 147 2.091198597317597E-2
126 150 2.9192075845542217E-2
126 157 2.601217083479931E-2
126 206 1.831563888873418E-2
126 222 3.371928031923884E-2
126 228 3.0384273624381283E-2
126 278 2.129433937319521E-2
127 4 1.8261966818261612E-2
127 6 1.831563888873418E-2
127 36 5.6198209760278464E-2
127 124 2.0629099610738756E-2
127 125 2.1437543617543353E-2
127 128 5.177058321528907E-2
127 130 4.087495258654117E-2
127 170 2.8905745024287E-2
127 207 4.7649361549190694E-2
127 208 1.5182420909834878E-2
127 210 2.7177421688315488E-2
127 288 3.6001465228518485E-2
127 397 1.831563888873418E-2
128 6 1.984058357386988E-2
128 27 2.638418317567167E-2
128 28 1.831563888873418E-2
128 36 2.5881664848880548E-2
128 87 1.8071683162427764E-2
128 116 2.000532509326323E-2
128 124 1.8376572328151927E-2
128 127 5.177058321528907E-2
128 130 2.39084746009526E-2
128 207 6.2302687582784365E-2
128 210 2.440376857831745E-2
128 230 2.0973956580418812E-2
128 280 1.5304471902661938E-2
128 345 2.3312844984698714E-2
128 371 2.379569766104257E-2
128 379 1.831563888873418E-2
128 397 1.831563888873418E-2
128 400 2.036432312447528E-2
129 29 1.7810726874559483E-2
129 30 2.403651729824985E-2
129 34 1.893246558932876E-2
129 90 3.4412880634791684E-2
129 125 5.1259160428068225E-2
129 130 2.880021189273828E-2
129 150 3.274264177078864E-2
129 175 1.9229674821394514E-2
129 206 2.6276867154251274E-2
129 228 1.831563888873418E-2
130 29 2.2129747921129227E-2
130 37 1.986950856196558E-2
130 66 1.831563888873418E-2
130 121 6.175254714432265E-2
130 123 1.831563888873418E-2
130 124 2.852111215859756E-2
130 125 2.4394854243500383E-1
130 127 4.087495258654117E-2
130 128 2.39084746009526E-2
130 129 2.880021189273828E-2
130 134 2.1131645782266336E-2
130 142 4.833177344404058E-2
130 145 2.90038385958642E-2
130 150 2.4898904249751087E-2
130 165 2.265414550914656E-2
130 195 1.831563888873418E-2
130 197 1.839883640631817E-2
130 271 1.8569231907431365E-2
130 359 2.287559001912659E-2
130 360 2.4528276767705536E-2
131 121 1.7692476304434827E-2
131 133 3.834571348174676E-2
131 134 2.5998529302583E-1
131 135 2.447365931702388E-1
131 136 7.995541635279188E-2
131 137 7.770640020866612E-2
131 138 2.4719336553813125E-2
131 139 3.453316638977085E-2
131 140 6.196809758195725E-2
131 249 1.831563888873418E-2
131 261 1.854601038456038E-2
131 268 1.831563888873418E-2
132 21 2.0990377843922645E-2
132 133 9.219724368944789E-2
132 136 4.712618690795344E-2
132 138 6.67704345104613E-2
132 139 6.075523958502557E-2
132 140 9.326181366295296E-2
132 249 2.1894410015052594E-2
132 255 1.8188501396709664E-2
132 258 1.831563888873418E-2
132 266 1.9903505503143175E-2
132 269 2.0735617418005545E-2
132 377 2.0584594390551665E-2
133 42 1.4316447228280491E-2
133 131 3.834571348174676E-2
133 132 9.219724368944789E-2
133 134 2.919798158540339E-2
133 135 2.1103285177721504E-2
133 136 3.12591639741218E-1
133 138 2.8921189990309723E-2
133 139 1.2602592808405233E-1
133 140 2.1598288750852299E-1
133 249 2.5841674027628908E-2
134 29 1.7883620131441482E-2
134 125 1.9876489955884185E-2
134 130 2.1131645782266336E-2
134 131 2.5998529302583E-1
134 133 2.919798158540339E-2
134 135 1.5412617722006813E-1
134 136 3.214134248419034E-2
134 137 7.386213668080935E-2
134 138 4.175782025729438E-2
134 139 1.677598594263788E-2
134 140 6.259976253212697E-2
134 247 1.8335877060951602E-2
135 121 1.831563888873418E-2
135 131 2.447365931702388E-1
135 133 2.1103285177721504E-2
135 134 1.5412617722006813E-1
135 136 3.349076814068899E-2
135 137 6.769534024114784E-2
135 138 4.0447043335354364E-2
135 140 5.461964408187099E-2
135 253 2.078906291287867E-2
135 261 1.639715874185249E-2
136 131 7.995541635279188E-2
136 132 4.712618690795344E-2
136 133 3.12591639741218E-1
136 134 3.214134248419034E-2
136 135 3.349076814068899E-2
136 139 2.3130247113494123E-1
136 140 9.819572820578507E-2
136 246 1.831563888873418E-2
136 249 2.634685018668738E-2
136 260 1.6037471620119478E-2
137 29 1.831563888873418E-2
137 131 7.770640020866612E-2
137 134 7.386213668080935E-2
137 135 6.769534024114784E-2
137 140 2.7536751666590285E-2
137 149 2.2286748520454272E-2
137 245 2.6772737218388624E-2
137 247 1.8147970417306758E-2
137 249 1.842028520167712E-2
137 253 2.2437072123331507E-2
138 41 2.3486033508803898E-2
138 44 2.294790227662672E-2
138 131 2.4719336553813125E-2
138 132 6.67704345104613E-2
138 133 2.8921189990309723E-2
138 134 4.175782025729438E-2
138 135 4.0447043335354364E-2
138 140 1.1396598291868697E-1
138 227 1.831563888873418E-2
138 259 1.742101559969068E-2
139 23 2.0378568191383492E-2
139 42 1.831563888873418E-2
139 131 3.453316638977085E-2
139 132 6.075523958502557E-2
139 133 1.2602592808405233E-1
139 134 1.677598594263788E-2
139 136 2.3130247113494123E-1
139 140 7.939495792816438E-2
139 246 2.269524871926199E-2
139 249 3.242545454566141E-2
140 131 6.196809758195725E-2
140 132 9.326181366295296E-2
140 133 2.1598288750852299E-1
140 134 6.259976253212697E-2
140 135 5.461964408187099E-2
140 136 9.819572820578507E-2
140 137 2.7536751666590285E-2
140 138 1.1396598291868697E-1
140 139 7.939495792816438E-2
140 247 1.3095721324187716E-2
140 249 1.831563888873418E-2
141 15 1.831563888873418E-2
141 142 2.828626953503565E-2
141 143 3.10655024844835E-1
141 144 1.0204552626036398E-1
141 145 3.39484348401573E-2
141 146 2.511730712886696E-1
141 147 4.1604418735135346E-2
141 148 8.334823448809736E-2
141 149 3.949753469690818E-2
141 150 1.831563888873418E-2
141 244 1.1237400450142583E-2
141 317 1.883350263574338E-2
142 37 2.957681181467514E-2
142 38 2.0138782948569293E-2
142 44 1.831563888873418E-2
142 47 3.656189683517843E-2
142 91 1.8696584940376917E-2
142 121 3.7096690649686265E-2
142 122 2.381920270445647E-2
142 123 3.790235931293716E-2
142 124 1.831563888873418E-2
142 125 4.493518129096578E-2
142 126 1.907858371670768E-2
142 130 4.833177344404058E-2
142 141 2.828626953503565E-2
142 143 3.561295474451495E-2
142 144 3.496035937853733E-2
142 145 4.5696905814271616E-1
142 146 3.6171031650039626E-2
142 147 2.689747655778367E-1
142 148 3.993428749537523E-2
142 149 2.7349119213562534E-1
142 150 2.2474890582564858E-1
142 152 2.1026052270005584E-2
142 153 2.0255877934946865E-2
142 160 2.1474253592370405E-2
142 175 2.4943964046917032E-2
142 178 1.831563888873418E-2
142 194 1.892587608139615E-2
142 195 2.0990850204115768E-2
142 196 2.579989924438653E-2
142 231 1.8577146955867156E-2
142 232 1.9946347390448885E-2
142 237 2.2873078642596044E-2
142 238 2.1594321267360342E-2
142 354 1.831563888873418E-2
142 356 1.8194091834550622E-2
142 358 2.6288766314260047E-2
142 359 2.9854591537324688E-2
142 394 1.6891120395437748E-2
143 141 3.10655024844835E-1
143 142 3.561295474451495E-2
143 144 1.6069129196248333E-1
143 145 3.593796250504373E-2
143 146 3.086967225862453E-1
143 147 2.5034579866998447E-2
143 148 4.222474509744008E-2
143 149 2.223759879785326E-2
143 150 1.831563888873418E-2
143 156 1.831563888873418E-2
143 238 1.831563888873418E-2
143 244 9.00553042512173E-3
144 12 2.7085347455432437E-2
144 14 1.1853306554522686E-2
144 15 2.898606157335228E-2
144 16 1.831563888873418E-2
144 19 1.831563888873418E-2
144 39 2.3612406522363825E-2
144 141 1.0204552626036398E-1
144 142 3.496035937853733E-2
144 143 1.6069129196248333E-1
144 145 2.410546879613555E-2
144 146 2.825937411822731E-1
144 147 4.81040129803964E-2
144 148 1.831563888873418E-2
144 149 1.8756786033753234E-2
144 150 3.56476268078424E-2
144 151 2.9785333601822218E-2
144 156 3.036707670497213E-2
144 188 1.7463985267411084E-2
144 244 2.000332816912218E-2
144 303 1.831563888873418E-2
144 305 2.052436944262146E-2
144 311 1.955488857810492E-2
144 316 1.9410345448811116E-2
144 317 2.950888729083489E-2
144 319 1.7007652025537553E-2
145 31 2.008589820407674E-2
145 32 2.5314481328213748E-2
145 37 2.8170105740386184E-2
145 38 2.3423168575653408E-2
145 39 1.7581288116946932E-2
145 47 1.7473950384451212E-2
145 91 1.831563888873418E-2
145 121 4.05897851621297E-2
145 122 2.9667884805491297E-2
145 123 2.3544499813600107E-2
145 125 3.5603982299334765E-2
145 130 2.90038385958642E-2
145 141 3.39484348401573E-2
145 142 4.5696905814271616E-1
145 143 3.593796250504373E-2
145 144 2.410546879613555E-2
145 146 3.966031000295562E-2
145 147 2.6329655743564423E-1
145 148 4.0198546299812295E-2
145 149 4.4149483390213395E-1
145 150 2.834234783339909E-1
145 193 1.831563888873418E-2
145 194 2.0267185590748776E-2
145 195 2.0956510421170804E-2
145 196 2.0148255931198497E-2
145 199 2.019966925777531E-2
145 206 1.976390063545441E-2
145 209 2.3563255779663873E-2
145 232 1.831563888873418E-2
145 237 1.894911074638852E-2
145 238 1.764341213250763E-2
145 285 1.831563888873418E-2
145 286 2.3850115654293375E-2
145 299 2.1327540206964483E-2
145 358 1.9272902095964058E-2
145 359 1.831563888873418E-2
146 12 1.5225295523282036E-2
146 15 2.7601015124313198E-2
146 141 2.511730712886696E-1
146 142 3.6171031650039626E-2
146 143 3.086967225862453E-1
146 144 2.825937411822731E-1
146 145 3.966031000295562E-2
146 147 4.762812171691853E-2
146 148 3.231627101164641E-2
146 149 3.4748101891448724E-2
146 150 1.831563888873418E-2
146 151 2.01946315153018E-2
146 156 2.005257109278486E-2
146 244 1.5454189609194967E-2
146 317 1.6865719108368676E-2
147 23 1.8019794499126725E-2
147 31 1.831563888873418E-2
147 32 3.651164145869854E-2
147 39 2.3940103567989524E-2
147 40 2.3442779630458897E-2
147 121 1.831563888873418E-2
147 122 3.534465076582346E-2
147 126 2.091198597317597E-2
147 141 4.1604418735135346E-2
147 142 2.689747655778367E-1
147 143 2.5034579866998447E-2
147 144 4.81040129803964E-2
147 145 2.6329655743564423E-1
147 146 4.762812171691853E-2
147 148 3.169276951794105E-2
147 149 4.330592817164266E-1
147 150 2.5779405106228487E-1
147 191 1.831563888873418E-2
147 192 1.831563888873418E-2
147 193 2.864619316377385E-2
147 194 1.7559182149496283E-2
147 196 2.0745497398022172E-2
147 200 2.0955930923294955E-2
147 206 1.831563888873418E-2
147 209 1.831563888873418E-2
147 231 1.5590933153252716E-2
147 235 1.831563888873418E-2
147 244 2.347835394891388E-2
147 317 2.0500475327406027E-2
148 141 8.334823448809736E-2
148 142 3.993428749537523E-2
148 143 4.222474509744008E-2
148 144 1.831563888873418E-2
148 145 4.0198546299812295E-2
148 146 3.231627101164641E-2
148 147 3.169276951794105E-2
148 149 5.733360959387038E-2
148 150 2.0107191449018656E-2
148 244 1.3526032841446734E-2
148 303 1.8470858862404804E-2
149 31 1.9271037240458956E-2
149 32 2.3076010631275803E-2
149 37 1.901239849993377E-2
149 38 1.925317414800044E-2
149 91 1.702439527683322E-2
149 121 2.174831274308918E-2
149 122 3.473544664066768E-2
149 123 1.9468303683361155E-2
149 125 1.831563888873418E-2
149 137 2.2286748520454272E-2
149 141 3.949753469690818E-2
149 142 2.7349119213562534E-1
149 143 2.223759879785326E-2
149 144 1.8756786033753234E-2
149 145 4.4149483390213395E-1
149 146 3.4748101891448724E-2
149 147 4.330592817164266E-1
149 148 5.733360959387038E-2
149 150 2.2342662911077507E-1
149 193 2.6215134693124663E-2
149 196 1.8564056041994813E-2
149 200 2.1063637240762163E-2
149 206 2.0729376895446842E-2
149 209 2.0787563246473358E-2
149 231 1.831563888873418E-2
149 232 1.9772501771965604E-2
149 244 1.831563888873418E-2
149 271 1.7847470272356513E-2
149 276 1.7947113420576692E-2
149 285 1.374810696998257E-2
149 286 1.704917580511125E-2
150 23 2.1660560133921373E-2
150 30 1.9799989763118087E-2
150 31 3.257954222759058E-2
150 32 4.541183961592103E-2
150 33 1.7965582924398343E-2
150 34 2.1609420703165714E-2
150 35 1.8347369950951303E-2
150 38 2.7134409066451058E-2
150 39 2.7226613591180747E-2
150 40 1.831563888873418E-2
150 41 2.8552060597298947E-2
150 44 2.82305037626114E-2
150 47 3.9050876401302614E-2
150 85 1.831563888873418E-2
150 88 1.831563888873418E-2
150 90 1.9143841578970724E-2
150 91 2.005539032677168E-2
150 121 3.206941464766782E-2
150 122 2.8725442971378128E-2
150 125 2.861926559116969E-2
150 126 2.9192075845542217E-2
150 129 3.274264177078864E-2
150 130 2.4898904249751087E-2
150 141 1.831563888873418E-2
150 142 2.2474890582564858E-1
150 143 1.831563888873418E-2
150 144 3.56476268078424E-2
150 145 2.834234783339909E-1
150 146 1.831563888873418E-2
150 147 2.5779405106228487E-1
150 148 2.0107191449018656E-2
150 149 2.2342662911077507E-1
150 172 1.9721768831777065E-2
150 174 3.720649747158177E-2
150 175 1.831563888873418E-2
150 192 1.8951794305440778E-2
150 194 2.8633356233812204E-2
150 195 1.776848950595412E-2
150 196 2.5366981457279406E-2
150 198 1.7867204363382017E-2
150 204 2.9231089682790347E-2
150 205 4.444951576895076E-2
150 206 5.9162762520547266E-2
150 209 4.2109955236473734E-2
150 223 2.5470446714266303E-2
150 227 1.831563888873418E-2
150 241 1.831563888873418E-2
150 243 2.0870046032312885E-2
150 244 2.2093378975369758E-2
150 245 2.0504681341136404E-2
150 247 1.863618989806481E-2
150 291 1.8454551747333677E-2
150 293 1.831563888873418E-2
150 296 2.224116086882707E-2
150 299 3.359433300535772E-2
150 300 2.124194473427987E-2
150 346 1.831563888873418E-2
150 348 1.8498076729099082E-2
150 374 1.872695401581099E-2
150 391 1.3700253718325795E-2
151 39 2.70740839856069E-2
151 144 2.9785333601822218E-2
151 146 2.01946315153018E-2
151 156 2.834456068199594E-1
151 159 3.355680363772889E-2
151 203 1.780893031067881E-2
151 209 1.831563888873418E-2
151 231 4.79765012458409E-2
151 232 2.7780825243274118E-2
151 237 3.5217435806839475E-2
152 1 5.013399553156688E-2
152 3 3.573844897815495E-2
152 7 4.2686231847824684E-2
152 9 1.7494440253726765E-2
152 34 1.749022317538446E-2
152 37 2.7127507558213936E-2
152 142 2.1026052270005584E-2
152 153 2.4705289668210106E-1
152 154 3.0368919292847824E-2
152 155 2.564137355012874E-2
152 156 2.3077937507748936E-2
152 157 2.7895733167478485E-2
152 158 5.320446371676562E-2
152 159 5.232009652018605E-2
152 160 2.300277343107231E-1
152 231 2.2738877347779136E-2
152 232 2.4364422904696217E-2
152 237 1.831563888873418E-2
152 359 2.1042493796187278E-2
152 360 1.831563888873418E-2
153 1 5.408008166397252E-2
153 3 6.980051935513241E-2
153 7 2.1852574991493446E-2
153 34 1.831563888873418E-2
153 37 2.5040003543815026E-2
153 142 2.0255877934946865E-2
153 152 2.4705289668210106E-1
153 154 2.0090831998377377E-2
153 157 1.7927413876313525E-2
153 158 2.0403399809785085E-2
153 159 2.679834603998817E-2
153 160 5.29657107651629E-1
153 232 1.5447723400674912E-2
153 392 1.771379695764802E-2
153 395 2.1293089687861328E-2
154 34 3.605890889554305E-2
154 37 2.4743108993656334E-2
154 68 2.0730292096383558E-2
154 152 3.0368919292847824E-2
154 153 2.0090831998377377E-2
154 155 3.648732321682616E-1
154 160 1.831563888873418E-2
154 175 2.088820891331284E-2
154 178 1.4762365840901176E-2
154 221 2.1753146664311593E-2
155 34 3.907027348280612E-2
155 37 3.552693397837117E-2
155 61 1.8084863637381418E-2
155 68 2.263790526323709E-2
155 152 2.564137355012874E-2
155 154 3.648732321682616E-1
155 175 1.831563888873418E-2
155 189 1.903837904900874E-2
155 221 3.354304213031153E-2
155 257 1.973404129924788E-2
156 143 1.831563888873418E-2
156 144 3.036707670497213E-2
156 146 2.005257109278486E-2
156 151 2.834456068199594E-1
156 152 2.3077937507748936E-2
156 159 2.1820285823275318E-2
156 231 3.751590186139652E-2
156 232 2.335113883066816E-2
156 237 2.4745506900907606E-2
156 238 1.3504518488696885E-2
157 2 3.565936356687821E-2
157 35 1.831563888873418E-2
157 40 2.874348072271572E-2
157 51 2.1489806232197105E-2
157 52 1.9416747143104585E-2
157 126 2.601217083479931E-2
157 152 2.7895733167478485E-2
157 153 1.7927413876313525E-2
157 160 2.054325285950532E-2
157 171 2.107480359787686E-2
158 6 2.3649872393717086E-2
158 79 2.892103536549643E-2
158 123 1.8997197890765788E-2
158 152 5.320446371676562E-2
158 153 2.0403399809785085E-2
158 160 2.1296905092947713E-2
158 180 2.0448458866868524E-2
158 236 3.502252659926777E-2
158 237 2.0990178455283337E-2
158 238 1.7553957677879463E-2
158 352 1.831563888873418E-2
158 357 3.015321682459979E-2
158 397 3.438718230721607E-2
159 1 1.8211461390020094E-2
159 7 7.334129647166251E-2
159 9 2.3286846217561316E-2
159 100 1.831563888873418E-2
159 151 3.355680363772889E-2
159 152 5.232009652018605E-2
159 153 2.679834603998817E-2
159 156 2.1820285823275318E-2
159 160 2.8807251855380966E-2
159 175 2.034381079725829E-2
159 178 1.831563888873418E-2
159 231 3.0840618141160688E-2
159 232 1.9473568024574943E-2
159 237 2.9017711904999383E-2
160 1 5.1912745117767126E-2
160 3 6.141921070906181E-2
160 7 2.1381588538105175E-2
160 34 1.831563888873418E-2
160 37 2.4473278127199672E-2
160 142 2.1474253592370405E-2
160 152 2.300277343107231E-1
160 153 5.29657107651629E-1
160 154 1.831563888873418E-2
160 157 2.054325285950532E-2
160 158 2.1296905092947713E-2
160 159 2.8807251855380966E-2
160 359 1.7306837800180563E-2
160 395 2.173116142767702E-2
161 49 1.7121056702174783E-2
161 84 2.0064898116322956E-2
161 85 1.8788929838239498E-2
161 88 1.888566049760177E-2
161 89 1.976594173381894E-2
161 90 1.831563888873418E-2
161 162 1.8633394344230006E-1
161 165 2.4902858919142798E-1
161 168 5.215770455258119E-2
161 259 1.982076818588472E-2
162 84 2.2261076027440773E-2
162 85 1.696284951862289E-2
162 88 1.9026093378981826E-2
162 89 2.074888572002012E-2
162 90 1.831563888873418E-2
162 161 1.8633394344230006E-1
162 165 1.3267265376104267E-1
162 168 4.476107280142476E-2
162 256 1.921834034367468E-2
162 259 2.8448350332950612E-2
163 21 2.5376434255143715E-2
163 164 1.502486836065775E-1
163 227 1.7043031601309405E-2
163 247 2.089214649580662E-2
163 249 3.063748039050288E-2
163 251 2.0121535498484007E-2
163 253 1.831563888873418E-2
163 256 1.831563888873418E-2
163 258 1.944333222338336E-2
163 259 2.0179982779369637E-2
163 272 1.884394882543437E-2
163 313 1.831563888873418E-2
163 373 1.927718978099967E-2
164 21 3.2933593822124E-2
164 163 1.502486836065775E-1
164 223 2.0121719556693875E-2
164 241 1.8843660794014033E-2
164 243 1.8493452992949386E-2
164 246 1.831563888873418E-2
164 249 2.486555335341294E-2
164 250 1.765658068206396E-2
164 258 2.544387656030914E-2
164 373 2.0403983718252933E-2
165 29 1.9750301801697526E-2
165 34 1.9344926374325926E-2
165 49 1.813806126487076E-2
165 84 2.484271257026534E-2
165 85 2.6501884857845024E-2
165 125 1.831563888873418E-2
165 130 2.265414550914656E-2
165 161 2.4902858919142798E-1
165 162 1.3267265376104267E-1
165 168 5.952170783247463E-2
166 4 4.143695422738496E-2
166 45 3.155314443572107E-2
166 46 2.4803535222854958E-2
166 167 3.423318362467283E-1
166 169 2.0879444037333497E-1
166 170 1.4797954963539423E-1
166 207 2.7167604767505602E-2
166 248 1.7706717955725187E-2
166 345 2.048323683094585E-2
166 350 1.831563888873418E-2
167 4 6.007051599312391E-2
167 45 2.7440592000896824E-2
167 99 1.831563888873418E-2
167 166 3.423318362467283E-1
167 169 6.762327080710896E-2
167 170 9.86079256392892E-2
167 207 1.8200747282637382E-2
167 345 2.448133749205649E-2
167 349 1.910714431098287E-2
167 399 1.9133790055741895E-2
168 8 1.8521454227050822E-2
168 29 1.9420807262448957E-2
168 49 1.842879406351704E-2
168 64 1.7950319750378488E-2
168 88 1.831563888873418E-2
168 161 5.215770455258119E-2
168 162 4.476107280142476E-2
168 165 5.952170783247463E-2
168 224 2.0877294244947275E-2
168 226 1.9917958928385427E-2
168 257 1.8152880068839597E-2
169 45 2.6813064505761028E-2
169 46 3.0998036613923252E-2
169 49 2.0075293522918307E-2
169 86 1.831563888873418E-2
169 123 1.8353133758988872E-2
169 166 2.0879444037333497E-1
169 167 6.762327080710896E-2
169 170 6.118003403465507E-2
169 207 2.346501344639035E-2
169 248 1.6708633430851043E-2
170 4 4.555098717908211E-2
170 45 1.6937092365421576E-2
170 127 2.8905745024287E-2
170 166 1.4797954963539423E-1
170 167 9.86079256392892E-2
170 169 6.118003403465507E-2
170 207 3.2163179901253246E-2
170 233 1.831563888873418E-2
170 345 2.610469094233791E-2
170 350 2.1103123030570443E-2
171 5 2.4536636348632956E-2
171 34 2.1474867592469072E-2
171 35 2.332883326946092E-2
171 76 2.0141579160547464E-2
171 157 2.107480359787686E-2
171 172 1.4570910339331195E-1
171 174 3.484170547792919E-2
171 176 1.7155291283804608E-2
171 177 6.6028912540314E-2
171 178 1.831563888873418E-2
171 179 9.502497255329911E-2
171 222 9.147809176851708E-2
171 228 6.65357338524731E-2
172 34 1.8139987607320794E-2
172 35 1.803587802007079E-2
172 51 1.7637629681406218E-2
172 90 1.831563888873418E-2
172 150 1.9721768831777065E-2
172 171 1.4570910339331195E-1
172 174 1.4787184526815386E-1
172 175 7.475932805460735E-2
172 176 1.831563888873418E-2
172 177 2.7658382674816913E-2
172 178 5.7692119461505785E-2
172 179 6.659425062143026E-2
172 222 3.484202984336456E-2
172 228 3.881946911929853E-2
173 47 1.831563888873418E-2
173 49 1.831563888873418E-2
173 63 1.831563888873418E-2
173 69 1.831563888873418E-2
173 88 2.3063228805374904E-2
173 175 6.2119891875616874E-2
173 176 8.683601976560938E-2
173 178 2.7590475925155983E-1
173 179 2.145302355956798E-2
173 180 1.3251418289537015E-1
173 221 1.813932321529135E-2
173 230 2.9459392676725624E-2
173 397 1.77073888144259E-2
173 400 4.677538981091128E-2
174 34 2.1822772103926174E-2
174 90 1.831563888873418E-2
174 150 3.720649747158177E-2
174 171 3.484170547792919E-2
174 172 1.4787184526815386E-1
174 175 5.1607675402926705E-2
174 178 2.983278854664837E-2
174 179 1.8076012412645413E-2
174 222 2.2539318625618476E-2
174 228 2.950923969229579E-2
175 47 1.831563888873418E-2
175 52 2.0063639415040347E-2
175 63 2.985387825190114E-2
175 66 2.7646390586082207E-2
175 69 2.2880612000001813E-2
175 129 1.9229674821394514E-2
175 142 2.4943964046917032E-2
175 150 1.831563888873418E-2
175 154 2.088820891331284E-2
175 155 1.831563888873418E-2
175 159 2.034381079725829E-2
175 172 7.475932805460735E-2
175 173 6.2119891875616874E-2
175 174 5.1607675402926705E-2
175 176 4.735001051251382E-2
175 177 1.831563888873418E-2
175 178 2.3480280990611654E-1
175 179 4.188348709166278E-2
175 180 5.449398198788186E-2
175 194 2.365556645889698E-2
175 196 2.475343054313839E-2
175 359 1.8521700070153285E-2
176 1 1.6652537424996706E-2
176 8 2.8569675067095828E-2
176 9 3.0198112447351565E-2
176 34 3.641401245014843E-2
176 69 1.665155706321525E-2
176 79 2.0252657565051787E-2
176 100 2.3203336202213196E-2
176 111 2.0610701374539596E-2
176 116 3.0899195357309506E-2
176 171 1.7155291283804608E-2
176 172 1.831563888873418E-2
176 173 8.683601976560938E-2
176 175 4.735001051251382E-2
176 178 1.528522583607629E-1
176 179 9.017383651114434E-2
176 180 2.4602398557999328E-1
176 221 3.33291512719633E-2
176 230 4.4851254659451154E-2
176 257 1.971382124724878E-2
176 374 1.9151757256413028E-2
177 1 2.259217984622139E-2
177 3 2.4853248853160734E-2
177 7 1.9780980832443253E-2
177 9 3.152938786539444E-2
177 30 1.9572059839441318E-2
177 34 1.6335340439180675E-2
177 37 3.776249596607245E-2
177 76 1.8479185791878353E-2
177 171 6.6028912540314E-2
177 172 2.7658382674816913E-2
177 175 1.831563888873418E-2
177 178 2.468880094965601E-2
177 179 1.0622850914457142E-1
177 222 3.674149595922909E-2
177 228 2.8030090907055136E-2
178 7 1.831563888873418E-2
178 34 2.3901999433363148E-2
178 63 2.7597911799303963E-2
178 66 2.70433830371957E-2
178 69 2.6052468211791767E-2
178 88 2.3347534838973952E-2
178 142 1.831563888873418E-2
178 154 1.4762365840901176E-2
178 159 1.831563888873418E-2
178 171 1.831563888873418E-2
178 172 5.7692119461505785E-2
178 173 2.7590475925155983E-1
178 174 2.983278854664837E-2
178 175 2.3480280990611654E-1
178 176 1.528522583607629E-1
178 177 2.468880094965601E-2
178 179 5.494585703422135E-2
178 180 1.3352382821888178E-1
178 221 3.257137545487942E-2
178 230 2.1838075433900407E-2
178 257 1.9493547009243842E-2
178 359 2.0316600590102058E-2
179 1 2.0715627050582365E-2
179 3 2.7226348603093815E-2
179 5 2.5781540158763525E-2
179 7 1.7943275399658683E-2
179 8 2.1438535811386494E-2
179 9 3.9971545426094796E-2
179 58 1.831563888873418E-2
179 75 2.1099278746530302E-2
179 76 2.1156246157901E-2
179 78 1.8277405050322052E-2
179 100 4.135363209161513E-2
179 171 9.502497255329911E-2
179 172 6.659425062143026E-2
179 173 2.145302355956798E-2
179 174 1.8076012412645413E-2
179 175 4.188348709166278E-2
179 176 9.017383651114434E-2
179 177 1.0622850914457142E-1
179 178 5.494585703422135E-2
179 180 5.540663580774305E-2
179 221 1.909371266279737E-2
179 222 1.6504870443828056E-2
179 393 1.831563888873418E-2
180 1 1.831563888873418E-2
180 7 2.2379863853444225E-2
180 8 2.8330295904431965E-2
180 9 3.933635781789143E-2
180 49 1.831563888873418E-2
180 55 2.0447334214207455E-2
180 56 2.428155642406917E-2
180 57 2.2299467298487863E-2
180 59 1.831563888873418E-2
180 63 2.763231779479952E-2
180 66 2.6229429620520113E-2
180 69 3.0610383321857247E-2
180 79 3.0908914897855782E-2
180 116 2.5874077505077267E-2
180 158 2.0448458866868524E-2
180 173 1.3251418289537015E-1
180 175 5.449398198788186E-2
180 176 2.4602398557999328E-1
180 178 1.3352382821888178E-1
180 179 5.540663580774305E-2
180 221 1.6393353192058785E-2
180 229 2.003555648049757E-2
180 230 8.380768157375007E-2
180 397 2.314433909923168E-2
181 26 2.1983902331663426E-2
181 182 5.610726488009896E-1
181 183 3.062312359188269E-1
181 186 1.1138909975855338E-1
181 190 8.380995695807375E-2
181 245 1.831563888873418E-2
181 252 2.881968438398657E-2
181 312 1.83967008553762E-2
181 376 2.164713306586242E-2
181 380 1.7776846643278527E-2
182 26 1.8119007083994488E-2
182 181 5.610726488009896E-1
182 183 4.528211211486223E-1
182 184 1.915950074346653E-2
182 186 1.2987940870018164E-1
182 190 1.2033995803650206E-1
182 251 1.831563888873418E-2
182 252 2.257396956249979E-2
182 312 2.3456543574144194E-2
182 313 2.4503897700971347E-2
183 181 3.062312359188269E-1
183 182 4.528211211486223E-1
183 184 3.009924557755743E-2
183 185 3.2414916075068925E-2
183 186 1.9776748395075944E-1
183 190 3.524390642215819E-1
183 252 1.4529714848586596E-2
183 267 1.831563888873418E-2
183 312 2.0854298152540713E-2
183 313 1.87622035145068E-2
184 61 3.7924510830000195E-2
184 62 2.4602161067058034E-2
184 67 1.903785538322151E-2
184 68 2.3239010542518108E-2
184 73 2.2552410404250503E-2
184 75 2.1489965571252087E-2
184 78 2.806183608350035E-2
184 101 2.012991216044076E-2
184 102 2.8409189861669928E-2
184 103 2.5019100523662866E-2
184 105 1.7211224413352245E-2
184 106 2.465870489060131E-2
184 107 2.0722473842945136E-2
184 108 2.0014473025279294E-2
184 110 1.8904831462188236E-2
184 182 1.915950074346653E-2
184 183 3.009924557755743E-2
184 185 4.541813617241254E-1
184 187 3.683535247414001E-1
184 188 2.615608784724049E-1
184 189 1.7707042256546635E-1
184 190 2.8170058706202095E-2
184 313 2.1771856052110523E-2
184 314 1.831563888873418E-2
184 315 2.060615365521338E-2
184 319 1.90514890824285E-2
184 320 1.831563888873418E-2
184 351 1.831563888873418E-2
185 61 1.831563888873418E-2
185 68 2.5453430919554713E-2
185 72 1.8649466737311687E-2
185 75 1.831563888873418E-2
185 78 2.7904684706520973E-2
185 101 1.831563888873418E-2
185 102 2.177213580104747E-2
185 103 1.9522898225347134E-2
185 106 2.5978856235394317E-2
185 107 1.9277241649817128E-2
185 110 2.174272952145982E-2
185 183 3.2414916075068925E-2
185 184 4.541813617241254E-1
185 186 2.6903698173457627E-2
185 187 1.429437922046486E-1
185 188 2.2074951713378743E-1
185 189 1.7276500154774987E-1
185 190 4.2367383505203846E-2
185 319 2.0076923203339703E-2
186 181 1.1138909975855338E-1
186 182 1.2987940870018164E-1
186 183 1.9776748395075944E-1
186 185 2.6903698173457627E-2
186 190 2.0176734250360023E-1
186 266 2.4475199124247282E-2
186 267 1.815940557549449E-2
186 270 2.3555923899235713E-2
186 312 1.831563888873418E-2
186 313 2.1164417062586503E-2
187 34 2.1498451859410996E-2
187 61 3.1911293017218685E-2
187 62 3.528462930040198E-2
187 67 1.69314496687949E-2
187 101 2.0406025493376945E-2
187 107 1.6307624771390684E-2
187 184 3.683535247414001E-1
187 185 1.429437922046486E-1
187 188 3.489080986872129E-1
187 189 2.713834559141344E-1
187 311 1.947930319408859E-2
187 314 1.6037480430305853E-2
187 316 1.8853127750245658E-2
187 319 1.831563888873418E-2
187 320 2.5328972348207593E-2
187 351 2.230916786929162E-2
187 355 1.831563888873418E-2
188 34 1.8855699861870193E-2
188 61 2.1555084392383888E-2
188 62 2.1597176203056494E-2
188 67 1.9263897102837265E-2
188 68 2.1761578711068142E-2
188 71 1.8441648540351123E-2
188 76 1.7506840043137684E-2
188 101 3.180644034927754E-2
188 102 1.831563888873418E-2
188 103 1.831563888873418E-2
188 104 1.831563888873418E-2
188 106 1.831563888873418E-2
188 108 1.6380051957616503E-2
188 144 1.7463985267411084E-2
188 184 2.615608784724049E-1
188 185 2.2074951713378743E-1
188 187 3.489080986872129E-1
188 189 7.597679195203529E-1
188 190 2.405415545590648E-2
188 275 1.8498155201580962E-2
188 311 2.8360141221545242E-2
188 314 2.34034107828803E-2
188 316 2.635676241130032E-2
188 318 1.831563888873418E-2
188 319 2.6820658824360234E-2
188 320 2.008648247755266E-2
188 355 1.8317413472092543E-2
189 34 1.831563888873418E-2
189 61 2.0049771240213142E-2
189 62 1.831563888873418E-2
189 67 2.076554505979045E-2
189 68 1.831563888873418E-2
189 71 2.3354881477724642E-2
189 73 1.812041525706582E-2
189 75 1.85599655661834E-2
189 76 1.8557532947090085E-2
189 101 3.224551891553648E-2
189 102 1.8236366320348054E-2
189 104 2.3878539583564697E-2
189 106 1.6771616460899117E-2
189 107 1.9470577092401003E-2
189 108 1.8799032096641764E-2
189 109 1.831563888873418E-2
189 110 1.8122736049904845E-2
189 155 1.903837904900874E-2
189 184 1.7707042256546635E-1
189 185 1.7276500154774987E-1
189 187 2.713834559141344E-1
189 188 7.597679195203529E-1
189 190 2.452044852437344E-2
189 275 1.830027376277861E-2
189 311 3.0179605786965977E-2
189 314 2.251451586559261E-2
189 316 2.825185593238329E-2
189 318 2.2500876752401446E-2
189 319 3.043718949579405E-2
189 320 2.098236284836734E-2
190 17 2.407536348346374E-2
190 20 1.831563888873418E-2
190 181 8.380995695807375E-2
190 182 1.2033995803650206E-1
190 183 3.524390642215819E-1
190 184 2.8170058706202095E-2
190 185 4.2367383505203846E-2
190 186 2.0176734250360023E-1
190 188 2.405415545590648E-2
190 189 2.452044852437344E-2
190 270 1.831563888873418E-2
190 312 2.2827284514703897E-2
190 318 1.850405993252738E-2
191 22 2.2106128739605484E-2
191 23 1.3837894526295864E-2
191 147 1.831563888873418E-2
191 192 2.4856370478916012E-1
191 193 8.360005582566667E-2
191 200 4.0710375015305764E-2
191 291 2.4085281740749906E-2
191 292 4.0698727589800324E-2
191 293 1.964749910764968E-2
191 298 1.831593712818036E-2
192 32 1.8129388365714247E-2
192 147 1.831563888873418E-2
192 150 1.8951794305440778E-2
192 191 2.4856370478916012E-1
192 193 1.7866777429235145E-1
192 200 9.68359717627457E-2
192 291 2.2025537174056684E-2
192 292 4.229218568357247E-2
192 294 1.860774194450236E-2
192 295 1.7011373562901846E-2
192 298 2.2858879368875006E-2
193 145 1.831563888873418E-2
193 147 2.864619316377385E-2
193 149 2.6215134693124663E-2
193 191 8.360005582566667E-2
193 192 1.7866777429235145E-1
193 200 2.2230373948973423E-1
193 292 2.6326783687560557E-2
193 294 1.848589821493203E-2
193 295 1.956208272808852E-2
193 298 1.698029701377893E-2
194 142 1.892587608139615E-2
194 145 2.0267185590748776E-2
194 147 1.7559182149496283E-2
194 150 2.8633356233812204E-2
194 175 2.365556645889698E-2
194 196 2.895182499666475E-1
194 197 1.831563888873418E-2
194 205 1.904276824711635E-2
194 206 1.831563888873418E-2
194 296 2.1344924395265696E-2
194 299 2.0901715089333993E-2
195 34 2.2993869493890973E-2
195 37 2.0716392576988745E-2
195 125 2.0788376108951078E-2
195 130 1.831563888873418E-2
195 142 2.0990850204115768E-2
195 145 2.0956510421170804E-2
195 150 1.776848950595412E-2
195 197 2.6091157704847967E-1
195 198 1.0528751381440143E-1
195 199 1.3588801088789554E-1
196 142 2.579989924438653E-2
196 145 2.0148255931198497E-2
196 147 2.0745497398022172E-2
196 149 1.8564056041994813E-2
196 150 2.5366981457279406E-2
196 175 2.475343054313839E-2
196 194 2.895182499666475E-1
196 203 1.4424043169852505E-2
196 206 1.9613769067561567E-2
196 299 1.831563888873418E-2
197 34 2.5597996629705678E-2
197 36 1.825730960469839E-2
197 37 2.0409123648364426E-2
197 125 2.0839680746465198E-2
197 130 1.839883640631817E-2
197 194 1.831563888873418E-2
197 195 2.6091157704847967E-1
197 198 9.741834212216897E-2
197 199 1.8313646198303385E-1
197 392 2.3033644770766817E-2
198 150 1.7867204363382017E-2
198 195 1.0528751381440143E-1
198 197 9.741834212216897E-2
198 199 1.1335902092503343E-1
198 205 2.1794962325707327E-2
198 207 1.831563888873418E-2
198 210 2.1582590201505738E-2
198 392 2.6540948027155207E-2
198 393 1.8872991495430615E-2
198 397 2.787993191651221E-2
199 36 1.884720110997792E-2
199 37 2.6927726811779455E-2
199 125 1.800266144603519E-2
199 145 2.019966925777531E-2
199 195 1.3588801088789554E-1
199 197 1.8313646198303385E-1
199 198 1.1335902092503343E-1
199 230 2.0261675625746742E-2
199 392 2.007354534670536E-2
199 397 1.831563888873418E-2
200 23 2.284432456944386E-2
200 147 2.0955930923294955E-2
200 149 2.1063637240762163E-2
200 191 4.0710375015305764E-2
200 192 9.68359717627457E-2
200 193 2.2230373948973423E-1
200 292 2.794018708738161E-2
200 294 1.831563888873418E-2
200 295 1.8447753107792834E-2
200 298 1.749182153774986E-2
201 202 6.908586410470324E-2
201 203 6.451891093887166E-2
201 204 2.4324924608162622E-2
201 205 1.8946870984068567E-2
201 209 2.8325823962437394E-2
201 292 3.138614061452488E-2
201 294 1.9898756875502403E-2
201 295 1.8948051338747964E-2
201 297 2.411715302215165E-2
201 298 2.6337141267609058E-2
201 301 1.7211332533632426E-2
201 302 2.272345730911664E-2
201 304 1.831563888873418E-2
201 306 2.688241794837068E-2
201 307 4.5546078278534075E-2
201 309 2.7995531522834714E-2
201 310 1.8793679333366873E-2
201 323 1.5154292572006596E-2
201 330 1.7871320779619622E-2
201 341 1.831563888873418E-2
201 343 2.4526299221348087E-2
201 344 1.8312827859198896E-2
201 362 1.7214127803366713E-2
201 387 1.8224805340275943E-2
201 388 1.831563888873418E-2
202 24 2.5353533048610728E-2
202 25 2.01584305468908E-2
202 112 1.769913683103346E-2
202 201 6.908586410470324E-2
202 203 1.3588605683429414E-1
202 207 2.2156115505961516E-2
202 208 5.016227521711828E-2
202 210 6.654468976917734E-2
202 283 1.474692522967612E-2
202 289 2.532546104491542E-2
202 294 1.9363276325159565E-2
202 295 3.203374720810714E-2
202 297 1.8206805625848282E-2
202 298 1.8703481096339358E-2
202 301 1.9217446987403363E-2
202 306 1.831563888873418E-2
202 307 1.831563888873418E-2
202 308 1.831563888873418E-2
202 309 1.809374679001853E-2
202 326 1.9420210803554674E-2
202 341 1.5839150027855433E-2
202 343 4.730337097994661E-2
203 112 1.831563888873418E-2
203 113 2.3805516103363927E-2
203 151 1.780893031067881E-2
203 196 1.4424043169852505E-2
203 201 6.451891093887166E-2
203 202 1.3588605683429414E-1
203 207 1.831563888873418E-2
203 208 3.519987348036493E-2
203 209 2.0018187858348177E-2
203 210 3.165631239700271E-2
203 240 8.251096360588753E-3
203 281 1.831563888873418E-2
203 283 2.856167515983512E-2
203 289 3.433454293533768E-2
203 295 2.2788827428089607E-2
203 297 1.8719751482659808E-2
203 301 1.84696914102069E-2
203 308 2.3153317819689562E-2
203 343 6.637361725774557E-2
203 381 1.9163147832013443E-2
203 383 1.831563888873418E-2
204 24 1.9102485507796453E-2
204 25 1.831563888873418E-2
204 150 2.9231089682790347E-2
204 201 2.4324924608162622E-2
204 205 8.784437806496827E-2
204 206 4.788558269937601E-2
204 207 3.0789452112653194E-2
204 208 1.831563888873418E-2
204 209 7.43734690018844E-2
204 210 2.5440518770187114E-2
204 284 2.320126150311802E-2
204 287 2.7635685001703488E-2
204 296 1.8110419643704672E-2
204 299 1.8567339210989457E-2
204 301 1.9261947280212403E-2
204 308 1.856901209377283E-2
204 309 1.831563888873418E-2
204 363 1.655961832298203E-2
205 22 2.1922005704167025E-2
205 24 1.8425246917485403E-2
205 31 1.9745284364414657E-2
205 33 1.831563888873418E-2
205 150 4.444951576895076E-2
205 194 1.904276824711635E-2
205 198 2.1794962325707327E-2
205 201 1.8946870984068567E-2
205 204 8.784437806496827E-2
205 206 3.7594726287627533E-1
205 209 1.7459505007488377E-1
205 210 1.45649674986088E-2
205 284 1.899771011710135E-2
205 287 1.7242305072248793E-2
205 291 3.284483915518736E-2
205 293 1.9989821707423118E-2
205 296 1.980250231889168E-2
205 299 1.7705678067136615E-2
205 300 1.85167955911024E-2
205 309 1.908176466874847E-2
205 346 2.78710069753247E-2
205 347 2.235748642932369E-2
205 348 2.8200190523368918E-2
205 391 2.0934237990140134E-2
205 398 1.903988478749105E-2
206 23 1.831563888873418E-2
206 32 1.831563888873418E-2
206 90 2.0574101038459712E-2
206 126 1.831563888873418E-2
206 129 2.6276867154251274E-2
206 145 1.976390063545441E-2
206 147 1.831563888873418E-2
206 149 2.0729376895446842E-2
206 150 5.9162762520547266E-2
206 194 1.831563888873418E-2
206 196 1.9613769067561567E-2
206 204 4.788558269937601E-2
206 205 3.7594726287627533E-1
206 209 1.4994259439185986E-1
206 291 2.026076908139883E-2
206 293 2.35293205394745E-2
206 300 1.7451712759476157E-2
206 346 2.641037338129309E-2
206 347 2.194572676500372E-2
206 348 2.2627408343493034E-2
206 391 3.3433190787532596E-2
207 25 2.7408823609691983E-2
207 27 1.971805339141952E-2
207 28 2.4257089170028653E-2
207 36 2.6598989120252825E-2
207 46 1.831563888873418E-2
207 48 1.831563888873418E-2
207 86 2.166273493525974E-2
207 113 3.0994297626670813E-2
207 124 2.1734187353639342E-2
207 127 4.7649361549190694E-2
207 128 6.2302687582784365E-2
207 166 2.7167604767505602E-2
207 167 1.8200747282637382E-2
207 169 2.346501344639035E-2
207 170 3.2163179901253246E-2
207 198 1.831563888873418E-2
207 202 2.2156115505961516E-2
207 203 1.831563888873418E-2
207 204 3.0789452112653194E-2
207 208 2.1799238167596954E-1
207 210 2.5688776521844636E-1
207 233 5.171982158943569E-2
207 234 2.9431223077795172E-2
207 239 2.2692439937438226E-2
207 240 2.1986018435106836E-2
207 285 2.9011593673545683E-2
207 286 2.200414122450896E-2
207 287 2.49289812179867E-2
207 288 4.2326974507176936E-2
207 301 1.831563888873418E-2
207 308 2.1905992388578783E-2
207 343 2.0711400603061078E-2
207 345 5.7782671535177015E-2
207 349 3.723901766546502E-2
207 350 4.8279335380710824E-2
207 353 2.4304797704444617E-2
208 25 2.618092639733443E-2
208 124 2.3172835188123242E-2
208 127 1.5182420909834878E-2
208 202 5.016227521711828E-2
208 203 3.519987348036493E-2
208 204 1.831563888873418E-2
208 207 2.1799238167596954E-1
208 209 2.0079480768156698E-2
208 210 1.5968380452030542E-1
208 233 5.351995185341776E-2
208 234 2.179059054312909E-2
208 239 2.085087046887835E-2
208 240 2.1256473608124368E-2
208 285 3.334700078835075E-2
208 286 3.1016883195058232E-2
208 287 2.197081251364079E-2
208 288 4.240408278359659E-2
208 343 1.8303531136610082E-2
208 345 1.831563888873418E-2
208 349 1.831563888873418E-2
209 22 1.831563888873418E-2
209 23 2.409960460414279E-2
209 24 1.7555724572925698E-2
209 39 2.924505205581867E-2
209 145 2.3563255779663873E-2
209 147 1.831563888873418E-2
209 149 2.0787563246473358E-2
209 150 4.2109955236473734E-2
209 151 1.831563888873418E-2
209 201 2.8325823962437394E-2
209 203 2.0018187858348177E-2
209 204 7.43734690018844E-2
209 205 1.7459505007488377E-1
209 206 1.4994259439185986E-1
209 208 2.0079480768156698E-2
209 284 1.831563888873418E-2
209 287 1.831563888873418E-2
209 300 1.583877543703171E-2
210 24 1.831563888873418E-2
210 25 2.9835899271070773E-2
210 113 1.675011381121637E-2
210 127 2.7177421688315488E-2
210 128 2.440376857831745E-2
210 198 2.1582590201505738E-2
210 202 6.654468976917734E-2
210 203 3.165631239700271E-2
210 204 2.5440518770187114E-2
210 205 1.45649674986088E-2
210 207 2.5688776521844636E-1
210 208 1.5968380452030542E-1
210 233 2.9383580716521744E-2
210 234 1.831563888873418E-2
210 239 1.9652592661355595E-2
210 240 1.8924351604583375E-2
210 285 2.2477082830596844E-2
210 286 1.9713790119792636E-2
210 287 2.8472896098573133E-2
210 288 2.799942145180705E-2
210 299 2.1425169227879345E-2
210 308 1.8088791422264855E-2
210 350 1.584202513332567E-2
211 212 1.5387584149312106E-1
211 213 1.0929386085121527E-1
211 214 7.849684841545061E-2
211 215 3.436683258786975E-2
211 216 4.438825237648708E-2
211 217 4.498825057951542E-2
211 218 2.8018214455095846E-2
211 219 6.732288446890808E-2
211 220 4.401401194005467E-2
211 381 1.6459136661171183E-2
212 211 1.5387584149312106E-1
212 213 9.019482567849388E-2
212 214 2.8490701260530816E-2
212 215 6.931905121636601E-2
212 216 4.0998876153970985E-2
212 217 3.426207362614421E-2
212 218 3.165540064141935E-2
212 219 6.794518186394574E-2
212 220 8.646381767955928E-2
212 334 1.831563888873418E-2
212 335 1.2717524418086209E-2
212 337 1.0703618946980752E-2
212 381 1.2718608991892675E-2
212 383 1.6549329696351013E-2
212 384 1.831563888873418E-2
213 211 1.0929386085121527E-1
213 212 9.019482567849388E-2
213 214 2.1254055438506593E-2
213 215 7.528682353236446E-2
213 216 1.831563888873418E-2
213 217 1.1121385482977776E-1
213 218 7.083364027304202E-2
213 219 8.826312767265923E-2
213 220 5.165778540828291E-2
213 368 1.792923560697497E-2
213 381 1.4959336563117539E-2
213 382 1.831563888873418E-2
214 211 7.849684841545061E-2
214 212 2.8490701260530816E-2
214 213 2.1254055438506593E-2
214 215 3.41924926112237E-2
214 216 3.1772963667772436E-2
214 217 3.387473932649483E-2
214 218 1.831563888873418E-2
214 219 4.409254493272398E-2
214 220 3.291220998797918E-2
214 381 2.541602106535845E-2
214 382 1.8361592473204538E-2
214 384 1.831563888873418E-2
215 211 3.436683258786975E-2
215 212 6.931905121636601E-2
215 213 7.528682353236446E-2
215 214 3.41924926112237E-2
215 217 1.5797270291770574E-1
215 218 1.815575212218003E-1
215 219 9.595343511815808E-2
215 220 2.0037302663705783E-1
215 381 1.831563888873418E-2
215 385 1.3380008335373228E-2
216 211 4.438825237648708E-2
216 212 4.0998876153970985E-2
216 213 1.831563888873418E-2
216 214 3.1772963667772436E-2
216 219 1.875194743315113E-2
216 381 2.5975976698924326E-2
216 382 1.7937046008881616E-2
216 383 3.5107292140800085E-2
216 384 5.210781042924681E-2
216 390 2.0281072541931774E-2
217 211 4.498825057951542E-2
217 212 3.426207362614421E-2
217 213 1.1121385482977776E-1
217 214 3.387473932649483E-2
217 215 1.5797270291770574E-1
217 218 1.46303087344132E-1
217 219 7.201890804177408E-2
217 220 5.798273622389968E-2
217 381 1.7601048294443433E-2
217 382 1.831563888873418E-2
218 211 2.8018214455095846E-2
218 212 3.165540064141935E-2
218 213 7.083364027304202E-2
218 214 1.831563888873418E-2
218 215 1.815575212218003E-1
218 217 1.46303087344132E-1
218 219 2.7753836817109073E-1
218 220 2.443919795505624E-1
218 332 1.831563888873418E-2
218 381 1.7356447449419738E-2
218 382 2.2205307860384216E-2
219 211 6.732288446890808E-2
219 212 6.794518186394574E-2
219 213 8.826312767265923E-2
219 214 4.409254493272398E-2
219 215 9.595343511815808E-2
219 216 1.875194743315113E-2
219 217 7.201890804177408E-2
219 218 2.7753836817109073E-1
219 220 2.441699872790008E-1
219 333 1.735183364297476E-2
219 340 1.826332395960413E-2
219 381 1.756065481962032E-2
219 382 3.051228787049304E-2
220 211 4.401401194005467E-2
220 212 8.646381767955928E-2
220 213 5.165778540828291E-2
220 214 3.291220998797918E-2
220 215 2.0037302663705783E-1
220 217 5.798273622389968E-2
220 218 2.443919795505624E-1
220 219 2.441699872790008E-1
220 381 1.831563888873418E-2
220 384 1.575972142413267E-2
221 29 1.831563888873418E-2
221 34 6.851145434882507E-2
221 35 3.607603770238153E-2
221 37 2.296887252178747E-2
221 50 1.831563888873418E-2
221 51 2.5438632566353047E-2
221 52 2.0352242604167674E-2
221 53 3.214064592933153E-2
221 66 1.7624724973995098E-2
221 67 2.1670260672553555E-2
221 95 1.831563888873418E-2
221 100 3.437472740849473E-2
221 154 2.1753146664311593E-2
221 155 3.354304213031153E-2
221 173 1.813932321529135E-2
221 176 3.33291512719633E-2
221 178 3.257137545487942E-2
221 179 1.909371266279737E-2
221 180 1.6393353192058785E-2
221 222 2.3806104722970813E-2
221 227 1.831563888873418E-2
221 228 3.668820617120875E-2
221 230 3.459769544799286E-2
221 257 1.3451834974350627E-1
221 395 1.831563888873418E-2
222 5 1.900078544892517E-2
222 30 4.127680862835456E-2
222 34 2.3142529659132244E-2
222 35 5.514013293276934E-2
222 40 4.963419728468391E-2
222 51 3.006693375647553E-2
222 53 1.831563888873418E-2
222 96 1.6636784585339872E-2
222 97 2.9326453144481197E-2
222 105 2.0385047051944653E-2
222 126 3.371928031923884E-2
222 171 9.147809176851708E-2
222 172 3.484202984336456E-2
222 174 2.2539318625618476E-2
222 177 3.674149595922909E-2
222 179 1.6504870443828056E-2
222 221 2.3806104722970813E-2
222 225 1.8784044188679436E-2
222 228 5.875630944638283E-1
222 250 2.2028079941817796E-2
222 257 1.7063309844725788E-2
223 81 2.893585243655974E-2
223 82 2.884530262511764E-2
223 83 2.9494081633191206E-2
223 85 1.8727709253792118E-2
223 89 4.8607255772883155E-2
223 90 3.0580090613114456E-2
223 118 2.092158958588132E-2
223 150 2.5470446714266303E-2
223 164 2.0121719556693875E-2
223 225 2.1343913849664736E-1
223 227 2.89071960428321E-1
223 228 1.9403564023096346E-2
223 241 1.896875890853386E-2
223 243 1.864336995549933E-2
223 251 1.8370033447624882E-2
223 253 4.314504800490207E-2
223 255 1.921583872872856E-2
223 258 2.371286221346426E-2
223 259 3.687469431691361E-2
223 260 1.831563888873418E-2
223 277 1.9754968084814625E-2
223 279 2.1392031763017808E-2
223 346 1.673873748157425E-2
224 64 1.831563888873418E-2
224 84 1.705569123932509E-2
224 87 3.393097609303509E-2
224 123 2.8902781060002394E-2
224 168 2.0877294244947275E-2
224 226 2.082505287231703E-1
224 227 3.029156805741919E-2
224 229 6.625496070599668E-2
224 244 2.711953675573239E-2
224 245 1.8475971665418915E-2
224 248 2.5526323768210523E-2
224 273 2.655653231724977E-2
224 280 2.449146220927037E-2
224 394 2.328543604406398E-2
224 400 1.831563888873418E-2
225 23 2.4020244073342172E-2
225 81 2.7080191392820696E-2
225 82 1.9004642418918936E-2
225 83 3.24720159543425E-2
225 90 1.831563888873418E-2
225 114 2.1223276584928095E-2
225 222 1.8784044188679436E-2
225 223 2.1343913849664736E-1
225 227 6.818307262557197E-2
225 228 2.6890756686700625E-2
225 241 2.9954686117774566E-2
225 242 2.7028770574955757E-2
225 243 2.2613858090951303E-2
225 246 2.3070523262791312E-2
225 249 1.7606345706696412E-2
225 250 3.355530087858043E-2
225 255 1.831563888873418E-2
225 258 2.3496233486831754E-2
225 259 2.5364277247627954E-2
225 260 3.244955845078801E-2
225 279 1.831563888873418E-2
225 346 1.9923052022295537E-2
225 347 1.908768209428774E-2
226 37 1.831563888873418E-2
226 47 2.285015413271119E-2
226 64 2.2311442072766134E-2
226 86 2.0467804131181846E-2
226 87 4.055215948629161E-2
226 123 3.129792507754629E-2
226 124 1.8415950792808042E-2
226 168 1.9917958928385427E-2
226 224 2.082505287231703E-1
226 227 4.964772749791207E-2
226 229 6.616755751453408E-2
226 230 4.21050149036492E-2
226 248 3.55666596177721E-2
226 252 1.868106734800639E-2
226 257 1.831563888873418E-2
226 273 2.2488079331392227E-2
226 280 2.3212318234943508E-2
226 394 3.3544995990455816E-2
226 400 2.4692218503979006E-2
227 81 1.99096990077209E-2
227 84 4.174935226905143E-2
227 85 3.490629154354987E-2
227 86 1.831563888873418E-2
227 88 2.50187650573944E-2
227 89 5.041118356294254E-2
227 113 1.831563888873418E-2
227 114 1.588763448915916E-2
227 138 1.831563888873418E-2
227 150 1.831563888873418E-2
227 163 1.7043031601309405E-2
227 221 1.831563888873418E-2
227 223 2.89071960428321E-1
227 224 3.029156805741919E-2
227 225 6.818307262557197E-2
227 226 4.964772749791207E-2
227 247 1.831563888873418E-2
227 251 1.8353275993778527E-2
227 252 2.6286875429496915E-2
227 253 3.649165556705124E-2
227 257 2.078449381126552E-2
227 259 3.3052869409967316E-2
227 267 1.829960773142951E-2
227 277 1.6276310364434866E-2
228 29 2.7684374609165268E-2
228 30 5.194105634833055E-2
228 34 3.6347949711105186E-2
228 35 4.8696872962021666E-2
228 40 4.163568748790679E-2
228 51 2.71802171994349E-2
228 53 1.9148230860659574E-2
228 90 2.3792112030292384E-2
228 97 2.3717375508636715E-2
228 105 1.831563888873418E-2
228 119 1.831563888873418E-2
228 126 3.0384273624381283E-2
228 129 1.831563888873418E-2
228 171 6.65357338524731E-2
228 172 3.881946911929853E-2
228 174 2.950923969229579E-2
228 177 2.8030090907055136E-2
228 221 3.668820617120875E-2
228 222 5.875630944638283E-1
228 223 1.9403564023096346E-2
228 225 2.6890756686700625E-2
228 241 1.930472573859471E-2
228 243 2.0365313537094087E-2
228 250 1.831563888873418E-2
228 257 2.307751136183257E-2
228 278 1.9074031909058473E-2
229 45 2.430436019154473E-2
229 46 1.7235348794865702E-2
229 57 1.1998185332474877E-2
229 59 1.733968715117153E-2
229 87 1.831563888873418E-2
229 99 2.7915928336809944E-2
229 123 2.8626294710737382E-2
229 180 2.003555648049757E-2
229 224 6.625496070599668E-2
229 226 6.616755751453408E-2
229 230 7.272689189690926E-2
229 248 2.085095297021598E-2
229 280 2.7700596065999426E-2
229 397 1.8893392375237104E-2
230 8 3.088665464479947E-2
230 36 4.752308124116961E-2
230 37 2.3092628585504038E-2
230 50 1.6315502661308802E-2
230 55 1.1542227169519095E-2
230 63 2.515361756096159E-2
230 64 1.992904628752872E-2
230 66 2.8355083158818455E-2
230 69 2.3923716290871318E-2
230 79 1.728272824646624E-2
230 88 1.754621479279205E-2
230 99 1.7442252499659087E-2
230 116 5.6873357384101195E-2
230 123 1.6068564177055187E-2
230 128 2.0973956580418812E-2
230 173 2.9459392676725624E-2
230 176 4.4851254659451154E-2
230 178 2.1838075433900407E-2
230 180 8.380768157375007E-2
230 199 2.0261675625746742E-2
230 221 3.459769544799286E-2
230 226 4.21050149036492E-2
230 229 7.272689189690926E-2
230 257 3.0742011300392672E-2
230 371 1.8247757368980995E-2
230 397 2.5465681996696233E-2
231 11 1.7339192242385955E-2
231 142 1.8577146955867156E-2
231 147 1.5590933153252716E-2
231 149 1.831563888873418E-2
231 151 4.79765012458409E-2
231 152 2.2738877347779136E-2
231 156 3.751590186139652E-2
231 159 3.0840618141160688E-2
231 232 4.424911362257379E-1
231 234 1.6285252135312903E-2
231 235 4.2142308618125346E-2
231 236 6.495292731313389E-2
231 237 2.1776656859799726E-1
231 238 1.1279959758097435E-1
231 239 1.4686281823164426E-2
232 142 1.9946347390448885E-2
232 145 1.831563888873418E-2
232 149 1.9772501771965604E-2
232 151 2.7780825243274118E-2
232 152 2.4364422904696217E-2
232 153 1.5447723400674912E-2
232 156 2.335113883066816E-2
232 159 1.9473568024574943E-2
232 231 4.424911362257379E-1
232 235 3.3106507074599785E-2
232 236 1.1466496309957604E-1
232 237 2.388820264644199E-1
232 238 1.317031462369668E-1
232 357 1.831563888873418E-2
233 170 1.831563888873418E-2
233 207 5.171982158943569E-2
233 208 5.351995185341776E-2
233 210 2.9383580716521744E-2
233 234 2.623987001083448E-1
233 236 3.39400423200886E-2
233 237 1.809975797746445E-2
233 239 2.7485850667532336E-1
233 240 2.8363201633115076E-1
233 288 4.0302727720278E-2
234 207 2.9431223077795172E-2
234 208 2.179059054312909E-2
234 210 1.831563888873418E-2
234 231 1.6285252135312903E-2
234 233 2.623987001083448E-1
234 236 3.507875468222379E-2
234 237 3.410884423972902E-2
234 239 3.983492832677161E-1
234 240 3.437007405576328E-1
234 288 2.236886408481764E-2
235 92 1.5561468375268294E-2
235 147 1.831563888873418E-2
235 231 4.2142308618125346E-2
235 232 3.3106507074599785E-2
235 237 1.9542140722356063E-2
235 242 2.1937230923302745E-2
235 246 2.7398923524891174E-2
235 249 2.578511919301526E-2
235 292 2.919184767708828E-2
235 293 2.0196409444959932E-2
236 158 3.502252659926777E-2
236 231 6.495292731313389E-2
236 232 1.1466496309957604E-1
236 233 3.39400423200886E-2
236 234 3.507875468222379E-2
236 237 1.792500268689286E-1
236 238 1.6515063075101719E-1
236 239 3.246081596374822E-2
236 240 2.9059344793173868E-2
236 352 2.577040983769366E-2
236 356 1.831563888873418E-2
236 357 4.0641678163340536E-2
237 142 2.2873078642596044E-2
237 145 1.894911074638852E-2
237 151 3.5217435806839475E-2
237 152 1.831563888873418E-2
237 156 2.4745506900907606E-2
237 158 2.0990178455283337E-2
237 159 2.9017711904999383E-2
237 231 2.1776656859799726E-1
237 232 2.388820264644199E-1
237 233 1.809975797746445E-2
237 234 3.410884423972902E-2
237 235 1.9542140722356063E-2
237 236 1.792500268689286E-1
237 238 2.4141560867741563E-1
237 239 2.6886691745102168E-2
237 240 1.9654903313238634E-2
237 352 3.447132088408407E-2
237 353 2.0809555126235245E-2
237 356 2.9899113014030095E-2
237 357 6.602898717154432E-2
237 358 1.7250850071389386E-2
238 142 2.1594321267360342E-2
238 143 1.831563888873418E-2
238 145 1.764341213250763E-2
238 156 1.3504518488696885E-2
238 158 1.7553957677879463E-2
238 231 1.1279959758097435E-1
238 232 1.317031462369668E-1
238 236 1.6515063075101719E-1
238 237 2.4141560867741563E-1
238 352 4.105774674150184E-2
238 356 3.5001359250265575E-2
238 357 7.862533726711436E-2
239 207 2.2692439937438226E-2
239 208 2.085087046887835E-2
239 210 1.9652592661355595E-2
239 231 1.4686281823164426E-2
239 233 2.7485850667532336E-1
239 234 3.983492832677161E-1
239 236 3.246081596374822E-2
239 237 2.6886691745102168E-2
239 240 7.936890278168228E-1
239 288 1.831563888873418E-2
240 203 8.251096360588753E-3
240 207 2.1986018435106836E-2
240 208 2.1256473608124368E-2
240 210 1.8924351604583375E-2
240 233 2.8363201633115076E-1
240 234 3.437007405576328E-1
240 236 2.9059344793173868E-2
240 237 1.9654903313238634E-2
240 239 7.936890278168228E-1
240 288 1.831563888873418E-2
241 51 2.021853636828187E-2
241 52 2.1087395546006703E-2
241 150 1.831563888873418E-2
241 164 1.8843660794014033E-2
241 223 1.896875890853386E-2
241 225 2.9954686117774566E-2
241 228 1.930472573859471E-2
241 242 1.9581284920915445E-2
241 243 5.846466705969766E-1
241 244 1.699230704714583E-2
241 245 1.786000668682942E-2
241 246 9.925353574210602E-2
241 247 3.600861590019372E-1
241 249 9.059713977725406E-2
241 250 3.277347966738236E-1
241 260 1.8720101262497527E-2
242 74 2.2538115173049048E-2
242 94 3.264135558185429E-2
242 122 2.120671462602244E-2
242 225 2.7028770574955757E-2
242 235 2.1937230923302745E-2
242 241 1.9581284920915445E-2
242 243 2.283888566110246E-2
242 244 1.597224709828702E-2
242 246 2.334988140582083E-1
242 249 4.139981100688024E-2
242 250 5.989974257485207E-2
242 260 2.65396111875566E-2
242 293 1.831563888873418E-2
243 29 1.8293927480945743E-2
243 51 1.8737151122012057E-2
243 52 1.8409990097897615E-2
243 91 2.0391660968410316E-2
243 92 1.8077452031854332E-2
243 122 1.4981739007475986E-2
243 150 2.0870046032312885E-2
243 164 1.8493452992949386E-2
243 223 1.864336995549933E-2
243 225 2.2613858090951303E-2
243 228 2.0365313537094087E-2
243 241 5.846466705969766E-1
243 242 2.283888566110246E-2
243 244 2.161438000380185E-2
243 245 1.831563888873418E-2
243 246 9.657222155524905E-2
243 247 3.4121801949422736E-1
243 249 6.423607887677844E-2
243 250 2.562563212362332E-1
243 260 2.229386760934375E-2
243 263 1.7641890864117448E-2
243 264 1.631515864638074E-2
243 268 1.74584927613868E-2
244 40 1.693569812464237E-2
244 91 2.1720178573130005E-2
244 105 2.00774927126172E-2
244 141 1.1237400450142583E-2
244 143 9.00553042512173E-3
244 144 2.000332816912218E-2
244 146 1.5454189609194967E-2
244 147 2.347835394891388E-2
244 148 1.3526032841446734E-2
244 149 1.831563888873418E-2
244 150 2.2093378975369758E-2
244 224 2.711953675573239E-2
244 241 1.699230704714583E-2
244 242 1.597224709828702E-2
244 243 2.161438000380185E-2
244 245 1.0500341925168225E-1
244 246 5.642619024660316E-2
244 249 7.757237890407975E-2
245 33 1.9191050185515368E-2
245 38 1.786406505443999E-2
245 41 2.4731265977979602E-2
245 44 2.2947302105399595E-2
245 47 2.2170633712897177E-2
245 121 1.467502301352425E-2
245 137 2.6772737218388624E-2
245 150 2.0504681341136404E-2
245 181 1.831563888873418E-2
245 224 1.8475971665418915E-2
245 241 1.786000668682942E-2
245 243 1.831563888873418E-2
245 244 1.0500341925168225E-1
245 247 2.5663418549756435E-2
245 248 7.73430025648417E-2
245 249 3.766904829227963E-2
245 343 1.831563888873418E-2
245 394 3.4861600473287256E-2
245 400 3.175655194982882E-2
246 40 2.3456508699033853E-2
246 74 1.7242642787849982E-2
246 93 1.831563888873418E-2
246 94 1.831563888873418E-2
246 122 2.9856066459506076E-2
246 136 1.831563888873418E-2
246 139 2.269524871926199E-2
246 164 1.831563888873418E-2
246 225 2.3070523262791312E-2
246 235 2.7398923524891174E-2
246 241 9.925353574210602E-2
246 242 2.334988140582083E-1
246 243 9.657222155524905E-2
246 244 5.642619024660316E-2
246 247 3.1546383125950664E-2
246 249 1.7782660116759214E-1
246 250 1.4435097257084323E-1
246 260 3.8997018276130266E-2
246 265 1.878865578096395E-2
246 305 1.831563888873418E-2
246 311 1.831563888873418E-2
246 317 1.9795232593108805E-2
247 29 2.0108910415713534E-2
247 41 2.470618536434268E-2
247 44 2.029619267253713E-2
247 51 1.831563888873418E-2
247 52 2.0547076174539255E-2
247 62 1.964166331683974E-2
247 134 1.8335877060951602E-2
247 137 1.8147970417306758E-2
247 140 1.3095721324187716E-2
247 150 1.863618989806481E-2
247 163 2.089214649580662E-2
247 227 1.831563888873418E-2
247 241 3.600861590019372E-1
247 243 3.4121801949422736E-1
247 245 2.5663418549756435E-2
247 246 3.1546383125950664E-2
247 249 8.022660247436757E-2
247 250 8.479496728995425E-2
247 259 1.812590584890813E-2
247 267 1.831563888873418E-2
247 315 1.7927448416337532E-2
248 45 1.8558285805242013E-2
248 47 2.845706197743876E-2
248 87 2.590734409584262E-2
248 99 2.8769791855242796E-2
248 124 3.855708478500321E-2
248 166 1.7706717955725187E-2
248 169 1.6708633430851043E-2
248 224 2.5526323768210523E-2
248 226 3.55666596177721E-2
248 229 2.085095297021598E-2
248 245 7.73430025648417E-2
248 349 1.7175894792777188E-2
248 394 3.151056045075753E-2
248 400 3.2714290900813146E-2
249 23 1.9231011733637733E-2
249 42 2.956779592884209E-2
249 92 2.146127205660632E-2
249 122 1.831563888873418E-2
249 131 1.831563888873418E-2
249 132 2.1894410015052594E-2
249 133 2.5841674027628908E-2
249 136 2.634685018668738E-2
249 137 1.842028520167712E-2
249 139 3.242545454566141E-2
249 140 1.831563888873418E-2
249 163 3.063748039050288E-2
249 164 2.486555335341294E-2
249 225 1.7606345706696412E-2
249 235 2.578511919301526E-2
249 241 9.059713977725406E-2
249 242 4.139981100688024E-2
249 243 6.423607887677844E-2
249 244 7.757237890407975E-2
249 245 3.766904829227963E-2
249 246 1.7782660116759214E-1
249 247 8.022660247436757E-2
249 250 6.497007815522739E-2
249 255 1.5517991386934596E-2
249 260 2.9121768923022717E-2
249 261 1.9928511552536735E-2
249 262 1.3982401640146106E-2
249 263 1.831563888873418E-2
249 264 1.831563888873418E-2
249 267 2.299974749173576E-2
249 268 1.945390973648973E-2
249 269 1.7167917876472524E-2
249 270 1.831563888873418E-2
249 313 2.0737667147117875E-2
249 315 2.379590775674333E-2
249 373 2.932263162487963E-2
249 375 1.4656291200879284E-2
249 377 2.612021378002827E-2
250 23 1.8325417253982974E-2
250 30 1.814039850238176E-2
250 35 2.0499104515129207E-2
250 40 1.835337204786753E-2
250 77 1.831563888873418E-2
250 92 1.9186661894986287E-2
250 93 2.3186856154579837E-2
250 94 1.9296995367209982E-2
250 97 1.9617924674962386E-2
250 164 1.765658068206396E-2
250 222 2.2028079941817796E-2
250 225 3.355530087858043E-2
250 228 1.831563888873418E-2
250 241 3.277347966738236E-1
250 242 5.989974257485207E-2
250 243 2.562563212362332E-1
250 246 1.4435097257084323E-1
250 247 8.479496728995425E-2
250 249 6.497007815522739E-2
250 260 2.7486751210772636E-2
250 378 2.0778314415196744E-2
251 163 2.0121535498484007E-2
251 182 1.831563888873418E-2
251 223 1.8370033447624882E-2
251 227 1.8353275993778527E-2
251 252 1.2573418797875474E-1
251 253 3.806867427446686E-2
251 254 5.748948833728697E-2
251 256 1.2026534445019736E-1
251 258 4.602057233075133E-2
251 259 1.3467727065819782E-1
251 272 2.353381026406405E-2
251 362 4.536679614261813E-2
251 364 3.691941050203774E-2
251 365 4.3504910381406206E-2
251 366 4.564154067724743E-2
251 367 2.7512659769217088E-2
251 368 2.5660678836025925E-2
251 369 1.7474308690630325E-2
251 370 1.753599148195354E-2
251 372 1.630628937336666E-2
252 26 1.6060627844634183E-2
252 41 1.7125126682119837E-2
252 181 2.881968438398657E-2
252 182 2.257396956249979E-2
252 183 1.4529714848586596E-2
252 226 1.868106734800639E-2
252 227 2.6286875429496915E-2
252 251 1.2573418797875474E-1
252 253 1.831563888873418E-2
252 256 4.96490366170926E-2
252 259 8.690476917816943E-2
252 361 2.0068209256890762E-2
252 363 1.831563888873418E-2
252 366 2.0132409936852922E-2
252 367 1.7580748075244287E-2
252 369 2.381389464790243E-2
252 373 1.937066479473443E-2
252 376 2.353496612999261E-2
252 380 3.154255258686436E-2
253 21 1.793908922685595E-2
253 135 2.078906291287867E-2
253 137 2.2437072123331507E-2
253 163 1.831563888873418E-2
253 223 4.314504800490207E-2
253 227 3.649165556705124E-2
253 251 3.806867427446686E-2
253 252 1.831563888873418E-2
253 254 2.6397101852882215E-2
253 255 3.755571550040314E-2
253 256 2.8920036809586862E-2
253 258 2.6215754271112692E-2
253 259 5.087203599110906E-2
253 260 2.092797483213749E-2
253 271 2.3128032960104645E-2
253 276 2.4698703577189497E-2
253 277 1.867960396530796E-2
253 279 2.342185743496639E-2
253 364 1.7711574700778304E-2
253 365 1.831563888873418E-2
253 377 1.831563888873418E-2
254 21 4.746189507862504E-2
254 22 2.659576702136942E-2
254 42 1.831563888873418E-2
254 43 1.681993127019745E-2
254 251 5.748948833728697E-2
254 253 2.6397101852882215E-2
254 255 3.264216781798541E-1
254 258 1.6301993343314233E-1
254 259 2.9751713496812885E-2
254 260 2.7332873379289697E-2
254 362 3.376864194067979E-2
254 364 2.6692541972973813E-2
254 365 3.310459823228471E-2
254 366 2.8547944267876976E-2
254 368 2.9707526838826454E-2
255 21 2.179062264004378E-2
255 22 3.1171693912798868E-2
255 23 2.4571400770451272E-2
255 94 1.6479542345913287E-2
255 132 1.8188501396709664E-2
255 223 1.921583872872856E-2
255 225 1.831563888873418E-2
255 249 1.5517991386934596E-2
255 253 3.755571550040314E-2
255 254 3.264216781798541E-1
255 258 8.657141476682648E-2
255 260 4.5818107667823856E-2
255 279 2.5674959633289342E-2
255 362 2.564276205858174E-2
255 364 2.3430747801739336E-2
255 365 2.793194261141419E-2
255 366 1.7667698785410604E-2
256 24 2.3642648328244177E-2
256 26 9.277731073107037E-2
256 28 1.570954054537583E-2
256 162 1.921834034367468E-2
256 163 1.831563888873418E-2
256 251 1.2026534445019736E-1
256 252 4.96490366170926E-2
256 253 2.8920036809586862E-2
256 258 2.2021675649438834E-2
256 259 7.646488844638306E-2
256 272 1.9127888640819563E-2
256 367 1.94632730839018E-2
256 369 3.0173482562305846E-2
257 34 4.322980585820963E-2
257 37 2.1901082084247986E-2
257 67 1.831563888873418E-2
257 155 1.973404129924788E-2
257 168 1.8152880068839597E-2
257 176 1.971382124724878E-2
257 178 1.9493547009243842E-2
257 221 1.3451834974350627E-1
257 222 1.7063309844725788E-2
257 226 1.831563888873418E-2
257 227 2.078449381126552E-2
257 228 2.307751136183257E-2
257 230 3.0742011300392672E-2
257 273 1.758649841742375E-2
257 274 3.0905779172122567E-2
258 21 1.831563888873418E-2
258 22 2.31996886270393E-2
258 132 1.831563888873418E-2
258 163 1.944333222338336E-2
258 164 2.544387656030914E-2
258 223 2.371286221346426E-2
258 225 2.3496233486831754E-2
258 251 4.602057233075133E-2
258 253 2.6215754271112692E-2
258 254 1.6301993343314233E-1
258 255 8.657141476682648E-2
258 256 2.2021675649438834E-2
258 259 3.4745184913117476E-2
258 260 8.729325175470039E-2
258 272 2.707248721275984E-2
259 26 2.2741395643057168E-2
259 89 1.831563888873418E-2
259 112 2.8273575514988117E-2
259 115 2.6920635249671556E-2
259 117 1.831563888873418E-2
259 118 3.705351678027721E-2
259 120 2.4762949163216648E-2
259 138 1.742101559969068E-2
259 161 1.982076818588472E-2
259 162 2.8448350332950612E-2
259 163 2.0179982779369637E-2
259 223 3.687469431691361E-2
259 225 2.5364277247627954E-2
259 227 3.3052869409967316E-2
259 247 1.812590584890813E-2
259 251 1.3467727065819782E-1
259 252 8.690476917816943E-2
259 253 5.087203599110906E-2
259 254 2.9751713496812885E-2
259 256 7.646488844638306E-2
259 258 3.4745184913117476E-2
259 272 3.3656646423787455E-2
259 275 2.1555697677803055E-2
259 279 3.023695683793695E-2
259 361 1.868328057515451E-2
259 363 1.9411221704369316E-2
259 367 2.036125713056152E-2
259 369 2.7166153952147255E-2
260 136 1.6037471620119478E-2
260 223 1.831563888873418E-2
260 225 3.244955845078801E-2
260 241 1.8720101262497527E-2
260 242 2.65396111875566E-2
260 243 2.229386760934375E-2
260 246 3.8997018276130266E-2
260 249 2.9121768923022717E-2
260 250 2.7486751210772636E-2
260 253 2.092797483213749E-2
260 254 2.7332873379289697E-2
260 255 4.5818107667823856E-2
260 258 8.729325175470039E-2
261 114 1.912246201868434E-2
261 131 1.854601038456038E-2
261 135 1.639715874185249E-2
261 249 1.9928511552536735E-2
261 262 2.5320260422074626E-2
261 263 9.380699250786127E-2
261 264 7.8255552268264E-2
261 265 4.788205303489084E-2
261 267 9.79943796224372E-2
261 268 3.297486915240553E-1
261 270 1.3026138530236545E-1
262 249 1.3982401640146106E-2
262 261 2.5320260422074626E-2
262 263 1.2424549096079521E-1
262 264 4.631702060706482E-2
262 265 3.941326438968331E-2
262 266 3.463707301119327E-2
262 267 1.0358548137769946E-1
262 268 4.1821937498252776E-2
262 269 1.0288965908017132E-1
262 270 5.129521449651561E-2
263 17 1.8092508585379617E-2
263 243 1.7641890864117448E-2
263 249 1.831563888873418E-2
263 261 9.380699250786127E-2
263 262 1.2424549096079521E-1
263 264 1.2190993984547212E-1
263 265 1.1014430603994965E-1
263 266 3.773062144459295E-2
263 267 1.5349227251094538E-1
263 268 2.1532986861123699E-1
263 269 3.9486476164148444E-2
263 270 2.2842711796618068E-1
264 243 1.631515864638074E-2
264 249 1.831563888873418E-2
264 261 7.8255552268264E-2
264 262 4.631702060706482E-2
264 263 1.2190993984547212E-1
264 265 4.34193938720958E-2
264 266 6.311447449029192E-2
264 267 9.604599426996825E-2
264 268 1.6173650657383346E-1
264 269 2.3316219618889765E-2
264 270 1.2115607681426592E-1
265 246 1.878865578096395E-2
265 261 4.788205303489084E-2
265 262 3.941326438968331E-2
265 263 1.1014430603994965E-1
265 264 4.34193938720958E-2
265 266 1.831563888873418E-2
265 267 1.905588687228974E-2
265 268 9.468579794666752E-2
265 269 2.9786665754217047E-2
265 270 6.643869522318356E-2
266 17 2.3467729788350152E-2
266 132 1.9903505503143175E-2
266 186 2.4475199124247282E-2
266 262 3.463707301119327E-2
266 263 3.773062144459295E-2
266 264 6.311447449029192E-2
266 265 1.831563888873418E-2
266 267 3.8771243770570604E-2
266 268 2.0911847845357705E-2
266 269 6.73927533082477E-2
266 270 2.79856612279357E-2
266 312 1.5857824947217113E-2
266 313 2.1517489833032276E-2
267 183 1.831563888873418E-2
267 186 1.815940557549449E-2
267 227 1.829960773142951E-2
267 247 1.831563888873418E-2
267 249 2.299974749173576E-2
267 261 9.79943796224372E-2
267 262 1.0358548137769946E-1
267 263 1.5349227251094538E-1
267 264 9.604599426996825E-2
267 265 1.905588687228974E-2
267 266 3.8771243770570604E-2
267 268 9.217553221228812E-2
267 269 2.8047545339540937E-2
267 270 6.473194746441607E-2
267 313 1.971086090691504E-2
267 315 1.831563888873418E-2
268 131 1.831563888873418E-2
268 243 1.74584927613868E-2
268 249 1.945390973648973E-2
268 261 3.297486915240553E-1
268 262 4.1821937498252776E-2
268 263 2.1532986861123699E-1
268 264 1.6173650657383346E-1
268 265 9.468579794666752E-2
268 266 2.0911847845357705E-2
268 267 9.217553221228812E-2
268 269 1.8419211657329564E-2
268 270 2.8799897404965774E-1
269 132 2.0735617418005545E-2
269 249 1.7167917876472524E-2
269 262 1.0288965908017132E-1
269 263 3.9486476164148444E-2
269 264 2.3316219618889765E-2
269 265 2.9786665754217047E-2
269 266 6.73927533082477E-2
269 267 2.8047545339540937E-2
269 268 1.8419211657329564E-2
269 270 1.831563888873418E-2
270 17 1.831563888873418E-2
270 121 1.64885758026792E-2
270 186 2.3555923899235713E-2
270 190 1.831563888873418E-2
270 249 1.831563888873418E-2
270 261 1.3026138530236545E-1
270 262 5.129521449651561E-2
270 263 2.2842711796618068E-1
270 264 1.2115607681426592E-1
270 265 6.643869522318356E-2
270 266 2.79856612279357E-2
270 267 6.473194746441607E-2
270 268 2.8799897404965774E-1
270 269 1.831563888873418E-2
271 29 1.831563888873418E-2
271 34 1.8560475868712383E-2
271 125 2.3470868941569342E-2
271 130 1.8569231907431365E-2
271 149 1.7847470272356513E-2
271 253 2.3128032960104645E-2
271 272 1.8084737215587343E-2
271 273 1.0542377774816307E-1
271 274 2.3351975457793307E-2
271 275 3.618612438369932E-2
271 276 8.072247180528698E-1
271 277 4.82739846316528E-2
271 278 1.2305578266397382E-1
271 280 2.9263339494264726E-2
272 163 1.884394882543437E-2
272 251 2.353381026406405E-2
272 256 1.9127888640819563E-2
272 258 2.707248721275984E-2
272 259 3.3656646423787455E-2
272 271 1.8084737215587343E-2
272 275 1.5379262840023988E-1
272 276 1.831563888873418E-2
272 277 5.026572240084628E-2
272 279 7.659719989396452E-2
273 123 3.9693138023073685E-2
273 124 1.831563888873418E-2
273 224 2.655653231724977E-2
273 226 2.2488079331392227E-2
273 257 1.758649841742375E-2
273 271 1.0542377774816307E-1
273 274 3.8271175310681006E-2
273 276 1.1500848732269038E-1
273 278 1.877998558376573E-2
273 280 1.7646487483723158E-1
274 101 1.9546656124975734E-2
274 104 1.831563888873418E-2
274 109 1.739305776146633E-2
274 257 3.0905779172122567E-2
274 271 2.3351975457793307E-2
274 273 3.8271175310681006E-2
274 275 5.810834610328556E-2
274 276 2.5900595584798784E-2
274 277 3.167201853692107E-2
274 280 2.2607891641822767E-2
275 101 1.831563888873418E-2
275 188 1.8498155201580962E-2
275 189 1.830027376277861E-2
275 259 2.1555697677803055E-2
275 271 3.618612438369932E-2
275 272 1.5379262840023988E-1
275 274 5.810834610328556E-2
275 276 3.598982128088774E-2
275 277 2.6160879954128385E-1
275 279 9.298680781241522E-2
276 34 1.8877833301766813E-2
276 122 1.831563888873418E-2
276 125 2.1932270368352443E-2
276 149 1.7947113420576692E-2
276 253 2.4698703577189497E-2
276 271 8.072247180528698E-1
276 272 1.831563888873418E-2
276 273 1.1500848732269038E-1
276 274 2.5900595584798784E-2
276 275 3.598982128088774E-2
276 277 3.91641710326688E-2
276 278 1.4319766626502317E-1
276 280 3.041723553731181E-2
277 223 1.9754968084814625E-2
277 227 1.6276310364434866E-2
277 253 1.867960396530796E-2
277 271 4.82739846316528E-2
277 272 5.026572240084628E-2
277 274 3.167201853692107E-2
277 275 2.6160879954128385E-1
277 276 3.91641710326688E-2
277 278 1.831563888873418E-2
277 279 9.580169895176549E-2
278 23 2.6488008239058253E-2
278 30 1.831563888873418E-2
278 32 2.1264210659931435E-2
278 35 2.1387355096371574E-2
278 40 1.908432672020062E-2
278 126 2.129433937319521E-2
278 228 1.9074031909058473E-2
278 271 1.2305578266397382E-1
278 273 1.877998558376573E-2
278 276 1.4319766626502317E-1
278 277 1.831563888873418E-2
278 279 2.378768915574025E-2
279 90 1.6582270248409414E-2
279 223 2.1392031763017808E-2
279 225 1.831563888873418E-2
279 253 2.342185743496639E-2
279 255 2.5674959633289342E-2
279 259 3.023695683793695E-2
279 272 7.659719989396452E-2
279 275 9.298680781241522E-2
279 277 9.580169895176549E-2
279 278 2.378768915574025E-2
280 123 2.6152812079729474E-2
280 124 1.831563888873418E-2
280 128 1.5304471902661938E-2
280 224 2.449146220927037E-2
280 226 2.3212318234943508E-2
280 229 2.7700596065999426E-2
280 271 2.9263339494264726E-2
280 273 1.7646487483723158E-1
280 274 2.2607891641822767E-2
280 276 3.041723553731181E-2
281 203 1.831563888873418E-2
281 282 1.3108235092200565E-1
281 283 7.23482591771599E-2
281 284 6.116012545719064E-2
281 287 3.4065230484306874E-2
281 289 5.627923866301032E-2
281 290 2.3275643276079813E-1
281 321 2.1421013203474757E-2
281 322 1.6098808305582905E-2
281 323 1.831563888873418E-2
281 324 1.831563888873418E-2
281 381 2.96233357772751E-2
281 383 3.646779385902742E-2
281 384 2.6239383012930315E-2
281 385 1.831563888873418E-2
281 386 1.831563888873418E-2
281 389 1.831563888873418E-2
281 390 2.4121253826003823E-2
282 281 1.3108235092200565E-1
282 283 2.8971067115451627E-2
282 284 2.6055014249531466E-2
282 289 1.831563888873418E-2
282 290 1.5513578496004873E-1
282 324 1.728825461552951E-2
282 381 4.728435732040992E-2
282 382 3.05636297025002E-2
282 384 1.831563888873418E-2
282 385 2.633260518298746E-2
282 387 2.791609913611096E-2
282 388 2.5563811949218584E-2
282 389 3.839983518036516E-2
283 202 1.474692522967612E-2
283 203 2.856167515983512E-2
283 281 7.23482591771599E-2
283 282 2.8971067115451627E-2
283 284 1.764513427908706E-2
283 288 3.6162294398279476E-2
283 289 1.617865647196894E-1
283 290 4.706336824798021E-2
283 381 2.3324965563503757E-2
283 383 3.5482666087395254E-2
283 384 2.9900772987751848E-2
284 204 2.320126150311802E-2
284 205 1.899771011710135E-2
284 209 1.831563888873418E-2
284 281 6.116012545719064E-2
284 282 2.6055014249531466E-2
284 283 1.764513427908706E-2
284 285 6.481963349459571E-2
284 286 5.744083045621349E-2
284 287 1.999444442435547E-1
284 290 3.2468755267256025E-2
284 361 1.9537140682742975E-2
284 363 1.9179078807068064E-2
284 367 1.831563888873418E-2
284 370 3.3510585112047686E-2
285 145 1.831563888873418E-2
285 149 1.374810696998257E-2
285 207 2.9011593673545683E-2
285 208 3.334700078835075E-2
285 210 2.2477082830596844E-2
285 284 6.481963349459571E-2
285 286 1.6484098949037335E-1
285 287 1.0540674159640742E-1
285 288 7.701086857022969E-2
285 290 3.1706569987996445E-2
286 145 2.3850115654293375E-2
286 149 1.704917580511125E-2
286 207 2.200414122450896E-2
286 208 3.1016883195058232E-2
286 210 1.9713790119792636E-2
286 284 5.744083045621349E-2
286 285 1.6484098949037335E-1
286 287 2.3685697827142657E-1
286 288 1.831563888873418E-2
286 290 2.4275832562307184E-2
287 24 2.236549186402337E-2
287 25 2.360442270230633E-2
287 204 2.7635685001703488E-2
287 205 1.7242305072248793E-2
287 207 2.49289812179867E-2
287 208 2.197081251364079E-2
287 209 1.831563888873418E-2
287 210 2.8472896098573133E-2
287 281 3.4065230484306874E-2
287 284 1.999444442435547E-1
287 285 1.0540674159640742E-1
287 286 2.3685697827142657E-1
287 288 1.914485062263035E-2
287 361 1.850290750624967E-2
287 363 2.3119010960401122E-2
287 369 1.831563888873418E-2
287 370 2.8377879173260203E-2
288 127 3.6001465228518485E-2
288 207 4.2326974507176936E-2
288 208 4.240408278359659E-2
288 210 2.799942145180705E-2
288 233 4.0302727720278E-2
288 234 2.236886408481764E-2
288 239 1.831563888873418E-2
288 240 1.831563888873418E-2
288 283 3.6162294398279476E-2
288 285 7.701086857022969E-2
288 286 1.831563888873418E-2
288 287 1.914485062263035E-2
289 202 2.532546104491542E-2
289 203 3.433454293533768E-2
289 281 5.627923866301032E-2
289 282 1.831563888873418E-2
289 283 1.617865647196894E-1
289 290 3.3017852317809966E-2
289 321 1.831563888873418E-2
289 381 1.6352482450778694E-2
289 383 4.7718886818510914E-2
289 384 4.4563921295417516E-2
289 390 2.017983311726502E-2
290 281 2.3275643276079813E-1
290 282 1.5513578496004873E-1
290 283 4.706336824798021E-2
290 284 3.2468755267256025E-2
290 285 3.1706569987996445E-2
290 286 2.4275832562307184E-2
290 289 3.3017852317809966E-2
290 381 2.9262781520115723E-2
290 383 2.9713996538414146E-2
290 384 3.27047754162503E-2
290 386 1.7981662261216697E-2
290 389 1.831563888873418E-2
290 390 2.8699226598335178E-2
291 21 1.646306075613562E-2
291 22 1.9445330380875748E-2
291 42 1.804718757769585E-2
291 43 3.181581427714077E-2
291 82 2.7751522820682682E-2
291 150 1.8454551747333677E-2
291 191 2.4085281740749906E-2
291 192 2.2025537174056684E-2
291 205 3.284483915518736E-2
291 206 2.026076908139883E-2
291 292 1.124723691206091E-1
291 293 2.4822732787498034E-1
291 294 2.0233699321568144E-2
291 295 1.9130882239100706E-2
291 296 5.425201088152795E-2
291 297 3.1760685899182864E-2
291 298 2.40309252877871E-2
291 299 1.978392663555285E-2
291 300 1.5335814200446587E-1
291 307 2.4501099759400707E-2
291 347 1.633605433759484E-2
291 378 1.831563888873418E-2
291 391 2.7996010469587464E-2
291 396 2.488608129051014E-2
291 398 4.580425145904161E-2
292 191 4.0698727589800324E-2
292 192 4.229218568357247E-2
292 193 2.6326783687560557E-2
292 200 2.794018708738161E-2
292 201 3.138614061452488E-2
292 235 2.919184767708828E-2
292 291 1.124723691206091E-1
292 293 9.65415288850914E-2
292 294 8.482635847380803E-2
292 295 7.087594209234419E-2
292 296 2.3360298452333502E-2
292 297 1.403333804198528E-1
292 298 1.5581658482404143E-1
292 299 1.6538597299324154E-2
292 300 5.517249137299818E-2
292 302 1.9463423073462015E-2
292 303 1.9618339697450034E-2
292 304 2.4736147128074967E-2
292 305 2.6532732956931513E-2
292 307 2.3248019133066098E-2
292 310 1.9664727188425393E-2
292 339 1.831563888873418E-2
292 342 2.2760251055619556E-2
293 22 1.80435793242518E-2
293 74 1.831563888873418E-2
293 82 2.335086274646858E-2
293 93 3.3409062423241E-2
293 94 2.898109935943749E-2
293 150 1.831563888873418E-2
293 191 1.964749910764968E-2
293 205 1.9989821707423118E-2
293 206 2.35293205394745E-2
293 235 2.0196409444959932E-2
293 242 1.831563888873418E-2
293 291 2.4822732787498034E-1
293 292 9.65415288850914E-2
293 297 2.101925330032149E-2
293 300 4.9415327001237505E-2
293 391 2.7767497718293732E-2
293 398 1.5176213769258286E-2
294 192 1.860774194450236E-2
294 193 1.848589821493203E-2
294 200 1.831563888873418E-2
294 201 1.9898756875502403E-2
294 202 1.9363276325159565E-2
294 291 2.0233699321568144E-2
294 292 8.482635847380803E-2
294 295 4.0736632985171295E-1
294 296 4.725684586864118E-2
294 297 1.0030222445066586E-1
294 298 2.68378495071306E-1
294 299 2.3062458197680602E-2
294 300 2.652582538080399E-2
294 341 3.414295642323205E-2
294 342 2.992088091557625E-2
295 192 1.7011373562901846E-2
295 193 1.956208272808852E-2
295 200 1.8447753107792834E-2
295 201 1.8948051338747964E-2
295 202 3.203374720810714E-2
295 203 2.2788827428089607E-2
295 291 1.9130882239100706E-2
295 292 7.087594209234419E-2
295 294 4.0736632985171295E-1
295 296 3.4926649170809766E-2
295 297 8.798946868292629E-2
295 298 1.3170023652900278E-1
295 299 2.3663318122491533E-2
295 300 2.162583923505071E-2
295 307 1.820207475289968E-2
295 338 1.831563888873418E-2
295 339 1.903474962459683E-2
295 340 1.9101674151043784E-2
295 341 2.6970603928967406E-2
295 342 2.1290613514702975E-2
296 33 2.7439373305500028E-2
296 41 1.831563888873418E-2
296 44 1.8132076137095936E-2
296 150 2.224116086882707E-2
296 194 2.1344924395265696E-2
296 204 1.8110419643704672E-2
296 205 1.980250231889168E-2
296 291 5.425201088152795E-2
296 292 2.3360298452333502E-2
296 294 4.725684586864118E-2
296 295 3.4926649170809766E-2
296 297 2.864308788555469E-2
296 298 2.8810439822442007E-2
296 299 1.129050325767079E-1
296 300 1.676243861578264E-1
296 307 1.831563888873418E-2
296 396 3.367997319413467E-2
296 398 1.923863849205769E-2
297 201 2.411715302215165E-2
297 202 1.8206805625848282E-2
297 203 1.8719751482659808E-2
297 291 3.1760685899182864E-2
297 292 1.403333804198528E-1
297 293 2.101925330032149E-2
297 294 1.0030222445066586E-1
297 295 8.798946868292629E-2
297 296 2.864308788555469E-2
297 298 1.8479040651527692E-1
297 299 6.643541066734716E-2
297 300 5.50147097440643E-2
297 302 1.848601976389312E-2
297 303 2.255363309377327E-2
297 304 2.516054974899732E-2
297 305 2.11191552445562E-2
297 306 2.4305804988919644E-2
297 307 2.565918784948152E-2
297 309 2.0001175161531413E-2
297 322 1.831563888873418E-2
297 326 1.831563888873418E-2
297 327 9.183796492928298E-3
297 328 1.959216963488357E-2
297 329 1.772783380016152E-2
297 330 1.831563888873418E-2
297 341 2.4172227350552657E-2
297 342 2.8226627177389586E-2
297 344 2.0695127431953012E-2
298 191 1.831593712818036E-2
298 192 2.2858879368875006E-2
298 193 1.698029701377893E-2
298 200 1.749182153774986E-2
298 201 2.6337141267609058E-2
298 202 1.8703481096339358E-2
298 291 2.40309252877871E-2
298 292 1.5581658482404143E-1
298 294 2.68378495071306E-1
298 295 1.3170023652900278E-1
298 296 2.8810439822442007E-2
298 297 1.8479040651527692E-1
298 299 2.258399357969902E-2
298 300 2.11102308254921E-2
298 302 1.7371573149361663E-2
298 304 2.3936904358460517E-2
298 305 1.8900444176494738E-2
298 341 3.2461033869310235E-2
298 342 3.8095084410814245E-2
298 344 1.909607153851927E-2
299 33 1.9983044562825535E-2
299 41 2.875869134637947E-2
299 44 2.7216539610199167E-2
299 84 1.6003794120168363E-2
299 86 1.8033716424771692E-2
299 88 1.750295235411193E-2
299 89 1.1078373970983067E-2
299 145 2.1327540206964483E-2
299 150 3.359433300535772E-2
299 194 2.0901715089333993E-2
299 196 1.831563888873418E-2
299 204 1.8567339210989457E-2
299 205 1.7705678067136615E-2
299 210 2.1425169227879345E-2
299 291 1.978392663555285E-2
299 292 1.6538597299324154E-2
299 294 2.3062458197680602E-2
299 295 2.3663318122491533E-2
299 296 1.129050325767079E-1
299 297 6.643541066734716E-2
299 298 2.258399357969902E-2
299 300 3.51534356220426E-2
299 301 2.9421818833142984E-2
299 306 2.1863012608315142E-2
299 308 2.7907971124538637E-2
299 309 3.4831558211704874E-2
299 325 1.7544254100811747E-2
299 329 2.35675545814573E-2
299 396 2.286939985630531E-2
300 42 2.2658508481614645E-2
300 43 2.7603849719315704E-2
300 150 2.124194473427987E-2
300 205 1.85167955911024E-2
300 206 1.7451712759476157E-2
300 209 1.583877543703171E-2
300 291 1.5335814200446587E-1
300 292 5.517249137299818E-2
300 293 4.9415327001237505E-2
300 294 2.652582538080399E-2
300 295 2.162583923505071E-2
300 296 1.676243861578264E-1
300 297 5.50147097440643E-2
300 298 2.11102308254921E-2
300 299 3.51534356220426E-2
300 307 3.3115128658523355E-2
300 328 1.5297490491418224E-2
300 346 2.134441315894487E-2
300 347 1.9882385730667924E-2
300 396 1.831563888873418E-2
301 201 1.7211332533632426E-2
301 202 1.9217446987403363E-2
301 203 1.84696914102069E-2
301 204 1.9261947280212403E-2
301 207 1.831563888873418E-2
301 299 2.9421818833142984E-2
301 306 2.9951679437112216E-1
301 307 3.762501274182283E-2
301 308 7.949557279260433E-1
301 309 1.816545717464898E-1
301 326 1.9940629861491574E-2
302 122 1.831563888873418E-2
302 201 2.272345730911664E-2
302 292 1.9463423073462015E-2
302 297 1.848601976389312E-2
302 298 1.7371573149361663E-2
302 303 2.6717679309842746E-1
302 304 2.4125612009068878E-1
302 305 1.8155483396256672E-1
302 307 1.993515516118267E-2
302 310 2.6354183519159796E-1
303 122 1.6769927237359802E-2
303 144 1.831563888873418E-2
303 148 1.8470858862404804E-2
303 292 1.9618339697450034E-2
303 297 2.255363309377327E-2
303 302 2.6717679309842746E-1
303 304 5.129825155420943E-1
303 305 4.564911780211403E-1
303 307 1.8331594101023738E-2
303 310 1.9523826656698534E-1
304 201 1.831563888873418E-2
304 292 2.4736147128074967E-2
304 297 2.516054974899732E-2
304 298 2.3936904358460517E-2
304 302 2.4125612009068878E-1
304 303 5.129825155420943E-1
304 305 3.0760948834531E-1
304 307 2.2065484889057997E-2
304 309 1.7339543306231945E-2
304 310 1.666237729949835E-1
305 144 2.052436944262146E-2
305 246 1.831563888873418E-2
305 292 2.6532732956931513E-2
305 297 2.11191552445562E-2
305 298 1.8900444176494738E-2
305 302 1.8155483396256672E-1
305 303 4.564911780211403E-1
305 304 3.0760948834531E-1
305 307 1.760059685927306E-2
305 310 1.5824071790553237E-1
306 81 1.4620385107338625E-2
306 83 2.0733954107938518E-2
306 201 2.688241794837068E-2
306 202 1.831563888873418E-2
306 297 2.4305804988919644E-2
306 299 2.1863012608315142E-2
306 301 2.9951679437112216E-1
306 307 1.0953170969252518E-1
306 308 1.950489529715665E-1
306 309 3.3224375642165327E-1
306 326 1.9237642307172807E-2
307 201 4.5546078278534075E-2
307 202 1.831563888873418E-2
307 291 2.4501099759400707E-2
307 292 2.3248019133066098E-2
307 295 1.820207475289968E-2
307 296 1.831563888873418E-2
307 297 2.565918784948152E-2
307 300 3.3115128658523355E-2
307 301 3.762501274182283E-2
307 302 1.993515516118267E-2
307 303 1.8331594101023738E-2
307 304 2.2065484889057997E-2
307 305 1.760059685927306E-2
307 306 1.0953170969252518E-1
307 308 2.7445231136935318E-2
307 309 1.6523451971248648E-1
307 340 1.831563888873418E-2
307 341 1.937727740199344E-2
307 342 1.8028400324099518E-2
307 344 1.902411020138012E-2
307 362 1.836163212044468E-2
308 202 1.831563888873418E-2
308 203 2.3153317819689562E-2
308 204 1.856901209377283E-2
308 207 2.1905992388578783E-2
308 210 1.8088791422264855E-2
308 299 2.7907971124538637E-2
308 301 7.949557279260433E-1
308 306 1.950489529715665E-1
308 307 2.7445231136935318E-2
308 309 1.2462086208251212E-1
309 83 2.8707415278955727E-2
309 201 2.7995531522834714E-2
309 202 1.809374679001853E-2
309 204 1.831563888873418E-2
309 205 1.908176466874847E-2
309 297 2.0001175161531413E-2
309 299 3.4831558211704874E-2
309 301 1.816545717464898E-1
309 304 1.7339543306231945E-2
309 306 3.3224375642165327E-1
309 307 1.6523451971248648E-1
309 308 1.2462086208251212E-1
309 370 1.831563888873418E-2
310 201 1.8793679333366873E-2
310 292 1.9664727188425393E-2
310 302 2.6354183519159796E-1
310 303 1.9523826656698534E-1
310 304 1.666237729949835E-1
310 305 1.5824071790553237E-1
310 333 1.7783231055547008E-2
310 336 1.896592522452193E-2
310 338 1.831563888873418E-2
310 339 1.836471155709178E-2
311 144 1.955488857810492E-2
311 187 1.947930319408859E-2
311 188 2.8360141221545242E-2
311 189 3.0179605786965977E-2
311 246 1.831563888873418E-2
311 314 2.881222414676882E-2
311 315 2.441491099316407E-2
311 316 2.9537804216246505E-1
311 317 3.200314530658113E-2
311 319 4.8198145067028624E-2
311 320 7.220266987227268E-2
312 181 1.83967008553762E-2
312 182 2.3456543574144194E-2
312 183 2.0854298152540713E-2
312 186 1.831563888873418E-2
312 190 2.2827284514703897E-2
312 266 1.5857824947217113E-2
312 313 1.5488591433621937E-1
312 314 2.659182239805124E-2
312 315 3.91293399108946E-2
312 318 5.187917061926263E-2
312 319 3.291944903739762E-2
312 320 7.097564189187908E-2
313 163 1.831563888873418E-2
313 182 2.4503897700971347E-2
313 183 1.87622035145068E-2
313 184 2.1771856052110523E-2
313 186 2.1164417062586503E-2
313 249 2.0737667147117875E-2
313 266 2.1517489833032276E-2
313 267 1.971086090691504E-2
313 312 1.5488591433621937E-1
313 315 9.664065538468752E-2
313 319 4.103070306777402E-2
313 320 6.73829294844822E-2
314 109 1.8218880693517292E-2
314 184 1.831563888873418E-2
314 187 1.6037480430305853E-2
314 188 2.34034107828803E-2
314 189 2.251451586559261E-2
314 311 2.881222414676882E-2
314 312 2.659182239805124E-2
314 316 4.72252751784637E-2
314 318 3.362157100610662E-2
314 319 3.8231367388101276E-2
314 320 8.271130082963095E-2
315 42 1.8543219353137654E-2
315 184 2.060615365521338E-2
315 247 1.7927448416337532E-2
315 249 2.379590775674333E-2
315 267 1.831563888873418E-2
315 311 2.441491099316407E-2
315 312 3.91293399108946E-2
315 313 9.664065538468752E-2
315 319 3.0074718865087387E-2
315 320 4.139586339484451E-2
316 16 1.831563888873418E-2
316 144 1.9410345448811116E-2
316 187 1.8853127750245658E-2
316 188 2.635676241130032E-2
316 189 2.825185593238329E-2
316 311 2.9537804216246505E-1
316 314 4.72252751784637E-2
316 317 2.021535405690134E-2
316 319 4.1967662585894766E-2
316 320 7.55280294084092E-2
317 12 1.831563888873418E-2
317 15 1.9431427879409102E-2
317 40 1.8686340591877768E-2
317 141 1.883350263574338E-2
317 144 2.950888729083489E-2
317 146 1.6865719108368676E-2
317 147 2.0500475327406027E-2
317 246 1.9795232593108805E-2
317 311 3.200314530658113E-2
317 316 2.021535405690134E-2
318 11 1.8689582501207953E-2
318 34 2.2361047710915377E-2
318 71 1.4798613281325102E-2
318 101 1.7302693232814734E-2
318 188 1.831563888873418E-2
318 189 2.2500876752401446E-2
318 190 1.850405993252738E-2
318 312 5.187917061926263E-2
318 314 3.362157100610662E-2
318 319 1.1805054758101154E-1
318 320 8.281685496621445E-2
319 18 1.7903343046413955E-2
319 19 1.4196499959734675E-2
319 104 1.6641059386011126E-2
319 144 1.7007652025537553E-2
319 184 1.90514890824285E-2
319 185 2.0076923203339703E-2
319 187 1.831563888873418E-2
319 188 2.6820658824360234E-2
319 189 3.043718949579405E-2
319 311 4.8198145067028624E-2
319 312 3.291944903739762E-2
319 313 4.103070306777402E-2
319 314 3.8231367388101276E-2
319 315 3.0074718865087387E-2
319 316 4.1967662585894766E-2
319 318 1.1805054758101154E-1
319 320 1.111340489069183E-1
320 62 1.8288217541727207E-2
320 184 1.831563888873418E-2
320 187 2.5328972348207593E-2
320 188 2.008648247755266E-2
320 189 2.098236284836734E-2
320 311 7.220266987227268E-2
320 312 7.097564189187908E-2
320 313 6.73829294844822E-2
320 314 8.271130082963095E-2
320 315 4.139586339484451E-2
320 316 7.55280294084092E-2
320 318 8.281685496621445E-2
320 319 1.111340489069183E-1
321 281 2.1421013203474757E-2
321 289 1.831563888873418E-2
321 322 1.542832736904959E-1
321 323 1.0106965641338383E-1
321 324 4.976340040367579E-2
321 325 2.595420484025294E-2
321 326 5.108529719159789E-2
321 327 4.136380720477789E-2
321 328 1.831563888873418E-2
321 329 7.147331835276544E-2
321 330 1.0924977896383274E-1
322 281 1.6098808305582905E-2
322 297 1.831563888873418E-2
322 321 1.542832736904959E-1
322 323 2.3396153362212058E-1
322 324 1.8070613915619035E-1
322 325 3.634785726623702E-2
322 327 5.037197808567824E-2
322 328 6.29068148042919E-2
322 329 3.217068818147775E-2
322 330 5.021746583627473E-1
323 201 1.5154292572006596E-2
323 281 1.831563888873418E-2
323 321 1.0106965641338383E-1
323 322 2.3396153362212058E-1
323 324 2.571641391821204E-1
323 325 5.234390002821237E-2
323 326 1.774986708816067E-2
323 327 4.690400298997002E-2
323 328 7.486581334755048E-2
323 329 3.184463126984561E-2
323 330 4.1706707631845374E-1
324 281 1.831563888873418E-2
324 282 1.728825461552951E-2
324 321 4.976340040367579E-2
324 322 1.8070613915619035E-1
324 323 2.571641391821204E-1
324 325 6.0093000571528915E-2
324 327 4.464062233884081E-2
324 328 1.7121474836691308E-1
324 329 2.532446131730308E-2
324 330 2.144931889814466E-1
325 299 1.7544254100811747E-2
325 321 2.595420484025294E-2
325 322 3.634785726623702E-2
325 323 5.234390002821237E-2
325 324 6.0093000571528915E-2
325 326 6.62722271692779E-2
325 327 1.6608941897250273E-1
325 328 1.7837657297469178E-1
325 329 2.7059227922980195E-1
325 330 5.066122447516001E-2
326 202 1.9420210803554674E-2
326 297 1.831563888873418E-2
326 301 1.9940629861491574E-2
326 306 1.9237642307172807E-2
326 321 5.108529719159789E-2
326 323 1.774986708816067E-2
326 325 6.62722271692779E-2
326 327 8.897648844136827E-2
326 328 2.0282952272958815E-2
326 329 1.5873758445719288E-1
327 297 9.183796492928298E-3
327 321 4.136380720477789E-2
327 322 5.037197808567824E-2
327 323 4.690400298997002E-2
327 324 4.464062233884081E-2
327 325 1.6608941897250273E-1
327 326 8.897648844136827E-2
327 328 1.2966715557197422E-1
327 329 2.2975167247581904E-1
327 330 6.0720237993561674E-2
328 297 1.959216963488357E-2
328 300 1.5297490491418224E-2
328 321 1.831563888873418E-2
328 322 6.29068148042919E-2
328 323 7.486581334755048E-2
328 324 1.7121474836691308E-1
328 325 1.7837657297469178E-1
328 326 2.0282952272958815E-2
328 327 1.2966715557197422E-1
328 329 6.469360461897047E-2
328 330 7.132173092690043E-2
329 297 1.772783380016152E-2
329 299 2.35675545814573E-2
329 321 7.147331835276544E-2
329 322 3.217068818147775E-2
329 323 3.184463126984561E-2
329 324 2.532446131730308E-2
329 325 2.7059227922980195E-1
329 326 1.5873758445719288E-1
329 327 2.2975167247581904E-1
329 328 6.469360461897047E-2
329 330 2.9813414253687734E-2
330 201 1.7871320779619622E-2
330 297 1.831563888873418E-2
330 321 1.0924977896383274E-1
330 322 5.021746583627473E-1
330 323 4.1706707631845374E-1
330 324 2.144931889814466E-1
330 325 5.066122447516001E-2
330 327 6.0720237993561674E-2
330 328 7.132173092690043E-2
330 329 2.9813414253687734E-2
331 332 3.4422912661145083E-1
331 333 1.274325904516736E-1
331 334 3.970419180783981E-2
331 335 6.456839251333352E-2
331 336 3.782075060948277E-1
331 337 4.883301339578697E-2
331 338 7.820474541655234E-2
331 339 8.199121696669683E-2
331 340 8.402863904911462E-2
331 381 9.922840923793698E-3
332 218 1.831563888873418E-2
332 331 3.4422912661145083E-1
332 333 8.669148289566789E-2
332 334 2.2856782727253312E-2
332 335 3.963915666815132E-2
332 336 2.4051778589615122E-1
332 337 3.197093093571614E-2
332 338 5.82575973945917E-2
332 339 5.4822139953992724E-2
332 340 4.8875621116650565E-2
332 382 1.780489121797331E-2
333 219 1.735183364297476E-2
333 310 1.7783231055547008E-2
333 331 1.274325904516736E-1
333 332 8.669148289566789E-2
333 334 3.2868420090694295E-2
333 335 2.8378195712300363E-2
333 336 2.8836772979978975E-1
333 337 2.6651815084809093E-2
333 338 4.47979286948492E-1
333 339 5.137068976987119E-1
333 340 2.165419351829414E-1
333 381 1.977538991718874E-2
334 212 1.831563888873418E-2
334 331 3.970419180783981E-2
334 332 2.2856782727253312E-2
334 333 3.2868420090694295E-2
334 335 1.7538534682055476E-1
334 336 3.2538417401137346E-2
334 337 1.4700341917133708E-1
334 338 2.4303885093658335E-2
334 339 2.2649657808132804E-2
334 340 1.7041993169355427E-2
335 212 1.2717524418086209E-2
335 331 6.456839251333352E-2
335 332 3.963915666815132E-2
335 333 2.8378195712300363E-2
335 334 1.7538534682055476E-1
335 336 3.6781760012387046E-2
335 337 4.444969708343828E-1
335 338 2.25909238332897E-2
335 339 2.063151492175601E-2
335 340 1.831563888873418E-2
336 310 1.896592522452193E-2
336 331 3.782075060948277E-1
336 332 2.4051778589615122E-1
336 333 2.8836772979978975E-1
336 334 3.2538417401137346E-2
336 335 3.6781760012387046E-2
336 337 3.6112846154762075E-2
336 338 1.7152385094902955E-1
336 339 1.7683052357582918E-1
336 340 1.265555300014612E-1
336 381 1.5007313563370657E-2
337 212 1.0703618946980752E-2
337 331 4.883301339578697E-2
337 332 3.197093093571614E-2
337 333 2.6651815084809093E-2
337 334 1.4700341917133708E-1
337 335 4.444969708343828E-1
337 336 3.6112846154762075E-2
337 338 2.1287607884026224E-2
337 339 1.91682311541078E-2
337 340 1.831563888873418E-2
338 295 1.831563888873418E-2
338 310 1.831563888873418E-2
338 331 7.820474541655234E-2
338 332 5.82575973945917E-2
338 333 4.47979286948492E-1
338 334 2.4303885093658335E-2
338 335 2.25909238332897E-2
338 336 1.7152385094902955E-1
338 337 2.1287607884026224E-2
338 339 5.914206447503737E-1
338 340 3.2841033425313243E-1
338 381 2.4936036144523735E-2
339 292 1.831563888873418E-2
339 295 1.903474962459683E-2
339 310 1.836471155709178E-2
339 331 8.199121696669683E-2
339 332 5.4822139953992724E-2
339 333 5.137068976987119E-1
339 334 2.2649657808132804E-2
339 335 2.063151492175601E-2
339 336 1.7683052357582918E-1
339 337 1.91682311541078E-2
339 338 5.914206447503737E-1
339 340 3.70986872956262E-1
339 381 2.3278797319213507E-2
340 219 1.826332395960413E-2
340 295 1.9101674151043784E-2
340 307 1.831563888873418E-2
340 331 8.402863904911462E-2
340 332 4.8875621116650565E-2
340 333 2.165419351829414E-1
340 334 1.7041993169355427E-2
340 335 1.831563888873418E-2
340 336 1.265555300014612E-1
340 337 1.831563888873418E-2
340 338 3.2841033425313243E-1
340 339 3.70986872956262E-1
340 381 2.3579565607351995E-2
341 201 1.831563888873418E-2
341 202 1.5839150027855433E-2
341 294 3.414295642323205E-2
341 295 2.6970603928967406E-2
341 297 2.4172227350552657E-2
341 298 3.2461033869310235E-2
341 307 1.937727740199344E-2
341 342 1.967998162815475E-1
341 344 7.732357243308743E-2
341 348 2.3770295395786973E-2
342 43 1.831563888873418E-2
342 292 2.2760251055619556E-2
342 294 2.992088091557625E-2
342 295 2.1290613514702975E-2
342 297 2.8226627177389586E-2
342 298 3.8095084410814245E-2
342 307 1.8028400324099518E-2
342 341 1.967998162815475E-1
342 344 1.1537568361788847E-1
342 348 2.4588061640788174E-2
343 47 1.971984189280487E-2
343 201 2.4526299221348087E-2
343 202 4.730337097994661E-2
343 203 6.637361725774557E-2
343 207 2.0711400603061078E-2
343 208 1.8303531136610082E-2
343 245 1.831563888873418E-2
343 349 2.1470954444412934E-2
343 394 2.8643899067438458E-2
343 400 2.2425496603116126E-2
344 42 1.831563888873418E-2
344 201 1.8312827859198896E-2
344 297 2.0695127431953012E-2
344 298 1.909607153851927E-2
344 307 1.902411020138012E-2
344 341 7.732357243308743E-2
344 342 1.1537568361788847E-1
344 346 4.694495976612585E-2
344 347 4.742576319158355E-2
344 348 5.074222502392754E-2
345 4 2.956665674912476E-2
345 45 2.9561610900288988E-2
345 87 1.7293176179747453E-2
345 99 5.5521547941552056E-2
345 128 2.3312844984698714E-2
345 166 2.048323683094585E-2
345 167 2.448133749205649E-2
345 170 2.610469094233791E-2
345 207 5.7782671535177015E-2
345 208 1.831563888873418E-2
345 349 3.3445301654359544E-1
345 350 1.0990297214736217E-1
345 397 3.800659849153478E-2
345 399 2.9288956743204288E-2
346 42 2.3743972943579366E-2
346 150 1.831563888873418E-2
346 205 2.78710069753247E-2
346 206 2.641037338129309E-2
346 223 1.673873748157425E-2
346 225 1.9923052022295537E-2
346 300 2.134441315894487E-2
346 344 4.694495976612585E-2
346 347 2.75100625333809E-1
346 348 2.8045245156749876E-1
347 42 1.9842018302523134E-2
347 205 2.235748642932369E-2
347 206 2.194572676500372E-2
347 225 1.908768209428774E-2
347 291 1.633605433759484E-2
347 300 1.9882385730667924E-2
347 344 4.742576319158355E-2
347 346 2.75100625333809E-1
347 348 1.2909166666553396E-1
347 378 1.831563888873418E-2
348 41 1.763376453538327E-2
348 42 1.9386804251652796E-2
348 48 2.0986063355929944E-2
348 150 1.8498076729099082E-2
348 205 2.8200190523368918E-2
348 206 2.2627408343493034E-2
348 341 2.3770295395786973E-2
348 342 2.4588061640788174E-2
348 344 5.074222502392754E-2
348 346 2.8045245156749876E-1
348 347 1.2909166666553396E-1
349 45 2.946530983933895E-2
349 99 4.092781199830833E-2
349 167 1.910714431098287E-2
349 207 3.723901766546502E-2
349 208 1.831563888873418E-2
349 248 1.7175894792777188E-2
349 343 2.1470954444412934E-2
349 345 3.3445301654359544E-1
349 350 7.047425903729476E-2
349 397 4.498814645184635E-2
349 399 2.928708087009256E-2
350 28 2.521120221723732E-2
350 45 6.675382856541573E-2
350 46 7.214452603249501E-2
350 48 1.8598399879489427E-2
350 49 3.315759530183969E-2
350 86 1.8647197115373878E-2
350 166 1.831563888873418E-2
350 170 2.1103123030570443E-2
350 207 4.8279335380710824E-2
350 210 1.584202513332567E-2
350 345 1.0990297214736217E-1
350 349 7.047425903729476E-2
351 50 1.9258691870696808E-2
351 61 2.930492988980539E-2
351 68 1.7902500812707063E-2
351 70 2.1661415788462382E-2
351 184 1.831563888873418E-2
351 187 2.230916786929162E-2
351 353 2.3441363350490407E-2
351 354 2.777025855486453E-2
351 355 1.2483168345450911E-1
351 358 3.8289038656085385E-2
352 123 2.054736362626863E-2
352 158 1.831563888873418E-2
352 236 2.577040983769366E-2
352 237 3.447132088408407E-2
352 238 4.105774674150184E-2
352 353 7.531324007332911E-2
352 354 2.619563678843736E-2
352 356 3.2643444714282854E-1
352 357 3.7258351814111346E-1
352 358 5.345879906466179E-2
352 359 1.5680249146755348E-2
352 360 2.5520149931299745E-2
353 46 1.831563888873418E-2
353 70 1.8904179671360405E-2
353 123 1.7928856132407633E-2
353 207 2.4304797704444617E-2
353 237 2.0809555126235245E-2
353 351 2.3441363350490407E-2
353 352 7.531324007332911E-2
353 354 2.413201498328811E-1
353 355 2.6651587627915363E-2
353 356 2.453722068563305E-2
353 357 3.0587936104960262E-2
353 358 1.7621733963584574E-1
353 360 6.430776803949168E-2
354 45 1.8344192448176522E-2
354 50 1.8783518764246682E-2
354 64 2.2513832105176823E-2
354 65 1.9165222929158593E-2
354 70 1.9554244897132506E-2
354 123 1.9498027549874272E-2
354 142 1.831563888873418E-2
354 351 2.777025855486453E-2
354 352 2.619563678843736E-2
354 353 2.413201498328811E-1
354 355 2.3242467429861163E-2
354 358 1.3407555149469585E-1
354 359 1.88277153409177E-2
354 360 5.44302008647347E-2
355 50 1.940148038599093E-2
355 61 3.3129732874484535E-2
355 65 1.6764568032935873E-2
355 68 2.224498543190686E-2
355 70 3.220177472294652E-2
355 187 1.831563888873418E-2
355 188 1.8317413472092543E-2
355 351 1.2483168345450911E-1
355 353 2.6651587627915363E-2
355 354 2.3242467429861163E-2
356 123 1.9408044968737374E-2
356 142 1.8194091834550622E-2
356 236 1.831563888873418E-2
356 237 2.9899113014030095E-2
356 238 3.5001359250265575E-2
356 352 3.2643444714282854E-1
356 353 2.453722068563305E-2
356 357 1.1794799359510051E-1
356 358 3.539738143510369E-2
356 359 1.9218257226028875E-2
357 123 1.812028256259014E-2
357 158 3.015321682459979E-2
357 232 1.831563888873418E-2
357 236 4.0641678163340536E-2
357 237 6.602898717154432E-2
357 238 7.862533726711436E-2
357 352 3.7258351814111346E-1
357 353 3.0587936104960262E-2
357 356 1.1794799359510051E-1
357 358 2.123735453579724E-2
358 47 2.4090851016698653E-2
358 70 2.6172550320118726E-2
358 142 2.6288766314260047E-2
358 145 1.9272902095964058E-2
358 237 1.7250850071389386E-2
358 351 3.8289038656085385E-2
358 352 5.345879906466179E-2
358 353 1.7621733963584574E-1
358 354 1.3407555149469585E-1
358 356 3.539738143510369E-2
358 357 2.123735453579724E-2
358 359 8.176822566529773E-2
358 360 2.6300439762526245E-2
359 47 1.8330453993400705E-2
359 130 2.287559001912659E-2
359 142 2.9854591537324688E-2
359 145 1.831563888873418E-2
359 152 2.1042493796187278E-2
359 160 1.7306837800180563E-2
359 175 1.8521700070153285E-2
359 178 2.0316600590102058E-2
359 352 1.5680249146755348E-2
359 354 1.88277153409177E-2
359 356 1.9218257226028875E-2
359 358 8.176822566529773E-2
359 360 4.123635199809392E-2
360 50 2.791105431656022E-2
360 123 1.6945674686940332E-2
360 125 2.0816056321846972E-2
360 130 2.4528276767705536E-2
360 152 1.831563888873418E-2
360 352 2.5520149931299745E-2
360 353 6.430776803949168E-2
360 354 5.44302008647347E-2
360 358 2.6300439762526245E-2
360 359 4.123635199809392E-2
361 26 1.831563888873418E-2
361 252 2.0068209256890762E-2
361 259 1.868328057515451E-2
361 284 1.9537140682742975E-2
361 287 1.850290750624967E-2
361 363 5.014796981992645E-1
361 367 2.1443313004778364E-1
361 369 3.118051906982795E-1
361 370 1.9171312185302883E-1
361 380 1.6674247972642872E-2
362 21 1.831563888873418E-2
362 201 1.7214127803366713E-2
362 251 4.536679614261813E-2
362 254 3.376864194067979E-2
362 255 2.564276205858174E-2
362 307 1.836163212044468E-2
362 364 3.00007990139045E-1
362 365 3.881113315102872E-1
362 366 2.558441822963473E-1
362 368 1.2804331810038475E-1
363 26 2.186205581563045E-2
363 204 1.655961832298203E-2
363 252 1.831563888873418E-2
363 259 1.9411221704369316E-2
363 284 1.9179078807068064E-2
363 287 2.3119010960401122E-2
363 361 5.014796981992645E-1
363 367 1.160334180143333E-1
363 369 3.413976052767276E-1
363 370 1.0982318061126675E-1
364 251 3.691941050203774E-2
364 253 1.7711574700778304E-2
364 254 2.6692541972973813E-2
364 255 2.3430747801739336E-2
364 362 3.00007990139045E-1
364 365 5.673251535703306E-1
364 366 4.397028606697309E-1
364 367 2.905836149874473E-2
364 368 1.5446284429210264E-1
364 381 1.831563888873418E-2
365 251 4.3504910381406206E-2
365 253 1.831563888873418E-2
365 254 3.310459823228471E-2
365 255 2.793194261141419E-2
365 362 3.881113315102872E-1
365 364 5.673251535703306E-1
365 366 3.543282907686952E-1
365 367 2.2513730408658623E-2
365 368 1.3111986382476504E-1
365 381 1.6502883450223573E-2
366 251 4.564154067724743E-2
366 252 2.0132409936852922E-2
366 254 2.8547944267876976E-2
366 255 1.7667698785410604E-2
366 362 2.558441822963473E-1
366 364 4.397028606697309E-1
366 365 3.543282907686952E-1
366 367 2.269335373641214E-2
366 368 1.6243135094830474E-1
366 369 1.831563888873418E-2
367 26 2.307904867038618E-2
367 251 2.7512659769217088E-2
367 252 1.7580748075244287E-2
367 256 1.94632730839018E-2
367 259 2.036125713056152E-2
367 284 1.831563888873418E-2
367 361 2.1443313004778364E-1
367 363 1.160334180143333E-1
367 364 2.905836149874473E-2
367 365 2.2513730408658623E-2
367 366 2.269335373641214E-2
367 368 2.9032512815655432E-2
367 369 1.0354982269026082E-1
367 370 2.6092736637485214E-1
368 213 1.792923560697497E-2
368 251 2.5660678836025925E-2
368 254 2.9707526838826454E-2
368 362 1.2804331810038475E-1
368 364 1.5446284429210264E-1
368 365 1.3111986382476504E-1
368 366 1.6243135094830474E-1
368 367 2.9032512815655432E-2
368 381 2.028816507848756E-2
368 387 1.831563888873418E-2
369 26 2.6398136685404812E-2
369 251 1.7474308690630325E-2
369 252 2.381389464790243E-2
369 256 3.0173482562305846E-2
369 259 2.7166153952147255E-2
369 287 1.831563888873418E-2
369 361 3.118051906982795E-1
369 363 3.413976052767276E-1
369 366 1.831563888873418E-2
369 367 1.0354982269026082E-1
369 370 9.365127409424531E-2
370 24 1.8917463896825054E-2
370 26 2.1478705761315907E-2
370 251 1.753599148195354E-2
370 284 3.3510585112047686E-2
370 287 2.8377879173260203E-2
370 309 1.831563888873418E-2
370 361 1.9171312185302883E-1
370 363 1.0982318061126675E-1
370 367 2.6092736637485214E-1
370 369 9.365127409424531E-2
371 25 2.016488925020199E-2
371 27 2.5574708157778757E-2
371 28 2.165892006348849E-2
371 36 1.7432790700921262E-2
371 128 2.379569766104257E-2
371 230 1.8247757368980995E-2
371 374 2.459807619741038E-2
371 376 4.752095366085522E-2
371 379 9.808738664509208E-2
371 392 5.4952288889767775E-2
371 393 2.6645772063650028E-2
371 395 4.353711439330472E-2
372 41 1.79866837661068E-2
372 42 5.030937766341994E-2
372 43 4.1278984745288363E-2
372 118 1.8209332516886556E-2
372 251 1.630628937336666E-2
372 373 2.0017181516625254E-1
372 375 2.9367105216996114E-1
372 376 2.4834578262218503E-2
372 377 1.7565152154273883E-1
372 378 4.5374049848462536E-2
372 380 1.0773312057567822E-1
372 396 1.831563888873418E-2
373 42 3.1006794434906528E-2
373 43 1.801166859510272E-2
373 163 1.927718978099967E-2
373 164 2.0403983718252933E-2
373 249 2.932263162487963E-2
373 252 1.937066479473443E-2
373 372 2.0017181516625254E-1
373 374 2.7035614158074546E-2
373 375 3.0034783873919185E-1
373 376 2.7803930456962174E-2
373 377 2.604387352531609E-1
373 378 6.012850188361421E-2
373 380 1.5535803199386772E-1
374 5 3.314865937110336E-2
374 10 2.960376411186587E-2
374 29 1.831563888873418E-2
374 34 2.3747157965213362E-2
374 35 3.489192672933522E-2
374 96 1.9273544622471304E-2
374 150 1.872695401581099E-2
374 176 1.9151757256413028E-2
374 371 2.459807619741038E-2
374 373 2.7035614158074546E-2
374 375 1.831563888873418E-2
374 376 1.9726517993853335E-2
374 377 1.0885815324550588E-1
374 378 1.081090039647753E-1
374 380 2.1104596946404083E-2
374 393 3.326373713178061E-2
374 395 1.6005793306129393E-2
375 42 2.6457923235015807E-2
375 43 1.885799232964459E-2
375 118 2.137654538929348E-2
375 249 1.4656291200879284E-2
375 372 2.9367105216996114E-1
375 373 3.0034783873919185E-1
375 374 1.831563888873418E-2
375 376 5.3144513777206755E-2
375 377 1.6344667837070642E-1
375 378 4.227942616351301E-2
375 380 2.846735234967354E-1
376 26 2.3659743469361002E-2
376 48 2.441347143800937E-2
376 181 2.164713306586242E-2
376 252 2.353496612999261E-2
376 371 4.752095366085522E-2
376 372 2.4834578262218503E-2
376 373 2.7803930456962174E-2
376 374 1.9726517993853335E-2
376 375 5.3144513777206755E-2
376 377 1.831563888873418E-2
376 379 1.5088586097084522E-1
376 380 8.17609819321096E-2
376 395 2.143333489417607E-2
377 10 1.433634366015189E-2
377 41 1.831563888873418E-2
377 42 2.1552740139176414E-2
377 118 1.831563888873418E-2
377 132 2.0584594390551665E-2
377 249 2.612021378002827E-2
377 253 1.831563888873418E-2
377 372 1.7565152154273883E-1
377 373 2.604387352531609E-1
377 374 1.0885815324550588E-1
377 375 1.6344667837070642E-1
377 376 1.831563888873418E-2
377 378 1.1130764976958012E-1
377 380 1.5230576691837658E-1
377 396 1.792866536696147E-2
377 398 1.8133436914350078E-2
378 2 2.7614517595196196E-2
378 5 1.7288646733495533E-2
378 10 3.44186775937569E-2
378 35 1.9211948279626377E-2
378 43 1.6868582937022494E-2
378 77 1.9994463761332282E-2
378 80 2.078225302142198E-2
378 118 1.940645834072276E-2
378 250 2.0778314415196744E-2
378 291 1.831563888873418E-2
378 347 1.831563888873418E-2
378 372 4.5374049848462536E-2
378 373 6.012850188361421E-2
378 374 1.081090039647753E-1
378 375 4.227942616351301E-2
378 377 1.1130764976958012E-1
378 380 2.1680957610412596E-2
379 26 2.2179441372216415E-2
379 27 3.662274289764181E-2
379 46 2.7089133630879336E-2
379 48 1.941527530321224E-2
379 50 2.3793798244132743E-2
379 86 1.7965119970550926E-2
379 128 1.831563888873418E-2
379 371 9.808738664509208E-2
379 376 1.5088586097084522E-1
379 392 2.934097904598332E-2
379 395 6.550761479881449E-2
380 41 1.7724934556617965E-2
380 89 2.342036813286614E-2
380 181 1.7776846643278527E-2
380 252 3.154255258686436E-2
380 361 1.6674247972642872E-2
380 372 1.0773312057567822E-1
380 373 1.5535803199386772E-1
380 374 2.1104596946404083E-2
380 375 2.846735234967354E-1
380 376 8.17609819321096E-2
380 377 1.5230576691837658E-1
380 378 2.1680957610412596E-2
380 396 1.831563888873418E-2
381 203 1.9163147832013443E-2
381 211 1.6459136661171183E-2
381 212 1.2718608991892675E-2
381 213 1.4959336563117539E-2
381 214 2.541602106535845E-2
381 215 1.831563888873418E-2
381 216 2.5975976698924326E-2
381 217 1.7601048294443433E-2
381 218 1.7356447449419738E-2
381 219 1.756065481962032E-2
381 220 1.831563888873418E-2
381 281 2.96233357772751E-2
381 282 4.728435732040992E-2
381 283 2.3324965563503757E-2
381 289 1.6352482450778694E-2
381 290 2.9262781520115723E-2
381 331 9.922840923793698E-3
381 333 1.977538991718874E-2
381 336 1.5007313563370657E-2
381 338 2.4936036144523735E-2
381 339 2.3278797319213507E-2
381 340 2.3579565607351995E-2
381 364 1.831563888873418E-2
381 365 1.6502883450223573E-2
381 368 2.028816507848756E-2
381 382 1.0449017906451331E-1
381 383 4.1514591902004454E-2
381 384 9.81869601758791E-2
381 385 5.855129721216107E-2
381 386 4.630503324088463E-2
381 387 1.2772008664420045E-1
381 388 1.0937446805461021E-1
381 389 1.6901095817546033E-1
381 390 4.696872814126673E-2
382 213 1.831563888873418E-2
382 214 1.8361592473204538E-2
382 216 1.7937046008881616E-2
382 217 1.831563888873418E-2
382 218 2.2205307860384216E-2
382 219 3.051228787049304E-2
382 282 3.05636297025002E-2
382 332 1.780489121797331E-2
382 381 1.0449017906451331E-1
382 384 3.165725515445818E-2
382 385 2.133238735974713E-2
382 387 1.2258747117465332E-1
382 388 1.276958134837177E-1
382 389 4.355769341248775E-2
383 203 1.831563888873418E-2
383 212 1.6549329696351013E-2
383 216 3.5107292140800085E-2
383 281 3.646779385902742E-2
383 283 3.5482666087395254E-2
383 289 4.7718886818510914E-2
383 290 2.9713996538414146E-2
383 381 4.1514591902004454E-2
383 384 2.5981546815116047E-1
383 386 5.56915734007598E-2
383 390 1.0252258661197287E-1
384 212 1.831563888873418E-2
384 214 1.831563888873418E-2
384 216 5.210781042924681E-2
384 220 1.575972142413267E-2
384 281 2.6239383012930315E-2
384 282 1.831563888873418E-2
384 283 2.9900772987751848E-2
384 289 4.4563921295417516E-2
384 290 3.27047754162503E-2
384 381 9.81869601758791E-2
384 382 3.165725515445818E-2
384 383 2.5981546815116047E-1
384 385 1.6693211520111582E-2
384 386 8.778625530783189E-2
384 387 2.508368380530695E-2
384 388 2.418794521478465E-2
384 389 2.345959625131183E-2
384 390 1.5810829261676232E-1
385 215 1.3380008335373228E-2
385 281 1.831563888873418E-2
385 282 2.633260518298746E-2
385 381 5.855129721216107E-2
385 382 2.133238735974713E-2
385 384 1.6693211520111582E-2
385 386 2.3594551489891404E-2
385 387 4.309008950434723E-2
385 388 2.8137860372044268E-2
385 389 1.9666263577237614E-1
385 390 2.8306728657356933E-2
386 281 1.831563888873418E-2
386 290 1.7981662261216697E-2
386 381 4.630503324088463E-2
386 383 5.56915734007598E-2
386 384 8.778625530783189E-2
386 385 2.3594551489891404E-2
386 387 2.0829026544865417E-2
386 388 1.9120201521788775E-2
386 389 3.720351358654294E-2
386 390 2.2017543248330881E-1
387 201 1.8224805340275943E-2
387 282 2.791609913611096E-2
387 368 1.831563888873418E-2
387 381 1.2772008664420045E-1
387 382 1.2258747117465332E-1
387 384 2.508368380530695E-2
387 385 4.309008950434723E-2
387 386 2.0829026544865417E-2
387 388 5.364658380100624E-1
387 389 1.3936290187947728E-1
387 390 2.9520649647672415E-2
388 201 1.831563888873418E-2
388 282 2.5563811949218584E-2
388 381 1.0937446805461021E-1
388 382 1.276958134837177E-1
388 384 2.418794521478465E-2
388 385 2.8137860372044268E-2
388 386 1.9120201521788775E-2
388 387 5.364658380100624E-1
388 389 8.854531850261183E-2
388 390 1.963919863812299E-2
389 281 1.831563888873418E-2
389 282 3.839983518036516E-2
389 290 1.831563888873418E-2
389 381 1.6901095817546033E-1
389 382 4.355769341248775E-2
389 384 2.345959625131183E-2
389 385 1.9666263577237614E-1
389 386 3.720351358654294E-2
389 387 1.3936290187947728E-1
389 388 8.854531850261183E-2
389 390 5.5285435920229976E-2
390 216 2.0281072541931774E-2
390 281 2.4121253826003823E-2
390 289 2.017983311726502E-2
390 290 2.8699226598335178E-2
390 381 4.696872814126673E-2
390 383 1.0252258661197287E-1
390 384 1.5810829261676232E-1
390 385 2.8306728657356933E-2
390 386 2.2017543248330881E-1
390 387 2.9520649647672415E-2
390 388 1.963919863812299E-2
390 389 5.5285435920229976E-2
391 21 2.5027346355156525E-2
391 81 1.5601024581478934E-2
391 82 3.7521695303646414E-2
391 90 5.1927089254082175E-2
391 92 2.96951806014125E-2
391 93 1.7809283691849698E-2
391 114 1.831563888873418E-2
391 115 1.831563888873418E-2
391 117 2.725113279097064E-2
391 119 2.887124099456805E-2
391 150 1.3700253718325795E-2
391 205 2.0934237990140134E-2
391 206 3.3433190787532596E-2
391 291 2.7996010469587464E-2
391 293 2.7767497718293732E-2
391 396 2.378998500417824E-2
391 398 2.4397116731831694E-1
392 8 2.0015833427146846E-2
392 26 2.0099685728313145E-2
392 27 1.77714019526131E-2
392 28 3.1147063202495016E-2
392 34 1.944541237333785E-2
392 46 2.0838343517914915E-2
392 49 2.2080069231402093E-2
392 50 9.128803654813755E-2
392 111 2.668954717387382E-2
392 116 1.5949349313448147E-2
392 153 1.771379695764802E-2
392 197 2.3033644770766817E-2
392 198 2.6540948027155207E-2
392 199 2.007354534670536E-2
392 371 5.4952288889767775E-2
392 379 2.934097904598332E-2
392 393 2.362250939847505E-1
392 395 3.749970791173065E-1
392 397 1.9448682878626597E-2
392 399 1.7243678544619227E-2
393 29 2.343817923549182E-2
393 30 2.522404530107363E-2
393 34 2.3870840002707422E-2
393 50 2.2409605011531532E-2
393 90 1.909460071482077E-2
393 179 1.831563888873418E-2
393 198 1.8872991495430615E-2
393 371 2.6645772063650028E-2
393 374 3.326373713178061E-2
393 392 2.362250939847505E-1
393 395 9.598906382061069E-2
394 47 3.926828194842448E-2
394 84 1.831563888873418E-2
394 87 3.971788497117397E-2
394 113 2.5187716855297644E-2
394 124 3.543557676449034E-2
394 142 1.6891120395437748E-2
394 224 2.328543604406398E-2
394 226 3.3544995990455816E-2
394 245 3.4861600473287256E-2
394 248 3.151056045075753E-2
394 343 2.8643899067438458E-2
394 400 5.359814301476551E-1
395 26 2.2073670723518013E-2
395 27 1.889201187263269E-2
395 34 1.84294810038202E-2
395 50 1.3519460671283218E-1
395 153 2.1293089687861328E-2
395 160 2.173116142767702E-2
395 221 1.831563888873418E-2
395 371 4.353711439330472E-2
395 374 1.6005793306129393E-2
395 376 2.143333489417607E-2
395 379 6.550761479881449E-2
395 392 3.749970791173065E-1
395 393 9.598906382061069E-2
396 21 2.3120307785679892E-2
396 42 3.7808342853144945E-2
396 43 2.0442092329916534E-2
396 82 2.8140085586261823E-2
396 112 4.48093668413628E-2
396 115 2.2295078623582522E-2
396 117 3.652258212920827E-2
396 120 1.8183913752941972E-2
396 291 2.488608129051014E-2
396 296 3.367997319413467E-2
396 299 2.286939985630531E-2
396 300 1.831563888873418E-2
396 372 1.831563888873418E-2
396 377 1.792866536696147E-2
396 380 1.831563888873418E-2
396 391 2.378998500417824E-2
396 398 7.936896715173328E-2
397 4 3.789410232937962E-2
397 6 4.974341154899195E-2
397 36 7.847409539848452E-2
397 45 3.4594342958278526E-2
397 50 1.986384589326157E-2
397 57 1.831563888873418E-2
397 59 2.6952383950204967E-2
397 79 4.2322525155904275E-2
397 99 5.2722791457235504E-2
397 127 1.831563888873418E-2
397 128 1.831563888873418E-2
397 158 3.438718230721607E-2
397 173 1.77073888144259E-2
397 180 2.314433909923168E-2
397 198 2.787993191651221E-2
397 199 1.831563888873418E-2
397 229 1.8893392375237104E-2
397 230 2.5465681996696233E-2
397 345 3.800659849153478E-2
397 349 4.498814645184635E-2
397 392 1.9448682878626597E-2
397 399 3.1390161558963814E-1
398 21 5.683163299454832E-2
398 22 2.4980832947029734E-2
398 43 1.9774691815736718E-2
398 82 4.20911025281631E-2
398 90 1.831563888873418E-2
398 117 3.483867871236776E-2
398 205 1.903988478749105E-2
398 291 4.580425145904161E-2
398 293 1.5176213769258286E-2
398 296 1.923863849205769E-2
398 377 1.8133436914350078E-2
398 391 2.4397116731831694E-1
398 396 7.936896715173328E-2
399 4 8.56087828628207E-2
399 6 3.176412831750979E-2
399 36 5.6739736203787965E-2
399 45 4.3858619419161846E-2
399 46 1.831563888873418E-2
399 50 2.3950497134128425E-2
399 79 2.461523171218616E-2
399 99 2.1575018793715605E-2
399 167 1.9133790055741895E-2
399 345 2.9288956743204288E-2
399 349 2.928708087009256E-2
399 392 1.7243678544619227E-2
399 397 3.1390161558963814E-1
400 41 1.814361001311169E-2
400 47 5.0514533573154594E-2
400 84 2.3687776635053694E-2
400 86 2.4039146760173845E-2
400 87 5.676233357179575E-2
400 113 2.4768018670052433E-2
400 124 2.2998451621225408E-2
400 128 2.036432312447528E-2
400 173 4.677538981091128E-2
400 224 1.831563888873418E-2
400 226 2.4692218503979006E-2
400 245 3.175655194982882E-2
400 248 3.2714290900813146E-2
400 343 2.2425496603116126E-2
400 394 5.359814301476551E-1
