%%MatrixMarket matrix coordinate integer general
%
1095 1095 4374
1 2 1
1 3 1
2 1 1
2 3 1
2 4 1
2 5 1
3 1 1
3 2 1
3 5 1
3 6 1
4 2 1
4 5 1
4 7 1
4 8 1
5 2 1
5 3 1
5 4 1
5 6 1
6 3 1
6 5 1
6 12 1
6 13 1
7 4 1
7 8 1
7 9 1
7 10 1
8 4 1
8 7 1
8 10 1
8 11 1
9 7 1
9 10 1
9 16 1
9 17 1
10 7 1
10 8 1
10 9 1
10 11 1
11 8 1
11 10 1
11 12 1
11 14 1
12 6 1
12 11 1
12 13 1
12 14 1
13 6 1
13 12 1
13 14 1
13 15 1
14 11 1
14 12 1
14 13 1
14 15 1
15 13 1
15 14 1
15 30 1
15 31 1
16 9 1
16 17 1
16 18 1
16 19 1
17 9 1
17 16 1
17 19 1
17 20 1
18 16 1
18 19 1
18 21 1
18 22 1
19 16 1
19 17 1
19 18 1
19 20 1
20 17 1
20 19 1
20 26 1
20 27 1
21 18 1
21 22 1
21 23 1
21 24 1
22 18 1
22 21 1
22 24 1
22 25 1
23 21 1
23 24 1
23 43 1
23 44 1
24 21 1
24 22 1
24 23 1
24 25 1
25 22 1
25 24 1
25 26 1
25 28 1
26 20 1
26 25 1
26 27 1
26 28 1
27 20 1
27 26 1
27 28 1
27 29 1
28 25 1
28 26 1
28 27 1
28 29 1
29 27 1
29 28 1
29 35 1
29 37 1
30 15 1
30 31 1
30 32 1
30 33 1
31 15 1
31 30 1
31 33 1
31 34 1
32 30 1
32 33 1
32 35 1
32 36 1
33 30 1
33 31 1
33 32 1
33 34 1
34 31 1
34 33 1
34 39 1
34 40 1
35 29 1
35 32 1
35 36 1
35 37 1
36 32 1
36 35 1
36 37 1
36 38 1
37 29 1
37 35 1
37 36 1
37 38 1
38 36 1
38 37 1
38 39 1
38 41 1
39 34 1
39 38 1
39 40 1
39 41 1
40 34 1
40 39 1
40 41 1
40 42 1
41 38 1
41 39 1
41 40 1
41 42 1
42 40 1
42 41 1
42 84 1
42 85 1
43 23 1
43 44 1
43 45 1
43 46 1
44 23 1
44 43 1
44 46 1
44 47 1
45 43 1
45 46 1
45 48 1
45 49 1
46 43 1
46 44 1
46 45 1
46 47 1
47 44 1
47 46 1
47 53 1
47 54 1
48 45 1
48 49 1
48 50 1
48 51 1
49 45 1
49 48 1
49 51 1
49 52 1
50 48 1
50 51 1
50 57 1
50 58 1
51 48 1
51 49 1
51 50 1
51 52 1
52 49 1
52 51 1
52 53 1
52 55 1
53 47 1
53 52 1
53 54 1
53 55 1
54 47 1
54 53 1
54 55 1
54 56 1
55 52 1
55 53 1
55 54 1
55 56 1
56 54 1
56 55 1
56 71 1
56 72 1
57 50 1
57 58 1
57 59 1
57 60 1
58 50 1
58 57 1
58 60 1
58 61 1
59 57 1
59 60 1
59 62 1
59 63 1
60 57 1
60 58 1
60 59 1
60 61 1
61 58 1
61 60 1
61 67 1
61 68 1
62 59 1
62 63 1
62 64 1
62 65 1
63 59 1
63 62 1
63 65 1
63 66 1
64 62 1
64 65 1
64 124 1
64 125 1
65 62 1
65 63 1
65 64 1
65 66 1
66 63 1
66 65 1
66 67 1
66 69 1
67 61 1
67 66 1
67 68 1
67 69 1
68 61 1
68 67 1
68 69 1
68 70 1
69 66 1
69 67 1
69 68 1
69 70 1
70 68 1
70 69 1
70 76 1
70 78 1
71 56 1
71 72 1
71 73 1
71 74 1
72 56 1
72 71 1
72 74 1
72 75 1
73 71 1
73 74 1
73 76 1
73 77 1
74 71 1
74 72 1
74 73 1
74 75 1
75 72 1
75 74 1
75 80 1
75 81 1
76 70 1
76 73 1
76 77 1
76 78 1
77 73 1
77 76 1
77 78 1
77 79 1
78 70 1
78 76 1
78 77 1
78 79 1
79 77 1
79 78 1
79 80 1
79 82 1
80 75 1
80 79 1
80 81 1
80 82 1
81 75 1
81 80 1
81 82 1
81 83 1
82 79 1
82 80 1
82 81 1
82 83 1
83 81 1
83 82 1
83 103 1
83 105 1
84 42 1
84 85 1
84 86 1
84 87 1
85 42 1
85 84 1
85 87 1
85 88 1
86 84 1
86 87 1
86 89 1
86 90 1
87 84 1
87 85 1
87 86 1
87 88 1
88 85 1
88 87 1
88 94 1
88 95 1
89 86 1
89 90 1
89 91 1
89 92 1
90 86 1
90 89 1
90 92 1
90 93 1
91 89 1
91 92 1
91 98 1
91 99 1
92 89 1
92 90 1
92 91 1
92 93 1
93 90 1
93 92 1
93 94 1
93 96 1
94 88 1
94 93 1
94 95 1
94 96 1
95 88 1
95 94 1
95 96 1
95 97 1
96 93 1
96 94 1
96 95 1
96 97 1
97 95 1
97 96 1
97 111 1
97 112 1
98 91 1
98 99 1
98 100 1
98 101 1
99 91 1
99 98 1
99 101 1
99 102 1
100 98 1
100 101 1
100 103 1
100 104 1
101 98 1
101 99 1
101 100 1
101 102 1
102 99 1
102 101 1
102 107 1
102 108 1
103 83 1
103 100 1
103 104 1
103 105 1
104 100 1
104 103 1
104 105 1
104 106 1
105 83 1
105 103 1
105 104 1
105 106 1
106 104 1
106 105 1
106 107 1
106 109 1
107 102 1
107 106 1
107 108 1
107 109 1
108 102 1
108 107 1
108 109 1
108 110 1
109 106 1
109 107 1
109 108 1
109 110 1
110 108 1
110 109 1
110 116 1
110 118 1
111 97 1
111 112 1
111 113 1
111 114 1
112 97 1
112 111 1
112 114 1
112 115 1
113 111 1
113 114 1
113 116 1
113 117 1
114 111 1
114 112 1
114 113 1
114 115 1
115 112 1
115 114 1
115 120 1
115 121 1
116 110 1
116 113 1
116 117 1
116 118 1
117 113 1
117 116 1
117 118 1
117 119 1
118 110 1
118 116 1
118 117 1
118 119 1
119 117 1
119 118 1
119 120 1
119 122 1
120 115 1
120 119 1
120 121 1
120 122 1
121 115 1
121 120 1
121 122 1
121 123 1
122 119 1
122 120 1
122 121 1
122 123 1
123 121 1
123 122 1
123 246 1
123 247 1
124 64 1
124 125 1
124 126 1
124 127 1
125 64 1
125 124 1
125 127 1
125 128 1
126 124 1
126 127 1
126 129 1
126 130 1
127 124 1
127 125 1
127 126 1
127 128 1
128 125 1
128 127 1
128 134 1
128 135 1
129 126 1
129 130 1
129 131 1
129 132 1
130 126 1
130 129 1
130 132 1
130 133 1
131 129 1
131 132 1
131 138 1
131 139 1
132 129 1
132 130 1
132 131 1
132 133 1
133 130 1
133 132 1
133 134 1
133 136 1
134 128 1
134 133 1
134 135 1
134 136 1
135 128 1
135 134 1
135 136 1
135 137 1
136 133 1
136 134 1
136 135 1
136 137 1
137 135 1
137 136 1
137 152 1
137 153 1
138 131 1
138 139 1
138 140 1
138 141 1
139 131 1
139 138 1
139 141 1
139 142 1
140 138 1
140 141 1
140 143 1
140 144 1
141 138 1
141 139 1
141 140 1
141 142 1
142 139 1
142 141 1
142 148 1
142 149 1
143 140 1
143 144 1
143 145 1
143 146 1
144 140 1
144 143 1
144 146 1
144 147 1
145 143 1
145 146 1
145 165 1
145 166 1
146 143 1
146 144 1
146 145 1
146 147 1
147 144 1
147 146 1
147 148 1
147 150 1
148 142 1
148 147 1
148 149 1
148 150 1
149 142 1
149 148 1
149 150 1
149 151 1
150 147 1
150 148 1
150 149 1
150 151 1
151 149 1
151 150 1
151 157 1
151 159 1
152 137 1
152 153 1
152 154 1
152 155 1
153 137 1
153 152 1
153 155 1
153 156 1
154 152 1
154 155 1
154 157 1
154 158 1
155 152 1
155 153 1
155 154 1
155 156 1
156 153 1
156 155 1
156 161 1
156 162 1
157 151 1
157 154 1
157 158 1
157 159 1
158 154 1
158 157 1
158 159 1
158 160 1
159 151 1
159 157 1
159 158 1
159 160 1
160 158 1
160 159 1
160 161 1
160 163 1
161 156 1
161 160 1
161 162 1
161 163 1
162 156 1
162 161 1
162 163 1
162 164 1
163 160 1
163 161 1
163 162 1
163 164 1
164 162 1
164 163 1
164 206 1
164 207 1
165 145 1
165 166 1
165 167 1
165 168 1
166 145 1
166 165 1
166 168 1
166 169 1
167 165 1
167 168 1
167 170 1
167 171 1
168 165 1
168 166 1
168 167 1
168 169 1
169 166 1
169 168 1
169 175 1
169 176 1
170 167 1
170 171 1
170 172 1
170 173 1
171 167 1
171 170 1
171 173 1
171 174 1
172 170 1
172 173 1
172 179 1
172 180 1
173 170 1
173 171 1
173 172 1
173 174 1
174 171 1
174 173 1
174 175 1
174 177 1
175 169 1
175 174 1
175 176 1
175 177 1
176 169 1
176 175 1
176 177 1
176 178 1
177 174 1
177 175 1
177 176 1
177 178 1
178 176 1
178 177 1
178 193 1
178 194 1
179 172 1
179 180 1
179 181 1
179 182 1
180 172 1
180 179 1
180 182 1
180 183 1
181 179 1
181 182 1
181 184 1
181 185 1
182 179 1
182 180 1
182 181 1
182 183 1
183 180 1
183 182 1
183 189 1
183 190 1
184 181 1
184 185 1
184 186 1
184 187 1
185 181 1
185 184 1
185 187 1
185 188 1
186 184 1
186 187 1
186 367 1
186 368 1
187 184 1
187 185 1
187 186 1
187 188 1
188 185 1
188 187 1
188 189 1
188 191 1
189 183 1
189 188 1
189 190 1
189 191 1
190 183 1
190 189 1
190 191 1
190 192 1
191 188 1
191 189 1
191 190 1
191 192 1
192 190 1
192 191 1
192 198 1
192 200 1
193 178 1
193 194 1
193 195 1
193 196 1
194 178 1
194 193 1
194 196 1
194 197 1
195 193 1
195 196 1
195 198 1
195 199 1
196 193 1
196 194 1
196 195 1
196 197 1
197 194 1
197 196 1
197 202 1
197 203 1
198 192 1
198 195 1
198 199 1
198 200 1
199 195 1
199 198 1
199 200 1
199 201 1
200 192 1
200 198 1
200 199 1
200 201 1
201 199 1
201 200 1
201 202 1
201 204 1
202 197 1
202 201 1
202 203 1
202 204 1
203 197 1
203 202 1
203 204 1
203 205 1
204 201 1
204 202 1
204 203 1
204 205 1
205 203 1
205 204 1
205 225 1
205 227 1
206 164 1
206 207 1
206 208 1
206 209 1
207 164 1
207 206 1
207 209 1
207 210 1
208 206 1
208 209 1
208 211 1
208 212 1
209 206 1
209 207 1
209 208 1
209 210 1
210 207 1
210 209 1
210 216 1
210 217 1
211 208 1
211 212 1
211 213 1
211 214 1
212 208 1
212 211 1
212 214 1
212 215 1
213 211 1
213 214 1
213 220 1
213 221 1
214 211 1
214 212 1
214 213 1
214 215 1
215 212 1
215 214 1
215 216 1
215 218 1
216 210 1
216 215 1
216 217 1
216 218 1
217 210 1
217 216 1
217 218 1
217 219 1
218 215 1
218 216 1
218 217 1
218 219 1
219 217 1
219 218 1
219 233 1
219 234 1
220 213 1
220 221 1
220 222 1
220 223 1
221 213 1
221 220 1
221 223 1
221 224 1
222 220 1
222 223 1
222 225 1
222 226 1
223 220 1
223 221 1
223 222 1
223 224 1
224 221 1
224 223 1
224 229 1
224 230 1
225 205 1
225 222 1
225 226 1
225 227 1
226 222 1
226 225 1
226 227 1
226 228 1
227 205 1
227 225 1
227 226 1
227 228 1
228 226 1
228 227 1
228 229 1
228 231 1
229 224 1
229 228 1
229 230 1
229 231 1
230 224 1
230 229 1
230 231 1
230 232 1
231 228 1
231 229 1
231 230 1
231 232 1
232 230 1
232 231 1
232 238 1
232 240 1
233 219 1
233 234 1
233 235 1
233 236 1
234 219 1
234 233 1
234 236 1
234 237 1
235 233 1
235 236 1
235 238 1
235 239 1
236 233 1
236 234 1
236 235 1
236 237 1
237 234 1
237 236 1
237 242 1
237 243 1
238 232 1
238 235 1
238 239 1
238 240 1
239 235 1
239 238 1
239 240 1
239 241 1
240 232 1
240 238 1
240 239 1
240 241 1
241 239 1
241 240 1
241 242 1
241 244 1
242 237 1
242 241 1
242 243 1
242 244 1
243 237 1
243 242 1
243 244 1
243 245 1
244 241 1
244 242 1
244 243 1
244 245 1
245 243 1
245 244 1
245 306 1
245 308 1
246 123 1
246 247 1
246 248 1
246 249 1
247 123 1
247 246 1
247 249 1
247 250 1
248 246 1
248 249 1
248 251 1
248 252 1
249 246 1
249 247 1
249 248 1
249 250 1
250 247 1
250 249 1
250 256 1
250 257 1
251 248 1
251 252 1
251 253 1
251 254 1
252 248 1
252 251 1
252 254 1
252 255 1
253 251 1
253 254 1
253 260 1
253 261 1
254 251 1
254 252 1
254 253 1
254 255 1
255 252 1
255 254 1
255 256 1
255 258 1
256 250 1
256 255 1
256 257 1
256 258 1
257 250 1
257 256 1
257 258 1
257 259 1
258 255 1
258 256 1
258 257 1
258 259 1
259 257 1
259 258 1
259 274 1
259 275 1
260 253 1
260 261 1
260 262 1
260 263 1
261 253 1
261 260 1
261 263 1
261 264 1
262 260 1
262 263 1
262 265 1
262 266 1
263 260 1
263 261 1
263 262 1
263 264 1
264 261 1
264 263 1
264 270 1
264 271 1
265 262 1
265 266 1
265 267 1
265 268 1
266 262 1
266 265 1
266 268 1
266 269 1
267 265 1
267 268 1
267 287 1
267 288 1
268 265 1
268 266 1
268 267 1
268 269 1
269 266 1
269 268 1
269 270 1
269 272 1
270 264 1
270 269 1
270 271 1
270 272 1
271 264 1
271 270 1
271 272 1
271 273 1
272 269 1
272 270 1
272 271 1
272 273 1
273 271 1
273 272 1
273 279 1
273 281 1
274 259 1
274 275 1
274 276 1
274 277 1
275 259 1
275 274 1
275 277 1
275 278 1
276 274 1
276 277 1
276 279 1
276 280 1
277 274 1
277 275 1
277 276 1
277 278 1
278 275 1
278 277 1
278 283 1
278 284 1
279 273 1
279 276 1
279 280 1
279 281 1
280 276 1
280 279 1
280 281 1
280 282 1
281 273 1
281 279 1
281 280 1
281 282 1
282 280 1
282 281 1
282 283 1
282 285 1
283 278 1
283 282 1
283 284 1
283 285 1
284 278 1
284 283 1
284 285 1
284 286 1
285 282 1
285 283 1
285 284 1
285 286 1
286 284 1
286 285 1
286 327 1
286 328 1
287 267 1
287 288 1
287 289 1
287 290 1
288 267 1
288 287 1
288 290 1
288 291 1
289 287 1
289 290 1
289 292 1
289 293 1
290 287 1
290 288 1
290 289 1
290 291 1
291 288 1
291 290 1
291 297 1
291 298 1
292 289 1
292 293 1
292 294 1
292 295 1
293 289 1
293 292 1
293 295 1
293 296 1
294 292 1
294 295 1
294 301 1
294 302 1
295 292 1
295 293 1
295 294 1
295 296 1
296 293 1
296 295 1
296 297 1
296 299 1
297 291 1
297 296 1
297 298 1
297 299 1
298 291 1
298 297 1
298 299 1
298 300 1
299 296 1
299 297 1
299 298 1
299 300 1
300 298 1
300 299 1
300 314 1
300 315 1
301 294 1
301 302 1
301 303 1
301 304 1
302 294 1
302 301 1
302 304 1
302 305 1
303 301 1
303 304 1
303 306 1
303 307 1
304 301 1
304 302 1
304 303 1
304 305 1
305 302 1
305 304 1
305 310 1
305 311 1
306 245 1
306 303 1
306 307 1
306 308 1
307 303 1
307 306 1
307 308 1
307 309 1
308 245 1
308 306 1
308 307 1
308 309 1
309 307 1
309 308 1
309 310 1
309 312 1
310 305 1
310 309 1
310 311 1
310 312 1
311 305 1
311 310 1
311 312 1
311 313 1
312 309 1
312 310 1
312 311 1
312 313 1
313 311 1
313 312 1
313 319 1
313 321 1
314 300 1
314 315 1
314 316 1
314 317 1
315 300 1
315 314 1
315 317 1
315 318 1
316 314 1
316 317 1
316 319 1
316 320 1
317 314 1
317 315 1
317 316 1
317 318 1
318 315 1
318 317 1
318 323 1
318 324 1
319 313 1
319 316 1
319 320 1
319 321 1
320 316 1
320 319 1
320 321 1
320 322 1
321 313 1
321 319 1
321 320 1
321 322 1
322 320 1
322 321 1
322 323 1
322 325 1
323 318 1
323 322 1
323 324 1
323 325 1
324 318 1
324 323 1
324 325 1
324 326 1
325 322 1
325 323 1
325 324 1
325 326 1
326 324 1
326 325 1
326 346 1
326 348 1
327 286 1
327 328 1
327 329 1
327 330 1
328 286 1
328 327 1
328 330 1
328 331 1
329 327 1
329 330 1
329 332 1
329 333 1
330 327 1
330 328 1
330 329 1
330 331 1
331 328 1
331 330 1
331 337 1
331 338 1
332 329 1
332 333 1
332 334 1
332 335 1
333 329 1
333 332 1
333 335 1
333 336 1
334 332 1
334 335 1
334 341 1
334 342 1
335 332 1
335 333 1
335 334 1
335 336 1
336 333 1
336 335 1
336 337 1
336 339 1
337 331 1
337 336 1
337 338 1
337 339 1
338 331 1
338 337 1
338 339 1
338 340 1
339 336 1
339 337 1
339 338 1
339 340 1
340 338 1
340 339 1
340 354 1
340 355 1
341 334 1
341 342 1
341 343 1
341 344 1
342 334 1
342 341 1
342 344 1
342 345 1
343 341 1
343 344 1
343 346 1
343 347 1
344 341 1
344 342 1
344 343 1
344 345 1
345 342 1
345 344 1
345 350 1
345 351 1
346 326 1
346 343 1
346 347 1
346 348 1
347 343 1
347 346 1
347 348 1
347 349 1
348 326 1
348 346 1
348 347 1
348 349 1
349 347 1
349 348 1
349 350 1
349 352 1
350 345 1
350 349 1
350 351 1
350 352 1
351 345 1
351 350 1
351 352 1
351 353 1
352 349 1
352 350 1
352 351 1
352 353 1
353 351 1
353 352 1
353 359 1
353 361 1
354 340 1
354 355 1
354 356 1
354 357 1
355 340 1
355 354 1
355 357 1
355 358 1
356 354 1
356 357 1
356 359 1
356 360 1
357 354 1
357 355 1
357 356 1
357 358 1
358 355 1
358 357 1
358 363 1
358 364 1
359 353 1
359 356 1
359 360 1
359 361 1
360 356 1
360 359 1
360 361 1
360 362 1
361 353 1
361 359 1
361 360 1
361 362 1
362 360 1
362 361 1
362 363 1
362 365 1
363 358 1
363 362 1
363 364 1
363 365 1
364 358 1
364 363 1
364 365 1
364 366 1
365 362 1
365 363 1
365 364 1
365 366 1
366 364 1
366 365 1
366 732 1
366 733 1
367 186 1
367 368 1
367 369 1
367 370 1
368 186 1
368 367 1
368 370 1
368 371 1
369 367 1
369 370 1
369 372 1
369 373 1
370 367 1
370 368 1
370 369 1
370 371 1
371 368 1
371 370 1
371 377 1
371 378 1
372 369 1
372 373 1
372 374 1
372 375 1
373 369 1
373 372 1
373 375 1
373 376 1
374 372 1
374 375 1
374 381 1
374 382 1
375 372 1
375 373 1
375 374 1
375 376 1
376 373 1
376 375 1
376 377 1
376 379 1
377 371 1
377 376 1
377 378 1
377 379 1
378 371 1
378 377 1
378 379 1
378 380 1
379 376 1
379 377 1
379 378 1
379 380 1
380 378 1
380 379 1
380 395 1
380 396 1
381 374 1
381 382 1
381 383 1
381 384 1
382 374 1
382 381 1
382 384 1
382 385 1
383 381 1
383 384 1
383 386 1
383 387 1
384 381 1
384 382 1
384 383 1
384 385 1
385 382 1
385 384 1
385 391 1
385 392 1
386 383 1
386 387 1
386 388 1
386 389 1
387 383 1
387 386 1
387 389 1
387 390 1
388 386 1
388 389 1
388 408 1
388 409 1
389 386 1
389 387 1
389 388 1
389 390 1
390 387 1
390 389 1
390 391 1
390 393 1
391 385 1
391 390 1
391 392 1
391 393 1
392 385 1
392 391 1
392 393 1
392 394 1
393 390 1
393 391 1
393 392 1
393 394 1
394 392 1
394 393 1
394 400 1
394 402 1
395 380 1
395 396 1
395 397 1
395 398 1
396 380 1
396 395 1
396 398 1
396 399 1
397 395 1
397 398 1
397 400 1
397 401 1
398 395 1
398 396 1
398 397 1
398 399 1
399 396 1
399 398 1
399 404 1
399 405 1
400 394 1
400 397 1
400 401 1
400 402 1
401 397 1
401 400 1
401 402 1
401 403 1
402 394 1
402 400 1
402 401 1
402 403 1
403 401 1
403 402 1
403 404 1
403 406 1
404 399 1
404 403 1
404 405 1
404 406 1
405 399 1
405 404 1
405 406 1
405 407 1
406 403 1
406 404 1
406 405 1
406 407 1
407 405 1
407 406 1
407 449 1
407 450 1
408 388 1
408 409 1
408 410 1
408 411 1
409 388 1
409 408 1
409 411 1
409 412 1
410 408 1
410 411 1
410 413 1
410 414 1
411 408 1
411 409 1
411 410 1
411 412 1
412 409 1
412 411 1
412 418 1
412 419 1
413 410 1
413 414 1
413 415 1
413 416 1
414 410 1
414 413 1
414 416 1
414 417 1
415 413 1
415 416 1
415 422 1
415 423 1
416 413 1
416 414 1
416 415 1
416 417 1
417 414 1
417 416 1
417 418 1
417 420 1
418 412 1
418 417 1
418 419 1
418 420 1
419 412 1
419 418 1
419 420 1
419 421 1
420 417 1
420 418 1
420 419 1
420 421 1
421 419 1
421 420 1
421 436 1
421 437 1
422 415 1
422 423 1
422 424 1
422 425 1
423 415 1
423 422 1
423 425 1
423 426 1
424 422 1
424 425 1
424 427 1
424 428 1
425 422 1
425 423 1
425 424 1
425 426 1
426 423 1
426 425 1
426 432 1
426 433 1
427 424 1
427 428 1
427 429 1
427 430 1
428 424 1
428 427 1
428 430 1
428 431 1
429 427 1
429 430 1
429 489 1
429 490 1
430 427 1
430 428 1
430 429 1
430 431 1
431 428 1
431 430 1
431 432 1
431 434 1
432 426 1
432 431 1
432 433 1
432 434 1
433 426 1
433 432 1
433 434 1
433 435 1
434 431 1
434 432 1
434 433 1
434 435 1
435 433 1
435 434 1
435 441 1
435 443 1
436 421 1
436 437 1
436 438 1
436 439 1
437 421 1
437 436 1
437 439 1
437 440 1
438 436 1
438 439 1
438 441 1
438 442 1
439 436 1
439 437 1
439 438 1
439 440 1
440 437 1
440 439 1
440 445 1
440 446 1
441 435 1
441 438 1
441 442 1
441 443 1
442 438 1
442 441 1
442 443 1
442 444 1
443 435 1
443 441 1
443 442 1
443 444 1
444 442 1
444 443 1
444 445 1
444 447 1
445 440 1
445 444 1
445 446 1
445 447 1
446 440 1
446 445 1
446 447 1
446 448 1
447 444 1
447 445 1
447 446 1
447 448 1
448 446 1
448 447 1
448 468 1
448 470 1
449 407 1
449 450 1
449 451 1
449 452 1
450 407 1
450 449 1
450 452 1
450 453 1
451 449 1
451 452 1
451 454 1
451 455 1
452 449 1
452 450 1
452 451 1
452 453 1
453 450 1
453 452 1
453 459 1
453 460 1
454 451 1
454 455 1
454 456 1
454 457 1
455 451 1
455 454 1
455 457 1
455 458 1
456 454 1
456 457 1
456 463 1
456 464 1
457 454 1
457 455 1
457 456 1
457 458 1
458 455 1
458 457 1
458 459 1
458 461 1
459 453 1
459 458 1
459 460 1
459 461 1
460 453 1
460 459 1
460 461 1
460 462 1
461 458 1
461 459 1
461 460 1
461 462 1
462 460 1
462 461 1
462 476 1
462 477 1
463 456 1
463 464 1
463 465 1
463 466 1
464 456 1
464 463 1
464 466 1
464 467 1
465 463 1
465 466 1
465 468 1
465 469 1
466 463 1
466 464 1
466 465 1
466 467 1
467 464 1
467 466 1
467 472 1
467 473 1
468 448 1
468 465 1
468 469 1
468 470 1
469 465 1
469 468 1
469 470 1
469 471 1
470 448 1
470 468 1
470 469 1
470 471 1
471 469 1
471 470 1
471 472 1
471 474 1
472 467 1
472 471 1
472 473 1
472 474 1
473 467 1
473 472 1
473 474 1
473 475 1
474 471 1
474 472 1
474 473 1
474 475 1
475 473 1
475 474 1
475 481 1
475 483 1
476 462 1
476 477 1
476 478 1
476 479 1
477 462 1
477 476 1
477 479 1
477 480 1
478 476 1
478 479 1
478 481 1
478 482 1
479 476 1
479 477 1
479 478 1
479 480 1
480 477 1
480 479 1
480 485 1
480 486 1
481 475 1
481 478 1
481 482 1
481 483 1
482 478 1
482 481 1
482 483 1
482 484 1
483 475 1
483 481 1
483 482 1
483 484 1
484 482 1
484 483 1
484 485 1
484 487 1
485 480 1
485 484 1
485 486 1
485 487 1
486 480 1
486 485 1
486 487 1
486 488 1
487 484 1
487 485 1
487 486 1
487 488 1
488 486 1
488 487 1
488 611 1
488 612 1
489 429 1
489 490 1
489 491 1
489 492 1
490 429 1
490 489 1
490 492 1
490 493 1
491 489 1
491 492 1
491 494 1
491 495 1
492 489 1
492 490 1
492 491 1
492 493 1
493 490 1
493 492 1
493 499 1
493 500 1
494 491 1
494 495 1
494 496 1
494 497 1
495 491 1
495 494 1
495 497 1
495 498 1
496 494 1
496 497 1
496 503 1
496 504 1
497 494 1
497 495 1
497 496 1
497 498 1
498 495 1
498 497 1
498 499 1
498 501 1
499 493 1
499 498 1
499 500 1
499 501 1
500 493 1
500 499 1
500 501 1
500 502 1
501 498 1
501 499 1
501 500 1
501 502 1
502 500 1
502 501 1
502 517 1
502 518 1
503 496 1
503 504 1
503 505 1
503 506 1
504 496 1
504 503 1
504 506 1
504 507 1
505 503 1
505 506 1
505 508 1
505 509 1
506 503 1
506 504 1
506 505 1
506 507 1
507 504 1
507 506 1
507 513 1
507 514 1
508 505 1
508 509 1
508 510 1
508 511 1
509 505 1
509 508 1
509 511 1
509 512 1
510 508 1
510 511 1
510 530 1
510 531 1
511 508 1
511 509 1
511 510 1
511 512 1
512 509 1
512 511 1
512 513 1
512 515 1
513 507 1
513 512 1
513 514 1
513 515 1
514 507 1
514 513 1
514 515 1
514 516 1
515 512 1
515 513 1
515 514 1
515 516 1
516 514 1
516 515 1
516 522 1
516 524 1
517 502 1
517 518 1
517 519 1
517 520 1
518 502 1
518 517 1
518 520 1
518 521 1
519 517 1
519 520 1
519 522 1
519 523 1
520 517 1
520 518 1
520 519 1
520 521 1
521 518 1
521 520 1
521 526 1
521 527 1
522 516 1
522 519 1
522 523 1
522 524 1
523 519 1
523 522 1
523 524 1
523 525 1
524 516 1
524 522 1
524 523 1
524 525 1
525 523 1
525 524 1
525 526 1
525 528 1
526 521 1
526 525 1
526 527 1
526 528 1
527 521 1
527 526 1
527 528 1
527 529 1
528 525 1
528 526 1
528 527 1
528 529 1
529 527 1
529 528 1
529 571 1
529 572 1
530 510 1
530 531 1
530 532 1
530 533 1
531 510 1
531 530 1
531 533 1
531 534 1
532 530 1
532 533 1
532 535 1
532 536 1
533 530 1
533 531 1
533 532 1
533 534 1
534 531 1
534 533 1
534 540 1
534 541 1
535 532 1
535 536 1
535 537 1
535 538 1
536 532 1
536 535 1
536 538 1
536 539 1
537 535 1
537 538 1
537 544 1
537 545 1
538 535 1
538 536 1
538 537 1
538 539 1
539 536 1
539 538 1
539 540 1
539 542 1
540 534 1
540 539 1
540 541 1
540 542 1
541 534 1
541 540 1
541 542 1
541 543 1
542 539 1
542 540 1
542 541 1
542 543 1
543 541 1
543 542 1
543 558 1
543 559 1
544 537 1
544 545 1
544 546 1
544 547 1
545 537 1
545 544 1
545 547 1
545 548 1
546 544 1
546 547 1
546 549 1
546 550 1
547 544 1
547 545 1
547 546 1
547 548 1
548 545 1
548 547 1
548 554 1
548 555 1
549 546 1
549 550 1
549 551 1
549 552 1
550 546 1
550 549 1
550 552 1
550 553 1
551 549 1
551 552 1
552 549 1
552 550 1
552 551 1
552 553 1
553 550 1
553 552 1
553 554 1
553 556 1
554 548 1
554 553 1
554 555 1
554 556 1
555 548 1
555 554 1
555 556 1
555 557 1
556 553 1
556 554 1
556 555 1
556 557 1
557 555 1
557 556 1
557 563 1
557 565 1
558 543 1
558 559 1
558 560 1
558 561 1
559 543 1
559 558 1
559 561 1
559 562 1
560 558 1
560 561 1
560 563 1
560 564 1
561 558 1
561 559 1
561 560 1
561 562 1
562 559 1
562 561 1
562 567 1
562 568 1
563 557 1
563 560 1
563 564 1
563 565 1
564 560 1
564 563 1
564 565 1
564 566 1
565 557 1
565 563 1
565 564 1
565 566 1
566 564 1
566 565 1
566 567 1
566 569 1
567 562 1
567 566 1
567 568 1
567 569 1
568 562 1
568 567 1
568 569 1
568 570 1
569 566 1
569 567 1
569 568 1
569 570 1
570 568 1
570 569 1
570 590 1
570 592 1
571 529 1
571 572 1
571 573 1
571 574 1
572 529 1
572 571 1
572 574 1
572 575 1
573 571 1
573 574 1
573 576 1
573 577 1
574 571 1
574 572 1
574 573 1
574 575 1
575 572 1
575 574 1
575 581 1
575 582 1
576 573 1
576 577 1
576 578 1
576 579 1
577 573 1
577 576 1
577 579 1
577 580 1
578 576 1
578 579 1
578 585 1
578 586 1
579 576 1
579 577 1
579 578 1
579 580 1
580 577 1
580 579 1
580 581 1
580 583 1
581 575 1
581 580 1
581 582 1
581 583 1
582 575 1
582 581 1
582 583 1
582 584 1
583 580 1
583 581 1
583 582 1
583 584 1
584 582 1
584 583 1
584 598 1
584 599 1
585 578 1
585 586 1
585 587 1
585 588 1
586 578 1
586 585 1
586 588 1
586 589 1
587 585 1
587 588 1
587 590 1
587 591 1
588 585 1
588 586 1
588 587 1
588 589 1
589 586 1
589 588 1
589 594 1
589 595 1
590 570 1
590 587 1
590 591 1
590 592 1
591 587 1
591 590 1
591 592 1
591 593 1
592 570 1
592 590 1
592 591 1
592 593 1
593 591 1
593 592 1
593 594 1
593 596 1
594 589 1
594 593 1
594 595 1
594 596 1
595 589 1
595 594 1
595 596 1
595 597 1
596 593 1
596 594 1
596 595 1
596 597 1
597 595 1
597 596 1
597 603 1
597 605 1
598 584 1
598 599 1
598 600 1
598 601 1
599 584 1
599 598 1
599 601 1
599 602 1
600 598 1
600 601 1
600 603 1
600 604 1
601 598 1
601 599 1
601 600 1
601 602 1
602 599 1
602 601 1
602 607 1
602 608 1
603 597 1
603 600 1
603 604 1
603 605 1
604 600 1
604 603 1
604 605 1
604 606 1
605 597 1
605 603 1
605 604 1
605 606 1
606 604 1
606 605 1
606 607 1
606 609 1
607 602 1
607 606 1
607 608 1
607 609 1
608 602 1
608 607 1
608 609 1
608 610 1
609 606 1
609 607 1
609 608 1
609 610 1
610 608 1
610 609 1
610 671 1
610 673 1
611 488 1
611 612 1
611 613 1
611 614 1
612 488 1
612 611 1
612 614 1
612 615 1
613 611 1
613 614 1
613 616 1
613 617 1
614 611 1
614 612 1
614 613 1
614 615 1
615 612 1
615 614 1
615 621 1
615 622 1
616 613 1
616 617 1
616 618 1
616 619 1
617 613 1
617 616 1
617 619 1
617 620 1
618 616 1
618 619 1
618 625 1
618 626 1
619 616 1
619 617 1
619 618 1
619 620 1
620 617 1
620 619 1
620 621 1
620 623 1
621 615 1
621 620 1
621 622 1
621 623 1
622 615 1
622 621 1
622 623 1
622 624 1
623 620 1
623 621 1
623 622 1
623 624 1
624 622 1
624 623 1
624 639 1
624 640 1
625 618 1
625 626 1
625 627 1
625 628 1
626 618 1
626 625 1
626 628 1
626 629 1
627 625 1
627 628 1
627 630 1
627 631 1
628 625 1
628 626 1
628 627 1
628 629 1
629 626 1
629 628 1
629 635 1
629 636 1
630 627 1
630 631 1
630 632 1
630 633 1
631 627 1
631 630 1
631 633 1
631 634 1
632 630 1
632 633 1
632 652 1
632 653 1
633 630 1
633 631 1
633 632 1
633 634 1
634 631 1
634 633 1
634 635 1
634 637 1
635 629 1
635 634 1
635 636 1
635 637 1
636 629 1
636 635 1
636 637 1
636 638 1
637 634 1
637 635 1
637 636 1
637 638 1
638 636 1
638 637 1
638 644 1
638 646 1
639 624 1
639 640 1
639 641 1
639 642 1
640 624 1
640 639 1
640 642 1
640 643 1
641 639 1
641 642 1
641 644 1
641 645 1
642 639 1
642 640 1
642 641 1
642 643 1
643 640 1
643 642 1
643 648 1
643 649 1
644 638 1
644 641 1
644 645 1
644 646 1
645 641 1
645 644 1
645 646 1
645 647 1
646 638 1
646 644 1
646 645 1
646 647 1
647 645 1
647 646 1
647 648 1
647 650 1
648 643 1
648 647 1
648 649 1
648 650 1
649 643 1
649 648 1
649 650 1
649 651 1
650 647 1
650 648 1
650 649 1
650 651 1
651 649 1
651 650 1
651 692 1
651 693 1
652 632 1
652 653 1
652 654 1
652 655 1
653 632 1
653 652 1
653 655 1
653 656 1
654 652 1
654 655 1
654 657 1
654 658 1
655 652 1
655 653 1
655 654 1
655 656 1
656 653 1
656 655 1
656 662 1
656 663 1
657 654 1
657 658 1
657 659 1
657 660 1
658 654 1
658 657 1
658 660 1
658 661 1
659 657 1
659 660 1
659 666 1
659 667 1
660 657 1
660 658 1
660 659 1
660 661 1
661 658 1
661 660 1
661 662 1
661 664 1
662 656 1
662 661 1
662 663 1
662 664 1
663 656 1
663 662 1
663 664 1
663 665 1
664 661 1
664 662 1
664 663 1
664 665 1
665 663 1
665 664 1
665 679 1
665 680 1
666 659 1
666 667 1
666 668 1
666 669 1
667 659 1
667 666 1
667 669 1
667 670 1
668 666 1
668 669 1
668 671 1
668 672 1
669 666 1
669 667 1
669 668 1
669 670 1
670 667 1
670 669 1
670 675 1
670 676 1
671 610 1
671 668 1
671 672 1
671 673 1
672 668 1
672 671 1
672 673 1
672 674 1
673 610 1
673 671 1
673 672 1
673 674 1
674 672 1
674 673 1
674 675 1
674 677 1
675 670 1
675 674 1
675 676 1
675 677 1
676 670 1
676 675 1
676 677 1
676 678 1
677 674 1
677 675 1
677 676 1
677 678 1
678 676 1
678 677 1
678 684 1
678 686 1
679 665 1
679 680 1
679 681 1
679 682 1
680 665 1
680 679 1
680 682 1
680 683 1
681 679 1
681 682 1
681 684 1
681 685 1
682 679 1
682 680 1
682 681 1
682 683 1
683 680 1
683 682 1
683 688 1
683 689 1
684 678 1
684 681 1
684 685 1
684 686 1
685 681 1
685 684 1
685 686 1
685 687 1
686 678 1
686 684 1
686 685 1
686 687 1
687 685 1
687 686 1
687 688 1
687 690 1
688 683 1
688 687 1
688 689 1
688 690 1
689 683 1
689 688 1
689 690 1
689 691 1
690 687 1
690 688 1
690 689 1
690 691 1
691 689 1
691 690 1
691 711 1
691 713 1
692 651 1
692 693 1
692 694 1
692 695 1
693 651 1
693 692 1
693 695 1
693 696 1
694 692 1
694 695 1
694 697 1
694 698 1
695 692 1
695 693 1
695 694 1
695 696 1
696 693 1
696 695 1
696 702 1
696 703 1
697 694 1
697 698 1
697 699 1
697 700 1
698 694 1
698 697 1
698 700 1
698 701 1
699 697 1
699 700 1
699 706 1
699 707 1
700 697 1
700 698 1
700 699 1
700 701 1
701 698 1
701 700 1
701 702 1
701 704 1
702 696 1
702 701 1
702 703 1
702 704 1
703 696 1
703 702 1
703 704 1
703 705 1
704 701 1
704 702 1
704 703 1
704 705 1
705 703 1
705 704 1
705 719 1
705 720 1
706 699 1
706 707 1
706 708 1
706 709 1
707 699 1
707 706 1
707 709 1
707 710 1
708 706 1
708 709 1
708 711 1
708 712 1
709 706 1
709 707 1
709 708 1
709 710 1
710 707 1
710 709 1
710 715 1
710 716 1
711 691 1
711 708 1
711 712 1
711 713 1
712 708 1
712 711 1
712 713 1
712 714 1
713 691 1
713 711 1
713 712 1
713 714 1
714 712 1
714 713 1
714 715 1
714 717 1
715 710 1
715 714 1
715 716 1
715 717 1
716 710 1
716 715 1
716 717 1
716 718 1
717 714 1
717 715 1
717 716 1
717 718 1
718 716 1
718 717 1
718 724 1
718 726 1
719 705 1
719 720 1
719 721 1
719 722 1
720 705 1
720 719 1
720 722 1
720 723 1
721 719 1
721 722 1
721 724 1
721 725 1
722 719 1
722 720 1
722 721 1
722 723 1
723 720 1
723 722 1
723 728 1
723 729 1
724 718 1
724 721 1
724 725 1
724 726 1
725 721 1
725 724 1
725 726 1
725 727 1
726 718 1
726 724 1
726 725 1
726 727 1
727 725 1
727 726 1
727 728 1
727 730 1
728 723 1
728 727 1
728 729 1
728 730 1
729 723 1
729 728 1
729 730 1
729 731 1
730 727 1
730 728 1
730 729 1
730 731 1
731 729 1
731 730 1
731 914 1
731 916 1
732 366 1
732 733 1
732 734 1
732 735 1
733 366 1
733 732 1
733 735 1
733 736 1
734 732 1
734 735 1
734 737 1
734 738 1
735 732 1
735 733 1
735 734 1
735 736 1
736 733 1
736 735 1
736 742 1
736 743 1
737 734 1
737 738 1
737 739 1
737 740 1
738 734 1
738 737 1
738 740 1
738 741 1
739 737 1
739 740 1
739 746 1
739 747 1
740 737 1
740 738 1
740 739 1
740 741 1
741 738 1
741 740 1
741 742 1
741 744 1
742 736 1
742 741 1
742 743 1
742 744 1
743 736 1
743 742 1
743 744 1
743 745 1
744 741 1
744 742 1
744 743 1
744 745 1
745 743 1
745 744 1
745 760 1
745 761 1
746 739 1
746 747 1
746 748 1
746 749 1
747 739 1
747 746 1
747 749 1
747 750 1
748 746 1
748 749 1
748 751 1
748 752 1
749 746 1
749 747 1
749 748 1
749 750 1
750 747 1
750 749 1
750 756 1
750 757 1
751 748 1
751 752 1
751 753 1
751 754 1
752 748 1
752 751 1
752 754 1
752 755 1
753 751 1
753 754 1
753 773 1
753 774 1
754 751 1
754 752 1
754 753 1
754 755 1
755 752 1
755 754 1
755 756 1
755 758 1
756 750 1
756 755 1
756 757 1
756 758 1
757 750 1
757 756 1
757 758 1
757 759 1
758 755 1
758 756 1
758 757 1
758 759 1
759 757 1
759 758 1
759 765 1
759 767 1
760 745 1
760 761 1
760 762 1
760 763 1
761 745 1
761 760 1
761 763 1
761 764 1
762 760 1
762 763 1
762 765 1
762 766 1
763 760 1
763 761 1
763 762 1
763 764 1
764 761 1
764 763 1
764 769 1
764 770 1
765 759 1
765 762 1
765 766 1
765 767 1
766 762 1
766 765 1
766 767 1
766 768 1
767 759 1
767 765 1
767 766 1
767 768 1
768 766 1
768 767 1
768 769 1
768 771 1
769 764 1
769 768 1
769 770 1
769 771 1
770 764 1
770 769 1
770 771 1
770 772 1
771 768 1
771 769 1
771 770 1
771 772 1
772 770 1
772 771 1
772 814 1
772 815 1
773 753 1
773 774 1
773 775 1
773 776 1
774 753 1
774 773 1
774 776 1
774 777 1
775 773 1
775 776 1
775 778 1
775 779 1
776 773 1
776 774 1
776 775 1
776 777 1
777 774 1
777 776 1
777 783 1
777 784 1
778 775 1
778 779 1
778 780 1
778 781 1
779 775 1
779 778 1
779 781 1
779 782 1
780 778 1
780 781 1
780 787 1
780 788 1
781 778 1
781 779 1
781 780 1
781 782 1
782 779 1
782 781 1
782 783 1
782 785 1
783 777 1
783 782 1
783 784 1
783 785 1
784 777 1
784 783 1
784 785 1
784 786 1
785 782 1
785 783 1
785 784 1
785 786 1
786 784 1
786 785 1
786 801 1
786 802 1
787 780 1
787 788 1
787 789 1
787 790 1
788 780 1
788 787 1
788 790 1
788 791 1
789 787 1
789 790 1
789 792 1
789 793 1
790 787 1
790 788 1
790 789 1
790 791 1
791 788 1
791 790 1
791 797 1
791 798 1
792 789 1
792 793 1
792 794 1
792 795 1
793 789 1
793 792 1
793 795 1
793 796 1
794 792 1
794 795 1
794 854 1
794 855 1
795 792 1
795 793 1
795 794 1
795 796 1
796 793 1
796 795 1
796 797 1
796 799 1
797 791 1
797 796 1
797 798 1
797 799 1
798 791 1
798 797 1
798 799 1
798 800 1
799 796 1
799 797 1
799 798 1
799 800 1
800 798 1
800 799 1
800 806 1
800 808 1
801 786 1
801 802 1
801 803 1
801 804 1
802 786 1
802 801 1
802 804 1
802 805 1
803 801 1
803 804 1
803 806 1
803 807 1
804 801 1
804 802 1
804 803 1
804 805 1
805 802 1
805 804 1
805 810 1
805 811 1
806 800 1
806 803 1
806 807 1
806 808 1
807 803 1
807 806 1
807 808 1
807 809 1
808 800 1
808 806 1
808 807 1
808 809 1
809 807 1
809 808 1
809 810 1
809 812 1
810 805 1
810 809 1
810 811 1
810 812 1
811 805 1
811 810 1
811 812 1
811 813 1
812 809 1
812 810 1
812 811 1
812 813 1
813 811 1
813 812 1
813 833 1
813 835 1
814 772 1
814 815 1
814 816 1
814 817 1
815 772 1
815 814 1
815 817 1
815 818 1
816 814 1
816 817 1
816 819 1
816 820 1
817 814 1
817 815 1
817 816 1
817 818 1
818 815 1
818 817 1
818 824 1
818 825 1
819 816 1
819 820 1
819 821 1
819 822 1
820 816 1
820 819 1
820 822 1
820 823 1
821 819 1
821 822 1
821 828 1
821 829 1
822 819 1
822 820 1
822 821 1
822 823 1
823 820 1
823 822 1
823 824 1
823 826 1
824 818 1
824 823 1
824 825 1
824 826 1
825 818 1
825 824 1
825 826 1
825 827 1
826 823 1
826 824 1
826 825 1
826 827 1
827 825 1
827 826 1
827 841 1
827 842 1
828 821 1
828 829 1
828 830 1
828 831 1
829 821 1
829 828 1
829 831 1
829 832 1
830 828 1
830 831 1
830 833 1
830 834 1
831 828 1
831 829 1
831 830 1
831 832 1
832 829 1
832 831 1
832 837 1
832 838 1
833 813 1
833 830 1
833 834 1
833 835 1
834 830 1
834 833 1
834 835 1
834 836 1
835 813 1
835 833 1
835 834 1
835 836 1
836 834 1
836 835 1
836 837 1
836 839 1
837 832 1
837 836 1
837 838 1
837 839 1
838 832 1
838 837 1
838 839 1
838 840 1
839 836 1
839 837 1
839 838 1
839 840 1
840 838 1
840 839 1
840 846 1
840 848 1
841 827 1
841 842 1
841 843 1
841 844 1
842 827 1
842 841 1
842 844 1
842 845 1
843 841 1
843 844 1
843 846 1
843 847 1
844 841 1
844 842 1
844 843 1
844 845 1
845 842 1
845 844 1
845 850 1
845 851 1
846 840 1
846 843 1
846 847 1
846 848 1
847 843 1
847 846 1
847 848 1
847 849 1
848 840 1
848 846 1
848 847 1
848 849 1
849 847 1
849 848 1
849 850 1
849 852 1
850 845 1
850 849 1
850 851 1
850 852 1
851 845 1
851 850 1
851 852 1
851 853 1
852 849 1
852 850 1
852 851 1
852 853 1
853 851 1
853 852 1
853 975 1
853 976 1
854 794 1
854 855 1
854 856 1
854 857 1
855 794 1
855 854 1
855 857 1
855 858 1
856 854 1
856 857 1
856 859 1
856 860 1
857 854 1
857 855 1
857 856 1
857 858 1
858 855 1
858 857 1
858 864 1
858 865 1
859 856 1
859 860 1
859 861 1
859 862 1
860 856 1
860 859 1
860 862 1
860 863 1
861 859 1
861 862 1
861 868 1
861 869 1
862 859 1
862 860 1
862 861 1
862 863 1
863 860 1
863 862 1
863 864 1
863 866 1
864 858 1
864 863 1
864 865 1
864 866 1
865 858 1
865 864 1
865 866 1
865 867 1
866 863 1
866 864 1
866 865 1
866 867 1
867 865 1
867 866 1
867 882 1
867 883 1
868 861 1
868 869 1
868 870 1
868 871 1
869 861 1
869 868 1
869 871 1
869 872 1
870 868 1
870 871 1
870 873 1
870 874 1
871 868 1
871 869 1
871 870 1
871 872 1
872 869 1
872 871 1
872 878 1
872 879 1
873 870 1
873 874 1
873 875 1
873 876 1
874 870 1
874 873 1
874 876 1
874 877 1
875 873 1
875 876 1
875 895 1
875 896 1
876 873 1
876 874 1
876 875 1
876 877 1
877 874 1
877 876 1
877 878 1
877 880 1
878 872 1
878 877 1
878 879 1
878 880 1
879 872 1
879 878 1
879 880 1
879 881 1
880 877 1
880 878 1
880 879 1
880 881 1
881 879 1
881 880 1
881 887 1
881 889 1
882 867 1
882 883 1
882 884 1
882 885 1
883 867 1
883 882 1
883 885 1
883 886 1
884 882 1
884 885 1
884 887 1
884 888 1
885 882 1
885 883 1
885 884 1
885 886 1
886 883 1
886 885 1
886 891 1
886 892 1
887 881 1
887 884 1
887 888 1
887 889 1
888 884 1
888 887 1
888 889 1
888 890 1
889 881 1
889 887 1
889 888 1
889 890 1
890 888 1
890 889 1
890 891 1
890 893 1
891 886 1
891 890 1
891 892 1
891 893 1
892 886 1
892 891 1
892 893 1
892 894 1
893 890 1
893 891 1
893 892 1
893 894 1
894 892 1
894 893 1
894 935 1
894 936 1
895 875 1
895 896 1
895 897 1
895 898 1
896 875 1
896 895 1
896 898 1
896 899 1
897 895 1
897 898 1
897 900 1
897 901 1
898 895 1
898 896 1
898 897 1
898 899 1
899 896 1
899 898 1
899 905 1
899 906 1
900 897 1
900 901 1
900 902 1
900 903 1
901 897 1
901 900 1
901 903 1
901 904 1
902 900 1
902 903 1
902 909 1
902 910 1
903 900 1
903 901 1
903 902 1
903 904 1
904 901 1
904 903 1
904 905 1
904 907 1
905 899 1
905 904 1
905 906 1
905 907 1
906 899 1
906 905 1
906 907 1
906 908 1
907 904 1
907 905 1
907 906 1
907 908 1
908 906 1
908 907 1
908 922 1
908 923 1
909 902 1
909 910 1
909 911 1
909 912 1
910 902 1
910 909 1
910 912 1
910 913 1
911 909 1
911 912 1
911 914 1
911 915 1
912 909 1
912 910 1
912 911 1
912 913 1
913 910 1
913 912 1
913 918 1
913 919 1
914 731 1
914 911 1
914 915 1
914 916 1
915 911 1
915 914 1
915 916 1
915 917 1
916 731 1
916 914 1
916 915 1
916 917 1
917 915 1
917 916 1
917 918 1
917 920 1
918 913 1
918 917 1
918 919 1
918 920 1
919 913 1
919 918 1
919 920 1
919 921 1
920 917 1
920 918 1
920 919 1
920 921 1
921 919 1
921 920 1
921 927 1
921 929 1
922 908 1
922 923 1
922 924 1
922 925 1
923 908 1
923 922 1
923 925 1
923 926 1
924 922 1
924 925 1
924 927 1
924 928 1
925 922 1
925 923 1
925 924 1
925 926 1
926 923 1
926 925 1
926 931 1
926 932 1
927 921 1
927 924 1
927 928 1
927 929 1
928 924 1
928 927 1
928 929 1
928 930 1
929 921 1
929 927 1
929 928 1
929 930 1
930 928 1
930 929 1
930 931 1
930 933 1
931 926 1
931 930 1
931 932 1
931 933 1
932 926 1
932 931 1
932 933 1
932 934 1
933 930 1
933 931 1
933 932 1
933 934 1
934 932 1
934 933 1
934 954 1
934 956 1
935 894 1
935 936 1
935 937 1
935 938 1
936 894 1
936 935 1
936 938 1
936 939 1
937 935 1
937 938 1
937 940 1
937 941 1
938 935 1
938 936 1
938 937 1
938 939 1
939 936 1
939 938 1
939 945 1
939 946 1
940 937 1
940 941 1
940 942 1
940 943 1
941 937 1
941 940 1
941 943 1
941 944 1
942 940 1
942 943 1
942 949 1
942 950 1
943 940 1
943 941 1
943 942 1
943 944 1
944 941 1
944 943 1
944 945 1
944 947 1
945 939 1
945 944 1
945 946 1
945 947 1
946 939 1
946 945 1
946 947 1
946 948 1
947 944 1
947 945 1
947 946 1
947 948 1
948 946 1
948 947 1
948 962 1
948 963 1
949 942 1
949 950 1
949 951 1
949 952 1
950 942 1
950 949 1
950 952 1
950 953 1
951 949 1
951 952 1
951 954 1
951 955 1
952 949 1
952 950 1
952 951 1
952 953 1
953 950 1
953 952 1
953 958 1
953 959 1
954 934 1
954 951 1
954 955 1
954 956 1
955 951 1
955 954 1
955 956 1
955 957 1
956 934 1
956 954 1
956 955 1
956 957 1
957 955 1
957 956 1
957 958 1
957 960 1
958 953 1
958 957 1
958 959 1
958 960 1
959 953 1
959 958 1
959 960 1
959 961 1
960 957 1
960 958 1
960 959 1
960 961 1
961 959 1
961 960 1
961 967 1
961 969 1
962 948 1
962 963 1
962 964 1
962 965 1
963 948 1
963 962 1
963 965 1
963 966 1
964 962 1
964 965 1
964 967 1
964 968 1
965 962 1
965 963 1
965 964 1
965 966 1
966 963 1
966 965 1
966 971 1
966 972 1
967 961 1
967 964 1
967 968 1
967 969 1
968 964 1
968 967 1
968 969 1
968 970 1
969 961 1
969 967 1
969 968 1
969 970 1
970 968 1
970 969 1
970 971 1
970 973 1
971 966 1
971 970 1
971 972 1
971 973 1
972 966 1
972 971 1
972 973 1
972 974 1
973 970 1
973 971 1
973 972 1
973 974 1
974 972 1
974 973 1
974 1035 1
974 1037 1
975 853 1
975 976 1
975 977 1
975 978 1
976 853 1
976 975 1
976 978 1
976 979 1
977 975 1
977 978 1
977 980 1
977 981 1
978 975 1
978 976 1
978 977 1
978 979 1
979 976 1
979 978 1
979 985 1
979 986 1
980 977 1
980 981 1
980 982 1
980 983 1
981 977 1
981 980 1
981 983 1
981 984 1
982 980 1
982 983 1
982 989 1
982 990 1
983 980 1
983 981 1
983 982 1
983 984 1
984 981 1
984 983 1
984 985 1
984 987 1
985 979 1
985 984 1
985 986 1
985 987 1
986 979 1
986 985 1
986 987 1
986 988 1
987 984 1
987 985 1
987 986 1
987 988 1
988 986 1
988 987 1
988 1003 1
988 1004 1
989 982 1
989 990 1
989 991 1
989 992 1
990 982 1
990 989 1
990 992 1
990 993 1
991 989 1
991 992 1
991 994 1
991 995 1
992 989 1
992 990 1
992 991 1
992 993 1
993 990 1
993 992 1
993 999 1
993 1000 1
994 991 1
994 995 1
994 996 1
994 997 1
995 991 1
995 994 1
995 997 1
995 998 1
996 994 1
996 997 1
996 1016 1
996 1017 1
997 994 1
997 995 1
997 996 1
997 998 1
998 995 1
998 997 1
998 999 1
998 1001 1
999 993 1
999 998 1
999 1000 1
999 1001 1
1000 993 1
1000 999 1
1000 1001 1
1000 1002 1
1001 998 1
1001 999 1
1001 1000 1
1001 1002 1
1002 1000 1
1002 1001 1
1002 1008 1
1002 1010 1
1003 988 1
1003 1004 1
1003 1005 1
1003 1006 1
1004 988 1
1004 1003 1
1004 1006 1
1004 1007 1
1005 1003 1
1005 1006 1
1005 1008 1
1005 1009 1
1006 1003 1
1006 1004 1
1006 1005 1
1006 1007 1
1007 1004 1
1007 1006 1
1007 1012 1
1007 1013 1
1008 1002 1
1008 1005 1
1008 1009 1
1008 1010 1
1009 1005 1
1009 1008 1
1009 1010 1
1009 1011 1
1010 1002 1
1010 1008 1
1010 1009 1
1010 1011 1
1011 1009 1
1011 1010 1
1011 1012 1
1011 1014 1
1012 1007 1
1012 1011 1
1012 1013 1
1012 1014 1
1013 1007 1
1013 1012 1
1013 1014 1
1013 1015 1
1014 1011 1
1014 1012 1
1014 1013 1
1014 1015 1
1015 1013 1
1015 1014 1
1015 1056 1
1015 1057 1
1016 996 1
1016 1017 1
1016 1018 1
1016 1019 1
1017 996 1
1017 1016 1
1017 1019 1
1017 1020 1
1018 1016 1
1018 1019 1
1018 1021 1
1018 1022 1
1019 1016 1
1019 1017 1
1019 1018 1
1019 1020 1
1020 1017 1
1020 1019 1
1020 1026 1
1020 1027 1
1021 1018 1
1021 1022 1
1021 1023 1
1021 1024 1
1022 1018 1
1022 1021 1
1022 1024 1
1022 1025 1
1023 1021 1
1023 1024 1
1023 1030 1
1023 1031 1
1024 1021 1
1024 1022 1
1024 1023 1
1024 1025 1
1025 1022 1
1025 1024 1
1025 1026 1
1025 1028 1
1026 1020 1
1026 1025 1
1026 1027 1
1026 1028 1
1027 1020 1
1027 1026 1
1027 1028 1
1027 1029 1
1028 1025 1
1028 1026 1
1028 1027 1
1028 1029 1
1029 1027 1
1029 1028 1
1029 1043 1
1029 1044 1
1030 1023 1
1030 1031 1
1030 1032 1
1030 1033 1
1031 1023 1
1031 1030 1
1031 1033 1
1031 1034 1
1032 1030 1
1032 1033 1
1032 1035 1
1032 1036 1
1033 1030 1
1033 1031 1
1033 1032 1
1033 1034 1
1034 1031 1
1034 1033 1
1034 1039 1
1034 1040 1
1035 974 1
1035 1032 1
1035 1036 1
1035 1037 1
1036 1032 1
1036 1035 1
1036 1037 1
1036 1038 1
1037 974 1
1037 1035 1
1037 1036 1
1037 1038 1
1038 1036 1
1038 1037 1
1038 1039 1
1038 1041 1
1039 1034 1
1039 1038 1
1039 1040 1
1039 1041 1
1040 1034 1
1040 1039 1
1040 1041 1
1040 1042 1
1041 1038 1
1041 1039 1
1041 1040 1
1041 1042 1
1042 1040 1
1042 1041 1
1042 1048 1
1042 1050 1
1043 1029 1
1043 1044 1
1043 1045 1
1043 1046 1
1044 1029 1
1044 1043 1
1044 1046 1
1044 1047 1
1045 1043 1
1045 1046 1
1045 1048 1
1045 1049 1
1046 1043 1
1046 1044 1
1046 1045 1
1046 1047 1
1047 1044 1
1047 1046 1
1047 1052 1
1047 1053 1
1048 1042 1
1048 1045 1
1048 1049 1
1048 1050 1
1049 1045 1
1049 1048 1
1049 1050 1
1049 1051 1
1050 1042 1
1050 1048 1
1050 1049 1
1050 1051 1
1051 1049 1
1051 1050 1
1051 1052 1
1051 1054 1
1052 1047 1
1052 1051 1
1052 1053 1
1052 1054 1
1053 1047 1
1053 1052 1
1053 1054 1
1053 1055 1
1054 1051 1
1054 1052 1
1054 1053 1
1054 1055 1
1055 1053 1
1055 1054 1
1055 1075 1
1055 1077 1
1056 1015 1
1056 1057 1
1056 1058 1
1056 1059 1
1057 1015 1
1057 1056 1
1057 1059 1
1057 1060 1
1058 1056 1
1058 1059 1
1058 1061 1
1058 1062 1
1059 1056 1
1059 1057 1
1059 1058 1
1059 1060 1
1060 1057 1
1060 1059 1
1060 1066 1
1060 1067 1
1061 1058 1
1061 1062 1
1061 1063 1
1061 1064 1
1062 1058 1
1062 1061 1
1062 1064 1
1062 1065 1
1063 1061 1
1063 1064 1
1063 1070 1
1063 1071 1
1064 1061 1
1064 1062 1
1064 1063 1
1064 1065 1
1065 1062 1
1065 1064 1
1065 1066 1
1065 1068 1
1066 1060 1
1066 1065 1
1066 1067 1
1066 1068 1
1067 1060 1
1067 1066 1
1067 1068 1
1067 1069 1
1068 1065 1
1068 1066 1
1068 1067 1
1068 1069 1
1069 1067 1
1069 1068 1
1069 1083 1
1069 1084 1
1070 1063 1
1070 1071 1
1070 1072 1
1070 1073 1
1071 1063 1
1071 1070 1
1071 1073 1
1071 1074 1
1072 1070 1
1072 1073 1
1072 1075 1
1072 1076 1
1073 1070 1
1073 1071 1
1073 1072 1
1073 1074 1
1074 1071 1
1074 1073 1
1074 1079 1
1074 1080 1
1075 1055 1
1075 1072 1
1075 1076 1
1075 1077 1
1076 1072 1
1076 1075 1
1076 1077 1
1076 1078 1
1077 1055 1
1077 1075 1
1077 1076 1
1077 1078 1
1078 1076 1
1078 1077 1
1078 1079 1
1078 1081 1
1079 1074 1
1079 1078 1
1079 1080 1
1079 1081 1
1080 1074 1
1080 1079 1
1080 1081 1
1080 1082 1
1081 1078 1
1081 1079 1
1081 1080 1
1081 1082 1
1082 1080 1
1082 1081 1
1082 1088 1
1082 1090 1
1083 1069 1
1083 1084 1
1083 1085 1
1083 1086 1
1084 1069 1
1084 1083 1
1084 1086 1
1084 1087 1
1085 1083 1
1085 1086 1
1085 1088 1
1085 1089 1
1086 1083 1
1086 1084 1
1086 1085 1
1086 1087 1
1087 1084 1
1087 1086 1
1087 1092 1
1087 1093 1
1088 1082 1
1088 1085 1
1088 1089 1
1088 1090 1
1089 1085 1
1089 1088 1
1089 1090 1
1089 1091 1
1090 1082 1
1090 1088 1
1090 1089 1
1090 1091 1
1091 1089 1
1091 1090 1
1091 1092 1
1091 1094 1
1092 1087 1
1092 1091 1
1092 1093 1
1092 1094 1
1093 1087 1
1093 1092 1
1093 1094 1
1093 1095 1
1094 1091 1
1094 1092 1
1094 1093 1
1094 1095 1
1095 1093 1
1095 1094 1
