%%MatrixMarket matrix coordinate real general
%
531 531 7422
1 60 3.0152208941371113E-2
1 69 3.00202577810065E-2
1 98 3.507475226427341E-2
1 111 1.831563888873418E-2
1 126 1.4834867748522936E-2
1 183 3.862405736506643E-2
1 359 2.309662973863696E-2
1 395 5.400458954183955E-2
1 396 2.047324883367351E-2
1 505 2.9063095127990435E-2
2 3 1.2979992490851708E-1
2 67 2.6466690474981275E-1
2 88 6.2435058250549846E-2
2 90 1.3841299096740245E-1
2 112 2.547639193979623E-1
2 147 1.8920715341433791E-1
2 173 9.89326035381104E-2
2 193 5.901622981366828E-1
2 210 4.722749328343742E-2
2 281 1.831563888873418E-2
2 370 1.0741568344213881E-2
2 382 2.4960289381119424E-2
2 398 5.6459503116639574E-2
2 451 7.020683674487163E-2
2 496 1.831563888873418E-2
3 2 1.2979992490851708E-1
3 67 1.0608993584126272E-1
3 90 4.839324859199168E-2
3 112 5.353042892654775E-2
3 147 2.3532592163205693E-1
3 193 1.8883492743453728E-1
3 280 4.4928232578617264E-2
3 281 2.6188038274646212E-2
3 382 2.9957862947839936E-1
3 398 5.334513787824654E-1
3 451 2.937027267000532E-1
3 496 5.026402920123117E-2
4 12 9.430376854836235E-2
4 26 9.742919160178616E-2
4 48 2.0514983357991293E-2
4 89 1.1855654381425047E-1
4 145 1.543312293055623E-1
4 146 1.22703673258606E-1
4 265 5.269082265880045E-2
4 284 1.1387534297719291E-1
4 329 1.831563888873418E-2
4 377 4.2495554079120854E-2
4 390 1.2226629707278701E-1
4 453 1.7130990570526708E-2
4 476 1.8287735664322544E-2
4 495 7.989760729167554E-2
4 513 1.5845885972473117E-1
4 522 3.1698684913407923E-2
5 38 3.80765231273516E-2
5 84 3.393389943996168E-2
5 104 1.831563888873418E-2
5 204 1.9490905526070804E-2
5 212 2.8692253399629185E-2
5 317 1.812248558814701E-2
5 341 2.7448111147995186E-2
5 463 5.663543153766439E-2
5 471 2.488143763746344E-2
5 486 2.9330429438402368E-2
6 22 2.8044524781905843E-2
6 229 8.632156584062742E-2
6 248 3.059632478839334E-2
6 254 1.8963073591227616E-2
6 293 2.6204733662957405E-2
6 305 1.6053161894237034E-1
6 321 3.4551453711923794E-2
6 425 1.831563888873418E-2
6 429 2.8125452125611745E-2
6 466 1.5408908736244216E-2
7 70 1.831563888873418E-2
7 103 1.2964256695268081E-2
7 106 1.831563888873418E-2
7 115 6.911040222077897E-2
7 125 6.145946890657949E-2
7 134 2.1396064991642635E-2
7 143 1.708496224606554E-2
7 157 1.4663216232053866E-1
7 175 2.7596620424950265E-2
7 272 7.428112314847433E-2
7 301 9.854004841854486E-2
7 356 4.715584828889463E-2
7 378 3.0940080672325967E-2
7 383 4.406714135016809E-2
7 403 2.5180971250229743E-2
7 406 3.091245536201824E-2
7 431 3.418357295185986E-2
7 432 1.770727976002505E-2
7 467 1.9373087737754254E-2
7 484 4.053497071034631E-2
8 60 7.977288102651511E-2
8 98 4.553028404916214E-2
8 113 7.383381538440786E-2
8 126 2.3372191138550692E-2
8 202 7.113846928737272E-2
8 203 1.6883730072020972E-1
8 238 1.831563888873418E-2
8 261 1.5245281789969726E-2
8 396 4.1536440305705125E-1
8 505 7.53374744091452E-2
8 512 3.197730799723096E-2
8 516 1.831563888873418E-2
9 66 3.3721596656801786E-2
9 77 6.389735690346261E-2
9 85 1.6979000971862755E-2
9 93 1.2473095385071903E-1
9 145 3.0774395212576123E-2
9 176 1.499125107950557E-1
9 265 9.743712043299177E-2
9 284 3.647523696945057E-2
9 289 2.7908194233180146E-2
9 470 8.87342036676649E-2
9 482 3.044458652045238E-2
9 495 1.9633150598975493E-2
9 513 1.831563888873418E-2
10 75 2.1862085870986298E-1
10 81 1.831563888873418E-2
10 110 5.6525307458775445E-2
10 135 4.477443761300815E-2
10 197 3.988573191866033E-2
10 250 1.0034566300151465E-1
10 277 4.920212158358938E-2
10 353 4.198768635964181E-2
10 408 1.5077549684668994E-2
10 452 1.9595531848330353E-2
11 87 6.075086921578429E-2
11 117 5.3745931397766095E-2
11 172 3.901134629868722E-2
11 181 1.9395472755846778E-2
11 186 1.7480055888395934E-1
11 206 2.7224783423221974E-2
11 254 2.9529858070601062E-2
11 312 1.5835708800571008E-1
11 365 2.061366627353418E-1
11 399 1.2171397360452245E-1
11 405 3.731313524815735E-2
11 417 3.0641253556989562E-2
11 450 3.053388326591104E-2
12 4 9.430376854836235E-2
12 26 7.316848508394815E-3
12 89 2.7566314601667675E-2
12 145 4.2297974905488187E-2
12 146 3.445715911650074E-2
12 265 2.7566461651762922E-2
12 284 1.831563888873418E-2
12 377 4.861202453985824E-2
12 390 2.6419826018899674E-2
12 513 3.6061401830994655E-2
13 41 1.831563888873418E-2
13 50 1.2427872906092714E-1
13 149 2.744840702125256E-2
13 182 7.937566406900107E-2
13 188 3.83594993977491E-2
13 204 3.346738032232728E-2
13 209 3.0186615216325558E-2
13 253 1.4820460717657954E-1
13 266 2.0636850156574266E-2
13 269 4.6291145821770484E-2
13 316 2.1272114558686028E-1
13 341 2.522749646500345E-2
13 368 2.458635624750806E-1
13 402 3.087654376018086E-2
13 443 4.4461342738404935E-2
13 460 1.831563888873418E-2
13 463 1.7751465992026174E-2
13 486 6.0679017889306096E-2
13 511 1.2505808453172404E-1
13 527 3.235145896601679E-2
14 48 4.2244366061145774E-2
14 80 1.178384732131385E-1
14 82 9.945778822490825E-2
14 100 4.116764029534545E-2
14 119 1.2872856610127578E-1
14 286 1.831563888873418E-2
14 329 8.228838567561579E-2
14 342 2.8301463939761545E-2
14 390 1.831563888873418E-2
14 394 7.488500788556228E-2
14 407 1.831563888873418E-2
14 427 1.727853023577182E-1
14 453 4.238725005173807E-2
14 476 5.3967509460341456E-2
14 509 3.680698588500073E-2
15 46 1.831563888873418E-2
15 62 6.186767387276053E-2
15 86 5.599374442486903E-2
15 110 3.1533553985285984E-2
15 118 1.6949238736663347E-2
15 124 5.4849971780458084E-2
15 139 3.274900449774011E-2
15 153 1.831563888873418E-2
15 154 7.99620759481554E-2
15 155 1.4000956466479534E-2
15 171 2.7397974193985437E-2
15 211 5.0718846135000516E-2
15 233 2.488652708809499E-2
15 251 1.3318456169887982E-1
15 337 1.5333351688935587E-1
15 347 2.7891833579545455E-1
15 376 2.7469809654101685E-1
15 381 8.537029515766661E-2
16 108 1.4602700470358979E-2
16 109 1.5820466922170176E-1
16 132 2.6706071346823033E-2
16 174 3.394690940507066E-2
16 190 4.651606296447511E-2
16 198 2.632052919785081E-2
16 221 2.1684203175054154E-2
16 256 1.0570901435443991E-1
16 299 1.305758713454189E-2
16 345 3.1587836914019805E-2
16 373 6.741542420415113E-2
16 374 5.10988414956128E-2
16 375 1.831563888873418E-2
16 392 5.109867471122727E-2
16 401 1.4774628807295187E-1
17 104 2.1838589081798676E-1
17 114 3.578512673760439E-2
17 127 5.714036415927765E-2
17 150 3.548697830670642E-2
17 165 2.5967322063999815E-1
17 212 1.8852411221273013E-2
17 226 7.842648009425314E-2
17 312 5.772477047723364E-2
17 315 4.688386720281095E-2
17 384 1.1041126177766149E-1
17 450 1.4818527530631504E-2
17 458 1.2229864917513125E-1
17 472 2.224625959845298E-2
17 497 3.470167872675086E-2
17 526 3.535631714835498E-2
18 37 6.03098012765895E-2
18 52 1.497245684678175E-1
18 170 3.0637207123526683E-1
18 178 2.5203162403487633E-2
18 194 5.813941479949429E-2
18 216 4.9599644965429915E-2
18 230 2.0471432610389296E-2
18 278 1.0178272876351824E-1
18 304 2.8940085744517455E-2
18 314 1.057751535471471E-1
18 330 6.938798380065539E-2
18 346 6.515346787333977E-2
18 351 3.181024522078405E-2
18 420 8.173072994397798E-2
18 428 2.2570504003371846E-2
19 22 4.8684486446628226E-2
19 50 1.831563888873418E-2
19 74 2.609936644892171E-2
19 99 9.142463554249694E-2
19 182 2.9403350653601498E-2
19 188 2.1608768931449196E-1
19 204 1.9411791477727182E-2
19 209 3.1174201635926903E-2
19 248 1.7149665259071308E-2
19 273 2.8736038319318195E-2
19 274 1.831563888873418E-2
19 293 2.1281858688383642E-2
19 300 2.3966987469388575E-2
19 317 3.509989481552456E-2
19 341 1.7136209402481985E-2
19 387 1.831563888873418E-2
19 425 2.3537520725367814E-2
19 429 1.831563888873418E-2
19 446 2.3878401454967463E-2
19 466 1.831563888873418E-2
19 507 4.935275496598753E-2
20 96 6.0686257932148116E-2
20 142 1.8468635474192304E-2
20 151 1.829675973515157E-1
20 156 1.7871809795151867E-2
20 228 7.468057580476266E-3
20 243 7.210191849283733E-2
20 279 3.664959751098815E-2
20 287 3.121678427696254E-2
20 308 1.7497983950839852E-1
20 335 3.392601573383903E-1
20 343 2.7531019968372258E-2
20 411 7.70832732299584E-2
20 418 8.38085956012731E-2
21 80 1.831563888873418E-2
21 100 1.9581445782293712E-2
21 105 1.3989215843932978E-1
21 160 5.643355660205764E-2
21 286 3.462096306191923E-2
21 305 1.70793193624701E-2
21 333 8.045608513248273E-2
21 342 2.6480848885480535E-1
21 367 6.16931210919784E-2
21 407 1.4926262665033658E-2
21 427 2.1715378440124316E-2
21 468 3.4926686074586244E-1
21 504 2.165530918726325E-2
22 6 2.8044524781905843E-2
22 19 4.8684486446628226E-2
22 248 1.577742385727034E-1
22 274 2.46490002372153E-2
22 293 1.4552589571900287E-1
22 300 2.9860746258769735E-2
22 321 1.0841663858477738E-1
22 387 3.672881151304028E-2
22 429 2.4255084290586534E-2
22 466 3.458494995501092E-2
22 507 2.4131340882359603E-2
23 39 6.252636872258488E-2
23 61 2.311001083673353E-2
23 71 2.0620848485322388E-1
23 76 3.554043435789999E-2
23 103 4.015011798252627E-2
23 116 7.737467243150464E-2
23 214 3.561801850595848E-2
23 224 5.841320299668452E-2
23 241 2.940027490809505E-2
23 306 9.85028136390359E-2
23 309 6.274728274080492E-2
23 311 4.923592340288484E-2
23 369 6.441469883023046E-2
23 389 2.68882246049312E-2
23 430 2.0179038347351255E-2
23 528 2.909037311606672E-2
24 28 9.076696101156771E-2
24 58 3.693023729950428E-2
24 131 2.8711369667243764E-2
24 135 2.2585543432554988E-2
24 197 3.4573131044537256E-2
24 239 3.869472274449604E-2
24 267 3.376424202843078E-2
24 268 2.0824940832049627E-2
24 277 1.3595583646269508E-2
24 291 1.831563888873418E-2
24 322 2.095051771409684E-2
24 324 1.8573834114772748E-2
24 375 3.752516626695489E-2
24 426 7.831564728994644E-2
24 441 5.950781488778731E-2
24 448 2.7385185651488963E-2
24 452 1.831563888873418E-2
24 492 6.335219303424737E-2
24 506 1.7802295890878977E-1
25 34 2.3422662712084596E-2
25 35 1.0608635721509094E-2
25 143 1.9618899858341518E-2
25 175 2.687014094683931E-2
25 213 8.675189844504202E-2
25 231 1.831563888873418E-2
25 383 3.196120484155466E-2
25 412 7.471805420928983E-2
25 467 9.46693546466836E-2
25 524 1.9208466939706344E-2
26 4 9.742919160178616E-2
26 12 7.316848508394815E-3
26 48 4.0278308513520406E-2
26 82 1.831563888873418E-2
26 89 9.184442458966866E-2
26 93 1.831563888873418E-2
26 119 1.2209484514255839E-2
26 145 4.494520635055725E-2
26 146 2.521444910036716E-2
26 265 2.3274089386904402E-2
26 284 8.157255951664075E-2
26 329 1.6180509474776485E-2
26 390 4.347808361210698E-2
26 394 1.831563888873418E-2
26 453 3.131145856926225E-2
26 495 8.903070609640718E-2
26 513 1.0152773173321607E-1
26 522 1.9751502948893565E-2
27 41 6.1757360247707706E-2
27 49 3.6216544943663734E-2
27 51 1.831563888873418E-2
27 84 9.849058745918869E-2
27 95 5.064025046985937E-2
27 201 5.534448636786624E-2
27 294 3.4371951867272446E-2
27 327 3.338568372041182E-1
27 368 1.831563888873418E-2
27 402 4.045909895369412E-2
27 433 8.463402665294405E-2
27 440 1.4009792380475632E-2
27 443 1.8435728571111626E-1
27 463 1.831563888873418E-2
27 471 1.9043298559000305E-2
27 493 1.807254337585077E-2
27 523 5.355287554062476E-1
28 24 9.076696101156771E-2
28 58 2.40104776316272E-2
28 131 4.6481723462737344E-2
28 135 2.3565010561776165E-2
28 190 1.831563888873418E-2
28 198 3.2071111232448546E-2
28 256 2.366298553372531E-2
28 267 1.831563888873418E-2
28 322 3.907457918406454E-2
28 324 7.549376972285705E-2
28 375 1.2339167212814511E-1
28 426 7.219083926823558E-2
28 439 2.366562912831092E-2
28 441 5.2358457314903455E-2
28 448 3.518439532618656E-2
28 455 4.526744514769955E-2
28 492 1.1838788445061124E-1
28 506 1.831563888873418E-2
29 133 3.375549082921416E-2
29 207 2.663931226136635E-1
29 220 6.417022299660091E-2
29 222 1.7491313346951565E-1
29 366 5.0608899993679526E-2
29 380 3.97081077275092E-2
29 400 2.765588670004193E-2
29 442 1.831563888873418E-2
29 480 1.6380735050192993E-2
29 498 5.666918165461051E-2
30 31 1.831563888873418E-2
30 102 3.2349799186698724E-2
30 140 6.304084296276671E-2
30 177 2.043624398843036E-1
30 184 6.940650928392239E-2
30 236 4.004685298098764E-2
30 249 3.216066222890347E-2
30 260 4.0431059009020054E-2
30 290 6.61672176320726E-2
30 292 8.605523869001178E-2
30 303 1.9633657383139772E-2
30 352 3.3697431472373773E-1
30 403 1.947767660368432E-2
30 449 9.165473584450301E-2
30 465 1.831563888873418E-2
30 475 8.994520855817217E-2
30 481 2.07554573173617E-1
31 30 1.831563888873418E-2
31 123 4.002106473782826E-2
31 166 3.9492988678496196E-2
31 177 2.0026695097329163E-2
31 358 4.92185426820081E-2
31 384 3.412477872986106E-2
31 462 5.199789122113931E-2
31 465 8.691148401355749E-2
31 475 1.4727170875482209E-2
31 500 5.684976231174618E-2
31 526 2.0488098243613216E-2
32 63 8.273405475544315E-2
32 88 1.2732277354803572E-2
32 122 5.58188115684504E-2
32 128 1.1971725790061383E-1
32 136 5.823752605147764E-2
32 167 1.5379163202717241E-1
32 288 1.2438128652215638E-1
32 298 5.4406791857089576E-2
32 348 1.5586927329772524E-2
32 357 6.516828279404246E-2
32 370 2.0160104784973085E-2
32 397 1.822762442830442E-2
32 437 3.361728056393373E-2
32 478 1.831563888873418E-2
33 72 4.48106528028336E-2
33 105 1.889198472788821E-2
33 200 3.739124819059288E-2
33 258 2.0633630348548218E-2
33 274 1.670346865744989E-2
33 305 2.0202034021437314E-2
33 367 1.3629638288656992E-1
33 391 4.6003493813906934E-2
33 425 1.514552175428164E-1
33 429 2.1971966877435523E-2
33 504 1.831563888873418E-2
33 515 2.1608112208559252E-2
34 25 2.3422662712084596E-2
34 35 1.8136635141412047E-2
34 137 1.831563888873418E-2
34 175 3.4194811187157705E-2
34 213 2.6456854725733836E-2
34 224 2.36713469802574E-2
34 306 2.129712829604724E-2
34 383 3.0815537713175828E-2
34 456 1.2711054512678175E-2
34 467 5.539458947493196E-2
34 479 2.338497178429161E-2
34 488 1.831563888873418E-2
34 524 1.5814757405320023E-1
35 25 1.0608635721509094E-2
35 34 1.8136635141412047E-2
35 115 4.057073030082278E-2
35 175 3.068882993780622E-2
35 231 5.0469155357071874E-2
35 272 2.6296264462545585E-2
35 290 4.0974680266968544E-2
35 383 1.831563888873418E-2
35 412 3.5195879929629255E-2
35 467 1.85555993664477E-2
35 469 1.831563888873418E-2
35 475 2.3808940393354787E-2
36 58 4.028274231021506E-2
36 131 2.9393444315173357E-2
36 263 2.0535850732552843E-2
36 267 4.293231226570032E-2
36 268 1.54406833812421E-1
36 270 1.831563888873418E-2
36 291 5.661605282724824E-2
36 439 2.169168403954288E-2
36 441 2.0280964522371478E-2
36 506 1.7981850966511972E-2
37 18 6.03098012765895E-2
37 91 6.821982617520903E-2
37 170 1.553427972410977E-1
37 194 5.0938218536311884E-2
37 216 1.831563888873418E-2
37 230 3.771923080380852E-1
37 314 2.3226887940202665E-1
37 325 5.106915339151689E-2
37 351 1.878818378140577E-2
37 474 6.307688343518411E-2
38 5 3.80765231273516E-2
38 84 1.831563888873418E-2
38 104 1.5646836180250662E-2
38 341 1.9773598282603697E-2
38 343 7.455818486260693E-2
38 414 2.7988080486379217E-2
38 433 4.2862659777555684E-2
38 444 1.706801590343188E-2
38 463 5.2739193388837376E-2
38 464 3.30596706980009E-2
38 471 3.142179722335934E-2
38 493 4.589780394947567E-2
39 23 6.252636872258488E-2
39 71 7.050036298355208E-2
39 76 9.488263585404344E-2
39 116 7.650849753419717E-2
39 255 2.1060154865324796E-2
39 306 1.917133281205294E-2
39 309 1.7703376810215377E-2
39 369 1.859160564928037E-2
39 430 2.773528577006861E-2
39 528 1.831563888873418E-2
40 44 2.646610667207678E-1
40 55 6.0679925677083364E-2
40 56 4.264548195157551E-1
40 107 5.876243357484462E-2
40 144 1.3104724334735904E-2
40 159 1.0601368016938104E-1
40 180 1.6039676098228574E-2
40 185 2.3221781962067112E-1
40 187 2.2489043805769937E-2
40 259 1.0088470999990583E-1
40 338 4.1013634165448704E-1
40 478 2.120004727114639E-2
41 13 1.831563888873418E-2
41 27 6.1757360247707706E-2
41 84 1.5869752903036466E-2
41 95 1.83392061441685E-2
41 294 2.7269004442287515E-2
41 327 3.052415984355547E-2
41 402 5.252988307076601E-2
41 440 2.4759837530307062E-2
41 443 4.8359344646119594E-2
41 523 4.21726859043304E-2
42 59 1.6057594521203162E-2
42 158 1.931199795423341E-2
42 219 1.831563888873418E-2
42 221 3.278032789707841E-2
42 239 2.7773420337212182E-2
42 270 1.9518263915521403E-2
42 386 4.7886499088490686E-2
42 409 3.819176983289932E-2
42 410 2.7790846972165325E-2
42 434 2.306373211078013E-2
43 57 9.069352931661437E-2
43 78 1.6782867156402026E-1
43 114 1.9487180227302545E-2
43 123 2.298509675082719E-2
43 166 5.2995527377102426E-2
43 196 4.533114563818595E-2
43 358 2.3180181028421912E-2
43 372 2.3457297837646208E-2
43 404 4.4748409268175984E-2
43 422 1.607745602685968E-2
43 432 9.710834499370291E-2
43 462 3.5032368286013124E-2
43 484 1.397353239228059E-1
43 489 5.545492773441651E-2
43 491 1.831563888873418E-2
43 508 1.831563888873418E-2
43 510 1.2069702070116893E-1
43 529 1.393932571550633E-1
44 40 2.646610667207678E-1
44 54 1.831563888873418E-2
44 55 2.0890207078281872E-1
44 56 9.361195888550511E-2
44 107 5.6395522126601885E-2
44 128 7.194193121378384E-2
44 136 3.370818070310094E-2
44 159 3.7261178900740044E-2
44 167 2.964008828554352E-2
44 185 4.19801680189064E-2
44 187 8.299119312470239E-2
44 259 2.2101020006368946E-2
44 288 1.5582943392300007E-2
44 338 1.3180604696377926E-1
44 478 4.996610218781212E-2
45 81 3.3503594168445214E-2
45 110 1.831563888873418E-2
45 124 2.184052621742171E-2
45 135 2.1803100770786732E-2
45 250 3.229485293124696E-2
45 251 4.000790898025725E-2
45 349 1.6641334968397436E-2
45 353 4.402911941967494E-2
45 408 4.535412677509221E-2
45 436 5.30081605642403E-2
46 15 1.831563888873418E-2
46 153 9.500092118481368E-2
46 171 3.022650800551902E-1
46 223 1.24065253441166E-2
46 233 1.3256153250183375E-1
46 244 2.455560176920018E-2
46 347 2.0568479597513255E-2
46 361 1.7386481498585137E-2
46 363 1.777965375065554E-2
46 376 2.757019132305522E-2
46 381 3.6286720654625744E-2
46 442 4.388072909587469E-2
46 520 1.0892118603305101E-1
47 80 4.262468798259456E-2
47 100 2.699318986389761E-2
47 119 2.8041618164548268E-2
47 160 2.3654415175813757E-2
47 258 1.831563888873418E-2
47 286 1.5369407437910887E-1
47 305 1.955504555982144E-2
47 333 5.445679870348315E-2
47 407 3.831060206602118E-2
47 427 2.386437479562581E-2
47 461 1.7272698482202836E-2
48 4 2.0514983357991293E-2
48 14 4.2244366061145774E-2
48 26 4.0278308513520406E-2
48 80 6.241059652101374E-2
48 82 3.970130407580998E-2
48 89 5.599526439856565E-2
48 93 2.4697406968009983E-2
48 119 5.6547680492032994E-2
48 146 1.831563888873418E-2
48 329 6.701660999810143E-2
48 390 2.8928990121011647E-2
48 394 5.3188254516632935E-2
48 427 1.831563888873418E-2
48 453 4.1954220468449335E-2
48 495 2.5728428316089628E-2
48 509 3.358846938360694E-2
48 513 8.667972846578421E-2
49 27 3.6216544943663734E-2
49 95 2.7998060605384145E-1
49 101 3.0407968333167466E-2
49 168 3.8909471419506375E-2
49 228 1.684504790823312E-2
49 230 1.4989398115088098E-2
49 294 5.5380152475377274E-2
49 295 9.571993372697055E-2
49 327 1.0364044455291865E-1
49 393 3.4332333581064967E-1
49 423 1.0002716700808142E-2
49 433 1.831563888873418E-2
49 440 1.1679255777810962E-1
49 523 4.897193271919582E-2
50 13 1.2427872906092714E-1
50 19 1.831563888873418E-2
50 74 2.4203896256147023E-2
50 182 8.478753223158259E-2
50 188 4.884432638749477E-2
50 209 3.273293936101635E-2
50 248 4.223154794536847E-2
50 253 1.819445295490429E-1
50 266 7.882757311117153E-2
50 269 2.18223908028189E-2
50 293 1.812442102727564E-2
50 316 1.0854912191205562E-1
50 341 1.6315520657453404E-2
50 368 4.8298431819954496E-2
50 445 1.767966112986743E-2
50 460 2.5579132455061687E-2
50 466 2.8021230472759923E-2
50 511 7.625431527868168E-2
51 27 1.831563888873418E-2
51 84 1.3378617294774872E-1
51 212 2.0683879006681647E-2
51 228 3.333378222666589E-2
51 294 3.968678808876399E-2
51 327 3.1146960387689E-2
51 402 3.59312581914749E-2
51 414 2.6326890376107852E-2
51 433 1.8555057704665354E-2
51 440 1.611997225686403E-2
51 444 5.3523601820035474E-2
51 471 6.421095143381075E-2
51 523 2.1793401155224736E-2
52 18 1.497245684678175E-1
52 97 2.3734350319110274E-2
52 170 1.831563888873418E-2
52 178 1.831563888873418E-2
52 194 2.8090489135578572E-2
52 216 2.3995905416734097E-2
52 271 1.831563888873418E-2
52 278 3.581798471086616E-1
52 302 1.831563888873418E-2
52 304 5.856008472651129E-2
52 330 5.1792323749684226E-2
52 346 9.227336753859663E-2
52 420 2.2145071938249467E-1
52 457 4.006164055005341E-2
53 63 2.072969571688254E-2
53 218 3.0047407319860407E-2
53 262 6.146461327591088E-2
53 310 1.742906715944053E-2
53 332 4.30190080590626E-2
53 334 5.3806209233941395E-2
53 348 1.5271068082548367E-1
53 388 1.0257872983771939E-1
53 424 2.4848539839077723E-2
53 437 1.3865376188954955E-2
53 459 1.047758379089069E-1
53 499 1.2666634654721665E-1
53 518 2.4997993557005493E-2
54 44 1.831563888873418E-2
54 56 2.4420314875371753E-2
54 88 2.3739576877960245E-2
54 128 2.1373814364960907E-2
54 136 2.266252456601968E-2
54 144 1.7874315616756783E-2
54 167 2.6905827100636777E-2
54 187 2.240414401478199E-2
54 338 6.513550881564842E-2
54 370 6.461299246354402E-2
54 371 2.0378855175901833E-1
54 421 1.831563888873418E-2
54 477 1.692228982424086E-2
54 478 6.512392979838913E-2
54 487 5.732394396237507E-3
54 517 1.464076701704797E-2
55 40 6.0679925677083364E-2
55 44 2.0890207078281872E-1
55 56 1.831563888873418E-2
55 107 1.2058266198063221E-1
55 128 2.845202163377093E-2
55 136 3.9543823577650655E-2
55 159 5.6622716608238165E-2
55 167 2.0610393780978294E-2
55 187 9.103101505904324E-2
55 189 2.4844564048681673E-2
55 199 4.046383165919295E-2
55 237 1.2495362158946935E-1
55 259 2.526853209344812E-2
55 288 4.836690849383158E-2
55 298 3.0086186911972426E-2
55 338 1.5551992184579392E-2
55 354 1.679469282834882E-2
55 357 9.64932040609074E-2
55 478 3.074259169048266E-2
55 530 4.2262881677378156E-2
56 40 4.264548195157551E-1
56 44 9.361195888550511E-2
56 54 2.4420314875371753E-2
56 55 1.831563888873418E-2
56 68 4.0712082005146935E-2
56 107 2.537307279465867E-2
56 144 1.0925535222949197E-1
56 159 1.4948473884488117E-1
56 180 8.192338647492214E-2
56 185 3.159368373731975E-1
56 187 1.3295774940111048E-2
56 259 1.8535662090076305E-1
56 338 5.564233662766364E-1
56 364 1.4508937668830822E-2
56 477 2.8091656905009914E-2
56 478 3.1101763338395535E-2
56 487 2.1842510912709633E-2
57 43 9.069352931661437E-2
57 78 3.079895491037386E-2
57 79 5.442264205257948E-2
57 87 1.7605299258873858E-2
57 114 4.913861532252694E-2
57 196 1.831563888873418E-2
57 372 4.8269505265094284E-2
57 385 2.6128479608413545E-2
57 489 1.7074364634267744E-2
57 508 4.524161693207571E-2
57 510 2.6823130150042973E-1
57 529 1.1337124864631062E-1
58 24 3.693023729950428E-2
58 28 2.40104776316272E-2
58 36 4.028274231021506E-2
58 131 1.6942994249315285E-1
58 267 1.1665270813108318E-1
58 291 4.437355697807506E-2
58 322 3.550261384822874E-2
58 375 1.831563888873418E-2
58 426 8.728497731160934E-2
58 439 1.831563888873418E-2
58 441 1.4751225097996973E-1
58 492 3.4896143955033085E-2
58 506 1.59024273484252E-2
59 42 1.6057594521203162E-2
59 81 1.7135500977292814E-2
59 108 1.831563888873418E-2
59 135 3.0922025278124012E-2
59 158 3.311274180185385E-2
59 270 3.450940184052482E-2
59 277 3.632565294506946E-2
59 319 3.2932199423058764E-2
59 349 2.4015522999617296E-2
59 353 2.356602757269345E-2
59 452 2.111729554458E-2
60 1 3.0152208941371113E-2
60 8 7.977288102651511E-2
60 64 2.366373229375674E-2
60 69 6.1705122192980244E-2
60 98 1.2859797509674473E-1
60 111 3.058442058043805E-2
60 126 1.936187155137853E-1
60 129 1.986061091702075E-2
60 133 1.831563888873418E-2
60 183 1.1644921413230588E-2
60 195 6.568461547915101E-3
60 203 1.1563919143710782E-1
60 205 3.147035797380013E-2
60 223 2.1149108112986967E-2
60 331 2.1840841996629598E-2
60 359 1.831563888873418E-2
60 395 7.673567121975522E-2
60 396 1.1329137977637954E-1
60 490 1.8214735917660062E-2
60 505 2.6050322000721726E-1
61 23 2.311001083673353E-2
61 70 3.1314174677875055E-2
61 121 2.830411280628639E-2
61 214 3.828309884702972E-2
61 241 6.240787172208911E-2
61 263 1.3411115296986778E-1
61 360 9.416348110659509E-2
61 369 1.7915641531220695E-2
61 389 1.5993172844955336E-1
61 447 5.326201246721944E-2
61 503 1.1486218577754655E-1
61 531 1.2648813680666923E-1
62 15 6.186767387276053E-2
62 83 2.4507958638682034E-2
62 86 8.233492551170538E-2
62 97 3.9785279261129985E-2
62 118 5.6639317093602794E-2
62 139 1.0329001666393942E-1
62 153 3.235838355593553E-2
62 154 3.059657873432552E-2
62 155 1.0153362339267397E-1
62 163 3.250060344877707E-2
62 192 1.954882018351454E-2
62 211 1.2301139189312377E-1
62 233 3.240686482341552E-2
62 276 2.609690480383762E-2
62 337 5.4698989114808694E-2
62 347 1.9927908819119995E-2
62 355 7.494409722277806E-2
62 363 1.875222147063536E-2
62 376 4.0147976950989955E-2
62 381 4.586504377177877E-2
63 32 8.273405475544315E-2
63 53 2.072969571688254E-2
63 122 9.80447633587911E-2
63 128 8.70516328763886E-2
63 167 9.092238331035588E-2
63 288 1.8386703465621126E-1
63 298 4.658439580705551E-2
63 334 1.9301954608230004E-2
63 348 1.8785938128564425E-2
63 357 1.831563888873418E-2
63 370 2.1361279688479846E-2
63 397 1.831563888873418E-2
63 437 7.471688359348216E-2
63 499 1.633730641755718E-2
64 60 2.366373229375674E-2
64 98 2.1157896779802527E-2
64 126 3.833013265451008E-2
64 203 4.074873138762894E-2
64 238 2.4237577913763547E-2
64 331 2.7699568615149807E-2
64 396 1.831563888873418E-2
64 490 1.7836874260025837E-2
64 505 4.365037104143642E-2
64 512 3.596107439171036E-2
64 516 9.177994524935462E-2
64 525 3.2524482462558506E-2
65 143 4.1911403877716955E-2
65 213 3.66283654083063E-2
65 231 6.62182082237423E-2
65 264 2.6461087016552684E-2
65 318 1.0627689127409916E-1
65 340 1.5680595888840774E-2
65 362 2.1703832833066694E-1
65 412 1.831563888873418E-2
65 416 1.1991281073445292E-1
65 438 5.804986042622153E-1
66 9 3.3721596656801786E-2
66 77 2.2390945732152107E-1
66 85 2.722359509595775E-1
66 93 1.916078390340972E-2
66 176 3.2147924391240396E-1
66 265 2.734450460183833E-2
66 289 1.294791954056865E-1
66 470 1.6838846865606472E-1
66 482 1.3479680988589976E-1
66 485 6.752407127788902E-2
67 2 2.6466690474981275E-1
67 3 1.0608993584126272E-1
67 88 3.343740059876286E-2
67 90 1.0111430889550563E-1
67 112 1.340201699867522E-1
67 147 8.500534156602503E-2
67 173 3.4059252376722596E-2
67 193 2.375054762050743E-1
67 210 4.2258334703855635E-2
67 281 5.614454528317652E-2
67 370 2.4660827922711324E-2
67 382 5.515703829645193E-2
67 398 1.3935509396539258E-1
67 451 1.831563888873418E-2
67 496 6.178557850858724E-2
68 56 4.0712082005146935E-2
68 144 1.1126220355236992E-1
68 159 1.0471881048035961E-2
68 180 1.5421215958873963E-1
68 185 3.444033187156148E-2
68 235 5.4539576107052526E-2
68 259 1.831563888873418E-2
68 296 4.8946602824577724E-2
68 307 1.831563888873418E-2
68 338 2.568298331366699E-2
68 364 2.8862771093299106E-1
68 421 3.479522063363227E-2
68 477 3.3624136653220527E-1
68 487 3.64845211297726E-1
68 517 4.60640391251152E-2
69 1 3.00202577810065E-2
69 60 6.1705122192980244E-2
69 98 2.750792188934683E-2
69 111 3.833524779020468E-1
69 126 1.3635836059615788E-1
69 129 1.1978759325941093E-1
69 133 1.4412950509811458E-2
69 183 4.6886732404605246E-2
69 195 5.2756808496724386E-2
69 223 3.947450156655255E-1
69 244 2.7715421282486448E-2
69 331 1.5572871506534445E-2
69 359 1.425312327119331E-1
69 395 2.8589456204184605E-1
69 490 1.9501765026865778E-2
69 505 4.41597288950769E-2
70 7 1.831563888873418E-2
70 61 3.1314174677875055E-2
70 101 1.8331640341140727E-2
70 103 1.8766946336532359E-1
70 106 1.834651971119206E-2
70 121 3.1030321338066717E-2
70 125 2.5656054499546575E-2
70 134 3.339457691020471E-1
70 157 4.472570369799307E-2
70 241 1.831563888873418E-2
70 272 2.7925050867400526E-2
70 360 1.831563888873418E-2
70 383 5.185508618276945E-2
70 406 5.644383660942807E-2
70 431 2.6220871137033485E-2
70 531 2.161157511524395E-2
71 23 2.0620848485322388E-1
71 39 7.050036298355208E-2
71 76 9.566454018909071E-2
71 92 5.127530417716145E-2
71 103 3.086969998877797E-2
71 116 9.356648794287181E-2
71 214 1.99621896727427E-2
71 255 4.209164359123394E-2
71 306 1.3271643590489396E-1
71 309 4.556552470860063E-2
71 311 4.51034972069867E-2
71 323 1.9443902165776874E-2
71 369 5.184025716271159E-2
71 430 1.024045572051227E-1
71 479 1.831563888873418E-2
71 528 6.778261797668299E-2
72 33 4.48106528028336E-2
72 73 1.831563888873418E-2
72 200 1.282945934259997E-1
72 258 3.064779748423431E-2
72 367 1.831563888873418E-2
72 391 1.8402272020916134E-2
72 425 5.36372824853366E-2
72 461 1.3081194405778816E-2
72 504 4.3878507456545465E-2
72 514 4.4039755545591586E-2
72 515 1.0148279483577821E-1
73 72 1.831563888873418E-2
73 94 2.765767968311264E-2
73 152 3.394679628553464E-2
73 160 1.783167184474376E-2
73 186 2.73841647305944E-2
73 200 2.4136925764696213E-2
73 206 2.4390525413582248E-2
73 217 9.552484274011475E-2
73 225 1.831563888873418E-2
73 246 1.3222685135547602E-1
73 258 1.3257575474824282E-1
73 283 2.420631825448453E-2
73 365 1.074432663913307E-2
73 391 2.2521702727921603E-2
73 399 7.393838265448474E-2
73 417 2.7208479248492897E-2
73 461 2.8208210295223624E-1
73 504 9.186621959642044E-2
73 514 2.2901568477718237E-1
73 515 6.969236160820748E-2
74 19 2.609936644892171E-2
74 50 2.4203896256147023E-2
74 182 1.763773567626792E-2
74 188 1.831563888873418E-2
74 209 7.563763920888456E-2
74 266 1.920294989747598E-2
74 300 3.0031456016528214E-2
74 445 2.3148547566992632E-2
74 460 2.696950967186216E-2
74 519 3.8165628872476876E-2
75 10 2.1862085870986298E-1
75 81 1.831563888873418E-2
75 110 3.5909573221345165E-2
75 135 5.4628070642976645E-2
75 198 2.880087263080776E-2
75 250 1.8669491126235765E-2
75 324 2.618478724907129E-2
75 448 2.3840233182497887E-2
75 452 2.5372858729306703E-2
75 502 1.786340831234772E-2
76 23 3.554043435789999E-2
76 39 9.488263585404344E-2
76 71 9.566454018909071E-2
76 92 4.173350457671003E-2
76 116 8.143605622296882E-2
76 255 6.858864609929777E-2
76 306 4.276882894350647E-2
76 309 1.997388038388723E-2
76 311 1.831563888873418E-2
76 323 1.701273465404171E-2
76 369 3.782501776101686E-2
76 430 7.560390550649135E-2
76 528 3.0086974474725532E-2
77 9 6.389735690346261E-2
77 66 2.2390945732152107E-1
77 85 4.7500088576331465E-2
77 93 4.773914541559522E-2
77 176 9.797657177278493E-2
77 265 1.831563888873418E-2
77 289 7.784681966829407E-2
77 470 2.818283381684988E-1
77 482 6.485133062335567E-2
77 485 1.2213450865540133E-2
78 43 1.6782867156402026E-1
78 57 3.079895491037386E-2
78 106 1.9392760474873146E-2
78 196 2.2178718498096536E-2
78 301 3.3793280901531296E-2
78 378 3.146537846649079E-2
78 404 1.0377959162392655E-1
78 422 3.9848855689116114E-2
78 432 3.312961975161216E-1
78 462 2.6518236394490774E-2
78 484 4.358650096773053E-1
78 500 1.831563888873418E-2
78 508 1.360007017399056E-2
78 510 1.0132063252923448E-1
78 529 2.2536556805156133E-1
79 57 5.442264205257948E-2
79 87 9.922577634830315E-2
79 117 6.174024813924636E-2
79 229 3.85657790924248E-2
79 254 3.0469460583862604E-2
79 339 1.9957386004635556E-2
79 385 5.978075665734651E-2
79 491 1.7589072635980394E-2
79 508 3.268582479104617E-2
79 510 2.4625060643808823E-2
79 519 1.9423521668637853E-2
80 14 1.178384732131385E-1
80 21 1.831563888873418E-2
80 47 4.262468798259456E-2
80 48 6.241059652101374E-2
80 82 4.303104278836991E-2
80 100 3.584299658126311E-2
80 119 8.150874699561945E-2
80 286 7.562333366787566E-2
80 329 4.132188625397021E-2
80 342 6.146561918275997E-2
80 390 1.831563888873418E-2
80 394 9.31861713532085E-2
80 407 1.8498096143666667E-2
80 427 2.970518231212727E-2
80 453 2.1643278003645905E-2
80 468 4.529573231468703E-2
80 509 2.160231927347788E-2
80 513 8.062323433293694E-3
81 10 1.831563888873418E-2
81 45 3.3503594168445214E-2
81 59 1.7135500977292814E-2
81 75 1.831563888873418E-2
81 108 4.559355752213878E-2
81 135 7.633303068753404E-2
81 158 3.3499092277003144E-2
81 161 2.5083217739410996E-2
81 197 4.188109410211636E-2
81 198 3.3053456804355744E-2
81 208 5.2526985443960096E-2
81 221 2.3662604186508247E-2
81 239 1.831563888873418E-2
81 277 1.831563888873418E-2
81 319 4.843232997225815E-2
81 324 1.6533967122596496E-2
81 349 4.5508781280660784E-2
81 353 1.1052597483178823E-1
81 408 2.9151818069251823E-2
81 436 4.878177201863769E-2
82 14 9.945778822490825E-2
82 26 1.831563888873418E-2
82 48 3.970130407580998E-2
82 80 4.303104278836991E-2
82 89 3.6693440317312635E-2
82 100 2.5931510741526803E-2
82 119 5.9925278781682134E-2
82 329 8.276417917517337E-2
82 390 5.410470429615899E-2
82 394 7.962602006003026E-2
82 427 5.526086032819247E-2
82 453 1.2163978184245511E-1
82 476 7.865392879688525E-2
82 509 3.364173768737545E-2
82 513 2.7894199237499903E-2
83 62 2.4507958638682034E-2
83 118 1.1901861614827709E-1
83 141 2.319416361955593E-2
83 153 2.7089129251465904E-2
83 155 7.495529007581743E-2
83 163 2.5732446237266404E-2
83 171 1.827111290836302E-2
83 233 2.9988155201587523E-2
83 355 2.9926355706767258E-2
83 381 4.708562396033158E-2
84 5 3.393389943996168E-2
84 27 9.849058745918869E-2
84 38 1.831563888873418E-2
84 41 1.5869752903036466E-2
84 51 1.3378617294774872E-1
84 212 2.7517901507738283E-2
84 294 2.0748723352750225E-2
84 327 3.520285458962844E-2
84 368 1.8197687993236806E-2
84 402 2.4857680365886617E-1
84 414 1.8544718023724253E-2
84 433 2.2952490116853845E-2
84 443 1.831563888873418E-2
84 444 1.0514582774052902E-1
84 463 9.902566921764153E-2
84 471 8.583130753285531E-2
84 489 2.3765816650477223E-2
84 523 8.799212314404203E-2
85 9 1.6979000971862755E-2
85 66 2.722359509595775E-1
85 77 4.7500088576331465E-2
85 145 2.0591286297426736E-2
85 176 1.8172226095067806E-1
85 265 4.773758450916277E-2
85 284 1.831563888873418E-2
85 289 1.0759454820726992E-1
85 377 1.3036071899753254E-1
85 470 3.0855667861601523E-2
85 482 2.204558651951571E-1
85 485 2.5867876603365153E-1
86 15 5.599374442486903E-2
86 62 8.233492551170538E-2
86 92 1.831563888873418E-2
86 110 2.261970248214465E-2
86 116 2.0021940396781585E-2
86 124 6.952570654060534E-2
86 139 5.810553787991003E-2
86 153 2.2016083467156757E-2
86 154 1.0747593166098053E-1
86 192 4.050282971344808E-2
86 211 1.4574926351641E-1
86 251 4.898613493081454E-2
86 276 3.0275680989244384E-2
86 311 5.395239735085725E-2
86 337 5.651140749324699E-2
86 347 1.8640950793385735E-2
86 430 4.083910898964267E-2
86 456 3.8287418645431524E-2
86 479 1.505198133377576E-2
86 528 7.123144114719954E-2
87 11 6.075086921578429E-2
87 57 1.7605299258873858E-2
87 79 9.922577634830315E-2
87 117 3.1532623166869017E-1
87 172 5.836780294164611E-2
87 181 2.519509825377665E-2
87 186 2.9238017504560693E-2
87 229 4.9153368091718996E-2
87 254 9.555016440219344E-2
87 339 1.2264500066636866E-1
87 365 1.831563888873418E-2
87 385 1.947266553917717E-2
87 391 1.6381578850928728E-2
87 405 1.8827375302776655E-2
87 519 1.7894433782207557E-2
88 2 6.2435058250549846E-2
88 32 1.2732277354803572E-2
88 54 2.3739576877960245E-2
88 67 3.343740059876286E-2
88 122 9.46591615792193E-2
88 136 4.251337616151208E-2
88 147 7.72367720293571E-2
88 167 2.6146512585003296E-2
88 173 7.908417658567883E-2
88 193 1.831563888873418E-2
88 210 1.831563888873418E-2
88 370 8.907367365391436E-2
88 371 3.555551295367167E-2
88 397 5.812660805039387E-2
89 4 1.1855654381425047E-1
89 12 2.7566314601667675E-2
89 26 9.184442458966866E-2
89 48 5.599526439856565E-2
89 82 3.6693440317312635E-2
89 93 1.7148625898815696E-2
89 145 6.002823847581639E-2
89 146 1.1632980571797184E-1
89 265 5.19721247884956E-2
89 284 8.408226787687688E-2
89 329 3.0465881401118985E-2
89 390 8.592106094085901E-2
89 453 7.837243796188026E-2
89 476 4.9706837753638426E-2
89 495 6.74891527057297E-2
89 513 1.9022039712074051E-1
89 522 1.831563888873418E-2
90 2 1.3841299096740245E-1
90 3 4.839324859199168E-2
90 67 1.0111430889550563E-1
90 112 7.549095898003537E-1
90 147 1.0177426724768632E-2
90 193 3.108324899261662E-1
90 210 4.5741906478078936E-2
90 281 1.425259532174284E-1
90 382 1.831563888873418E-2
90 398 3.932771306231918E-2
90 451 5.0888823004421616E-2
91 37 6.821982617520903E-2
91 120 1.4306386515115559E-2
91 156 2.5520880871023003E-2
91 162 1.831563888873418E-2
91 194 1.4287250434387746E-2
91 218 2.1375705860392738E-1
91 252 2.0369250886231832E-1
91 279 1.831563888873418E-2
91 297 1.1842281374558347E-1
91 310 5.316397871951618E-2
91 325 3.543715543046596E-2
91 354 3.671215115664963E-2
91 474 9.54954522224496E-2
92 71 5.127530417716145E-2
92 76 4.173350457671003E-2
92 86 1.831563888873418E-2
92 97 1.828460711460722E-2
92 116 1.8590673428077836E-2
92 255 3.740064178236548E-2
92 306 5.2910562668877156E-2
92 311 3.581136856788124E-2
92 323 9.510057437199576E-2
92 340 1.6284567271635787E-2
92 351 1.537565435283003E-2
92 430 1.1427741725251357E-1
92 528 6.367397681565881E-2
93 9 1.2473095385071903E-1
93 26 1.831563888873418E-2
93 48 2.4697406968009983E-2
93 66 1.916078390340972E-2
93 77 4.773914541559522E-2
93 89 1.7148625898815696E-2
93 146 1.872574282488337E-2
93 176 5.722497650378022E-2
93 265 6.880451045992883E-2
93 284 3.947966497949405E-2
93 470 7.748807524465562E-2
93 495 2.832237656295685E-2
93 513 4.164976731912458E-2
94 73 2.765767968311264E-2
94 169 1.949354497412599E-2
94 172 1.589335385392989E-2
94 186 2.9588910920129597E-2
94 206 1.3672395802593085E-1
94 217 1.719101120624672E-1
94 246 8.180379319920708E-2
94 283 1.9893288413937088E-2
94 315 1.831563888873418E-2
94 399 6.184297164663891E-2
94 417 1.139688941518219E-1
94 450 8.174424460175331E-2
94 458 1.831563888873418E-2
95 27 5.064025046985937E-2
95 41 1.83392061441685E-2
95 49 2.7998060605384145E-1
95 142 1.831563888873418E-2
95 168 2.4002084194700582E-2
95 228 1.831563888873418E-2
95 232 2.9688971179295594E-2
95 294 1.0901735135491954E-1
95 295 1.1020601455098722E-1
95 327 1.669181796236974E-1
95 393 1.9810610039960075E-1
95 440 1.4549926689641263E-1
95 523 7.718151058142625E-2
96 20 6.0686257932148116E-2
96 142 2.0181115380182777E-2
96 156 2.5833230228775712E-2
96 162 7.134326429704944E-2
96 189 2.0575879115953946E-2
96 243 5.846989704539902E-2
96 279 3.711709062419248E-1
96 287 1.4473908155552995E-1
96 295 1.831563888873418E-2
96 308 1.1210675354399166E-1
96 313 1.2782854642743308E-1
96 335 1.6585523158814522E-2
96 411 3.146503789298505E-1
96 424 2.1601609933450172E-2
97 52 2.3734350319110274E-2
97 62 3.9785279261129985E-2
97 92 1.828460711460722E-2
97 138 1.152614508764486E-1
97 141 1.8821107172488707E-2
97 155 4.949635740131626E-2
97 163 1.1242874473368172E-1
97 192 4.4267719153047475E-2
97 216 1.831563888873418E-2
97 245 2.0315183482695894E-2
97 323 1.831563888873418E-2
97 328 2.7973252850365848E-2
97 340 5.1869629754538626E-2
97 346 3.1828427737802804E-2
97 351 4.10335333050525E-2
97 355 1.8438876275513585E-1
97 420 3.507298764206042E-2
97 428 1.733553618183294E-2
97 457 1.831563888873418E-2
98 1 3.507475226427341E-2
98 8 4.553028404916214E-2
98 60 1.2859797509674473E-1
98 64 2.1157896779802527E-2
98 69 2.750792188934683E-2
98 111 1.6639468954582105E-2
98 126 5.95427602059956E-2
98 129 6.27800147742801E-2
98 183 4.818907889949627E-2
98 195 1.923267174055348E-2
98 203 6.789713237070792E-2
98 238 4.754916678494729E-2
98 331 3.2692998909244604E-2
98 359 2.6639422410092074E-2
98 395 3.654921746673529E-2
98 396 1.1283072680326557E-1
98 490 1.7455858424234694E-1
98 505 1.1592345034976642E-1
98 516 1.831563888873418E-2
99 19 9.142463554249694E-2
99 182 1.831563888873418E-2
99 188 7.139774083790201E-2
99 204 1.1000708694841152E-1
99 273 1.2078986689238194E-2
99 317 3.830478509484615E-1
99 341 4.820248928927866E-2
99 425 7.351772345815387E-2
99 446 1.1156309967866787E-1
99 507 4.246689262437729E-2
99 511 2.3910360978669692E-2
100 14 4.116764029534545E-2
100 21 1.9581445782293712E-2
100 47 2.699318986389761E-2
100 80 3.584299658126311E-2
100 82 2.5931510741526803E-2
100 119 3.593594311723886E-2
100 286 3.264042860288436E-2
100 329 1.831563888873418E-2
100 333 5.8925802587172005E-2
100 342 2.200039014330267E-2
100 394 5.8996741177471876E-2
100 407 3.8808195061573444E-2
100 427 1.1933751784861235E-1
100 453 1.638316789164505E-2
100 468 2.021669124375046E-2
100 476 1.857775801067443E-2
101 49 3.0407968333167466E-2
101 70 1.8331640341140727E-2
101 102 3.131002798979E-2
101 103 1.831563888873418E-2
101 157 2.0706618713587734E-2
101 168 9.167871347031828E-2
101 179 7.534553760340792E-2
101 255 1.4708403272229517E-2
101 272 3.265630640450626E-2
101 431 5.1262814465717975E-2
102 30 3.2349799186698724E-2
102 101 3.131002798979E-2
102 166 1.9152113608435963E-2
102 168 6.731801188307081E-2
102 184 5.6481597762683466E-2
102 264 2.0971418451325944E-2
102 272 3.3130337437001736E-2
102 290 7.22640422854272E-2
102 292 1.7386882303620625E-2
102 301 1.831563888873418E-2
102 303 1.822485961247612E-2
102 431 3.325723873211746E-2
102 469 3.01681585209907E-2
102 475 3.9338901588799E-2
102 500 3.771019315710856E-2
103 7 1.2964256695268081E-2
103 23 4.015011798252627E-2
103 70 1.8766946336532359E-1
103 71 3.086969998877797E-2
103 101 1.831563888873418E-2
103 134 7.268708744488608E-2
103 157 1.044319680138005E-1
103 179 3.7781883866772815E-2
103 255 2.7446563197747197E-2
103 272 1.981906124708789E-2
103 306 3.174612809574138E-2
103 383 9.251969504466719E-2
103 406 1.831563888873418E-2
103 431 1.831563888873418E-2
103 467 1.1166036992309862E-2
104 5 1.831563888873418E-2
104 17 2.1838589081798676E-1
104 38 1.5646836180250662E-2
104 114 1.8887179784430522E-1
104 123 5.1451589267276006E-2
104 150 5.7155539944243994E-2
104 165 4.9336928045423306E-1
104 212 4.283502074886925E-2
104 312 1.133664794361903E-1
104 384 3.527046352915607E-1
104 419 4.512548744893046E-2
104 464 2.1679910979981617E-2
104 472 2.989226933006267E-2
104 497 5.719012788673569E-2
104 526 7.219311893303867E-2
105 21 1.3989215843932978E-1
105 33 1.889198472788821E-2
105 160 2.1198374193167162E-2
105 225 2.0580242192476644E-2
105 333 2.6131164891184323E-2
105 342 2.783718611967084E-2
105 367 2.0252712572815763E-2
105 407 1.7341851491210643E-2
105 425 1.8436708489573135E-2
105 468 4.562777296114286E-2
105 504 1.831563888873418E-2
106 7 1.831563888873418E-2
106 70 1.834651971119206E-2
106 78 1.9392760474873146E-2
106 121 6.576408235380228E-2
106 125 2.7674040932904223E-2
106 134 5.3961524074096684E-2
106 175 7.355627728468087E-2
106 360 3.30575905329816E-2
106 383 1.2193699031222412E-2
106 406 7.175455060996527E-2
106 422 2.4886749402680583E-2
106 432 8.360751108465395E-2
106 484 4.763351659895965E-2
106 488 7.103528872909941E-2
107 40 5.876243357484462E-2
107 44 5.6395522126601885E-2
107 55 1.2058266198063221E-1
107 56 2.537307279465867E-2
107 159 4.108992850245217E-2
107 185 4.521593845636224E-2
107 187 8.376597180282475E-2
107 199 6.503821707224082E-2
107 259 1.831563888873418E-2
107 338 1.9177552458627452E-2
107 424 2.521899298520117E-2
107 478 1.0685368707710602E-1
107 530 2.123894742234411E-2
108 16 1.4602700470358979E-2
108 59 1.831563888873418E-2
108 81 4.559355752213878E-2
108 132 1.8291049589952386E-2
108 158 7.005753982643217E-2
108 161 2.2341481011091582E-2
108 198 1.913066940915932E-2
108 208 3.2072520714813604E-2
108 215 1.2912213680836748E-1
108 221 6.680101028382819E-2
108 247 2.8381397212830044E-2
108 256 1.326812516577341E-2
108 319 1.1885803112984462E-1
108 347 1.831563888873418E-2
108 349 1.103427169072782E-1
108 353 5.3994208432954396E-2
108 361 1.674181862045227E-2
108 379 7.707642667214623E-2
108 392 6.608480887606863E-2
108 400 2.912508425791206E-2
108 408 6.344975370631976E-2
108 436 4.833471315538616E-2
108 442 2.3412058845117604E-2
108 520 1.98330545674084E-2
109 16 1.5820466922170176E-1
109 132 2.40020021285329E-2
109 174 1.858841802147231E-2
109 190 6.086356021534158E-2
109 198 1.831563888873418E-2
109 256 4.1103284723106676E-2
109 345 4.2942174534764926E-2
109 361 4.335746898098064E-2
109 373 2.0999960209591115E-1
109 374 1.0214433717106292E-1
109 392 2.0983482760454558E-2
109 401 1.1695070988474197E-1
109 483 3.2052652172706135E-2
110 10 5.6525307458775445E-2
110 15 3.1533553985285984E-2
110 45 1.831563888873418E-2
110 75 3.5909573221345165E-2
110 86 2.261970248214465E-2
110 124 3.503459345313902E-2
110 154 5.4968460229162686E-2
110 250 8.803514241208638E-2
110 251 4.389883476780951E-2
110 353 2.2942919675301814E-2
110 408 1.831563888873418E-2
111 1 1.831563888873418E-2
111 60 3.058442058043805E-2
111 69 3.833524779020468E-1
111 98 1.6639468954582105E-2
111 126 6.849802380209126E-2
111 129 8.479269130079604E-2
111 183 2.742073699677905E-2
111 195 4.221974244078579E-2
111 205 1.8989449027820494E-2
111 223 5.820931011050011E-1
111 331 2.35932709189723E-2
111 359 9.815476471151718E-2
111 395 1.7659053737710942E-1
111 505 6.288199200741927E-2
112 2 2.547639193979623E-1
112 3 5.353042892654775E-2
112 67 1.340201699867522E-1
112 90 7.549095898003537E-1
112 147 1.831563888873418E-2
112 173 4.549677295485908E-2
112 193 3.947770605078834E-1
112 210 6.284343492524933E-2
112 281 6.763839705645915E-2
112 382 1.354485593460631E-2
112 398 3.079982416605005E-2
112 451 5.7957723368764535E-2
113 8 7.383381538440786E-2
113 202 4.379994553701787E-2
113 203 1.831563888873418E-2
113 234 4.028251463747304E-2
113 240 1.1108649342953837E-2
113 261 2.1240124639392354E-2
113 396 3.0749304703122943E-2
113 454 2.5133536423753863E-2
113 501 5.397541268443533E-2
113 512 4.388283446287283E-2
114 17 3.578512673760439E-2
114 43 1.9487180227302545E-2
114 57 4.913861532252694E-2
114 104 1.8887179784430522E-1
114 123 1.0028294092687613E-1
114 150 3.729738080810559E-2
114 165 2.2513016486779489E-1
114 196 6.51959183608974E-2
114 358 1.7691179111344962E-2
114 372 8.44111968535374E-2
114 384 8.589174038451539E-2
114 385 1.831563888873418E-2
114 405 3.4867091920087696E-2
114 419 1.1250009543302192E-1
114 472 2.5396769541663415E-2
114 489 7.071312688277118E-2
114 497 3.754423845973634E-2
114 519 1.831563888873418E-2
114 526 1.7500333320232136E-2
115 7 6.911040222077897E-2
115 35 4.057073030082278E-2
115 143 2.7008187933259015E-2
115 157 7.231035125097603E-2
115 175 2.5013977676365637E-2
115 260 5.480590317976808E-2
115 272 8.95429454039253E-2
115 290 9.593063249867662E-2
115 301 8.714051618113267E-2
115 378 2.6549464703698414E-2
115 403 1.831563888873418E-2
115 469 2.477479329273738E-2
115 475 5.289821437395811E-2
115 484 1.831563888873418E-2
116 23 7.737467243150464E-2
116 39 7.650849753419717E-2
116 71 9.356648794287181E-2
116 76 8.143605622296882E-2
116 86 2.0021940396781585E-2
116 92 1.8590673428077836E-2
116 154 1.5938420943794305E-2
116 306 5.6844260743018155E-2
116 309 4.238151073353238E-2
116 311 9.058389593865164E-2
116 369 5.223175198675477E-2
116 430 1.0589729377538486E-1
116 528 1.492849221966362E-1
117 11 5.3745931397766095E-2
117 79 6.174024813924636E-2
117 87 3.1532623166869017E-1
117 172 4.60538374847816E-2
117 181 7.575660274410916E-2
117 186 6.043002926206755E-2
117 229 1.831563888873418E-2
117 254 5.736587889575856E-2
117 339 2.779960909813809E-1
117 365 1.831563888873418E-2
117 391 5.4798633078489034E-2
117 399 4.759981740076515E-2
117 450 1.7903298420359426E-2
118 15 1.6949238736663347E-2
118 62 5.6639317093602794E-2
118 83 1.1901861614827709E-1
118 139 2.763738971056763E-2
118 141 6.589708721525343E-2
118 155 2.6503491457419176E-1
118 163 2.7157256434967355E-2
118 233 2.1118349783239117E-2
118 245 1.831563888873418E-2
118 355 9.353195105016733E-2
118 363 2.0159750592952823E-2
118 376 1.831563888873418E-2
118 381 5.27527407288955E-2
118 457 2.0321675188158556E-2
119 14 1.2872856610127578E-1
119 26 1.2209484514255839E-2
119 47 2.8041618164548268E-2
119 48 5.6547680492032994E-2
119 80 8.150874699561945E-2
119 82 5.9925278781682134E-2
119 100 3.593594311723886E-2
119 286 5.3315789191707964E-2
119 329 1.534887191669404E-1
119 333 1.831563888873418E-2
119 390 2.7767211049478394E-2
119 394 9.579259496129813E-2
119 407 9.469267148720165E-2
119 427 1.3398279263451027E-1
119 453 1.831563888873418E-2
119 509 2.9312563976087308E-2
120 91 1.4306386515115559E-2
120 156 3.2355473565158874E-2
120 189 5.5416716944229484E-2
120 199 3.293640846826522E-2
120 237 6.010772534266175E-2
120 279 1.831563888873418E-2
120 287 2.1085198711997766E-2
120 297 8.634315953410833E-2
120 298 3.660259823204654E-2
120 354 1.610285107922649E-1
120 357 1.8388457799369016E-2
120 424 1.692941862796652E-2
120 530 2.327419444602877E-1
121 61 2.830411280628639E-2
121 70 3.1030321338066717E-2
121 106 6.576408235380228E-2
121 125 3.28924313604911E-2
121 134 2.7230354458226927E-2
121 360 1.2254193920207093E-1
121 406 2.2741597063790277E-2
121 422 2.0538167532831296E-2
121 488 1.831563888873418E-2
121 531 1.3834316030868168E-1
122 32 5.58188115684504E-2
122 63 9.80447633587911E-2
122 88 9.46591615792193E-2
122 128 5.391692732758402E-2
122 136 2.746662944697053E-2
122 147 1.831563888873418E-2
122 167 1.0146481342041411E-1
122 280 6.164850143153352E-2
122 288 4.891939477045215E-2
122 370 2.435351668064169E-1
122 371 4.2733034821241654E-2
122 388 1.7343640596934783E-2
122 496 6.1244264869922724E-2
123 31 4.002106473782826E-2
123 43 2.298509675082719E-2
123 104 5.1451589267276006E-2
123 114 1.0028294092687613E-1
123 165 1.9335259280638277E-2
123 166 7.817338263316496E-2
123 196 9.389058661428808E-2
123 358 5.41805658425599E-2
123 372 1.831563888873418E-2
123 384 9.738313021016945E-2
123 419 1.0239341592687622E-1
123 462 1.3605181370173568E-2
123 489 1.831563888873418E-2
123 500 1.4829144659104843E-2
124 15 5.4849971780458084E-2
124 45 2.184052621742171E-2
124 86 6.952570654060534E-2
124 110 3.503459345313902E-2
124 154 2.66748250498864E-2
124 250 5.9274762251438774E-2
124 251 1.2685382078120527E-1
124 276 1.4560942187397308E-2
124 337 9.089570311238519E-2
124 347 1.831563888873418E-2
124 353 1.679342856266142E-2
124 430 3.514922742859193E-2
125 7 6.145946890657949E-2
125 70 2.5656054499546575E-2
125 106 2.7674040932904223E-2
125 121 3.28924313604911E-2
125 134 4.204789290951638E-2
125 356 1.3985531826820846E-1
125 360 7.160338786612201E-2
125 385 1.831563888873418E-2
125 406 1.0188134464927669E-2
125 432 1.6863202652550518E-2
125 484 5.135839878882649E-2
125 491 8.119809895768051E-2
125 508 2.4884761902319627E-2
125 529 2.7695019460599074E-2
126 1 1.4834867748522936E-2
126 8 2.3372191138550692E-2
126 60 1.936187155137853E-1
126 64 3.833013265451008E-2
126 69 1.3635836059615788E-1
126 98 5.95427602059956E-2
126 111 6.849802380209126E-2
126 129 7.318743040044697E-2
126 133 1.6087452299956553E-1
126 203 1.2075534957669357E-1
126 205 1.2088869018447371E-1
126 223 6.873334399909732E-2
126 244 6.326197262101088E-2
126 331 2.249604538722036E-2
126 359 1.642103068954786E-2
126 395 1.632687594095549E-1
126 396 2.9541666321848497E-2
126 490 3.7562448914661706E-2
126 505 1.5716549959861034E-1
126 516 4.013811380109451E-2
127 17 5.714036415927765E-2
127 165 1.7738224426328175E-2
127 169 7.049249510212163E-2
127 172 1.761900954247383E-2
127 206 1.831563888873418E-2
127 212 1.7577233734266548E-2
127 226 1.719341284369217E-1
127 312 7.988053949949807E-2
127 315 7.693851436236963E-2
127 339 3.952275483639376E-2
127 399 1.8233507424646512E-2
127 417 6.228770691672015E-2
127 450 7.46480317983802E-2
127 458 1.0983542485982785E-1
127 472 1.831563888873418E-2
127 497 1.831563888873418E-2
128 32 1.1971725790061383E-1
128 44 7.194193121378384E-2
128 54 2.1373814364960907E-2
128 55 2.845202163377093E-2
128 63 8.70516328763886E-2
128 122 5.391692732758402E-2
128 136 7.109348275449132E-2
128 167 4.526971262835973E-1
128 187 1.831563888873418E-2
128 288 2.2511439887739415E-1
128 298 1.831563888873418E-2
128 334 1.592289520543039E-2
128 357 3.451711896006524E-2
128 370 2.2943237114639213E-2
128 478 1.5731478233720612E-2
129 60 1.986061091702075E-2
129 69 1.1978759325941093E-1
129 98 6.27800147742801E-2
129 111 8.479269130079604E-2
129 126 7.318743040044697E-2
129 133 2.9853614136532744E-2
129 183 2.8899835270961866E-2
129 195 2.979823748278055E-2
129 203 1.8895295945500608E-2
129 223 9.088675926238349E-2
129 359 5.60379840558876E-2
129 366 2.0175409515583758E-2
129 395 8.457843733933576E-2
129 490 1.5793219410873788E-1
130 137 4.9137714526347895E-2
130 191 1.831563888873418E-2
130 219 1.73927195154932E-2
130 224 1.7068709065606976E-2
130 275 1.831563888873418E-2
130 366 1.693285209690068E-2
130 386 1.9807061650969814E-2
130 410 1.2692998257894714E-1
130 434 4.061241296563155E-2
130 456 2.4285414202021925E-2
130 479 3.236657396135701E-2
130 480 6.1223465407043404E-2
130 524 1.9548184705096575E-2
131 24 2.8711369667243764E-2
131 28 4.6481723462737344E-2
131 36 2.9393444315173357E-2
131 58 1.6942994249315285E-1
131 267 6.836386334814389E-2
131 268 2.072172049509941E-2
131 322 3.7491121775320706E-2
131 375 1.831563888873418E-2
131 426 4.199841794430531E-2
131 439 8.177019435900901E-2
131 441 8.900899633110179E-2
131 448 2.0873244433003327E-2
131 492 6.062513740214601E-2
131 506 1.2742020810842986E-2
132 16 2.6706071346823033E-2
132 108 1.8291049589952386E-2
132 109 2.40020021285329E-2
132 161 2.5996338290792183E-2
132 198 3.54719274326213E-2
132 208 2.1504266599566873E-2
132 221 2.6633106782626738E-2
132 244 3.1815481691302605E-2
132 361 3.0923971133219333E-2
132 373 2.7087934975747366E-2
132 392 1.913851017095332E-2
132 436 1.831563888873418E-2
133 29 3.375549082921416E-2
133 60 1.831563888873418E-2
133 69 1.4412950509811458E-2
133 126 1.6087452299956553E-1
133 129 2.9853614136532744E-2
133 203 6.958134672929643E-2
133 205 1.9547398021218007E-1
133 220 2.227861535540023E-2
133 222 5.496449753659756E-2
133 223 1.8388480296101854E-2
133 244 3.789671532762741E-2
133 257 1.0466097842188107E-1
133 366 6.448762026418932E-2
133 380 1.3872787907712653E-1
133 505 1.6070038943006494E-2
133 516 5.7203658950856516E-2
134 7 2.1396064991642635E-2
134 70 3.339457691020471E-1
134 103 7.268708744488608E-2
134 106 5.3961524074096684E-2
134 121 2.7230354458226927E-2
134 125 4.204789290951638E-2
134 157 2.8003007566779176E-2
134 175 5.10375320651251E-2
134 272 1.212070038262265E-2
134 360 1.9623131286041186E-2
134 383 1.2939397850982678E-1
134 406 2.1121986225574743E-1
134 431 1.7309513851508782E-2
134 467 1.831563888873418E-2
134 488 2.6042294993463028E-2
135 10 4.477443761300815E-2
135 24 2.2585543432554988E-2
135 28 2.3565010561776165E-2
135 45 2.1803100770786732E-2
135 59 3.0922025278124012E-2
135 75 5.4628070642976645E-2
135 81 7.633303068753404E-2
135 197 1.6957701514422586E-2
135 198 3.3677366959364234E-2
135 277 2.8479320215540543E-2
135 319 1.831563888873418E-2
135 353 3.480565122871724E-2
135 452 7.70328227320661E-2
135 502 2.2388504671828655E-2
135 506 2.3548276180213636E-2
136 32 5.823752605147764E-2
136 44 3.370818070310094E-2
136 54 2.266252456601968E-2
136 55 3.9543823577650655E-2
136 88 4.251337616151208E-2
136 122 2.746662944697053E-2
136 128 7.109348275449132E-2
136 167 2.1241877846325075E-1
136 187 5.037708690805422E-2
136 237 1.232390719206959E-2
136 288 4.823415874015479E-2
136 357 1.831563888873418E-2
136 370 1.831563888873418E-2
136 371 3.357151375260102E-2
136 397 4.958992749228839E-2
136 478 1.2459109120076955E-1
137 34 1.831563888873418E-2
137 130 4.9137714526347895E-2
137 224 3.8034322778548915E-2
137 275 1.306018657212916E-1
137 306 1.6629251966119266E-2
137 311 2.689661198294656E-2
137 410 4.154450942809842E-2
137 434 2.805372270869476E-2
137 442 2.6505258744770024E-2
137 456 1.7416927177544828E-1
137 479 1.9608414538841246E-1
137 480 4.2727236729440954E-2
137 494 1.831563888873418E-2
137 524 2.8182522789054115E-2
137 528 1.831563888873418E-2
138 97 1.152614508764486E-1
138 163 5.616120156043884E-2
138 192 2.652203424290644E-2
138 216 3.0225011443717975E-2
138 227 1.831563888873418E-2
138 314 2.0182836167433018E-2
138 320 4.069175695057367E-2
138 323 2.5850972433669656E-2
138 328 2.6548605728643752E-2
138 330 3.1462907095261866E-2
138 340 2.117368815620116E-1
138 346 1.734948072611784E-2
138 351 1.655271736259697E-1
138 415 3.28484285587394E-2
138 428 9.520141682088686E-2
139 15 3.274900449774011E-2
139 62 1.0329001666393942E-1
139 86 5.810553787991003E-2
139 118 2.763738971056763E-2
139 154 1.658660923751663E-2
139 155 3.077917036094515E-2
139 163 3.311549902157239E-2
139 192 1.9033493135098105E-2
139 211 5.788020837856576E-2
139 245 2.2911005237219742E-2
139 276 1.914487167858887E-2
139 328 1.9799466063069437E-2
139 337 1.9998481618188832E-2
139 355 2.1790179057030828E-2
140 30 6.304084296276671E-2
140 177 1.4513121452550112E-2
140 184 7.49074347231253E-2
140 249 5.849266420232516E-2
140 264 3.67644150865186E-2
140 290 2.1640904998974163E-2
140 292 9.37681097065467E-2
140 303 2.7008851400846398E-2
140 318 4.931905141875323E-2
140 352 7.04740381143038E-2
140 449 3.0977882958709655E-2
140 481 6.113082547160467E-2
141 83 2.319416361955593E-2
141 97 1.8821107172488707E-2
141 118 6.589708721525343E-2
141 155 8.091717957059401E-2
141 163 1.016846963516592E-1
141 245 1.8218560987523596E-2
141 302 1.7772847649049555E-2
141 328 3.0597451125566204E-2
141 346 1.5868838700167927E-2
141 355 6.394318230667817E-2
141 363 2.6141124477662214E-2
141 457 8.949586653993973E-2
142 20 1.8468635474192304E-2
142 95 1.831563888873418E-2
142 96 2.0181115380182777E-2
142 151 2.867916317769211E-2
142 164 6.81816143605183E-2
142 228 4.3757146317462886E-1
142 232 9.502632520210538E-2
142 243 1.831563888873418E-2
142 282 2.0296322499541764E-2
142 294 1.1910969495964259E-1
142 295 3.8175367322287164E-2
142 308 4.669558609027568E-2
142 313 3.3444811581792876E-2
142 327 2.139791947758871E-2
142 335 4.308796079010278E-2
142 336 4.3171357534879634E-2
142 343 3.171089329017681E-2
142 393 2.1424458244713278E-2
142 418 2.6130610982816084E-2
142 423 1.8700551729815783E-2
142 433 3.333312563450538E-2
142 440 4.23877454152964E-2
142 449 1.831563888873418E-2
142 464 7.018836300932882E-2
142 471 1.5808439258068897E-2
142 493 1.1376378819559776E-1
143 7 1.708496224606554E-2
143 25 1.9618899858341518E-2
143 65 4.1911403877716955E-2
143 115 2.7008187933259015E-2
143 157 7.777580789392978E-2
143 184 5.872560771762527E-2
143 231 5.865329702127189E-2
143 260 1.831563888873418E-2
143 264 1.903048323653252E-1
143 290 5.629837350185666E-2
143 362 5.5976053090503776E-2
143 403 3.8852453079907795E-1
143 412 1.831563888873418E-2
143 438 1.888725900946345E-2
144 40 1.3104724334735904E-2
144 54 1.7874315616756783E-2
144 56 1.0925535222949197E-1
144 68 1.1126220355236992E-1
144 159 1.831563888873418E-2
144 173 1.831563888873418E-2
144 180 1.1884771041947104E-1
144 185 1.9233613715638313E-2
144 235 1.831563888873418E-2
144 259 3.8310283827406325E-2
144 296 1.831563888873418E-2
144 338 6.201940255466066E-2
144 364 5.082571172265781E-2
144 371 1.831563888873418E-2
144 421 3.0890744055034218E-2
144 477 2.0617973352082555E-1
144 487 1.0985390410583436E-1
144 517 1.831563888873418E-2
145 4 1.543312293055623E-1
145 9 3.0774395212576123E-2
145 12 4.2297974905488187E-2
145 26 4.494520635055725E-2
145 85 2.0591286297426736E-2
145 89 6.002823847581639E-2
145 146 5.9885036791867886E-2
145 176 2.169734442071097E-2
145 265 2.0917054429409232E-1
145 284 1.0943492976511071E-1
145 289 1.1920173922352352E-2
145 377 7.379370888406739E-2
145 390 1.6386550750461762E-2
145 476 1.831563888873418E-2
145 485 1.5157848258450842E-2
145 495 1.0914681153581163E-1
145 513 1.5857471600343445E-1
145 522 3.270594234997127E-2
146 4 1.22703673258606E-1
146 12 3.445715911650074E-2
146 26 2.521444910036716E-2
146 48 1.831563888873418E-2
146 89 1.1632980571797184E-1
146 93 1.872574282488337E-2
146 145 5.9885036791867886E-2
146 265 5.9205941713723606E-2
146 284 6.792666635374438E-2
146 377 2.3731597887844152E-2
146 390 7.84152345958675E-2
146 495 3.8529466164973034E-2
146 513 1.1283764233084448E-1
146 522 1.754548833919385E-2
147 2 1.8920715341433791E-1
147 3 2.3532592163205693E-1
147 67 8.500534156602503E-2
147 88 7.72367720293571E-2
147 90 1.0177426724768632E-2
147 112 1.831563888873418E-2
147 122 1.831563888873418E-2
147 193 1.309754650409691E-1
147 280 1.1512319293256183E-1
147 370 2.4772290898616475E-2
147 382 3.6264311732198774E-2
147 398 1.0776299939962419E-1
147 451 5.228138587339848E-2
147 496 4.102607946884501E-2
148 171 2.9332604435631144E-2
148 174 1.4957359900654893E-2
148 215 3.622752371683338E-2
148 233 1.831563888873418E-2
148 347 3.0682243838221223E-2
148 361 4.8897926803038186E-2
148 373 5.994525255161108E-2
148 376 5.8830903492425014E-2
148 392 6.332604707444345E-2
148 520 2.225671219930507E-2
149 13 2.744840702125256E-2
149 182 2.470864099530287E-2
149 201 2.722844801717119E-2
149 204 2.1959139417459854E-2
149 316 1.6641819987925563E-2
149 341 3.9959480262069295E-2
149 368 2.631774079291019E-2
149 443 3.7799129801908825E-2
149 463 1.831563888873418E-2
149 486 1.8237996727074615E-2
149 511 6.958957800142183E-2
149 527 1.63570910923193E-2
150 17 3.548697830670642E-2
150 104 5.7155539944243994E-2
150 114 3.729738080810559E-2
150 165 7.415417248342922E-2
150 212 2.4480135829210388E-2
150 226 1.831563888873418E-2
150 315 1.856129880567958E-2
150 350 1.696478927368171E-2
150 384 1.5958581003161755E-2
150 472 4.6844432761814395E-2
150 497 7.154089056655197E-2
150 526 8.744977462126517E-2
151 20 1.829675973515157E-1
151 142 2.867916317769211E-2
151 228 1.831563888873418E-2
151 243 5.8338919630999526E-2
151 308 8.726280309070097E-2
151 335 1.7687537121884747E-1
151 343 1.2676246746985803E-1
151 411 1.5618417763725375E-2
151 418 5.4235111402459624E-2
151 464 3.338838694922328E-2
151 493 1.4646956648759916E-2
152 73 3.394679628553464E-2
152 160 7.950009578668843E-2
152 258 1.3462344075151741E-1
152 333 4.5540109622812935E-2
152 391 1.8236865714638915E-2
152 407 5.0614133911917734E-2
152 461 1.038882708822625E-1
152 504 6.795779062424043E-2
152 514 7.314938086313237E-2
152 515 1.831563888873418E-2
153 15 1.831563888873418E-2
153 46 9.500092118481368E-2
153 62 3.235838355593553E-2
153 83 2.7089129251465904E-2
153 86 2.2016083467156757E-2
153 163 1.7690375022625892E-2
153 171 2.437298032301254E-2
153 233 6.626891600193013E-2
153 276 6.477963021190278E-2
153 363 7.5078265404291E-2
153 381 3.164209879959734E-2
153 442 3.239305499954626E-2
154 15 7.99620759481554E-2
154 62 3.059657873432552E-2
154 86 1.0747593166098053E-1
154 110 5.4968460229162686E-2
154 116 1.5938420943794305E-2
154 124 2.66748250498864E-2
154 139 1.658660923751663E-2
154 211 1.3857634031273597E-1
154 250 3.225797434268253E-2
154 251 2.428972649024152E-2
154 311 1.887709030828601E-2
154 347 9.866048742583852E-2
154 353 1.831563888873418E-2
154 376 5.260340317833821E-2
154 408 2.3282971166321904E-2
154 528 8.843228007276138E-2
155 15 1.4000956466479534E-2
155 62 1.0153362339267397E-1
155 83 7.495529007581743E-2
155 97 4.949635740131626E-2
155 118 2.6503491457419176E-1
155 139 3.077917036094515E-2
155 141 8.091717957059401E-2
155 163 4.7374723733636034E-2
155 245 2.0757379801376423E-2
155 355 3.670364288803947E-1
155 381 2.250316170350509E-2
155 457 4.81816189565748E-2
156 20 1.7871809795151867E-2
156 91 2.5520880871023003E-2
156 96 2.5833230228775712E-2
156 120 3.2355473565158874E-2
156 189 5.8094737328326755E-2
156 279 2.6373732669159412E-2
156 308 1.831563888873418E-2
156 313 2.0075716563540666E-2
156 354 4.741469685438757E-2
156 411 2.6918926073083035E-2
157 7 1.4663216232053866E-1
157 70 4.472570369799307E-2
157 101 2.0706618713587734E-2
157 103 1.044319680138005E-1
157 115 7.231035125097603E-2
157 134 2.8003007566779176E-2
157 143 7.777580789392978E-2
157 168 5.386824375163941E-2
157 260 3.10059633214262E-2
157 272 1.447931978200798E-1
157 290 4.489842380216118E-2
157 301 1.956544485079066E-1
157 383 3.177170719825874E-2
157 403 7.676026961505478E-2
157 431 5.42304124650789E-2
158 42 1.931199795423341E-2
158 59 3.311274180185385E-2
158 81 3.3499092277003144E-2
158 108 7.005753982643217E-2
158 215 3.5953432524068664E-2
158 221 2.9783596179449826E-2
158 247 1.1283070080615314E-2
158 270 1.831563888873418E-2
158 319 9.993439504116822E-2
158 349 2.9004162579847215E-2
158 353 1.8978696769382658E-2
158 379 1.9056829316669844E-2
158 392 5.8358304446802206E-2
158 409 1.8758458723422727E-2
158 502 1.6167871214333076E-2
159 40 1.0601368016938104E-1
159 44 3.7261178900740044E-2
159 55 5.6622716608238165E-2
159 56 1.4948473884488117E-1
159 68 1.0471881048035961E-2
159 107 4.108992850245217E-2
159 144 1.831563888873418E-2
159 185 3.574473579034816E-2
159 199 2.4223533868562387E-2
159 259 6.549348977942409E-1
159 338 3.0954242814620034E-2
159 478 1.831563888873418E-2
160 21 5.643355660205764E-2
160 47 2.3654415175813757E-2
160 73 1.783167184474376E-2
160 105 2.1198374193167162E-2
160 152 7.950009578668843E-2
160 258 1.5920766991003726E-1
160 283 3.5164625564191546E-2
160 286 2.1262521876533522E-2
160 333 2.0364764396007815E-1
160 407 5.11229382824896E-2
160 461 6.0646734709308585E-2
160 504 3.142467208015464E-1
160 514 1.1867275262773941E-1
160 515 1.939638680814859E-2
161 81 2.5083217739410996E-2
161 108 2.2341481011091582E-2
161 132 2.5996338290792183E-2
161 198 2.0390704775220037E-2
161 208 4.43388303265857E-2
161 221 3.456278112646639E-2
161 299 4.917260269158372E-2
161 392 1.750161244180826E-2
161 455 2.1137160448737008E-2
161 473 1.831563888873418E-2
162 91 1.831563888873418E-2
162 96 7.134326429704944E-2
162 218 3.4692995937716194E-2
162 279 5.6744981428707736E-2
162 287 2.606245445163918E-2
162 303 1.806776394662471E-2
162 313 3.8082770351732756E-2
162 325 1.321215586026856E-1
162 411 6.949556304301518E-2
162 424 3.0683453978428955E-2
162 474 2.2702602198826827E-1
163 62 3.250060344877707E-2
163 83 2.5732446237266404E-2
163 97 1.1242874473368172E-1
163 118 2.7157256434967355E-2
163 138 5.616120156043884E-2
163 139 3.311549902157239E-2
163 141 1.016846963516592E-1
163 153 1.7690375022625892E-2
163 155 4.7374723733636034E-2
163 192 4.369073362504582E-2
163 245 6.008832173193242E-2
163 276 4.133732127781014E-2
163 328 1.0504080332986371E-1
163 330 2.048451981436239E-2
163 355 1.4496804667248794E-1
163 363 7.495945328708722E-2
163 457 4.52961852802993E-2
164 142 6.81816143605183E-2
164 228 5.448831415462062E-2
164 232 5.283254515431755E-2
164 282 2.169191271375786E-2
164 294 2.4829040100935024E-2
164 308 1.831563888873418E-2
164 313 4.9456613748902936E-2
164 336 3.470052930816228E-2
164 423 1.905564670740225E-2
164 440 4.944798287515366E-2
164 464 1.8137140981471365E-2
164 493 2.047137796217026E-2
165 17 2.5967322063999815E-1
165 104 4.9336928045423306E-1
165 114 2.2513016486779489E-1
165 123 1.9335259280638277E-2
165 127 1.7738224426328175E-2
165 150 7.415417248342922E-2
165 212 3.1578298967591074E-2
165 226 1.848221649597464E-2
165 312 1.2733916869647294E-1
165 350 2.7493184318138356E-2
165 384 2.086078885289013E-1
165 405 2.3516989185936317E-2
165 419 6.634115271928868E-2
165 458 1.816479865455614E-2
165 472 3.4509463398948975E-2
165 497 7.624677452198855E-2
165 526 7.48322811244738E-2
166 31 3.9492988678496196E-2
166 43 5.2995527377102426E-2
166 102 1.9152113608435963E-2
166 123 7.817338263316496E-2
166 177 1.831563888873418E-2
166 196 5.682669504478153E-2
166 358 1.4143794379197666E-1
166 372 1.6725331893892047E-2
166 462 4.5200282631276734E-2
166 465 2.5352516301630344E-2
166 489 8.241368715470757E-2
166 500 1.0279114909792533E-1
167 32 1.5379163202717241E-1
167 44 2.964008828554352E-2
167 54 2.6905827100636777E-2
167 55 2.0610393780978294E-2
167 63 9.092238331035588E-2
167 88 2.6146512585003296E-2
167 122 1.0146481342041411E-1
167 128 4.526971262835973E-1
167 136 2.1241877846325075E-1
167 187 5.3600183753801274E-2
167 237 9.164379358829246E-3
167 288 3.373491548781346E-1
167 357 3.924460713264767E-2
167 370 3.5699642795160226E-2
167 371 2.686541178069958E-2
167 397 4.96907515274964E-2
167 478 3.4514711122043296E-2
168 49 3.8909471419506375E-2
168 95 2.4002084194700582E-2
168 101 9.167871347031828E-2
168 102 6.731801188307081E-2
168 157 5.386824375163941E-2
168 184 1.831563888873418E-2
168 272 4.3753462761522574E-2
168 301 3.1748026736322016E-2
168 393 3.508642274521038E-2
168 431 1.8660870202914192E-2
169 94 1.949354497412599E-2
169 127 7.049249510212163E-2
169 172 1.864792911166515E-2
169 206 1.831563888873418E-2
169 226 1.346841629439952E-1
169 246 2.5744889225197354E-2
169 315 1.0738117972046628E-1
169 417 2.58209141500657E-2
169 450 7.068594565961692E-2
169 458 1.5816710130411173E-2
170 18 3.0637207123526683E-1
170 37 1.553427972410977E-1
170 52 1.831563888873418E-2
170 178 4.821377663905801E-2
170 194 8.756226031299898E-2
170 216 4.5756780276929865E-2
170 230 5.6701553967261835E-2
170 271 1.93717051228834E-2
170 278 3.820537908540754E-2
170 304 2.1015576805938664E-2
170 314 2.4612466967006538E-1
170 325 5.8955457991455976E-2
170 330 4.5223531745375065E-2
170 346 2.2995427343576035E-2
170 351 3.535210933984609E-2
170 420 1.9748917219019065E-2
170 428 3.0817908583598067E-2
170 474 6.882500051624617E-2
171 15 2.7397974193985437E-2
171 46 3.022650800551902E-1
171 83 1.827111290836302E-2
171 148 2.9332604435631144E-2
171 153 2.437298032301254E-2
171 215 1.831563888873418E-2
171 233 1.3252896191817176E-1
171 244 1.6641981681689823E-2
171 347 5.934661308231971E-2
171 361 5.825051800316808E-2
171 376 1.120153805068987E-1
171 381 5.540409938534579E-2
171 442 2.2106067783199516E-2
171 520 1.048324934783301E-1
172 11 3.901134629868722E-2
172 87 5.836780294164611E-2
172 94 1.589335385392989E-2
172 117 4.60538374847816E-2
172 127 1.761900954247383E-2
172 169 1.864792911166515E-2
172 181 1.5693966815092532E-2
172 186 7.204731129213882E-2
172 206 5.2044872474424506E-2
172 226 1.831563888873418E-2
172 246 1.831563888873418E-2
172 254 1.6759350212153933E-2
172 312 1.8539495731956575E-2
172 339 6.157318855004415E-2
172 350 4.295660857824179E-2
172 365 5.5684191384417395E-2
172 399 6.513560424455597E-2
172 405 1.831563888873418E-2
172 417 2.11343173809792E-2
172 450 3.189572238077875E-2
173 2 9.89326035381104E-2
173 67 3.4059252376722596E-2
173 88 7.908417658567883E-2
173 112 4.549677295485908E-2
173 144 1.831563888873418E-2
173 180 1.899160028966498E-2
173 193 3.5872576586735705E-2
173 210 1.0278548790238173E-1
173 307 1.9907523055294817E-2
173 421 2.4740069033210098E-2
173 477 2.1846697953740828E-2
173 487 1.543133125408122E-2
174 16 3.394690940507066E-2
174 109 1.858841802147231E-2
174 148 1.4957359900654893E-2
174 190 1.617539982927595E-2
174 198 2.3077733479108492E-2
174 215 2.7778786005709825E-2
174 319 1.831563888873418E-2
174 324 2.3011366909690557E-2
174 373 2.5726258123210274E-2
174 392 7.71293423308876E-2
174 401 6.424022108009249E-2
175 7 2.7596620424950265E-2
175 25 2.687014094683931E-2
175 34 3.4194811187157705E-2
175 35 3.068882993780622E-2
175 106 7.355627728468087E-2
175 115 2.5013977676365637E-2
175 134 5.10375320651251E-2
175 383 1.860204424370301E-1
175 406 1.7789900094061956E-1
175 432 2.2458766419492654E-2
175 467 3.170401066374763E-1
175 488 2.2098777363515398E-1
175 524 1.831563888873418E-2
176 9 1.499125107950557E-1
176 66 3.2147924391240396E-1
176 77 9.797657177278493E-2
176 85 1.8172226095067806E-1
176 93 5.722497650378022E-2
176 145 2.169734442071097E-2
176 265 1.4359719383490277E-1
176 284 1.831563888873418E-2
176 289 1.4184884840228373E-1
176 377 2.0979556908757475E-2
176 470 1.2279910793026556E-1
176 482 1.370088221929574E-1
176 485 7.290217207740181E-2
176 513 1.1953931876005875E-2
177 30 2.043624398843036E-1
177 31 2.0026695097329163E-2
177 140 1.4513121452550112E-2
177 166 1.831563888873418E-2
177 236 5.138571686889085E-2
177 292 1.37752051999614E-1
177 352 1.0879412473822354E-1
177 358 5.545891523695337E-2
177 449 2.0075297428465316E-1
177 465 3.343321086089697E-2
177 481 3.672247034154425E-2
177 500 1.3683167651092086E-2
178 18 2.5203162403487633E-2
178 52 1.831563888873418E-2
178 170 4.821377663905801E-2
178 194 1.4056632647825207E-1
178 216 2.0240762279922556E-2
178 271 8.665864510775075E-2
178 278 3.9951501657506605E-2
178 304 4.424597001547081E-2
178 310 1.831563888873418E-2
178 346 1.5603118750551096E-2
178 420 3.0447279538806032E-2
179 101 7.534553760340792E-2
179 103 3.7781883866772815E-2
179 230 4.320563679116406E-2
179 255 6.42415186294197E-2
179 306 1.831563888873418E-2
179 314 4.059817719605985E-2
179 320 2.9581028782563634E-2
179 323 2.3912123726275124E-2
179 340 1.6996120700966934E-2
179 351 3.310959288836051E-2
180 40 1.6039676098228574E-2
180 56 8.192338647492214E-2
180 68 1.5421215958873963E-1
180 144 1.1884771041947104E-1
180 173 1.899160028966498E-2
180 185 1.1763091831275271E-1
180 235 6.500855963449118E-2
180 259 1.831563888873418E-2
180 296 6.432031602360723E-2
180 307 2.2912512140585442E-2
180 338 5.616295828187084E-2
180 364 1.930112028905181E-1
180 421 8.432098012356111E-2
180 477 1.730768332781899E-1
180 487 2.693849623576099E-1
180 517 7.009160212990029E-2
181 11 1.9395472755846778E-2
181 87 2.519509825377665E-2
181 117 7.575660274410916E-2
181 172 1.5693966815092532E-2
181 186 3.568484241458601E-2
181 200 1.831563888873418E-2
181 254 7.566069850180207E-2
181 365 2.350316505982786E-2
181 391 1.0685870242073381E-1
181 399 2.2256684952759166E-2
181 461 1.831563888873418E-2
181 515 2.684978074196436E-2
182 13 7.937566406900107E-2
182 19 2.9403350653601498E-2
182 50 8.478753223158259E-2
182 74 1.763773567626792E-2
182 99 1.831563888873418E-2
182 149 2.470864099530287E-2
182 188 8.345540709237008E-2
182 204 3.441614388644098E-2
182 209 3.927335091762383E-2
182 253 4.834798636490647E-2
182 269 4.383651388035559E-2
182 316 5.033795267756539E-2
182 317 1.831563888873418E-2
182 341 3.8431088165660376E-2
182 368 4.178598199045201E-2
182 486 6.588010245279119E-2
182 511 5.292298107458776E-2
182 527 1.831563888873418E-2
183 1 3.862405736506643E-2
183 60 1.1644921413230588E-2
183 69 4.6886732404605246E-2
183 98 4.818907889949627E-2
183 111 2.742073699677905E-2
183 129 2.8899835270961866E-2
183 195 4.15326519184947E-1
183 223 2.4833704908526204E-2
183 359 1.5159887877878175E-1
183 395 2.2004520613784877E-2
183 490 1.831563888873418E-2
184 30 6.940650928392239E-2
184 102 5.6481597762683466E-2
184 140 7.49074347231253E-2
184 143 5.872560771762527E-2
184 168 1.831563888873418E-2
184 249 3.209179305948178E-2
184 260 2.8531362964671885E-2
184 264 5.2587038618395796E-2
184 290 4.540827716001386E-2
184 292 2.676145395501948E-2
184 295 1.825046096897689E-2
184 303 4.1284121678172164E-2
184 318 1.7148774495399328E-2
184 352 4.702681102277246E-2
184 393 1.7598947362158883E-2
184 403 2.1825517969706353E-2
184 475 2.5894324207917332E-2
184 481 2.8740931671848123E-2
185 40 2.3221781962067112E-1
185 44 4.19801680189064E-2
185 56 3.159368373731975E-1
185 68 3.444033187156148E-2
185 107 4.521593845636224E-2
185 144 1.9233613715638313E-2
185 159 3.574473579034816E-2
185 180 1.1763091831275271E-1
185 187 1.760001414670974E-2
185 235 1.0166508406597921E-2
185 259 4.6888436630246624E-2
185 296 1.4785030666109015E-2
185 338 2.2576061736963524E-1
185 364 1.831563888873418E-2
185 477 1.831563888873418E-2
185 478 1.831563888873418E-2
185 487 1.831563888873418E-2
186 11 1.7480055888395934E-1
186 73 2.73841647305944E-2
186 87 2.9238017504560693E-2
186 94 2.9588910920129597E-2
186 117 6.043002926206755E-2
186 172 7.204731129213882E-2
186 181 3.568484241458601E-2
186 206 7.132022101379026E-2
186 217 7.104189558059888E-2
186 246 4.841697396426309E-2
186 312 3.613528926354219E-2
186 339 3.8021185894219274E-2
186 350 2.3525697453236034E-2
186 365 1.1774238573961361E-1
186 399 4.1776821484698445E-1
186 417 1.2052187475959567E-1
186 450 1.176519138565916E-1
186 461 1.5709590154377704E-2
186 515 3.0790459158434664E-2
187 40 2.2489043805769937E-2
187 44 8.299119312470239E-2
187 54 2.240414401478199E-2
187 55 9.103101505904324E-2
187 56 1.3295774940111048E-2
187 107 8.376597180282475E-2
187 128 1.831563888873418E-2
187 136 5.037708690805422E-2
187 167 5.3600183753801274E-2
187 185 1.760001414670974E-2
187 199 1.6202920502242982E-2
187 288 3.7054889243512266E-2
187 338 1.831563888873418E-2
187 371 2.1952986059175075E-2
187 397 2.3534168984444284E-2
187 478 1.1166954048306504E-1
188 13 3.83594993977491E-2
188 19 2.1608768931449196E-1
188 50 4.884432638749477E-2
188 74 1.831563888873418E-2
188 99 7.139774083790201E-2
188 182 8.345540709237008E-2
188 204 6.640692112724017E-2
188 209 5.6350403879820855E-2
188 253 3.257459213352272E-2
188 269 1.831563888873418E-2
188 273 2.260182960810218E-2
188 300 1.3284677295693634E-2
188 316 7.55468481144843E-2
188 317 8.206473401165874E-2
188 341 7.25512876687157E-2
188 368 4.675852057818886E-2
188 446 1.831563888873418E-2
188 507 1.831563888873418E-2
188 511 3.9718522595933045E-2
189 55 2.4844564048681673E-2
189 96 2.0575879115953946E-2
189 120 5.5416716944229484E-2
189 156 5.8094737328326755E-2
189 199 7.39769269909848E-2
189 237 1.3496240811520893E-1
189 279 1.8505825461481766E-2
189 298 3.749676819004108E-2
189 354 2.0943517871689865E-1
189 357 1.472826318950649E-2
189 411 1.831563888873418E-2
189 424 2.93207742981561E-2
189 530 1.7310333625458674E-1
190 16 4.651606296447511E-2
190 28 1.831563888873418E-2
190 109 6.086356021534158E-2
190 174 1.617539982927595E-2
190 324 1.889719561364114E-2
190 345 2.2750300561799858E-2
190 373 4.387879809321819E-2
190 374 2.3655917820958633E-2
190 401 6.431152000254814E-2
190 455 1.9150660398585463E-2
191 130 1.831563888873418E-2
191 197 1.6656747603971702E-2
191 219 2.3047543908929775E-2
191 221 2.0999069777212317E-2
191 239 2.7866857373363994E-2
191 275 1.8071728366001436E-2
191 349 1.9668039780193443E-2
191 353 1.831563888873418E-2
191 379 1.8728097844025366E-2
191 380 1.9172930108243065E-2
191 386 5.1800912834701486E-2
191 410 6.777992072217794E-2
191 434 1.0646326096304687E-1
191 473 5.2866431614387054E-2
192 62 1.954882018351454E-2
192 86 4.050282971344808E-2
192 97 4.4267719153047475E-2
192 138 2.652203424290644E-2
192 139 1.9033493135098105E-2
192 163 4.369073362504582E-2
192 211 5.8182087859849935E-2
192 306 2.2168607445268544E-2
192 320 7.284655150190522E-2
192 323 3.942476082890446E-2
192 328 4.826290822281183E-2
192 355 1.6798195119792227E-2
192 430 1.831563888873418E-2
193 2 5.901622981366828E-1
193 3 1.8883492743453728E-1
193 67 2.375054762050743E-1
193 88 1.831563888873418E-2
193 90 3.108324899261662E-1
193 112 3.947770605078834E-1
193 147 1.309754650409691E-1
193 173 3.5872576586735705E-2
193 210 3.262842660062663E-2
193 281 5.2948605611946684E-2
193 382 4.394461739246748E-2
193 398 9.905216327331415E-2
193 451 1.1711269701535727E-1
194 18 5.813941479949429E-2
194 37 5.0938218536311884E-2
194 52 2.8090489135578572E-2
194 91 1.4287250434387746E-2
194 170 8.756226031299898E-2
194 178 1.4056632647825207E-1
194 216 1.582380818320839E-2
194 230 3.5298959641433814E-2
194 271 8.510267887853064E-2
194 278 5.434640715831572E-2
194 304 4.380671570351335E-2
194 314 2.4072684144193567E-2
194 330 1.704905636437216E-2
194 346 1.9598380254609055E-2
194 420 4.9200734397455904E-2
195 60 6.568461547915101E-3
195 69 5.2756808496724386E-2
195 98 1.923267174055348E-2
195 111 4.221974244078579E-2
195 129 2.979823748278055E-2
195 183 4.15326519184947E-1
195 223 4.887478788600399E-2
195 359 2.2440631176766374E-1
195 395 2.9708437164349212E-2
195 490 1.831563888873418E-2
196 43 4.533114563818595E-2
196 57 1.831563888873418E-2
196 78 2.2178718498096536E-2
196 114 6.51959183608974E-2
196 123 9.389058661428808E-2
196 166 5.682669504478153E-2
196 301 1.4033984268826835E-2
196 356 4.496824494397981E-2
196 358 1.831563888873418E-2
196 372 2.2532289575882153E-1
196 385 3.771167752978678E-2
196 419 6.485028819877564E-2
196 489 1.2370851818977703E-1
196 491 6.620115983275211E-2
196 508 4.712153482843285E-2
196 510 1.9606195551361907E-2
196 519 6.552055655446964E-2
196 529 1.8592821875282058E-2
197 10 3.988573191866033E-2
197 24 3.4573131044537256E-2
197 81 4.188109410211636E-2
197 135 1.6957701514422586E-2
197 191 1.6656747603971702E-2
197 239 8.401475987214059E-2
197 250 1.9624128970198204E-2
197 263 1.2093776709377394E-2
197 270 1.9425843173580804E-2
197 277 1.0733012221188733E-1
197 291 2.2736023204392213E-2
197 349 7.374099674279791E-2
197 353 6.689505337884163E-2
197 386 2.0928001944348632E-2
197 408 1.9215549340096262E-2
197 434 1.9931909372770534E-2
197 506 6.072637185892271E-2
198 16 2.632052919785081E-2
198 28 3.2071111232448546E-2
198 75 2.880087263080776E-2
198 81 3.3053456804355744E-2
198 108 1.913066940915932E-2
198 109 1.831563888873418E-2
198 132 3.54719274326213E-2
198 135 3.3677366959364234E-2
198 161 2.0390704775220037E-2
198 174 2.3077733479108492E-2
198 208 2.4172529787031678E-2
198 221 1.831563888873418E-2
198 256 3.145957334955517E-2
198 324 6.623156499041104E-2
198 373 1.2113672005222075E-2
198 408 1.716764971674249E-2
198 436 1.0773489601903778E-1
199 55 4.046383165919295E-2
199 107 6.503821707224082E-2
199 120 3.293640846826522E-2
199 159 2.4223533868562387E-2
199 187 1.6202920502242982E-2
199 189 7.39769269909848E-2
199 237 6.540626380325482E-2
199 259 1.831563888873418E-2
199 354 5.491675347540097E-2
199 397 2.9391205824316927E-2
199 530 5.413031585555534E-2
200 33 3.739124819059288E-2
200 72 1.282945934259997E-1
200 73 2.4136925764696213E-2
200 181 1.831563888873418E-2
200 258 6.55564628027927E-2
200 305 1.831563888873418E-2
200 367 2.1553193292808574E-2
200 391 1.831563888873418E-2
200 425 6.340861006824379E-2
200 461 3.20097451675171E-2
200 468 1.818414688953798E-2
200 504 6.681056876006326E-2
200 514 5.267107999783904E-2
200 515 2.003047702014767E-1
201 27 5.534448636786624E-2
201 149 2.722844801717119E-2
201 204 1.831563888873418E-2
201 327 1.336155899474446E-2
201 341 7.368840764627078E-2
201 368 2.8382032989701798E-2
201 433 2.0656841197083713E-2
201 443 5.106144109044297E-2
201 463 5.9714752364991644E-2
201 511 2.7817636168302604E-2
201 523 4.745829952286813E-2
202 8 7.113846928737272E-2
202 113 4.379994553701787E-2
202 234 2.411229381334293E-2
202 240 8.770742898842827E-2
202 257 1.831563888873418E-2
202 261 2.598532699531816E-1
202 344 4.603996013789051E-2
202 396 3.4165491949951055E-2
202 413 9.081176707655914E-2
202 454 9.707284760026286E-2
202 483 2.8389922415025415E-2
202 501 3.247704167227793E-2
202 512 3.99434880808286E-2
202 521 1.831563888873418E-2
202 525 2.9754935526032644E-2
203 8 1.6883730072020972E-1
203 60 1.1563919143710782E-1
203 64 4.074873138762894E-2
203 98 6.789713237070792E-2
203 113 1.831563888873418E-2
203 126 1.2075534957669357E-1
203 129 1.8895295945500608E-2
203 133 6.958134672929643E-2
203 205 3.386649313188192E-2
203 238 2.0535156698559456E-2
203 395 1.831563888873418E-2
203 396 2.173286510134993E-1
203 490 3.3754610699648205E-2
203 505 1.3980034086463972E-1
203 512 2.755272535780619E-2
203 516 7.804588715779003E-2
204 5 1.9490905526070804E-2
204 13 3.346738032232728E-2
204 19 1.9411791477727182E-2
204 99 1.1000708694841152E-1
204 149 2.1959139417459854E-2
204 182 3.441614388644098E-2
204 188 6.640692112724017E-2
204 201 1.831563888873418E-2
204 253 1.0710358377340117E-2
204 316 1.831563888873418E-2
204 317 1.438816214101193E-1
204 341 2.0470429480144367E-1
204 368 1.1927523685082689E-1
204 463 1.644411982439593E-2
204 486 4.5578427723996694E-2
204 511 1.5823409720508802E-1
205 60 3.147035797380013E-2
205 111 1.8989449027820494E-2
205 126 1.2088869018447371E-1
205 133 1.9547398021218007E-1
205 203 3.386649313188192E-2
205 223 1.831563888873418E-2
205 244 1.4945266764689527E-1
205 257 1.0270496711226523E-1
205 361 1.7631598863273576E-2
205 380 1.831563888873418E-2
205 483 5.1117331094732765E-2
205 505 4.5044076650542816E-2
206 11 2.7224783423221974E-2
206 73 2.4390525413582248E-2
206 94 1.3672395802593085E-1
206 127 1.831563888873418E-2
206 169 1.831563888873418E-2
206 172 5.2044872474424506E-2
206 186 7.132022101379026E-2
206 217 2.946480565213438E-1
206 225 1.4959186056280046E-2
206 246 9.000063544459307E-2
206 283 1.6309287183423837E-2
206 312 2.0901270452753952E-2
206 315 1.533612957179061E-2
206 350 3.3307047978709155E-2
206 365 6.583783513669034E-2
206 399 1.1719720914831146E-1
206 417 1.2864067302299667E-1
206 450 5.3163165548800496E-2
206 497 1.6000451249789726E-2
207 29 2.663931226136635E-1
207 220 2.483206017753726E-2
207 222 7.049452750905928E-2
207 366 3.246427255072835E-2
207 379 2.5155325864347405E-2
207 380 2.4990329433629277E-2
207 400 1.8557911235633784E-1
207 410 1.831563888873418E-2
207 434 1.8655128893931255E-2
207 442 6.511585554487871E-2
207 456 1.40493909154189E-2
207 480 1.0456498636908539E-1
207 498 4.99319183504989E-2
207 520 2.4671380844663894E-2
208 81 5.2526985443960096E-2
208 108 3.2072520714813604E-2
208 132 2.1504266599566873E-2
208 161 4.43388303265857E-2
208 198 2.4172529787031678E-2
208 221 3.8909872368083805E-2
208 256 2.3711747865842556E-2
208 299 2.5052923885872207E-2
208 379 1.831563888873418E-2
208 392 1.5293095725335035E-2
208 436 2.1022396294352735E-2
208 473 4.0149199551390305E-2
209 13 3.0186615216325558E-2
209 19 3.1174201635926903E-2
209 50 3.273293936101635E-2
209 74 7.563763920888456E-2
209 182 3.927335091762383E-2
209 188 5.6350403879820855E-2
209 300 4.526169281274394E-2
209 316 3.2542512678369495E-2
209 445 2.6231717046301107E-2
209 460 2.7108040444069458E-2
209 507 1.693601337800928E-2
210 2 4.722749328343742E-2
210 67 4.2258334703855635E-2
210 88 1.831563888873418E-2
210 90 4.5741906478078936E-2
210 112 6.284343492524933E-2
210 173 1.0278548790238173E-1
210 193 3.262842660062663E-2
210 421 2.0322359647546626E-2
210 451 1.7740077313198748E-2
210 517 2.1184934141098163E-2
211 15 5.0718846135000516E-2
211 62 1.2301139189312377E-1
211 86 1.4574926351641E-1
211 139 5.788020837856576E-2
211 154 1.3857634031273597E-1
211 192 5.8182087859849935E-2
211 233 2.3907062037786704E-2
211 347 1.831563888873418E-2
211 376 1.5098279615997906E-2
211 430 1.2890198883187633E-2
211 528 5.3505889732590545E-2
212 5 2.8692253399629185E-2
212 17 1.8852411221273013E-2
212 51 2.0683879006681647E-2
212 84 2.7517901507738283E-2
212 104 4.283502074886925E-2
212 127 1.7577233734266548E-2
212 150 2.4480135829210388E-2
212 165 3.1578298967591074E-2
212 384 2.790754373395616E-2
212 414 5.314301584024389E-2
212 444 5.2355874751904036E-2
212 458 2.280645605884597E-2
212 471 2.3644988757371584E-2
212 472 1.937303649039655E-2
212 526 4.986833981408446E-2
213 25 8.675189844504202E-2
213 34 2.6456854725733836E-2
213 65 3.66283654083063E-2
213 227 3.4619630697725806E-2
213 231 3.5773392864935014E-2
213 340 4.9513535468153985E-2
213 362 4.8386429791112025E-2
213 412 1.9040419991314964E-1
213 415 6.961828553437119E-2
213 416 9.127008153553237E-2
213 435 2.134548734971932E-2
213 438 4.944830012142823E-2
213 479 2.983876263143077E-2
213 494 5.3972578389071844E-2
214 23 3.561801850595848E-2
214 61 3.828309884702972E-2
214 71 1.99621896727427E-2
214 224 2.8023150070171036E-2
214 241 4.0993588756814886E-2
214 263 6.463086708525927E-2
214 277 1.760057448212428E-2
214 369 3.0588702708684492E-2
214 389 3.431897408300223E-2
214 410 2.415223754613361E-2
214 447 4.7142403307514985E-2
214 503 1.419299381590874E-1
215 108 1.2912213680836748E-1
215 148 3.622752371683338E-2
215 158 3.5953432524068664E-2
215 171 1.831563888873418E-2
215 174 2.7778786005709825E-2
215 221 1.6801606527635824E-2
215 247 9.000564959256777E-2
215 319 9.47022382936779E-2
215 347 4.22563333690654E-2
215 349 3.959000429885346E-2
215 361 4.080953196733887E-2
215 376 2.7668055530662164E-2
215 379 5.7165856728588725E-2
215 392 2.1679469218996789E-1
215 400 7.381905550473698E-2
215 401 1.831563888873418E-2
215 408 6.283880695626946E-2
215 436 2.392799419802714E-2
215 442 1.831563888873418E-2
215 520 4.856065538275208E-2
216 18 4.9599644965429915E-2
216 37 1.831563888873418E-2
216 52 2.3995905416734097E-2
216 97 1.831563888873418E-2
216 138 3.0225011443717975E-2
216 170 4.5756780276929865E-2
216 178 2.0240762279922556E-2
216 194 1.582380818320839E-2
216 230 4.067154010161131E-2
216 278 2.1054912748436364E-2
216 314 6.957182673309598E-2
216 320 4.248484170279935E-2
216 346 2.8410759448752345E-2
216 351 7.310460050818979E-2
216 420 6.69185753899928E-2
217 73 9.552484274011475E-2
217 94 1.719101120624672E-1
217 186 7.104189558059888E-2
217 206 2.946480565213438E-1
217 225 2.4892894521414015E-2
217 246 1.437438445721887E-1
217 283 3.231157039064639E-2
217 312 1.4844906652273898E-2
217 365 4.5347462163347396E-2
217 399 1.4638176827502125E-1
217 417 1.7296545871335609E-1
217 450 5.332321595897883E-2
217 514 4.2639075594334296E-2
217 515 1.831563888873418E-2
218 53 3.0047407319860407E-2
218 91 2.1375705860392738E-1
218 162 3.4692995937716194E-2
218 252 1.1584936635497169E-1
218 262 1.9001982086541337E-2
218 297 7.966967615525862E-2
218 298 1.4521837008036753E-2
218 304 2.4957799573538338E-2
218 310 4.8642828780086605E-2
218 325 2.1443188915810936E-2
218 326 2.136404535154974E-2
218 332 2.3445707081108894E-2
218 437 2.907694764083628E-2
218 474 5.2002631415580376E-2
218 499 1.831563888873418E-2
219 42 1.831563888873418E-2
219 130 1.73927195154932E-2
219 191 2.3047543908929775E-2
219 239 2.4549532187759404E-2
219 267 1.831563888873418E-2
219 270 4.0380523572273265E-2
219 277 2.892335809195E-2
219 291 3.8291061640699287E-2
219 386 6.281291729842431E-2
219 410 6.461162743838E-2
219 434 4.585669150402467E-2
220 29 6.417022299660091E-2
220 133 2.227861535540023E-2
220 207 2.483206017753726E-2
220 222 9.824488123498201E-2
220 257 2.1285288481787373E-2
220 299 1.951581429271667E-2
220 442 2.3525944902459295E-2
220 498 1.831563888873418E-2
220 516 2.6820808257007424E-2
220 520 1.6908502363420945E-2
221 16 2.1684203175054154E-2
221 42 3.278032789707841E-2
221 81 2.3662604186508247E-2
221 108 6.680101028382819E-2
221 132 2.6633106782626738E-2
221 158 2.9783596179449826E-2
221 161 3.456278112646639E-2
221 191 2.0999069777212317E-2
221 198 1.831563888873418E-2
221 208 3.8909872368083805E-2
221 215 1.6801606527635824E-2
221 239 4.181454401251092E-2
221 247 2.169078793199484E-2
221 256 6.683521109485056E-2
221 299 7.361653375240731E-2
221 319 5.5301341015754804E-2
221 345 2.070161241286557E-2
221 349 7.000987782946516E-2
221 374 2.830917218262917E-2
221 379 8.199960554336276E-2
221 386 1.831563888873418E-2
221 392 2.39802901315965E-2
221 400 1.7558511010859413E-2
221 401 2.449425172836906E-2
221 409 3.01171609531423E-2
221 434 1.831563888873418E-2
221 436 1.7683838222451405E-2
221 455 3.308591829272568E-2
221 473 3.7071252664883515E-2
222 29 1.7491313346951565E-1
222 133 5.496449753659756E-2
222 207 7.049452750905928E-2
222 220 9.824488123498201E-2
222 257 9.449745721201004E-2
222 299 1.3091515439565988E-2
222 374 1.831563888873418E-2
222 483 2.8226224140923007E-2
222 498 1.3346766305723162E-1
222 516 5.1293009880526215E-2
223 46 1.24065253441166E-2
223 60 2.1149108112986967E-2
223 69 3.947450156655255E-1
223 111 5.820931011050011E-1
223 126 6.873334399909732E-2
223 129 9.088675926238349E-2
223 133 1.8388480296101854E-2
223 183 2.4833704908526204E-2
223 195 4.887478788600399E-2
223 205 1.831563888873418E-2
223 359 1.1077697881170684E-1
223 366 2.453142164496019E-2
223 395 1.762679296524869E-1
223 490 1.831563888873418E-2
223 505 2.677820392478274E-2
224 23 5.841320299668452E-2
224 34 2.36713469802574E-2
224 130 1.7068709065606976E-2
224 137 3.8034322778548915E-2
224 214 2.8023150070171036E-2
224 241 2.7743272412861435E-2
224 275 2.4528423491578095E-2
224 306 2.1392471388988366E-2
224 309 3.841306387275117E-2
224 447 1.7075173341056418E-2
224 479 4.306460155326746E-2
224 488 8.221773038370087E-3
224 524 3.9255932110682686E-2
225 73 1.831563888873418E-2
225 105 2.0580242192476644E-2
225 206 1.4959186056280046E-2
225 217 2.4892894521414015E-2
225 246 1.8473044909568855E-2
225 283 2.892827803037698E-1
225 285 2.0794814660495965E-2
225 414 2.529847804618628E-2
225 446 4.345843561274927E-2
225 514 2.2232031397153663E-2
226 17 7.842648009425314E-2
226 127 1.719341284369217E-1
226 150 1.831563888873418E-2
226 165 1.848221649597464E-2
226 169 1.346841629439952E-1
226 172 1.831563888873418E-2
226 312 3.253882325558308E-2
226 315 1.3259107533024167E-1
226 339 1.831563888873418E-2
226 350 2.677912490977418E-2
226 417 1.948688057644571E-2
226 450 6.0812791696260915E-2
226 458 8.47873965543701E-2
227 138 1.831563888873418E-2
227 213 3.4619630697725806E-2
227 231 1.735610702796781E-2
227 340 2.0744324626794357E-2
227 362 4.467534857039638E-2
227 412 1.9352716859489926E-2
227 416 1.2328786459235092E-1
227 428 3.507970104035815E-2
227 435 2.5506516439064063E-2
227 438 8.065402614999442E-2
228 20 7.468057580476266E-3
228 49 1.684504790823312E-2
228 51 3.333378222666589E-2
228 95 1.831563888873418E-2
228 142 4.3757146317462886E-1
228 151 1.831563888873418E-2
228 164 5.448831415462062E-2
228 232 5.830933735108693E-2
228 282 3.31161033795274E-2
228 294 1.4446687215196036E-1
228 295 1.831563888873418E-2
228 308 2.0157777892496214E-2
228 327 5.060191684151661E-2
228 335 2.3517683334604522E-2
228 336 3.1987670524581804E-2
228 343 3.793900182758339E-2
228 418 1.865306470415851E-2
228 423 1.831563888873418E-2
228 433 5.059566335501048E-2
228 440 6.994222579689882E-2
228 464 8.5212168398548E-2
228 471 2.219487833705603E-2
228 493 1.4647030599984756E-1
228 523 1.8492188428291947E-2
229 6 8.632156584062742E-2
229 79 3.85657790924248E-2
229 87 4.9153368091718996E-2
229 117 1.831563888873418E-2
229 253 1.8574932130254386E-2
229 254 1.1987352225316143E-1
229 360 2.3527504425315506E-2
229 385 1.2803382556549328E-1
229 405 1.8726764231090397E-2
229 491 5.208758280717813E-2
229 508 1.657200402305065E-2
229 519 2.982461257818975E-2
229 531 2.431520339582557E-2
230 18 2.0471432610389296E-2
230 37 3.771923080380852E-1
230 49 1.4989398115088098E-2
230 170 5.6701553967261835E-2
230 179 4.320563679116406E-2
230 194 3.5298959641433814E-2
230 216 4.067154010161131E-2
230 255 1.831563888873418E-2
230 314 1.6517267242303119E-1
230 351 3.1587263474243316E-2
231 25 1.831563888873418E-2
231 35 5.0469155357071874E-2
231 65 6.62182082237423E-2
231 143 5.865329702127189E-2
231 213 3.5773392864935014E-2
231 227 1.735610702796781E-2
231 249 3.309961580166249E-2
231 264 1.831563888873418E-2
231 303 2.0488254266611973E-2
231 318 4.661345517326902E-2
231 362 8.789668309672781E-2
231 412 1.213199192507006E-1
231 416 1.1023090371313078E-1
231 435 8.713664281598475E-2
231 438 7.134214922770231E-2
231 481 3.2128311880452E-2
232 95 2.9688971179295594E-2
232 142 9.502632520210538E-2
232 164 5.283254515431755E-2
232 228 5.830933735108693E-2
232 243 2.52763974768788E-2
232 282 1.0933495122184612E-1
232 295 5.08624415650706E-2
232 313 2.5658855743204423E-2
232 336 4.024425847270916E-2
232 393 2.151988906377759E-2
232 423 8.990548674944518E-2
232 464 2.132538435660961E-2
232 493 1.7508005611941862E-2
233 15 2.488652708809499E-2
233 46 1.3256153250183375E-1
233 62 3.240686482341552E-2
233 83 2.9988155201587523E-2
233 118 2.1118349783239117E-2
233 148 1.831563888873418E-2
233 153 6.626891600193013E-2
233 171 1.3252896191817176E-1
233 211 2.3907062037786704E-2
233 247 1.55809562125457E-2
233 347 5.786854687440407E-2
233 361 1.831563888873418E-2
233 363 1.831563888873418E-2
233 376 1.0138767856053825E-1
233 381 1.3501628176787328E-1
233 442 8.540703041412659E-2
233 520 4.0682127133974295E-2
234 113 4.028251463747304E-2
234 202 2.411229381334293E-2
234 240 1.1078191167181446E-1
234 257 3.1031743344161295E-3
234 261 1.0711271637974924E-1
234 344 2.4922491420547996E-1
234 413 4.11727538021547E-2
234 454 2.2406438163445325E-1
234 501 1.741328046412145E-1
234 512 3.0572824478578096E-2
234 521 3.679674487741656E-2
235 68 5.4539576107052526E-2
235 144 1.831563888873418E-2
235 180 6.500855963449118E-2
235 185 1.0166508406597921E-2
235 296 6.438422303918543E-1
235 307 1.030915881586664E-1
235 364 2.4781003361181828E-1
235 421 1.5544730510616886E-1
235 477 9.199196949361979E-2
235 487 1.109700071502845E-1
235 517 5.032325072799351E-1
236 30 4.004685298098764E-2
236 177 5.138571686889085E-2
236 290 2.273943592839444E-2
236 352 4.39596457500423E-2
236 358 4.4873164913337135E-2
236 449 1.728804640342464E-2
236 462 1.831563888873418E-2
236 465 5.7267298292767915E-2
236 469 2.1120869382248317E-2
236 475 2.7026488842469158E-2
236 481 1.826993691130848E-2
236 500 5.920323612747541E-2
237 55 1.2495362158946935E-1
237 120 6.010772534266175E-2
237 136 1.232390719206959E-2
237 167 9.164379358829246E-3
237 189 1.3496240811520893E-1
237 199 6.540626380325482E-2
237 288 4.973644422654992E-2
237 297 1.831563888873418E-2
237 298 1.928712042944732E-1
237 354 4.1095690728119805E-1
237 357 1.5891184497729854E-1
237 397 4.857384211052301E-2
237 530 7.606312170891914E-2
238 8 1.831563888873418E-2
238 64 2.4237577913763547E-2
238 98 4.754916678494729E-2
238 203 2.0535156698559456E-2
238 331 1.0056936595987039E-1
238 396 9.557579227334954E-2
238 490 2.611282861858678E-2
238 505 7.000335834481193E-2
238 516 1.566028271162657E-2
238 525 3.1787859852638806E-1
239 24 3.869472274449604E-2
239 42 2.7773420337212182E-2
239 81 1.831563888873418E-2
239 191 2.7866857373363994E-2
239 197 8.401475987214059E-2
239 219 2.4549532187759404E-2
239 221 4.181454401251092E-2
239 256 2.4837402718207866E-2
239 267 4.258789444804641E-2
239 270 4.988603271411542E-2
239 277 5.064504269425027E-2
239 291 3.6754978564384616E-2
239 319 2.060692592207585E-2
239 349 6.250815000362928E-2
239 375 4.974673769176197E-2
239 379 2.2450383741230304E-2
239 386 8.835185770897369E-2
239 409 1.8898828688995006E-2
239 410 2.1597037861405113E-2
239 426 4.328327250595612E-2
239 434 3.1910932953324034E-2
239 441 5.5236212098123696E-2
239 455 1.176975707436613E-2
239 473 2.690154936510263E-2
239 492 1.4342231097428125E-2
239 502 1.831563888873418E-2
239 506 5.701230584621396E-2
240 113 1.1108649342953837E-2
240 202 8.770742898842827E-2
240 234 1.1078191167181446E-1
240 257 1.831563888873418E-2
240 261 4.4369175418558787E-1
240 344 2.0644016048160319E-1
240 413 1.594703211773499E-1
240 454 2.1010687325018504E-1
240 483 3.0441931629760256E-2
240 501 4.654963558610322E-2
240 521 1.8595215602558085E-1
241 23 2.940027490809505E-2
241 61 6.240787172208911E-2
241 70 1.831563888873418E-2
241 214 4.0993588756814886E-2
241 224 2.7743272412861435E-2
241 263 2.012129167453645E-2
241 369 2.032142236415172E-2
241 389 1.7102850315029453E-2
241 447 2.5790747414626843E-2
241 503 4.5241225353281705E-2
241 531 1.831563888873418E-2
242 267 2.179523702999791E-2
242 270 2.7665381926487962E-2
242 291 1.831563888873418E-2
242 345 2.3219903047197656E-2
242 386 4.90603461699057E-2
242 409 8.5106520793855E-2
242 410 2.6664091219495426E-2
242 441 1.8541333736529157E-2
242 480 5.5590760252417735E-2
242 498 1.8052099202744483E-2
243 20 7.210191849283733E-2
243 96 5.846989704539902E-2
243 142 1.831563888873418E-2
243 151 5.8338919630999526E-2
243 232 2.52763974768788E-2
243 279 5.7878373902867264E-2
243 282 1.6504892668937104E-2
243 287 6.184555980247789E-2
243 308 9.298514696216811E-2
243 335 5.689911633643898E-2
243 336 6.192695649927447E-2
243 411 2.970529911793803E-2
243 418 1.736772217036203E-2
243 423 7.210467742443942E-2
243 464 2.2633066823815565E-2
243 530 1.794250583298897E-2
244 46 2.455560176920018E-2
244 69 2.7715421282486448E-2
244 126 6.326197262101088E-2
244 132 3.1815481691302605E-2
244 133 3.789671532762741E-2
244 171 1.6641981681689823E-2
244 205 1.4945266764689527E-1
244 361 5.366988263284225E-2
244 373 1.831563888873418E-2
244 520 3.94764495781049E-2
245 97 2.0315183482695894E-2
245 118 1.831563888873418E-2
245 139 2.2911005237219742E-2
245 141 1.8218560987523596E-2
245 155 2.0757379801376423E-2
245 163 6.008832173193242E-2
245 328 4.170156049001725E-2
245 337 2.5557893923610228E-2
245 355 2.1933309918348347E-2
245 457 2.047108117390265E-2
246 73 1.3222685135547602E-1
246 94 8.180379319920708E-2
246 169 2.5744889225197354E-2
246 172 1.831563888873418E-2
246 186 4.841697396426309E-2
246 206 9.000063544459307E-2
246 217 1.437438445721887E-1
246 225 1.8473044909568855E-2
246 283 1.9735622617328287E-2
246 339 1.7072404724264172E-2
246 399 9.232905208496776E-2
246 417 1.4063303940968402E-1
246 450 1.0174691798417607E-1
246 461 3.137220687905271E-2
246 514 3.5327773149074024E-2
247 108 2.8381397212830044E-2
247 158 1.1283070080615314E-2
247 215 9.000564959256777E-2
247 221 2.169078793199484E-2
247 233 1.55809562125457E-2
247 319 1.831563888873418E-2
247 379 3.199833043585107E-2
247 392 5.2518219785605905E-2
247 400 9.01885864030347E-2
247 442 4.1956686466309866E-2
247 520 5.1861715824281604E-2
248 6 3.059632478839334E-2
248 19 1.7149665259071308E-2
248 22 1.577742385727034E-1
248 50 4.223154794536847E-2
248 253 5.8170545171096974E-2
248 266 7.479429220171699E-2
248 293 6.68907844462759E-2
248 300 3.115611269654405E-2
248 316 1.831563888873418E-2
248 321 2.7874728583250442E-2
248 445 3.8354454864758254E-2
248 466 4.0449746446446874E-2
249 30 3.216066222890347E-2
249 140 5.849266420232516E-2
249 184 3.209179305948178E-2
249 231 3.309961580166249E-2
249 264 2.8241038790496435E-2
249 290 2.3732749199973088E-2
249 292 2.1409190051945214E-2
249 303 3.651848526654128E-2
249 318 6.746545195913112E-2
249 352 1.1325426861482045E-1
249 435 2.6216062276375338E-2
249 475 1.8138389880856566E-2
249 481 1.455567762324122E-1
250 10 1.0034566300151465E-1
250 45 3.229485293124696E-2
250 75 1.8669491126235765E-2
250 110 8.803514241208638E-2
250 124 5.9274762251438774E-2
250 154 3.225797434268253E-2
250 197 1.9624128970198204E-2
250 251 2.6750925973512356E-2
250 353 3.769160644177601E-2
250 369 1.831563888873418E-2
250 408 1.831563888873418E-2
250 430 2.3036502110791758E-2
251 15 1.3318456169887982E-1
251 45 4.000790898025725E-2
251 86 4.898613493081454E-2
251 110 4.389883476780951E-2
251 124 1.2685382078120527E-1
251 154 2.428972649024152E-2
251 250 2.6750925973512356E-2
251 276 1.831563888873418E-2
251 337 9.544852661014402E-2
251 347 5.861595505549703E-2
251 376 4.7511652100204575E-2
251 381 1.7891490742600043E-2
251 408 2.208976540258351E-2
252 91 2.0369250886231832E-1
252 218 1.1584936635497169E-1
252 279 2.712269930927944E-2
252 297 7.440385182960088E-2
252 298 4.933615845620021E-2
252 310 1.831563888873418E-2
252 325 3.1716804121131925E-2
252 354 3.9130232003132176E-2
252 357 1.7396298846154602E-2
252 474 4.324421716693521E-2
253 13 1.4820460717657954E-1
253 50 1.819445295490429E-1
253 182 4.834798636490647E-2
253 188 3.257459213352272E-2
253 204 1.0710358377340117E-2
253 229 1.8574932130254386E-2
253 248 5.8170545171096974E-2
253 266 9.112049470518999E-2
253 316 1.9397125318882988E-1
253 368 9.611898243941508E-2
253 443 3.7544679619241746E-2
253 460 1.8357449614077693E-2
253 466 1.487307477215848E-2
253 511 4.499815546075718E-2
254 6 1.8963073591227616E-2
254 11 2.9529858070601062E-2
254 79 3.0469460583862604E-2
254 87 9.555016440219344E-2
254 117 5.736587889575856E-2
254 172 1.6759350212153933E-2
254 181 7.566069850180207E-2
254 229 1.1987352225316143E-1
254 365 1.831563888873418E-2
254 385 2.286440326110588E-2
254 391 2.6251944770190508E-2
255 39 2.1060154865324796E-2
255 71 4.209164359123394E-2
255 76 6.858864609929777E-2
255 92 3.740064178236548E-2
255 101 1.4708403272229517E-2
255 103 2.7446563197747197E-2
255 179 6.42415186294197E-2
255 230 1.831563888873418E-2
255 306 3.384868421907354E-2
255 314 1.850758941580137E-2
255 320 1.831563888873418E-2
255 323 5.663146031927884E-2
255 340 1.6658419586255798E-2
255 351 3.454501522767382E-2
256 16 1.0570901435443991E-1
256 28 2.366298553372531E-2
256 108 1.326812516577341E-2
256 109 4.1103284723106676E-2
256 198 3.145957334955517E-2
256 208 2.3711747865842556E-2
256 221 6.683521109485056E-2
256 239 2.4837402718207866E-2
256 299 5.4320263581816325E-2
256 324 3.7250656315354624E-2
256 345 1.1719547989921698E-1
256 349 2.227724015877259E-2
256 374 8.628052089738233E-2
256 375 1.5150216860017504E-1
256 379 2.8556836316480774E-2
256 401 6.412234321124735E-2
256 426 1.831563888873418E-2
256 436 1.831563888873418E-2
256 455 6.984373733296209E-2
256 473 3.567876507588974E-2
256 492 3.1440098412880535E-2
257 133 1.0466097842188107E-1
257 202 1.831563888873418E-2
257 205 1.0270496711226523E-1
257 220 2.1285288481787373E-2
257 222 9.449745721201004E-2
257 234 3.1031743344161295E-3
257 240 1.831563888873418E-2
257 261 2.3498994369680004E-2
257 413 1.831563888873418E-2
257 483 2.9042349500553655E-1
257 498 8.0964531237253E-2
257 501 1.831563888873418E-2
257 512 3.231370657786905E-2
257 516 4.570833099819567E-2
257 521 5.138564422151666E-2
258 33 2.0633630348548218E-2
258 47 1.831563888873418E-2
258 72 3.064779748423431E-2
258 73 1.3257575474824282E-1
258 152 1.3462344075151741E-1
258 160 1.5920766991003726E-1
258 200 6.55564628027927E-2
258 283 2.0799924213183885E-2
258 333 4.1376262842359054E-2
258 391 3.251855393755891E-2
258 461 3.1958486394218466E-1
258 504 2.5515045282211224E-1
258 514 3.071236527780344E-1
258 515 8.527410719454694E-2
259 40 1.0088470999990583E-1
259 44 2.2101020006368946E-2
259 55 2.526853209344812E-2
259 56 1.8535662090076305E-1
259 68 1.831563888873418E-2
259 107 1.831563888873418E-2
259 144 3.8310283827406325E-2
259 159 6.549348977942409E-1
259 180 1.831563888873418E-2
259 185 4.6888436630246624E-2
259 199 1.831563888873418E-2
259 338 3.3692266241028314E-2
259 478 7.773828473121187E-3
260 30 4.0431059009020054E-2
260 115 5.480590317976808E-2
260 143 1.831563888873418E-2
260 157 3.10059633214262E-2
260 184 2.8531362964671885E-2
260 272 3.565599742648065E-2
260 290 1.2707420776227363E-1
260 301 3.16816836956869E-2
260 352 1.831563888873418E-2
260 403 1.867121879737226E-2
260 469 1.5960106486152252E-2
260 475 4.728613287896312E-2
260 481 1.5558495383835321E-2
261 8 1.5245281789969726E-2
261 113 2.1240124639392354E-2
261 202 2.598532699531816E-1
261 234 1.0711271637974924E-1
261 240 4.4369175418558787E-1
261 257 2.3498994369680004E-2
261 344 1.344664501041917E-1
261 413 3.7600645087801987E-1
261 454 3.953448583775393E-1
261 483 4.0902008455184574E-2
261 501 5.2377036171379045E-2
261 512 3.0673765926778652E-2
261 521 1.1850500669209542E-1
261 525 1.6709529593490244E-2
262 53 6.146461327591088E-2
262 218 1.9001982086541337E-2
262 297 6.532796990587113E-2
262 304 2.9163804793822974E-2
262 310 3.2817158490097406E-2
262 325 1.831563888873418E-2
262 326 2.897661720212918E-2
262 332 1.831563888873418E-2
262 348 1.8950018613842354E-1
262 388 1.9659660166257853E-1
262 459 4.5441543231096365E-1
262 499 1.8618319037524167E-1
262 518 4.122643554517206E-1
263 36 2.0535850732552843E-2
263 61 1.3411115296986778E-1
263 197 1.2093776709377394E-2
263 214 6.463086708525927E-2
263 241 2.012129167453645E-2
263 270 1.831563888873418E-2
263 277 2.5420358546482284E-2
263 291 7.890057006018086E-2
263 369 2.868670995977954E-2
263 389 1.9108383758583594E-1
263 447 2.7213288554949328E-2
263 503 2.1062924968979968E-1
263 531 2.334178283963447E-2
264 65 2.6461087016552684E-2
264 102 2.0971418451325944E-2
264 140 3.67644150865186E-2
264 143 1.903048323653252E-1
264 184 5.2587038618395796E-2
264 231 1.831563888873418E-2
264 249 2.8241038790496435E-2
264 290 4.967392674949353E-2
264 292 1.8090713210020173E-2
264 362 2.611963435227799E-2
264 403 1.0318797191042413E-1
264 412 2.000270138401715E-2
264 435 1.584562168484427E-2
264 469 2.272695960555002E-2
265 4 5.269082265880045E-2
265 9 9.743712043299177E-2
265 12 2.7566461651762922E-2
265 26 2.3274089386904402E-2
265 66 2.734450460183833E-2
265 77 1.831563888873418E-2
265 85 4.773758450916277E-2
265 89 5.19721247884956E-2
265 93 6.880451045992883E-2
265 145 2.0917054429409232E-1
265 146 5.9205941713723606E-2
265 176 1.4359719383490277E-1
265 284 1.352663824696487E-1
265 289 2.7028066967786986E-2
265 377 9.275981351999152E-2
265 470 1.831563888873418E-2
265 482 2.7853602296020727E-2
265 485 3.3390764112676156E-2
265 495 4.6694791218806264E-2
265 513 1.3637975405488062E-1
265 522 4.031361380604262E-2
266 13 2.0636850156574266E-2
266 50 7.882757311117153E-2
266 74 1.920294989747598E-2
266 248 7.479429220171699E-2
266 253 9.112049470518999E-2
266 293 1.760525924498716E-2
266 300 1.0338281189326715E-1
266 316 6.52913210696369E-2
266 445 3.724128692685721E-1
266 460 2.4622829613058292E-1
266 466 2.10458506376823E-2
267 24 3.376424202843078E-2
267 28 1.831563888873418E-2
267 36 4.293231226570032E-2
267 58 1.1665270813108318E-1
267 131 6.836386334814389E-2
267 219 1.831563888873418E-2
267 239 4.258789444804641E-2
267 242 2.179523702999791E-2
267 268 2.837372415749233E-2
267 291 6.642663485484164E-2
267 426 7.14191562036037E-2
267 439 2.016465214687764E-2
267 441 1.8202855756390196E-1
267 492 4.979235612786047E-2
267 506 4.3415034117106524E-2
268 24 2.0824940832049627E-2
268 36 1.54406833812421E-1
268 131 2.072172049509941E-2
268 267 2.837372415749233E-2
268 270 1.7314235994386175E-2
268 277 1.831563888873418E-2
268 448 3.694000460539171E-2
268 452 1.243786803458756E-1
268 502 4.442442997428532E-2
268 506 4.599293676253623E-2
269 13 4.6291145821770484E-2
269 50 2.18223908028189E-2
269 182 4.383651388035559E-2
269 188 1.831563888873418E-2
269 316 5.258462319841406E-2
269 341 2.3128231550191312E-2
269 402 3.5108858929933845E-2
269 463 1.7131480175549857E-2
269 511 3.7020746240148415E-2
269 527 3.025533561477043E-2
270 36 1.831563888873418E-2
270 42 1.9518263915521403E-2
270 59 3.450940184052482E-2
270 158 1.831563888873418E-2
270 197 1.9425843173580804E-2
270 219 4.0380523572273265E-2
270 239 4.988603271411542E-2
270 242 2.7665381926487962E-2
270 263 1.831563888873418E-2
270 268 1.7314235994386175E-2
270 277 2.5051749756234404E-1
270 291 1.4953695509889814E-2
270 319 3.460006877929394E-2
270 349 4.3344171061855265E-2
270 353 1.7466913015297646E-2
270 386 7.785854637932026E-2
270 389 1.071277878898576E-1
270 409 2.0394879142555198E-2
270 447 2.395822535598527E-2
270 452 1.8851682737329123E-2
270 503 5.910910773486509E-2
270 506 3.4459103696374595E-2
271 52 1.831563888873418E-2
271 170 1.93717051228834E-2
271 178 8.665864510775075E-2
271 194 8.510267887853064E-2
271 278 5.30412797849094E-2
271 304 4.98235495556158E-2
271 330 1.5412007619783138E-2
271 346 2.021429038069464E-2
271 420 2.8796761694435187E-2
271 428 2.0174330094103386E-2
272 7 7.428112314847433E-2
272 35 2.6296264462545585E-2
272 70 2.7925050867400526E-2
272 101 3.265630640450626E-2
272 102 3.3130337437001736E-2
272 103 1.981906124708789E-2
272 115 8.95429454039253E-2
272 134 1.212070038262265E-2
272 157 1.447931978200798E-1
272 168 4.3753462761522574E-2
272 260 3.565599742648065E-2
272 290 6.382328542876628E-2
272 301 8.619241892064645E-2
272 378 3.454205482104912E-2
272 404 2.0218833500305126E-2
272 422 1.831563888873418E-2
272 431 7.777948857046385E-2
272 469 2.6009052773730695E-2
272 475 3.047937487908707E-2
273 19 2.8736038319318195E-2
273 99 1.2078986689238194E-2
273 188 2.260182960810218E-2
273 274 3.0945359689170454E-1
273 285 8.48995138913573E-2
273 300 9.668476108404722E-2
273 387 1.5289772324196527E-1
273 429 7.101885349609305E-2
273 445 2.161432802972697E-2
273 446 1.0684571518118556E-1
273 507 1.9731383544965575E-1
274 19 1.831563888873418E-2
274 22 2.46490002372153E-2
274 33 1.670346865744989E-2
274 273 3.0945359689170454E-1
274 285 4.629301449131301E-2
274 293 4.7949304978097455E-2
274 300 1.0496197192372791E-1
274 321 2.8556010523191573E-2
274 387 1.69527041715199E-1
274 429 1.187070391396633E-1
274 445 3.744375059401779E-2
274 446 4.328065048056242E-2
274 507 1.7704899976645472E-1
275 130 1.831563888873418E-2
275 137 1.306018657212916E-1
275 191 1.8071728366001436E-2
275 224 2.4528423491578095E-2
275 311 1.962774859810309E-2
275 410 3.655189808366939E-2
275 434 2.127346506654899E-2
275 442 2.164153426079298E-2
275 456 1.2292181266768061E-1
275 479 1.3566870175823448E-1
275 494 1.811137661898382E-2
276 62 2.609690480383762E-2
276 86 3.0275680989244384E-2
276 124 1.4560942187397308E-2
276 139 1.914487167858887E-2
276 153 6.477963021190278E-2
276 163 4.133732127781014E-2
276 251 1.831563888873418E-2
276 328 2.213579649804656E-2
276 337 4.2090638534142806E-2
276 363 9.789690382481321E-2
276 381 3.496418959240916E-2
277 10 4.920212158358938E-2
277 24 1.3595583646269508E-2
277 59 3.632565294506946E-2
277 81 1.831563888873418E-2
277 135 2.8479320215540543E-2
277 197 1.0733012221188733E-1
277 214 1.760057448212428E-2
277 219 2.892335809195E-2
277 239 5.064504269425027E-2
277 263 2.5420358546482284E-2
277 268 1.831563888873418E-2
277 270 2.5051749756234404E-1
277 291 3.753973216098688E-2
277 319 2.7329194354903875E-2
277 349 6.281266505834514E-2
277 353 3.947885118665822E-2
277 386 6.139965159653305E-2
277 389 5.254280838167332E-2
277 410 1.831563888873418E-2
277 434 1.748791541988229E-2
277 452 4.9094528019190606E-2
277 502 1.9567005760628153E-2
277 503 4.020619923648659E-2
277 506 5.579756311219242E-2
278 18 1.0178272876351824E-1
278 52 3.581798471086616E-1
278 170 3.820537908540754E-2
278 178 3.9951501657506605E-2
278 194 5.434640715831572E-2
278 216 2.1054912748436364E-2
278 271 5.30412797849094E-2
278 302 3.861011081324979E-2
278 304 2.4063775044798796E-1
278 310 3.8049542302339395E-2
278 330 1.9093418575373187E-2
278 332 1.7119324544545053E-2
278 346 5.366370916263443E-2
278 420 1.8148255309029915E-1
278 428 1.831563888873418E-2
279 20 3.664959751098815E-2
279 91 1.831563888873418E-2
279 96 3.711709062419248E-1
279 120 1.831563888873418E-2
279 156 2.6373732669159412E-2
279 162 5.6744981428707736E-2
279 189 1.8505825461481766E-2
279 243 5.7878373902867264E-2
279 252 2.712269930927944E-2
279 287 1.4529148155194338E-1
279 295 2.316423764708208E-2
279 308 4.142616541047682E-2
279 313 1.314279447250568E-1
279 325 2.352052020895493E-2
279 411 2.1903386024022142E-1
279 474 2.3389909173879824E-2
279 530 1.831563888873418E-2
280 3 4.4928232578617264E-2
280 122 6.164850143153352E-2
280 147 1.1512319293256183E-1
280 302 8.799307806400677E-2
280 326 1.831563888873418E-2
280 332 1.6873595105557426E-2
280 370 2.5156307643481285E-2
280 382 1.8403672571732376E-2
280 398 3.988027308735752E-2
280 496 7.03613910990923E-2
281 2 1.831563888873418E-2
281 3 2.6188038274646212E-2
281 67 5.614454528317652E-2
281 90 1.425259532174284E-1
281 112 6.763839705645915E-2
281 193 5.2948605611946684E-2
281 371 5.66874937340122E-3
281 382 5.345077503408068E-2
281 398 8.048200480602473E-2
281 496 2.1109011704911543E-2
282 142 2.0296322499541764E-2
282 164 2.169191271375786E-2
282 228 3.31161033795274E-2
282 232 1.0933495122184612E-1
282 243 1.6504892668937104E-2
282 327 1.864410460968656E-2
282 336 1.831563888873418E-2
282 423 1.276382621900938E-1
282 464 8.724991158464654E-2
282 493 2.1526802039871194E-2
283 73 2.420631825448453E-2
283 94 1.9893288413937088E-2
283 160 3.5164625564191546E-2
283 206 1.6309287183423837E-2
283 217 3.231157039064639E-2
283 225 2.892827803037698E-1
283 246 1.9735622617328287E-2
283 258 2.0799924213183885E-2
283 504 1.831563888873418E-2
283 514 3.857487238872187E-2
284 4 1.1387534297719291E-1
284 9 3.647523696945057E-2
284 12 1.831563888873418E-2
284 26 8.157255951664075E-2
284 85 1.831563888873418E-2
284 89 8.408226787687688E-2
284 93 3.947966497949405E-2
284 145 1.0943492976511071E-1
284 146 6.792666635374438E-2
284 176 1.831563888873418E-2
284 265 1.352663824696487E-1
284 377 8.851659575282968E-2
284 390 1.831563888873418E-2
284 470 8.219426283150522E-3
284 485 1.831563888873418E-2
284 495 1.0010625813602764E-1
284 513 9.320030158459092E-2
284 522 6.2037362618568154E-2
285 225 2.0794814660495965E-2
285 273 8.48995138913573E-2
285 274 4.629301449131301E-2
285 300 2.516196304948999E-2
285 317 1.0342615362517217E-2
285 387 4.46538571471333E-2
285 414 8.707304007777844E-2
285 444 2.0944212221639433E-2
285 445 2.0437823041277003E-2
285 446 1.4376251549705035E-1
285 460 1.831563888873418E-2
285 507 7.054072711273482E-2
286 14 1.831563888873418E-2
286 21 3.462096306191923E-2
286 47 1.5369407437910887E-1
286 80 7.562333366787566E-2
286 100 3.264042860288436E-2
286 119 5.3315789191707964E-2
286 160 2.1262521876533522E-2
286 305 1.859831468224004E-2
286 333 1.6144358708769568E-1
286 342 3.6961228911935526E-2
286 367 2.8682567337476296E-2
286 407 9.325751154972996E-2
286 427 3.794315123837473E-2
286 468 1.0901781917492889E-1
287 20 3.121678427696254E-2
287 96 1.4473908155552995E-1
287 120 2.1085198711997766E-2
287 162 2.606245445163918E-2
287 243 6.184555980247789E-2
287 279 1.4529148155194338E-1
287 308 3.763311604827403E-2
287 313 5.511163013097463E-2
287 336 1.787873118183061E-2
287 411 1.3046208262410294E-1
287 449 1.831563888873418E-2
287 530 2.5297973665082334E-2
288 32 1.2438128652215638E-1
288 44 1.5582943392300007E-2
288 55 4.836690849383158E-2
288 63 1.8386703465621126E-1
288 122 4.891939477045215E-2
288 128 2.2511439887739415E-1
288 136 4.823415874015479E-2
288 167 3.373491548781346E-1
288 187 3.7054889243512266E-2
288 237 4.973644422654992E-2
288 298 1.2219917439241272E-1
288 334 4.9019555120188324E-2
288 357 1.306257346772352E-1
288 370 1.200567303820084E-2
288 397 5.665152634008064E-2
288 437 3.901353802754817E-2
289 9 2.7908194233180146E-2
289 66 1.294791954056865E-1
289 77 7.784681966829407E-2
289 85 1.0759454820726992E-1
289 145 1.1920173922352352E-2
289 176 1.4184884840228373E-1
289 265 2.7028066967786986E-2
289 377 1.831563888873418E-2
289 470 3.778688298094063E-2
289 482 8.581881693152663E-2
289 485 8.412200661022076E-2
290 30 6.61672176320726E-2
290 35 4.0974680266968544E-2
290 102 7.22640422854272E-2
290 115 9.593063249867662E-2
290 140 2.1640904998974163E-2
290 143 5.629837350185666E-2
290 157 4.489842380216118E-2
290 184 4.540827716001386E-2
290 236 2.273943592839444E-2
290 249 2.3732749199973088E-2
290 260 1.2707420776227363E-1
290 264 4.967392674949353E-2
290 272 6.382328542876628E-2
290 292 1.831563888873418E-2
290 301 3.400843245078767E-2
290 352 3.250199141541233E-2
290 403 5.522753578203571E-2
290 431 2.173687035316863E-2
290 469 6.196445686879765E-2
290 475 1.2593770962536624E-1
290 481 5.7623354605418675E-2
290 500 1.852277294151863E-2
291 24 1.831563888873418E-2
291 36 5.661605282724824E-2
291 58 4.437355697807506E-2
291 197 2.2736023204392213E-2
291 219 3.8291061640699287E-2
291 239 3.6754978564384616E-2
291 242 1.831563888873418E-2
291 263 7.890057006018086E-2
291 267 6.642663485484164E-2
291 270 1.4953695509889814E-2
291 277 3.753973216098688E-2
291 386 4.571605559364192E-2
291 389 1.831563888873418E-2
291 441 2.6979495453342668E-2
291 503 3.0826771373587015E-2
291 506 2.182209752424008E-2
292 30 8.605523869001178E-2
292 102 1.7386882303620625E-2
292 140 9.37681097065467E-2
292 177 1.37752051999614E-1
292 184 2.676145395501948E-2
292 249 2.1409190051945214E-2
292 264 1.8090713210020173E-2
292 290 1.831563888873418E-2
292 303 2.712042967917097E-2
292 352 6.708865348117561E-2
292 449 1.6702247689153174E-1
292 481 2.294743270619197E-2
293 6 2.6204733662957405E-2
293 19 2.1281858688383642E-2
293 22 1.4552589571900287E-1
293 50 1.812442102727564E-2
293 248 6.68907844462759E-2
293 266 1.760525924498716E-2
293 274 4.7949304978097455E-2
293 300 3.98610016364419E-2
293 321 1.1675925750640427E-1
293 387 3.6111363118772985E-2
293 429 8.921471305629616E-2
293 445 2.3443769372286854E-2
293 466 4.856714092545606E-2
293 507 5.370970289747423E-2
294 27 3.4371951867272446E-2
294 41 2.7269004442287515E-2
294 49 5.5380152475377274E-2
294 51 3.968678808876399E-2
294 84 2.0748723352750225E-2
294 95 1.0901735135491954E-1
294 142 1.1910969495964259E-1
294 164 2.4829040100935024E-2
294 228 1.4446687215196036E-1
294 295 2.0922779608323946E-2
294 327 8.480304025569513E-2
294 393 3.078458460912811E-2
294 433 9.83604967013911E-2
294 440 2.181519134955049E-1
294 444 2.120684740078873E-2
294 471 6.772558757532383E-2
294 493 8.149342587425118E-2
294 523 1.0022208552271869E-1
295 49 9.571993372697055E-2
295 95 1.1020601455098722E-1
295 96 1.831563888873418E-2
295 142 3.8175367322287164E-2
295 184 1.825046096897689E-2
295 228 1.831563888873418E-2
295 232 5.08624415650706E-2
295 279 2.316423764708208E-2
295 294 2.0922779608323946E-2
295 303 3.68021351126344E-2
295 313 9.45640931623097E-2
295 393 4.532337636003174E-1
295 440 5.817029036655741E-2
295 474 1.3373428104286085E-2
296 68 4.8946602824577724E-2
296 144 1.831563888873418E-2
296 180 6.432031602360723E-2
296 185 1.4785030666109015E-2
296 235 6.438422303918543E-1
296 307 1.6704288271876763E-1
296 364 1.9388889333222664E-1
296 421 8.42055192779078E-2
296 477 5.804468974143854E-2
296 487 7.484117158512407E-2
296 517 2.4606134970496157E-1
297 91 1.1842281374558347E-1
297 120 8.634315953410833E-2
297 218 7.966967615525862E-2
297 237 1.831563888873418E-2
297 252 7.440385182960088E-2
297 262 6.532796990587113E-2
297 298 4.209272196386885E-2
297 310 3.8949113063280985E-2
297 334 1.831563888873418E-2
297 348 1.831563888873418E-2
297 354 8.171989557228992E-2
297 357 3.0905061081541278E-2
297 474 1.4529714068684498E-2
297 499 1.7598940641628355E-2
298 32 5.4406791857089576E-2
298 55 3.0086186911972426E-2
298 63 4.658439580705551E-2
298 120 3.660259823204654E-2
298 128 1.831563888873418E-2
298 189 3.749676819004108E-2
298 218 1.4521837008036753E-2
298 237 1.928712042944732E-1
298 252 4.933615845620021E-2
298 288 1.2219917439241272E-1
298 297 4.209272196386885E-2
298 334 3.2557834887885065E-2
298 354 1.4448018026587528E-1
298 357 2.831047679689557E-1
298 397 3.36225227284454E-2
298 437 7.023379499828968E-2
298 530 2.1659382311892655E-2
299 16 1.305758713454189E-2
299 161 4.917260269158372E-2
299 208 2.5052923885872207E-2
299 220 1.951581429271667E-2
299 221 7.361653375240731E-2
299 222 1.3091515439565988E-2
299 256 5.4320263581816325E-2
299 345 3.0864403475235454E-2
299 374 5.59332585742753E-2
299 379 1.831563888873418E-2
299 426 1.846181184424E-2
299 455 1.2308555941823686E-1
299 473 8.594553721635469E-2
299 498 4.383046709531021E-2
300 19 2.3966987469388575E-2
300 22 2.9860746258769735E-2
300 74 3.0031456016528214E-2
300 188 1.3284677295693634E-2
300 209 4.526169281274394E-2
300 248 3.115611269654405E-2
300 266 1.0338281189326715E-1
300 273 9.668476108404722E-2
300 274 1.0496197192372791E-1
300 285 2.516196304948999E-2
300 293 3.98610016364419E-2
300 321 1.8787147948306354E-2
300 387 8.928365472453435E-2
300 429 8.197646855675617E-2
300 445 3.926139049166181E-1
300 460 3.847988691370631E-2
300 466 2.569031091410033E-2
300 507 8.772042233212807E-2
301 7 9.854004841854486E-2
301 78 3.3793280901531296E-2
301 102 1.831563888873418E-2
301 115 8.714051618113267E-2
301 157 1.956544485079066E-1
301 168 3.1748026736322016E-2
301 196 1.4033984268826835E-2
301 260 3.16816836956869E-2
301 272 8.619241892064645E-2
301 290 3.400843245078767E-2
301 403 1.804692387095757E-2
301 404 4.978952663070863E-2
301 431 3.056508518682954E-2
301 432 2.358092005945165E-2
301 475 2.258651158852283E-2
301 484 3.3419566798446466E-2
302 52 1.831563888873418E-2
302 141 1.7772847649049555E-2
302 278 3.861011081324979E-2
302 280 8.799307806400677E-2
302 304 5.151283689170847E-2
302 310 1.9010046655916345E-2
302 326 2.1366465174458265E-2
302 332 5.035277825254694E-2
302 388 2.4901948675625556E-2
302 457 3.0028608257721346E-2
302 518 2.929633252957619E-2
303 30 1.9633657383139772E-2
303 102 1.822485961247612E-2
303 140 2.7008851400846398E-2
303 162 1.806776394662471E-2
303 184 4.1284121678172164E-2
303 231 2.0488254266611973E-2
303 249 3.651848526654128E-2
303 292 2.712042967917097E-2
303 295 3.68021351126344E-2
303 313 1.831563888873418E-2
303 352 4.0591781378207854E-2
304 18 2.8940085744517455E-2
304 52 5.856008472651129E-2
304 170 2.1015576805938664E-2
304 178 4.424597001547081E-2
304 194 4.380671570351335E-2
304 218 2.4957799573538338E-2
304 262 2.9163804793822974E-2
304 271 4.98235495556158E-2
304 278 2.4063775044798796E-1
304 302 5.151283689170847E-2
304 310 1.8203378092654457E-1
304 326 5.904935109513301E-2
304 332 8.657921676873112E-2
304 388 1.831563888873418E-2
304 420 2.4773333747233874E-2
304 459 2.024991081719796E-2
304 518 3.442150506154776E-2
305 6 1.6053161894237034E-1
305 21 1.70793193624701E-2
305 33 2.0202034021437314E-2
305 47 1.955504555982144E-2
305 200 1.831563888873418E-2
305 286 1.859831468224004E-2
305 342 6.853234507579702E-2
305 367 7.038560854813264E-2
305 425 3.7586828014786786E-2
305 468 5.965252064288503E-2
306 23 9.85028136390359E-2
306 34 2.129712829604724E-2
306 39 1.917133281205294E-2
306 71 1.3271643590489396E-1
306 76 4.276882894350647E-2
306 92 5.2910562668877156E-2
306 103 3.174612809574138E-2
306 116 5.6844260743018155E-2
306 137 1.6629251966119266E-2
306 179 1.831563888873418E-2
306 192 2.2168607445268544E-2
306 224 2.1392471388988366E-2
306 255 3.384868421907354E-2
306 309 1.0529690875862888E-1
306 311 5.526334956936747E-2
306 320 3.313258136397291E-2
306 323 2.7113368083836877E-2
306 340 7.503960921877617E-2
306 351 1.831563888873418E-2
306 415 1.9180024212251155E-2
306 430 2.8164953808391253E-2
306 456 6.298273644937744E-2
306 479 9.954173268848812E-2
306 494 2.1901785732085892E-2
306 528 2.6431864630405488E-2
307 68 1.831563888873418E-2
307 173 1.9907523055294817E-2
307 180 2.2912512140585442E-2
307 235 1.030915881586664E-1
307 296 1.6704288271876763E-1
307 364 3.9306802641588874E-2
307 421 1.605345899748829E-2
307 477 1.903146267009121E-2
307 487 2.0257502928411764E-2
307 517 3.270785431572932E-2
308 20 1.7497983950839852E-1
308 96 1.1210675354399166E-1
308 142 4.669558609027568E-2
308 151 8.726280309070097E-2
308 156 1.831563888873418E-2
308 164 1.831563888873418E-2
308 228 2.0157777892496214E-2
308 243 9.298514696216811E-2
308 279 4.142616541047682E-2
308 287 3.763311604827403E-2
308 313 1.853585952159738E-2
308 335 1.1446368055081285E-1
308 411 6.474094961047475E-2
308 418 1.831563888873418E-2
309 23 6.274728274080492E-2
309 39 1.7703376810215377E-2
309 71 4.556552470860063E-2
309 76 1.997388038388723E-2
309 116 4.238151073353238E-2
309 224 3.841306387275117E-2
309 306 1.0529690875862888E-1
309 311 1.831563888873418E-2
309 323 1.121222093213537E-2
309 369 1.6530435685346186E-2
309 430 5.238534962778127E-2
309 479 1.881683960291637E-2
310 53 1.742906715944053E-2
310 91 5.316397871951618E-2
310 178 1.831563888873418E-2
310 218 4.8642828780086605E-2
310 252 1.831563888873418E-2
310 262 3.2817158490097406E-2
310 278 3.8049542302339395E-2
310 297 3.8949113063280985E-2
310 302 1.9010046655916345E-2
310 304 1.8203378092654457E-1
310 326 3.8290828116327014E-1
310 332 9.05866891805237E-2
310 388 1.3061847091269653E-2
310 437 2.143640853003342E-2
310 459 1.831563888873418E-2
310 499 1.425710860393497E-2
310 518 1.831563888873418E-2
311 23 4.923592340288484E-2
311 71 4.51034972069867E-2
311 76 1.831563888873418E-2
311 86 5.395239735085725E-2
311 92 3.581136856788124E-2
311 116 9.058389593865164E-2
311 137 2.689661198294656E-2
311 154 1.887709030828601E-2
311 275 1.962774859810309E-2
311 306 5.526334956936747E-2
311 309 1.831563888873418E-2
311 369 3.198706723170557E-2
311 430 3.7498777054199385E-2
311 456 1.6523241471363062E-1
311 479 7.126183289163023E-2
311 528 3.494854136218788E-1
312 11 1.5835708800571008E-1
312 17 5.772477047723364E-2
312 104 1.133664794361903E-1
312 127 7.988053949949807E-2
312 165 1.2733916869647294E-1
312 172 1.8539495731956575E-2
312 186 3.613528926354219E-2
312 206 2.0901270452753952E-2
312 217 1.4844906652273898E-2
312 226 3.253882325558308E-2
312 315 3.2884932047679186E-2
312 350 3.323155924372221E-2
312 365 6.110446738765739E-2
312 399 5.155348458591267E-2
312 405 1.8501166683130288E-2
312 417 4.6037852951153216E-2
312 450 1.0756601577740779E-1
312 458 2.9929989115378905E-2
312 472 2.1686893412522446E-2
312 497 3.723812307843156E-2
313 96 1.2782854642743308E-1
313 142 3.3444811581792876E-2
313 156 2.0075716563540666E-2
313 162 3.8082770351732756E-2
313 164 4.9456613748902936E-2
313 232 2.5658855743204423E-2
313 279 1.314279447250568E-1
313 287 5.511163013097463E-2
313 295 9.45640931623097E-2
313 303 1.831563888873418E-2
313 308 1.853585952159738E-2
313 325 1.7940567212878778E-2
313 393 2.6508811549371923E-2
313 411 6.765882913955243E-2
313 440 1.6494392695771545E-2
313 449 2.2400909494196954E-2
313 474 1.831563888873418E-2
314 18 1.057751535471471E-1
314 37 2.3226887940202665E-1
314 138 2.0182836167433018E-2
314 170 2.4612466967006538E-1
314 179 4.059817719605985E-2
314 194 2.4072684144193567E-2
314 216 6.957182673309598E-2
314 230 1.6517267242303119E-1
314 255 1.850758941580137E-2
314 320 2.3260932074009533E-2
314 325 2.1976494836617826E-2
314 340 3.4515774388396474E-2
314 351 1.4623853771530554E-1
314 474 1.9843537950489973E-2
315 17 4.688386720281095E-2
315 94 1.831563888873418E-2
315 127 7.693851436236963E-2
315 150 1.856129880567958E-2
315 169 1.0738117972046628E-1
315 206 1.533612957179061E-2
315 226 1.3259107533024167E-1
315 312 3.2884932047679186E-2
315 350 3.344398806175568E-2
315 417 2.5064193705535094E-2
315 450 6.404893755353276E-2
315 458 7.653696643012947E-2
315 472 1.7890996252091115E-2
315 497 1.9747018260663513E-2
315 526 1.831563888873418E-2
316 13 2.1272114558686028E-1
316 50 1.0854912191205562E-1
316 149 1.6641819987925563E-2
316 182 5.033795267756539E-2
316 188 7.55468481144843E-2
316 204 1.831563888873418E-2
316 209 3.2542512678369495E-2
316 248 1.831563888873418E-2
316 253 1.9397125318882988E-1
316 266 6.52913210696369E-2
316 269 5.258462319841406E-2
316 341 4.0196851298893034E-2
316 368 1.0557573315586914E-1
316 402 6.335165837924589E-2
316 443 3.496263245000656E-2
316 444 1.83482749620865E-2
316 460 8.482853044466945E-2
316 463 3.5523355016707954E-2
316 486 2.179545596232214E-2
316 511 1.258540852338855E-1
316 527 2.621345283749167E-2
317 5 1.812248558814701E-2
317 19 3.509989481552456E-2
317 99 3.830478509484615E-1
317 182 1.831563888873418E-2
317 188 8.206473401165874E-2
317 204 1.438816214101193E-1
317 285 1.0342615362517217E-2
317 341 1.5035716938945565E-1
317 368 1.3812009372871347E-2
317 425 1.6049164852925967E-2
317 446 1.1039070458562457E-1
317 463 2.8961359422937302E-2
317 511 3.334666805920665E-2
318 65 1.0627689127409916E-1
318 140 4.931905141875323E-2
318 184 1.7148774495399328E-2
318 231 4.661345517326902E-2
318 249 6.746545195913112E-2
318 352 1.968950091385154E-2
318 362 4.7071541232933584E-2
318 416 1.831563888873418E-2
318 435 2.3158987255517637E-2
318 438 7.450323377132154E-2
318 481 6.650556381093552E-2
319 59 3.2932199423058764E-2
319 81 4.843232997225815E-2
319 108 1.1885803112984462E-1
319 135 1.831563888873418E-2
319 158 9.993439504116822E-2
319 174 1.831563888873418E-2
319 215 9.47022382936779E-2
319 221 5.5301341015754804E-2
319 239 2.060692592207585E-2
319 247 1.831563888873418E-2
319 270 3.460006877929394E-2
319 277 2.7329194354903875E-2
319 324 1.831563888873418E-2
319 349 2.3750089127918836E-1
319 353 7.356527484286292E-2
319 379 6.073194190316172E-2
319 392 3.8709805194735034E-2
319 408 1.0354952410911687E-1
319 436 5.2111735143909134E-2
319 452 2.5107368247915027E-2
319 502 6.207731110045822E-2
319 506 1.467175382317044E-2
320 138 4.069175695057367E-2
320 179 2.9581028782563634E-2
320 192 7.284655150190522E-2
320 216 4.248484170279935E-2
320 255 1.831563888873418E-2
320 306 3.313258136397291E-2
320 314 2.3260932074009533E-2
320 323 1.0938939531602263E-1
320 340 2.126261794674421E-2
320 351 4.019538073389144E-2
320 430 1.815014459318964E-2
321 6 3.4551453711923794E-2
321 22 1.0841663858477738E-1
321 248 2.7874728583250442E-2
321 274 2.8556010523191573E-2
321 293 1.1675925750640427E-1
321 300 1.8787147948306354E-2
321 387 2.030943756175858E-2
321 429 4.083376143023047E-2
321 445 1.3000678143308448E-2
321 466 1.831563888873418E-2
321 507 1.8883009174147213E-2
322 24 2.095051771409684E-2
322 28 3.907457918406454E-2
322 58 3.550261384822874E-2
322 131 3.7491121775320706E-2
322 375 6.845375330117838E-2
322 426 3.652903497382981E-2
322 439 4.50386439733716E-2
322 441 5.587383166873909E-2
322 455 1.591091032904273E-2
322 492 1.831563888873418E-2
323 71 1.9443902165776874E-2
323 76 1.701273465404171E-2
323 92 9.510057437199576E-2
323 97 1.831563888873418E-2
323 138 2.5850972433669656E-2
323 179 2.3912123726275124E-2
323 192 3.942476082890446E-2
323 255 5.663146031927884E-2
323 306 2.7113368083836877E-2
323 309 1.121222093213537E-2
323 320 1.0938939531602263E-1
323 340 2.728217044673889E-2
323 351 4.084881400601414E-2
323 430 5.729937052182579E-2
324 24 1.8573834114772748E-2
324 28 7.549376972285705E-2
324 75 2.618478724907129E-2
324 81 1.6533967122596496E-2
324 174 2.3011366909690557E-2
324 190 1.889719561364114E-2
324 198 6.623156499041104E-2
324 256 3.7250656315354624E-2
324 319 1.831563888873418E-2
324 375 2.307273976611203E-2
324 448 4.4898190899938586E-2
324 452 1.7778764966195126E-2
324 492 5.060078914809528E-2
324 502 6.663762610915452E-2
324 506 2.4688923877126245E-2
325 37 5.106915339151689E-2
325 91 3.543715543046596E-2
325 162 1.321215586026856E-1
325 170 5.8955457991455976E-2
325 218 2.1443188915810936E-2
325 252 3.1716804121131925E-2
325 262 1.831563888873418E-2
325 279 2.352052020895493E-2
325 313 1.7940567212878778E-2
325 314 2.1976494836617826E-2
325 474 5.095704958379634E-1
326 218 2.136404535154974E-2
326 262 2.897661720212918E-2
326 280 1.831563888873418E-2
326 302 2.1366465174458265E-2
326 304 5.904935109513301E-2
326 310 3.8290828116327014E-1
326 332 7.252975327624873E-2
326 348 1.8932682318721132E-2
326 388 3.8826914273901454E-2
326 437 2.6438158601645282E-2
326 459 4.199150543731868E-2
326 499 3.3756087947613145E-2
326 518 3.1163459337033052E-2
327 27 3.338568372041182E-1
327 41 3.052415984355547E-2
327 49 1.0364044455291865E-1
327 51 3.1146960387689E-2
327 84 3.520285458962844E-2
327 95 1.669181796236974E-1
327 142 2.139791947758871E-2
327 201 1.336155899474446E-2
327 228 5.060191684151661E-2
327 282 1.864410460968656E-2
327 294 8.480304025569513E-2
327 393 2.546709731321247E-2
327 433 1.4946068083968625E-1
327 440 6.081361653099177E-2
327 443 1.7564676410623856E-2
327 471 1.7099841723543657E-2
327 493 8.09829995006315E-2
327 523 4.8727247773614696E-1
328 97 2.7973252850365848E-2
328 138 2.6548605728643752E-2
328 139 1.9799466063069437E-2
328 141 3.0597451125566204E-2
328 163 1.0504080332986371E-1
328 192 4.826290822281183E-2
328 245 4.170156049001725E-2
328 276 2.213579649804656E-2
328 330 1.831563888873418E-2
328 346 2.8058258145346248E-2
328 355 1.793475482457183E-2
329 4 1.831563888873418E-2
329 14 8.228838567561579E-2
329 26 1.6180509474776485E-2
329 48 6.701660999810143E-2
329 80 4.132188625397021E-2
329 82 8.276417917517337E-2
329 89 3.0465881401118985E-2
329 100 1.831563888873418E-2
329 119 1.534887191669404E-1
329 390 6.103378328158432E-2
329 394 9.421576115947705E-2
329 427 9.109765965198868E-2
329 453 4.3162001077875115E-2
329 476 5.766576781608569E-2
329 509 2.5515180467936983E-2
329 513 2.4223329806476495E-2
330 18 6.938798380065539E-2
330 52 5.1792323749684226E-2
330 138 3.1462907095261866E-2
330 163 2.048451981436239E-2
330 170 4.5223531745375065E-2
330 194 1.704905636437216E-2
330 271 1.5412007619783138E-2
330 278 1.9093418575373187E-2
330 328 1.831563888873418E-2
330 346 7.88444827227101E-2
330 420 3.532853691427676E-2
330 428 1.9066383321241644E-2
330 457 1.831563888873418E-2
331 60 2.1840841996629598E-2
331 64 2.7699568615149807E-2
331 69 1.5572871506534445E-2
331 98 3.2692998909244604E-2
331 111 2.35932709189723E-2
331 126 2.249604538722036E-2
331 238 1.0056936595987039E-1
331 395 1.831563888873418E-2
331 396 2.1948414859519386E-2
331 505 6.907478830680552E-2
331 525 8.52857346161538E-2
332 53 4.30190080590626E-2
332 218 2.3445707081108894E-2
332 262 1.831563888873418E-2
332 278 1.7119324544545053E-2
332 280 1.6873595105557426E-2
332 302 5.035277825254694E-2
332 304 8.657921676873112E-2
332 310 9.05866891805237E-2
332 326 7.252975327624873E-2
332 388 3.7552151718640805E-2
332 459 2.285197834666186E-2
332 499 4.828229892290357E-2
332 518 1.1887918329423862E-2
333 21 8.045608513248273E-2
333 47 5.445679870348315E-2
333 100 5.8925802587172005E-2
333 105 2.6131164891184323E-2
333 119 1.831563888873418E-2
333 152 4.5540109622812935E-2
333 160 2.0364764396007815E-1
333 258 4.1376262842359054E-2
333 286 1.6144358708769568E-1
333 342 2.1615680534299773E-2
333 367 1.623924507442464E-2
333 407 1.1637602197894949E-1
333 427 4.695300460123265E-2
333 468 5.706156269189373E-2
333 504 5.777715460526728E-2
334 53 5.3806209233941395E-2
334 63 1.9301954608230004E-2
334 128 1.592289520543039E-2
334 288 4.9019555120188324E-2
334 297 1.831563888873418E-2
334 298 3.2557834887885065E-2
334 348 6.35908987153384E-2
334 357 4.773989471941997E-2
334 424 1.3527924265845506E-1
334 499 2.056928134742169E-2
335 20 3.392601573383903E-1
335 96 1.6585523158814522E-2
335 142 4.308796079010278E-2
335 151 1.7687537121884747E-1
335 228 2.3517683334604522E-2
335 243 5.689911633643898E-2
335 308 1.1446368055081285E-1
335 343 7.019752107985357E-2
335 411 1.831563888873418E-2
335 418 6.565838285562653E-2
335 464 1.831563888873418E-2
336 142 4.3171357534879634E-2
336 164 3.470052930816228E-2
336 228 3.1987670524581804E-2
336 232 4.024425847270916E-2
336 243 6.192695649927447E-2
336 282 1.831563888873418E-2
336 287 1.787873118183061E-2
336 343 1.2463357640080733E-2
336 423 1.0740205271239128E-1
336 433 1.831563888873418E-2
336 464 6.146518511848898E-2
336 493 6.684069961460176E-2
337 15 1.5333351688935587E-1
337 62 5.4698989114808694E-2
337 86 5.651140749324699E-2
337 124 9.089570311238519E-2
337 139 1.9998481618188832E-2
337 245 2.5557893923610228E-2
337 251 9.544852661014402E-2
337 276 4.2090638534142806E-2
337 347 2.931530701474377E-2
337 363 1.892454248343105E-2
337 376 3.1985141203752794E-2
337 381 2.7382441036862288E-2
338 40 4.1013634165448704E-1
338 44 1.3180604696377926E-1
338 54 6.513550881564842E-2
338 55 1.5551992184579392E-2
338 56 5.564233662766364E-1
338 68 2.568298331366699E-2
338 107 1.9177552458627452E-2
338 144 6.201940255466066E-2
338 159 3.0954242814620034E-2
338 180 5.616295828187084E-2
338 185 2.2576061736963524E-1
338 187 1.831563888873418E-2
338 259 3.3692266241028314E-2
338 371 1.907711919833371E-2
338 421 8.326811414870752E-3
338 477 2.6108195982334187E-2
338 478 7.340135198360052E-2
338 487 2.3514034448819388E-2
339 79 1.9957386004635556E-2
339 87 1.2264500066636866E-1
339 117 2.779960909813809E-1
339 127 3.952275483639376E-2
339 172 6.157318855004415E-2
339 186 3.8021185894219274E-2
339 226 1.831563888873418E-2
339 246 1.7072404724264172E-2
339 399 3.526546722486234E-2
339 417 2.5498304147377072E-2
339 450 3.512655129202271E-2
340 65 1.5680595888840774E-2
340 92 1.6284567271635787E-2
340 97 5.1869629754538626E-2
340 138 2.117368815620116E-1
340 179 1.6996120700966934E-2
340 213 4.9513535468153985E-2
340 227 2.0744324626794357E-2
340 255 1.6658419586255798E-2
340 306 7.503960921877617E-2
340 314 3.4515774388396474E-2
340 320 2.126261794674421E-2
340 323 2.728217044673889E-2
340 351 4.8153918450848826E-1
340 362 1.831563888873418E-2
340 415 2.046618588494658E-2
340 416 3.059294878583195E-2
340 428 3.679403160837395E-2
340 438 1.831563888873418E-2
340 456 1.831563888873418E-2
340 479 2.3481575614011353E-2
340 494 1.9361651370476036E-2
341 5 2.7448111147995186E-2
341 13 2.522749646500345E-2
341 19 1.7136209402481985E-2
341 38 1.9773598282603697E-2
341 50 1.6315520657453404E-2
341 99 4.820248928927866E-2
341 149 3.9959480262069295E-2
341 182 3.8431088165660376E-2
341 188 7.25512876687157E-2
341 201 7.368840764627078E-2
341 204 2.0470429480144367E-1
341 269 2.3128231550191312E-2
341 316 4.0196851298893034E-2
341 317 1.5035716938945565E-1
341 368 7.235515843446225E-2
341 444 1.831563888873418E-2
341 446 1.2010430089024434E-2
341 463 1.9901110214334872E-1
341 486 6.551098500835514E-2
341 511 1.8743397548076507E-1
341 527 3.306787211907711E-2
342 14 2.8301463939761545E-2
342 21 2.6480848885480535E-1
342 80 6.146561918275997E-2
342 100 2.200039014330267E-2
342 105 2.783718611967084E-2
342 286 3.6961228911935526E-2
342 305 6.853234507579702E-2
342 333 2.1615680534299773E-2
342 367 3.5589659518801886E-2
342 394 1.8287102662642322E-2
342 427 1.831563888873418E-2
342 468 4.0361767773494955E-1
343 20 2.7531019968372258E-2
343 38 7.455818486260693E-2
343 142 3.171089329017681E-2
343 151 1.2676246746985803E-1
343 228 3.793900182758339E-2
343 335 7.019752107985357E-2
343 336 1.2463357640080733E-2
343 414 1.831563888873418E-2
343 418 7.909336171854381E-2
343 433 2.156411807225128E-2
343 464 7.23876343138961E-2
343 493 6.381214215892345E-2
344 202 4.603996013789051E-2
344 234 2.4922491420547996E-1
344 240 2.0644016048160319E-1
344 261 1.344664501041917E-1
344 413 1.196081567396455E-1
344 454 2.2950811718949787E-1
344 483 1.4157951890148898E-2
344 501 6.931300159951287E-2
344 512 1.831563888873418E-2
344 521 8.129398382083158E-2
345 16 3.1587836914019805E-2
345 109 4.2942174534764926E-2
345 190 2.2750300561799858E-2
345 221 2.070161241286557E-2
345 242 2.3219903047197656E-2
345 256 1.1719547989921698E-1
345 299 3.0864403475235454E-2
345 374 1.967588272364912E-1
345 375 2.779379893708126E-2
345 401 2.210967352563099E-1
345 426 1.3758506678466346E-2
345 439 1.2527790720827497E-2
345 441 1.831563888873418E-2
345 455 2.84449545238592E-2
345 492 2.6198552635254543E-2
345 498 2.9596892539492124E-2
346 18 6.515346787333977E-2
346 52 9.227336753859663E-2
346 97 3.1828427737802804E-2
346 138 1.734948072611784E-2
346 141 1.5868838700167927E-2
346 170 2.2995427343576035E-2
346 178 1.5603118750551096E-2
346 194 1.9598380254609055E-2
346 216 2.8410759448752345E-2
346 271 2.021429038069464E-2
346 278 5.366370916263443E-2
346 328 2.8058258145346248E-2
346 330 7.88444827227101E-2
346 420 9.843397602938452E-2
346 428 2.6479882939915135E-2
346 457 4.4333340333859765E-2
347 15 2.7891833579545455E-1
347 46 2.0568479597513255E-2
347 62 1.9927908819119995E-2
347 86 1.8640950793385735E-2
347 108 1.831563888873418E-2
347 124 1.831563888873418E-2
347 148 3.0682243838221223E-2
347 154 9.866048742583852E-2
347 171 5.934661308231971E-2
347 211 1.831563888873418E-2
347 215 4.22563333690654E-2
347 233 5.786854687440407E-2
347 251 5.861595505549703E-2
347 337 2.931530701474377E-2
347 361 1.9956153819266582E-2
347 376 5.51204260524919E-1
347 381 4.3601172974186087E-2
347 408 3.176982423657827E-2
348 32 1.5586927329772524E-2
348 53 1.5271068082548367E-1
348 63 1.8785938128564425E-2
348 262 1.8950018613842354E-1
348 297 1.831563888873418E-2
348 326 1.8932682318721132E-2
348 334 6.35908987153384E-2
348 388 3.491778981914988E-1
348 437 1.831563888873418E-2
348 459 4.6511552995107275E-1
348 499 4.067286239103648E-1
348 518 1.2113335526163563E-1
349 45 1.6641334968397436E-2
349 59 2.4015522999617296E-2
349 81 4.5508781280660784E-2
349 108 1.103427169072782E-1
349 158 2.9004162579847215E-2
349 191 1.9668039780193443E-2
349 197 7.374099674279791E-2
349 215 3.959000429885346E-2
349 221 7.000987782946516E-2
349 239 6.250815000362928E-2
349 256 2.227724015877259E-2
349 270 4.3344171061855265E-2
349 277 6.281266505834514E-2
349 319 2.3750089127918836E-1
349 353 8.846423440286325E-2
349 379 3.3443642534247564E-1
349 386 2.651694743011813E-2
349 400 1.831563888873418E-2
349 408 9.817153504048388E-2
349 410 1.717046321169584E-2
349 434 5.082541040654329E-2
349 436 3.059074106839697E-2
349 473 4.828764771363801E-2
350 150 1.696478927368171E-2
350 165 2.7493184318138356E-2
350 172 4.295660857824179E-2
350 186 2.3525697453236034E-2
350 206 3.3307047978709155E-2
350 226 2.677912490977418E-2
350 312 3.323155924372221E-2
350 315 3.344398806175568E-2
350 399 1.831563888873418E-2
350 450 2.8816063573861517E-2
351 18 3.181024522078405E-2
351 37 1.878818378140577E-2
351 92 1.537565435283003E-2
351 97 4.10335333050525E-2
351 138 1.655271736259697E-1
351 170 3.535210933984609E-2
351 179 3.310959288836051E-2
351 216 7.310460050818979E-2
351 230 3.1587263474243316E-2
351 255 3.454501522767382E-2
351 306 1.831563888873418E-2
351 314 1.4623853771530554E-1
351 320 4.019538073389144E-2
351 323 4.084881400601414E-2
351 340 4.8153918450848826E-1
351 428 3.182578683336753E-2
352 30 3.3697431472373773E-1
352 140 7.04740381143038E-2
352 177 1.0879412473822354E-1
352 184 4.702681102277246E-2
352 236 4.39596457500423E-2
352 249 1.1325426861482045E-1
352 260 1.831563888873418E-2
352 290 3.250199141541233E-2
352 292 6.708865348117561E-2
352 303 4.0591781378207854E-2
352 318 1.968950091385154E-2
352 449 8.242153647153355E-2
352 465 1.90641452299745E-2
352 475 9.489135350579415E-2
352 481 4.186938217705968E-1
353 10 4.198768635964181E-2
353 45 4.402911941967494E-2
353 59 2.356602757269345E-2
353 81 1.1052597483178823E-1
353 108 5.3994208432954396E-2
353 110 2.2942919675301814E-2
353 124 1.679342856266142E-2
353 135 3.480565122871724E-2
353 154 1.831563888873418E-2
353 158 1.8978696769382658E-2
353 191 1.831563888873418E-2
353 197 6.689505337884163E-2
353 250 3.769160644177601E-2
353 270 1.7466913015297646E-2
353 277 3.947885118665822E-2
353 319 7.356527484286292E-2
353 349 8.846423440286325E-2
353 379 1.7913519155571288E-2
353 408 6.487515872028549E-2
353 452 1.967646269458792E-2
354 55 1.679469282834882E-2
354 91 3.671215115664963E-2
354 120 1.610285107922649E-1
354 156 4.741469685438757E-2
354 189 2.0943517871689865E-1
354 199 5.491675347540097E-2
354 237 4.1095690728119805E-1
354 252 3.9130232003132176E-2
354 297 8.171989557228992E-2
354 298 1.4448018026587528E-1
354 357 7.963710349239893E-2
354 397 3.899122060807364E-2
354 424 1.831563888873418E-2
354 530 1.3213170069744995E-1
355 62 7.494409722277806E-2
355 83 2.9926355706767258E-2
355 97 1.8438876275513585E-1
355 118 9.353195105016733E-2
355 139 2.1790179057030828E-2
355 141 6.394318230667817E-2
355 155 3.670364288803947E-1
355 163 1.4496804667248794E-1
355 192 1.6798195119792227E-2
355 245 2.1933309918348347E-2
355 328 1.793475482457183E-2
355 420 1.3986820877713742E-2
355 457 9.835285123691219E-2
356 7 4.715584828889463E-2
356 125 1.3985531826820846E-1
356 196 4.496824494397981E-2
356 372 2.5259470798007083E-2
356 385 1.831563888873418E-2
356 484 3.5738969615978715E-2
356 491 1.342689537320098E-1
356 508 3.2406880678412256E-2
356 519 1.8540179188997034E-2
356 529 1.8287849538717017E-2
357 32 6.516828279404246E-2
357 55 9.64932040609074E-2
357 63 1.831563888873418E-2
357 120 1.8388457799369016E-2
357 128 3.451711896006524E-2
357 136 1.831563888873418E-2
357 167 3.924460713264767E-2
357 189 1.472826318950649E-2
357 237 1.5891184497729854E-1
357 252 1.7396298846154602E-2
357 288 1.306257346772352E-1
357 297 3.0905061081541278E-2
357 298 2.831047679689557E-1
357 334 4.773989471941997E-2
357 354 7.963710349239893E-2
357 437 2.1804598563172073E-2
357 530 2.6166321948664122E-2
358 31 4.92185426820081E-2
358 43 2.3180181028421912E-2
358 114 1.7691179111344962E-2
358 123 5.41805658425599E-2
358 166 1.4143794379197666E-1
358 177 5.545891523695337E-2
358 196 1.831563888873418E-2
358 236 4.4873164913337135E-2
358 384 3.6394038011942575E-2
358 462 6.606006714084814E-2
358 465 6.587695540655901E-2
358 489 1.3670873079931728E-1
358 500 4.145197995119623E-2
359 1 2.309662973863696E-2
359 60 1.831563888873418E-2
359 69 1.425312327119331E-1
359 98 2.6639422410092074E-2
359 111 9.815476471151718E-2
359 126 1.642103068954786E-2
359 129 5.60379840558876E-2
359 183 1.5159887877878175E-1
359 195 2.2440631176766374E-1
359 223 1.1077697881170684E-1
359 395 9.25266008436133E-2
360 61 9.416348110659509E-2
360 70 1.831563888873418E-2
360 106 3.30575905329816E-2
360 121 1.2254193920207093E-1
360 125 7.160338786612201E-2
360 134 1.9623131286041186E-2
360 229 2.3527504425315506E-2
360 385 1.5028981043022829E-2
360 447 2.1496744630118636E-2
360 531 2.3777884005034816E-1
361 46 1.7386481498585137E-2
361 108 1.674181862045227E-2
361 109 4.335746898098064E-2
361 132 3.0923971133219333E-2
361 148 4.8897926803038186E-2
361 171 5.825051800316808E-2
361 205 1.7631598863273576E-2
361 215 4.080953196733887E-2
361 233 1.831563888873418E-2
361 244 5.366988263284225E-2
361 347 1.9956153819266582E-2
361 373 1.1168622385582333E-1
361 374 1.9438803449611106E-2
361 376 3.399903340124032E-2
361 392 5.24509556450531E-2
361 520 1.126063841235273E-1
362 65 2.1703832833066694E-1
362 143 5.5976053090503776E-2
362 213 4.8386429791112025E-2
362 227 4.467534857039638E-2
362 231 8.789668309672781E-2
362 264 2.611963435227799E-2
362 318 4.7071541232933584E-2
362 340 1.831563888873418E-2
362 412 2.784101402833138E-2
362 415 1.7857638022526705E-2
362 416 1.4282015818953714E-1
362 435 3.975603372403586E-2
362 438 3.6360842831366497E-1
363 46 1.777965375065554E-2
363 62 1.875222147063536E-2
363 118 2.0159750592952823E-2
363 141 2.6141124477662214E-2
363 153 7.5078265404291E-2
363 163 7.495945328708722E-2
363 233 1.831563888873418E-2
363 276 9.789690382481321E-2
363 337 1.892454248343105E-2
363 381 3.9039603663620984E-2
364 56 1.4508937668830822E-2
364 68 2.8862771093299106E-1
364 144 5.082571172265781E-2
364 180 1.930112028905181E-1
364 185 1.831563888873418E-2
364 235 2.4781003361181828E-1
364 296 1.9388889333222664E-1
364 307 3.9306802641588874E-2
364 421 1.0901016744050451E-1
364 477 3.210655206674248E-1
364 487 4.992268898256006E-1
364 517 1.782221987071371E-1
365 11 2.061366627353418E-1
365 73 1.074432663913307E-2
365 87 1.831563888873418E-2
365 117 1.831563888873418E-2
365 172 5.5684191384417395E-2
365 181 2.350316505982786E-2
365 186 1.1774238573961361E-1
365 206 6.583783513669034E-2
365 217 4.5347462163347396E-2
365 254 1.831563888873418E-2
365 312 6.110446738765739E-2
365 399 1.2846135287096602E-1
365 405 2.0559559718836665E-2
365 417 2.9488495885609835E-2
365 450 1.831563888873418E-2
366 29 5.0608899993679526E-2
366 129 2.0175409515583758E-2
366 130 1.693285209690068E-2
366 133 6.448762026418932E-2
366 207 3.246427255072835E-2
366 223 2.453142164496019E-2
366 380 3.2562389253273794E-1
366 415 2.2802026488953443E-2
366 456 1.831563888873418E-2
366 479 2.3642277093925135E-2
366 494 4.229574857439201E-2
367 21 6.16931210919784E-2
367 33 1.3629638288656992E-1
367 72 1.831563888873418E-2
367 105 2.0252712572815763E-2
367 200 2.1553193292808574E-2
367 286 2.8682567337476296E-2
367 305 7.038560854813264E-2
367 333 1.623924507442464E-2
367 342 3.5589659518801886E-2
367 425 1.32360137106475E-1
367 468 1.9741430911279162E-1
367 504 2.1886206565468552E-2
368 13 2.458635624750806E-1
368 27 1.831563888873418E-2
368 50 4.8298431819954496E-2
368 84 1.8197687993236806E-2
368 149 2.631774079291019E-2
368 182 4.178598199045201E-2
368 188 4.675852057818886E-2
368 201 2.8382032989701798E-2
368 204 1.1927523685082689E-1
368 253 9.611898243941508E-2
368 316 1.0557573315586914E-1
368 317 1.3812009372871347E-2
368 341 7.235515843446225E-2
368 402 2.455488563772021E-2
368 443 1.513615792792569E-1
368 463 3.3694594612495E-2
368 486 6.840869864067861E-2
368 511 1.315857139489201E-1
368 527 2.13891985367664E-2
369 23 6.441469883023046E-2
369 39 1.859160564928037E-2
369 61 1.7915641531220695E-2
369 71 5.184025716271159E-2
369 76 3.782501776101686E-2
369 116 5.223175198675477E-2
369 214 3.0588702708684492E-2
369 241 2.032142236415172E-2
369 250 1.831563888873418E-2
369 263 2.868670995977954E-2
369 309 1.6530435685346186E-2
369 311 3.198706723170557E-2
369 430 3.385769187553155E-2
369 503 1.837401397147818E-2
370 2 1.0741568344213881E-2
370 32 2.0160104784973085E-2
370 54 6.461299246354402E-2
370 63 2.1361279688479846E-2
370 67 2.4660827922711324E-2
370 88 8.907367365391436E-2
370 122 2.435351668064169E-1
370 128 2.2943237114639213E-2
370 136 1.831563888873418E-2
370 147 2.4772290898616475E-2
370 167 3.5699642795160226E-2
370 280 2.5156307643481285E-2
370 288 1.200567303820084E-2
370 371 8.678054074188725E-2
370 496 1.0324750946326763E-1
371 54 2.0378855175901833E-1
371 88 3.555551295367167E-2
371 122 4.2733034821241654E-2
371 136 3.357151375260102E-2
371 144 1.831563888873418E-2
371 167 2.686541178069958E-2
371 187 2.1952986059175075E-2
371 281 5.66874937340122E-3
371 338 1.907711919833371E-2
371 370 8.678054074188725E-2
371 421 1.8954625127665395E-2
371 478 6.236068795353013E-2
371 496 1.650997115795487E-2
372 43 2.3457297837646208E-2
372 57 4.8269505265094284E-2
372 114 8.44111968535374E-2
372 123 1.831563888873418E-2
372 166 1.6725331893892047E-2
372 196 2.2532289575882153E-1
372 356 2.5259470798007083E-2
372 385 1.3430163470407305E-1
372 405 2.610481095704554E-2
372 419 6.1404230480086704E-2
372 489 1.0885593483618983E-1
372 491 1.0101989179775758E-1
372 508 8.923443242218443E-2
372 510 2.7582858814588832E-2
372 519 1.443273776743348E-1
372 529 1.6644218719736523E-2
373 16 6.741542420415113E-2
373 109 2.0999960209591115E-1
373 132 2.7087934975747366E-2
373 148 5.994525255161108E-2
373 174 2.5726258123210274E-2
373 190 4.387879809321819E-2
373 198 1.2113672005222075E-2
373 244 1.831563888873418E-2
373 361 1.1168622385582333E-1
373 374 1.831563888873418E-2
373 392 2.8972485713327698E-2
373 401 4.6404661980306086E-2
374 16 5.10988414956128E-2
374 109 1.0214433717106292E-1
374 190 2.3655917820958633E-2
374 221 2.830917218262917E-2
374 222 1.831563888873418E-2
374 256 8.628052089738233E-2
374 299 5.59332585742753E-2
374 345 1.967588272364912E-1
374 361 1.9438803449611106E-2
374 373 1.831563888873418E-2
374 379 1.718313895932634E-2
374 392 2.6332484977446224E-2
374 401 1.2549313234220774E-1
374 483 5.722910390472474E-2
374 498 3.7842725005340604E-2
375 16 1.831563888873418E-2
375 24 3.752516626695489E-2
375 28 1.2339167212814511E-1
375 58 1.831563888873418E-2
375 131 1.831563888873418E-2
375 239 4.974673769176197E-2
375 256 1.5150216860017504E-1
375 322 6.845375330117838E-2
375 324 2.307273976611203E-2
375 345 2.779379893708126E-2
375 401 1.6047575267502587E-2
375 426 1.8262908224957863E-1
375 439 3.294915813728573E-2
375 441 1.7931970046408507E-1
375 448 1.831563888873418E-2
375 455 6.91955587569151E-2
375 492 8.395734308805329E-2
375 506 1.3818864402363759E-2
376 15 2.7469809654101685E-1
376 46 2.757019132305522E-2
376 62 4.0147976950989955E-2
376 118 1.831563888873418E-2
376 148 5.8830903492425014E-2
376 154 5.260340317833821E-2
376 171 1.120153805068987E-1
376 211 1.5098279615997906E-2
376 215 2.7668055530662164E-2
376 233 1.0138767856053825E-1
376 251 4.7511652100204575E-2
376 337 3.1985141203752794E-2
376 347 5.51204260524919E-1
376 361 3.399903340124032E-2
376 381 9.186827879773324E-2
376 520 1.831563888873418E-2
377 4 4.2495554079120854E-2
377 12 4.861202453985824E-2
377 85 1.3036071899753254E-1
377 145 7.379370888406739E-2
377 146 2.3731597887844152E-2
377 176 2.0979556908757475E-2
377 265 9.275981351999152E-2
377 284 8.851659575282968E-2
377 289 1.831563888873418E-2
377 482 4.1937320354107424E-2
377 485 1.268635946346474E-1
377 513 1.7932774006087407E-2
377 522 2.7747899158757285E-2
378 7 3.0940080672325967E-2
378 78 3.146537846649079E-2
378 115 2.6549464703698414E-2
378 272 3.454205482104912E-2
378 404 3.198560895955646E-2
378 422 2.054473791331811E-2
378 432 2.776091070043671E-2
378 484 4.509608368011074E-2
378 500 1.604857357254843E-2
378 529 1.831563888873418E-2
379 108 7.707642667214623E-2
379 158 1.9056829316669844E-2
379 191 1.8728097844025366E-2
379 207 2.5155325864347405E-2
379 208 1.831563888873418E-2
379 215 5.7165856728588725E-2
379 221 8.199960554336276E-2
379 239 2.2450383741230304E-2
379 247 3.199833043585107E-2
379 256 2.8556836316480774E-2
379 299 1.831563888873418E-2
379 319 6.073194190316172E-2
379 349 3.3443642534247564E-1
379 353 1.7913519155571288E-2
379 374 1.718313895932634E-2
379 386 1.6237999818522017E-2
379 392 2.1396628084979278E-2
379 400 1.0107703619624259E-1
379 408 2.901190940212635E-2
379 410 2.1446967735589594E-2
379 434 5.810927224432766E-2
379 473 1.0689541700860533E-1
380 29 3.97081077275092E-2
380 133 1.3872787907712653E-1
380 191 1.9172930108243065E-2
380 205 1.831563888873418E-2
380 207 2.4990329433629277E-2
380 366 3.2562389253273794E-1
380 410 1.7990272727709398E-2
380 434 2.983846488368123E-2
380 473 4.156986490277651E-2
380 494 3.6061462845867046E-2
381 15 8.537029515766661E-2
381 46 3.6286720654625744E-2
381 62 4.586504377177877E-2
381 83 4.708562396033158E-2
381 118 5.27527407288955E-2
381 153 3.164209879959734E-2
381 155 2.250316170350509E-2
381 171 5.540409938534579E-2
381 233 1.3501628176787328E-1
381 251 1.7891490742600043E-2
381 276 3.496418959240916E-2
381 337 2.7382441036862288E-2
381 347 4.3601172974186087E-2
381 363 3.9039603663620984E-2
381 376 9.186827879773324E-2
381 520 2.426814381716238E-2
382 2 2.4960289381119424E-2
382 3 2.9957862947839936E-1
382 67 5.515703829645193E-2
382 90 1.831563888873418E-2
382 112 1.354485593460631E-2
382 147 3.6264311732198774E-2
382 193 4.394461739246748E-2
382 280 1.8403672571732376E-2
382 281 5.345077503408068E-2
382 398 5.239544943493786E-1
382 451 5.896487914755631E-2
382 496 1.4913239339213608E-1
383 7 4.406714135016809E-2
383 25 3.196120484155466E-2
383 34 3.0815537713175828E-2
383 35 1.831563888873418E-2
383 70 5.185508618276945E-2
383 103 9.251969504466719E-2
383 106 1.2193699031222412E-2
383 134 1.2939397850982678E-1
383 157 3.177170719825874E-2
383 175 1.860204424370301E-1
383 406 2.3641073373793542E-1
383 467 4.1521180130426316E-1
383 488 6.67373265176309E-2
383 524 3.463471259558249E-2
384 17 1.1041126177766149E-1
384 31 3.412477872986106E-2
384 104 3.527046352915607E-1
384 114 8.589174038451539E-2
384 123 9.738313021016945E-2
384 150 1.5958581003161755E-2
384 165 2.086078885289013E-1
384 212 2.790754373395616E-2
384 358 3.6394038011942575E-2
384 419 2.2428768785093582E-2
384 464 4.710123538093345E-2
384 493 1.831563888873418E-2
384 497 1.8527116975274587E-2
384 526 6.064089973649425E-2
385 57 2.6128479608413545E-2
385 79 5.978075665734651E-2
385 87 1.947266553917717E-2
385 114 1.831563888873418E-2
385 125 1.831563888873418E-2
385 196 3.771167752978678E-2
385 229 1.2803382556549328E-1
385 254 2.286440326110588E-2
385 356 1.831563888873418E-2
385 360 1.5028981043022829E-2
385 372 1.3430163470407305E-1
385 419 1.6346073240393878E-2
385 491 3.306942479773062E-1
385 508 1.2573389460144505E-1
385 510 4.375414588339744E-2
385 519 9.955585349455057E-2
385 529 4.916677009609666E-2
386 42 4.7886499088490686E-2
386 130 1.9807061650969814E-2
386 191 5.1800912834701486E-2
386 197 2.0928001944348632E-2
386 219 6.281291729842431E-2
386 221 1.831563888873418E-2
386 239 8.835185770897369E-2
386 242 4.90603461699057E-2
386 270 7.785854637932026E-2
386 277 6.139965159653305E-2
386 291 4.571605559364192E-2
386 349 2.651694743011813E-2
386 379 1.6237999818522017E-2
386 409 6.312090829028158E-2
386 410 1.7773056218238834E-1
386 434 1.088868493623188E-1
386 480 2.017730802965885E-2
386 503 1.831563888873418E-2
387 19 1.831563888873418E-2
387 22 3.672881151304028E-2
387 273 1.5289772324196527E-1
387 274 1.69527041715199E-1
387 285 4.46538571471333E-2
387 293 3.6111363118772985E-2
387 300 8.928365472453435E-2
387 321 2.030943756175858E-2
387 429 3.782481690269552E-2
387 445 2.9135174113909444E-2
387 446 3.24722706180018E-2
387 507 1.2083770394021501E-1
388 53 1.0257872983771939E-1
388 122 1.7343640596934783E-2
388 262 1.9659660166257853E-1
388 302 2.4901948675625556E-2
388 304 1.831563888873418E-2
388 310 1.3061847091269653E-2
388 326 3.8826914273901454E-2
388 332 3.7552151718640805E-2
388 348 3.491778981914988E-1
388 459 6.152467044166599E-1
388 499 3.412770028533136E-1
388 518 4.2631069460019555E-1
389 23 2.68882246049312E-2
389 61 1.5993172844955336E-1
389 214 3.431897408300223E-2
389 241 1.7102850315029453E-2
389 263 1.9108383758583594E-1
389 270 1.071277878898576E-1
389 277 5.254280838167332E-2
389 291 1.831563888873418E-2
389 447 5.304810557688603E-2
389 452 1.760638665477389E-2
389 503 2.1342437439592454E-1
389 531 3.26063459369346E-2
390 4 1.2226629707278701E-1
390 12 2.6419826018899674E-2
390 14 1.831563888873418E-2
390 26 4.347808361210698E-2
390 48 2.8928990121011647E-2
390 80 1.831563888873418E-2
390 82 5.410470429615899E-2
390 89 8.592106094085901E-2
390 119 2.7767211049478394E-2
390 145 1.6386550750461762E-2
390 146 7.84152345958675E-2
390 284 1.831563888873418E-2
390 329 6.103378328158432E-2
390 476 2.0023407391776653E-2
390 495 1.5034429887559677E-2
390 509 1.4566139063834237E-2
390 513 9.78205316964664E-2
391 33 4.6003493813906934E-2
391 72 1.8402272020916134E-2
391 73 2.2521702727921603E-2
391 87 1.6381578850928728E-2
391 117 5.4798633078489034E-2
391 152 1.8236865714638915E-2
391 181 1.0685870242073381E-1
391 200 1.831563888873418E-2
391 254 2.6251944770190508E-2
391 258 3.251855393755891E-2
391 461 5.279844060055619E-2
391 504 1.916325963659606E-2
391 514 2.565443418097712E-2
391 515 3.960912044039017E-2
392 16 5.109867471122727E-2
392 108 6.608480887606863E-2
392 109 2.0983482760454558E-2
392 132 1.913851017095332E-2
392 148 6.332604707444345E-2
392 158 5.8358304446802206E-2
392 161 1.750161244180826E-2
392 174 7.71293423308876E-2
392 208 1.5293095725335035E-2
392 215 2.1679469218996789E-1
392 221 2.39802901315965E-2
392 247 5.2518219785605905E-2
392 319 3.8709805194735034E-2
392 361 5.24509556450531E-2
392 373 2.8972485713327698E-2
392 374 2.6332484977446224E-2
392 379 2.1396628084979278E-2
392 400 3.2402766812828214E-2
392 401 6.687064797088678E-2
392 408 1.1139245862302354E-2
392 442 1.4735981617000576E-2
392 520 2.1446002451688394E-2
393 49 3.4332333581064967E-1
393 95 1.9810610039960075E-1
393 142 2.1424458244713278E-2
393 168 3.508642274521038E-2
393 184 1.7598947362158883E-2
393 232 2.151988906377759E-2
393 294 3.078458460912811E-2
393 295 4.532337636003174E-1
393 313 2.6508811549371923E-2
393 327 2.546709731321247E-2
393 440 8.602714277748497E-2
394 14 7.488500788556228E-2
394 26 1.831563888873418E-2
394 48 5.3188254516632935E-2
394 80 9.31861713532085E-2
394 82 7.962602006003026E-2
394 100 5.8996741177471876E-2
394 119 9.579259496129813E-2
394 329 9.421576115947705E-2
394 342 1.8287102662642322E-2
394 407 1.560317134368266E-2
394 427 1.4485998813463918E-1
394 453 1.2592367459514173E-1
394 476 6.406518574051652E-2
394 509 2.4006123876025284E-2
394 513 1.733836965777115E-2
395 1 5.400458954183955E-2
395 60 7.673567121975522E-2
395 69 2.8589456204184605E-1
395 98 3.654921746673529E-2
395 111 1.7659053737710942E-1
395 126 1.632687594095549E-1
395 129 8.457843733933576E-2
395 183 2.2004520613784877E-2
395 195 2.9708437164349212E-2
395 203 1.831563888873418E-2
395 223 1.762679296524869E-1
395 331 1.831563888873418E-2
395 359 9.25266008436133E-2
395 490 1.9953501139067444E-2
395 505 1.0331394191432494E-1
396 1 2.047324883367351E-2
396 8 4.1536440305705125E-1
396 60 1.1329137977637954E-1
396 64 1.831563888873418E-2
396 98 1.1283072680326557E-1
396 113 3.0749304703122943E-2
396 126 2.9541666321848497E-2
396 202 3.4165491949951055E-2
396 203 2.173286510134993E-1
396 238 9.557579227334954E-2
396 331 2.1948414859519386E-2
396 505 1.9150243392832939E-1
396 512 1.7161311823117077E-2
396 516 2.591571009253349E-2
396 525 3.938318523094944E-2
397 32 1.822762442830442E-2
397 63 1.831563888873418E-2
397 88 5.812660805039387E-2
397 136 4.958992749228839E-2
397 167 4.96907515274964E-2
397 187 2.3534168984444284E-2
397 199 2.9391205824316927E-2
397 237 4.857384211052301E-2
397 288 5.665152634008064E-2
397 298 3.36225227284454E-2
397 354 3.899122060807364E-2
398 2 5.6459503116639574E-2
398 3 5.334513787824654E-1
398 67 1.3935509396539258E-1
398 90 3.932771306231918E-2
398 112 3.079982416605005E-2
398 147 1.0776299939962419E-1
398 193 9.905216327331415E-2
398 280 3.988027308735752E-2
398 281 8.048200480602473E-2
398 382 5.239544943493786E-1
398 451 8.079483299088064E-2
398 496 1.0230069172236264E-1
399 11 1.2171397360452245E-1
399 73 7.393838265448474E-2
399 94 6.184297164663891E-2
399 117 4.759981740076515E-2
399 127 1.8233507424646512E-2
399 172 6.513560424455597E-2
399 181 2.2256684952759166E-2
399 186 4.1776821484698445E-1
399 206 1.1719720914831146E-1
399 217 1.4638176827502125E-1
399 246 9.232905208496776E-2
399 312 5.155348458591267E-2
399 339 3.526546722486234E-2
399 350 1.831563888873418E-2
399 365 1.2846135287096602E-1
399 417 2.3527040146928196E-1
399 450 2.2310452335433778E-1
399 461 2.3910551527324478E-2
399 514 1.7348251783496558E-2
399 515 3.255835897288128E-2
400 29 2.765588670004193E-2
400 108 2.912508425791206E-2
400 207 1.8557911235633784E-1
400 215 7.381905550473698E-2
400 221 1.7558511010859413E-2
400 247 9.01885864030347E-2
400 349 1.831563888873418E-2
400 379 1.0107703619624259E-1
400 392 3.2402766812828214E-2
400 442 7.89578864755448E-2
400 480 1.831563888873418E-2
400 498 1.831563888873418E-2
400 520 5.569040018353907E-2
401 16 1.4774628807295187E-1
401 109 1.1695070988474197E-1
401 174 6.424022108009249E-2
401 190 6.431152000254814E-2
401 215 1.831563888873418E-2
401 221 2.449425172836906E-2
401 256 6.412234321124735E-2
401 345 2.210967352563099E-1
401 373 4.6404661980306086E-2
401 374 1.2549313234220774E-1
401 375 1.6047575267502587E-2
401 392 6.687064797088678E-2
402 13 3.087654376018086E-2
402 27 4.045909895369412E-2
402 41 5.252988307076601E-2
402 51 3.59312581914749E-2
402 84 2.4857680365886617E-1
402 269 3.5108858929933845E-2
402 316 6.335165837924589E-2
402 368 2.455488563772021E-2
402 443 2.33796842091096E-2
402 444 8.567568491415337E-2
402 460 5.372941256389646E-2
402 463 5.333687503122839E-2
402 471 2.7892550979655397E-2
402 486 1.831563888873418E-2
402 511 1.25532351003587E-2
402 523 1.831563888873418E-2
402 527 1.92815748760793E-2
403 7 2.5180971250229743E-2
403 30 1.947767660368432E-2
403 115 1.831563888873418E-2
403 143 3.8852453079907795E-1
403 157 7.676026961505478E-2
403 184 2.1825517969706353E-2
403 260 1.867121879737226E-2
403 264 1.0318797191042413E-1
403 290 5.522753578203571E-2
403 301 1.804692387095757E-2
404 43 4.4748409268175984E-2
404 78 1.0377959162392655E-1
404 272 2.0218833500305126E-2
404 301 4.978952663070863E-2
404 378 3.198560895955646E-2
404 422 5.8166997223869296E-2
404 432 4.8107154764705326E-2
404 462 1.831563888873418E-2
404 475 1.8788151178347416E-2
404 484 7.524551032506027E-2
404 500 2.091356225744761E-2
404 529 5.305225921514014E-2
405 11 3.731313524815735E-2
405 87 1.8827375302776655E-2
405 114 3.4867091920087696E-2
405 165 2.3516989185936317E-2
405 172 1.831563888873418E-2
405 229 1.8726764231090397E-2
405 312 1.8501166683130288E-2
405 365 2.0559559718836665E-2
405 372 2.610481095704554E-2
405 419 1.7036947373619736E-2
405 497 1.9175395623855777E-2
406 7 3.091245536201824E-2
406 70 5.644383660942807E-2
406 103 1.831563888873418E-2
406 106 7.175455060996527E-2
406 121 2.2741597063790277E-2
406 125 1.0188134464927669E-2
406 134 2.1121986225574743E-1
406 175 1.7789900094061956E-1
406 383 2.3641073373793542E-1
406 467 9.847974413019105E-2
406 488 1.1247784851504186E-1
407 14 1.831563888873418E-2
407 21 1.4926262665033658E-2
407 47 3.831060206602118E-2
407 80 1.8498096143666667E-2
407 100 3.8808195061573444E-2
407 105 1.7341851491210643E-2
407 119 9.469267148720165E-2
407 152 5.0614133911917734E-2
407 160 5.11229382824896E-2
407 286 9.325751154972996E-2
407 333 1.1637602197894949E-1
407 394 1.560317134368266E-2
407 427 6.616524875052482E-2
407 468 1.831563888873418E-2
407 504 2.4759149753137588E-2
408 10 1.5077549684668994E-2
408 45 4.535412677509221E-2
408 81 2.9151818069251823E-2
408 108 6.344975370631976E-2
408 110 1.831563888873418E-2
408 154 2.3282971166321904E-2
408 197 1.9215549340096262E-2
408 198 1.716764971674249E-2
408 215 6.283880695626946E-2
408 250 1.831563888873418E-2
408 251 2.208976540258351E-2
408 319 1.0354952410911687E-1
408 347 3.176982423657827E-2
408 349 9.817153504048388E-2
408 353 6.487515872028549E-2
408 379 2.901190940212635E-2
408 392 1.1139245862302354E-2
408 436 6.902733553962476E-2
409 42 3.819176983289932E-2
409 158 1.8758458723422727E-2
409 221 3.01171609531423E-2
409 239 1.8898828688995006E-2
409 242 8.5106520793855E-2
409 270 2.0394879142555198E-2
409 386 6.312090829028158E-2
409 410 3.179545510638428E-2
409 434 1.7716670767507513E-2
409 480 1.831563888873418E-2
410 42 2.7790846972165325E-2
410 130 1.2692998257894714E-1
410 137 4.154450942809842E-2
410 191 6.777992072217794E-2
410 207 1.831563888873418E-2
410 214 2.415223754613361E-2
410 219 6.461162743838E-2
410 239 2.1597037861405113E-2
410 242 2.6664091219495426E-2
410 275 3.655189808366939E-2
410 277 1.831563888873418E-2
410 349 1.717046321169584E-2
410 379 2.1446967735589594E-2
410 380 1.7990272727709398E-2
410 386 1.7773056218238834E-1
410 409 3.179545510638428E-2
410 434 2.8108802460634746E-1
410 480 9.171929682126387E-2
410 503 1.2027652255101055E-2
411 20 7.70832732299584E-2
411 96 3.146503789298505E-1
411 151 1.5618417763725375E-2
411 156 2.6918926073083035E-2
411 162 6.949556304301518E-2
411 189 1.831563888873418E-2
411 243 2.970529911793803E-2
411 279 2.1903386024022142E-1
411 287 1.3046208262410294E-1
411 308 6.474094961047475E-2
411 313 6.765882913955243E-2
411 335 1.831563888873418E-2
411 424 2.4413970122809967E-2
412 25 7.471805420928983E-2
412 35 3.5195879929629255E-2
412 65 1.831563888873418E-2
412 143 1.831563888873418E-2
412 213 1.9040419991314964E-1
412 227 1.9352716859489926E-2
412 231 1.213199192507006E-1
412 264 2.000270138401715E-2
412 362 2.784101402833138E-2
412 416 5.428519797815747E-2
412 435 3.3152592444588666E-2
412 438 1.789662929664861E-2
413 202 9.081176707655914E-2
413 234 4.11727538021547E-2
413 240 1.594703211773499E-1
413 257 1.831563888873418E-2
413 261 3.7600645087801987E-1
413 344 1.196081567396455E-1
413 454 3.898252823905545E-1
413 483 5.0188171183895264E-2
413 501 2.9120520904503733E-2
413 512 2.0056019705534386E-2
413 521 4.980044993988231E-2
413 525 3.7086300178801844E-2
414 38 2.7988080486379217E-2
414 51 2.6326890376107852E-2
414 84 1.8544718023724253E-2
414 212 5.314301584024389E-2
414 225 2.529847804618628E-2
414 285 8.707304007777844E-2
414 343 1.831563888873418E-2
414 444 1.3799851711255148E-1
414 446 1.7905503742204676E-2
414 463 2.6595527784576956E-2
414 471 4.142567703002116E-2
415 138 3.28484285587394E-2
415 213 6.961828553437119E-2
415 306 1.9180024212251155E-2
415 340 2.046618588494658E-2
415 362 1.7857638022526705E-2
415 366 2.2802026488953443E-2
415 438 1.831563888873418E-2
415 456 2.1032729567655502E-2
415 479 6.554115465458209E-2
415 494 1.1936295117280236E-1
416 65 1.1991281073445292E-1
416 213 9.127008153553237E-2
416 227 1.2328786459235092E-1
416 231 1.1023090371313078E-1
416 318 1.831563888873418E-2
416 340 3.059294878583195E-2
416 362 1.4282015818953714E-1
416 412 5.428519797815747E-2
416 435 5.692195507014785E-2
416 438 2.7417340435148074E-1
417 11 3.0641253556989562E-2
417 73 2.7208479248492897E-2
417 94 1.139688941518219E-1
417 127 6.228770691672015E-2
417 169 2.58209141500657E-2
417 172 2.11343173809792E-2
417 186 1.2052187475959567E-1
417 206 1.2864067302299667E-1
417 217 1.7296545871335609E-1
417 226 1.948688057644571E-2
417 246 1.4063303940968402E-1
417 312 4.6037852951153216E-2
417 315 2.5064193705535094E-2
417 339 2.5498304147377072E-2
417 365 2.9488495885609835E-2
417 399 2.3527040146928196E-1
417 450 3.4828699723593554E-1
417 458 2.671849890493255E-2
418 20 8.38085956012731E-2
418 142 2.6130610982816084E-2
418 151 5.4235111402459624E-2
418 228 1.865306470415851E-2
418 243 1.736772217036203E-2
418 308 1.831563888873418E-2
418 335 6.565838285562653E-2
418 343 7.909336171854381E-2
418 464 1.9162462090437673E-2
418 493 2.415208814980504E-2
419 104 4.512548744893046E-2
419 114 1.1250009543302192E-1
419 123 1.0239341592687622E-1
419 165 6.634115271928868E-2
419 196 6.485028819877564E-2
419 372 6.1404230480086704E-2
419 384 2.2428768785093582E-2
419 385 1.6346073240393878E-2
419 405 1.7036947373619736E-2
419 491 5.735515299135915E-2
419 510 1.831563888873418E-2
420 18 8.173072994397798E-2
420 52 2.2145071938249467E-1
420 97 3.507298764206042E-2
420 170 1.9748917219019065E-2
420 178 3.0447279538806032E-2
420 194 4.9200734397455904E-2
420 216 6.69185753899928E-2
420 271 2.8796761694435187E-2
420 278 1.8148255309029915E-1
420 304 2.4773333747233874E-2
420 330 3.532853691427676E-2
420 346 9.843397602938452E-2
420 355 1.3986820877713742E-2
420 428 4.843320319875484E-2
420 457 3.189320655005488E-2
421 54 1.831563888873418E-2
421 68 3.479522063363227E-2
421 144 3.0890744055034218E-2
421 173 2.4740069033210098E-2
421 180 8.432098012356111E-2
421 210 2.0322359647546626E-2
421 235 1.5544730510616886E-1
421 296 8.42055192779078E-2
421 307 1.605345899748829E-2
421 338 8.326811414870752E-3
421 364 1.0901016744050451E-1
421 371 1.8954625127665395E-2
421 477 1.461588019079254E-1
421 487 2.1156192981143768E-1
421 517 3.8278269452165226E-1
422 43 1.607745602685968E-2
422 78 3.9848855689116114E-2
422 106 2.4886749402680583E-2
422 121 2.0538167532831296E-2
422 272 1.831563888873418E-2
422 378 2.054473791331811E-2
422 404 5.8166997223869296E-2
422 432 4.330643581800135E-2
422 484 4.6888249640026344E-2
422 510 1.8843339810816047E-2
422 529 3.37794313779485E-2
423 49 1.0002716700808142E-2
423 142 1.8700551729815783E-2
423 164 1.905564670740225E-2
423 228 1.831563888873418E-2
423 232 8.990548674944518E-2
423 243 7.210467742443942E-2
423 282 1.276382621900938E-1
423 336 1.0740205271239128E-1
423 464 3.37583160255246E-2
423 493 3.1470934671380034E-2
424 53 2.4848539839077723E-2
424 96 2.1601609933450172E-2
424 107 2.521899298520117E-2
424 120 1.692941862796652E-2
424 162 3.0683453978428955E-2
424 189 2.93207742981561E-2
424 334 1.3527924265845506E-1
424 354 1.831563888873418E-2
424 411 2.4413970122809967E-2
424 530 1.9633267018977003E-2
425 6 1.831563888873418E-2
425 19 2.3537520725367814E-2
425 33 1.514552175428164E-1
425 72 5.36372824853366E-2
425 99 7.351772345815387E-2
425 105 1.8436708489573135E-2
425 200 6.340861006824379E-2
425 305 3.7586828014786786E-2
425 317 1.6049164852925967E-2
425 367 1.32360137106475E-1
425 429 2.1727911952237965E-2
425 468 2.0721642153106207E-2
425 507 1.831563888873418E-2
425 515 5.093649292077434E-2
426 24 7.831564728994644E-2
426 28 7.219083926823558E-2
426 58 8.728497731160934E-2
426 131 4.199841794430531E-2
426 239 4.328327250595612E-2
426 256 1.831563888873418E-2
426 267 7.14191562036037E-2
426 299 1.846181184424E-2
426 322 3.652903497382981E-2
426 345 1.3758506678466346E-2
426 375 1.8262908224957863E-1
426 439 2.0168575317635325E-2
426 441 1.736406110997023E-1
426 455 8.017305458617607E-2
426 473 1.831563888873418E-2
426 492 7.34419206600044E-2
426 506 2.5904503882172178E-2
427 14 1.727853023577182E-1
427 21 2.1715378440124316E-2
427 47 2.386437479562581E-2
427 48 1.831563888873418E-2
427 80 2.970518231212727E-2
427 82 5.526086032819247E-2
427 100 1.1933751784861235E-1
427 119 1.3398279263451027E-1
427 286 3.794315123837473E-2
427 329 9.109765965198868E-2
427 333 4.695300460123265E-2
427 342 1.831563888873418E-2
427 394 1.4485998813463918E-1
427 407 6.616524875052482E-2
427 453 2.935421635137966E-2
427 476 2.8371089175073166E-2
427 509 1.831563888873418E-2
428 18 2.2570504003371846E-2
428 97 1.733553618183294E-2
428 138 9.520141682088686E-2
428 170 3.0817908583598067E-2
428 227 3.507970104035815E-2
428 271 2.0174330094103386E-2
428 278 1.831563888873418E-2
428 330 1.9066383321241644E-2
428 340 3.679403160837395E-2
428 346 2.6479882939915135E-2
428 351 3.182578683336753E-2
428 420 4.843320319875484E-2
429 6 2.8125452125611745E-2
429 19 1.831563888873418E-2
429 22 2.4255084290586534E-2
429 33 2.1971966877435523E-2
429 273 7.101885349609305E-2
429 274 1.187070391396633E-1
429 293 8.921471305629616E-2
429 300 8.197646855675617E-2
429 321 4.083376143023047E-2
429 387 3.782481690269552E-2
429 425 2.1727911952237965E-2
429 445 2.294508906933517E-2
429 507 9.540326484510563E-2
430 23 2.0179038347351255E-2
430 39 2.773528577006861E-2
430 71 1.024045572051227E-1
430 76 7.560390550649135E-2
430 86 4.083910898964267E-2
430 92 1.1427741725251357E-1
430 116 1.0589729377538486E-1
430 124 3.514922742859193E-2
430 192 1.831563888873418E-2
430 211 1.2890198883187633E-2
430 250 2.3036502110791758E-2
430 306 2.8164953808391253E-2
430 309 5.238534962778127E-2
430 311 3.7498777054199385E-2
430 320 1.815014459318964E-2
430 323 5.729937052182579E-2
430 369 3.385769187553155E-2
430 456 1.831563888873418E-2
430 479 2.015808299544585E-2
430 528 7.764516772974965E-2
431 7 3.418357295185986E-2
431 70 2.6220871137033485E-2
431 101 5.1262814465717975E-2
431 102 3.325723873211746E-2
431 103 1.831563888873418E-2
431 134 1.7309513851508782E-2
431 157 5.42304124650789E-2
431 168 1.8660870202914192E-2
431 272 7.777948857046385E-2
431 290 2.173687035316863E-2
431 301 3.056508518682954E-2
432 7 1.770727976002505E-2
432 43 9.710834499370291E-2
432 78 3.312961975161216E-1
432 106 8.360751108465395E-2
432 125 1.6863202652550518E-2
432 175 2.2458766419492654E-2
432 301 2.358092005945165E-2
432 378 2.776091070043671E-2
432 404 4.8107154764705326E-2
432 422 4.330643581800135E-2
432 484 4.762105686335693E-1
432 508 1.831563888873418E-2
432 510 7.19542935110484E-2
432 529 1.2547610359069167E-1
433 27 8.463402665294405E-2
433 38 4.2862659777555684E-2
433 49 1.831563888873418E-2
433 51 1.8555057704665354E-2
433 84 2.2952490116853845E-2
433 142 3.333312563450538E-2
433 201 2.0656841197083713E-2
433 228 5.059566335501048E-2
433 294 9.83604967013911E-2
433 327 1.4946068083968625E-1
433 336 1.831563888873418E-2
433 343 2.156411807225128E-2
433 440 1.831563888873418E-2
433 463 1.1048816299002858E-2
433 464 3.837849177373237E-2
433 471 5.9634938552121916E-2
433 493 2.5369782738362834E-1
433 523 1.4217453664590787E-1
434 42 2.306373211078013E-2
434 130 4.061241296563155E-2
434 137 2.805372270869476E-2
434 191 1.0646326096304687E-1
434 197 1.9931909372770534E-2
434 207 1.8655128893931255E-2
434 219 4.585669150402467E-2
434 221 1.831563888873418E-2
434 239 3.1910932953324034E-2
434 275 2.127346506654899E-2
434 277 1.748791541988229E-2
434 349 5.082541040654329E-2
434 379 5.810927224432766E-2
434 380 2.983846488368123E-2
434 386 1.088868493623188E-1
434 409 1.7716670767507513E-2
434 410 2.8108802460634746E-1
434 456 1.830823741910913E-2
434 473 7.286508120866057E-2
434 480 2.981349842663788E-2
435 213 2.134548734971932E-2
435 227 2.5506516439064063E-2
435 231 8.713664281598475E-2
435 249 2.6216062276375338E-2
435 264 1.584562168484427E-2
435 318 2.3158987255517637E-2
435 362 3.975603372403586E-2
435 412 3.3152592444588666E-2
435 416 5.692195507014785E-2
435 438 3.224269786858592E-2
435 481 1.831563888873418E-2
436 45 5.30081605642403E-2
436 81 4.878177201863769E-2
436 108 4.833471315538616E-2
436 132 1.831563888873418E-2
436 198 1.0773489601903778E-1
436 208 2.1022396294352735E-2
436 215 2.392799419802714E-2
436 221 1.7683838222451405E-2
436 256 1.831563888873418E-2
436 319 5.2111735143909134E-2
436 349 3.059074106839697E-2
436 408 6.902733553962476E-2
437 32 3.361728056393373E-2
437 53 1.3865376188954955E-2
437 63 7.471688359348216E-2
437 218 2.907694764083628E-2
437 288 3.901353802754817E-2
437 298 7.023379499828968E-2
437 310 2.143640853003342E-2
437 326 2.6438158601645282E-2
437 348 1.831563888873418E-2
437 357 2.1804598563172073E-2
437 499 3.4040970518794615E-2
438 65 5.804986042622153E-1
438 143 1.888725900946345E-2
438 213 4.944830012142823E-2
438 227 8.065402614999442E-2
438 231 7.134214922770231E-2
438 318 7.450323377132154E-2
438 340 1.831563888873418E-2
438 362 3.6360842831366497E-1
438 412 1.789662929664861E-2
438 415 1.831563888873418E-2
438 416 2.7417340435148074E-1
438 435 3.224269786858592E-2
439 28 2.366562912831092E-2
439 36 2.169168403954288E-2
439 58 1.831563888873418E-2
439 131 8.177019435900901E-2
439 267 2.016465214687764E-2
439 322 4.50386439733716E-2
439 345 1.2527790720827497E-2
439 375 3.294915813728573E-2
439 426 2.0168575317635325E-2
439 441 7.33334542565235E-2
439 448 5.109367615615097E-2
439 492 6.68532824943444E-2
440 27 1.4009792380475632E-2
440 41 2.4759837530307062E-2
440 49 1.1679255777810962E-1
440 51 1.611997225686403E-2
440 95 1.4549926689641263E-1
440 142 4.23877454152964E-2
440 164 4.944798287515366E-2
440 228 6.994222579689882E-2
440 294 2.181519134955049E-1
440 295 5.817029036655741E-2
440 313 1.6494392695771545E-2
440 327 6.081361653099177E-2
440 393 8.602714277748497E-2
440 433 1.831563888873418E-2
440 523 2.369237343347026E-2
441 24 5.950781488778731E-2
441 28 5.2358457314903455E-2
441 36 2.0280964522371478E-2
441 58 1.4751225097996973E-1
441 131 8.900899633110179E-2
441 239 5.5236212098123696E-2
441 242 1.8541333736529157E-2
441 267 1.8202855756390196E-1
441 291 2.6979495453342668E-2
441 322 5.587383166873909E-2
441 345 1.831563888873418E-2
441 375 1.7931970046408507E-1
441 426 1.736406110997023E-1
441 439 7.33334542565235E-2
441 455 2.5263233621131878E-2
441 492 1.0544375797297979E-1
441 506 3.170878324418678E-2
442 29 1.831563888873418E-2
442 46 4.388072909587469E-2
442 108 2.3412058845117604E-2
442 137 2.6505258744770024E-2
442 153 3.239305499954626E-2
442 171 2.2106067783199516E-2
442 207 6.511585554487871E-2
442 215 1.831563888873418E-2
442 220 2.3525944902459295E-2
442 233 8.540703041412659E-2
442 247 4.1956686466309866E-2
442 275 2.164153426079298E-2
442 392 1.4735981617000576E-2
442 400 7.89578864755448E-2
442 456 2.3714075181595465E-2
442 520 8.088681963210549E-2
443 13 4.4461342738404935E-2
443 27 1.8435728571111626E-1
443 41 4.8359344646119594E-2
443 84 1.831563888873418E-2
443 149 3.7799129801908825E-2
443 201 5.106144109044297E-2
443 253 3.7544679619241746E-2
443 316 3.496263245000656E-2
443 327 1.7564676410623856E-2
443 368 1.513615792792569E-1
443 402 2.33796842091096E-2
443 511 2.2302984238895766E-2
443 523 5.301013468382064E-2
444 38 1.706801590343188E-2
444 51 5.3523601820035474E-2
444 84 1.0514582774052902E-1
444 212 5.2355874751904036E-2
444 285 2.0944212221639433E-2
444 294 2.120684740078873E-2
444 316 1.83482749620865E-2
444 341 1.831563888873418E-2
444 402 8.567568491415337E-2
444 414 1.3799851711255148E-1
444 463 6.205264712208924E-2
444 471 8.00688230392071E-2
445 50 1.767966112986743E-2
445 74 2.3148547566992632E-2
445 209 2.6231717046301107E-2
445 248 3.8354454864758254E-2
445 266 3.724128692685721E-1
445 273 2.161432802972697E-2
445 274 3.744375059401779E-2
445 285 2.0437823041277003E-2
445 293 2.3443769372286854E-2
445 300 3.926139049166181E-1
445 321 1.3000678143308448E-2
445 387 2.9135174113909444E-2
445 429 2.294508906933517E-2
445 460 1.4046617827914457E-1
445 466 1.937331337705229E-2
445 507 3.1280411675254326E-2
446 19 2.3878401454967463E-2
446 99 1.1156309967866787E-1
446 188 1.831563888873418E-2
446 225 4.345843561274927E-2
446 273 1.0684571518118556E-1
446 274 4.328065048056242E-2
446 285 1.4376251549705035E-1
446 317 1.1039070458562457E-1
446 341 1.2010430089024434E-2
446 387 3.24722706180018E-2
446 414 1.7905503742204676E-2
446 507 1.0416358686552153E-1
447 61 5.326201246721944E-2
447 214 4.7142403307514985E-2
447 224 1.7075173341056418E-2
447 241 2.5790747414626843E-2
447 263 2.7213288554949328E-2
447 270 2.395822535598527E-2
447 360 2.1496744630118636E-2
447 389 5.304810557688603E-2
447 480 3.0542559467420113E-2
447 488 3.0275188091799982E-2
447 503 2.9928059866396955E-1
447 524 4.787748097722201E-2
447 531 2.0494676226770935E-2
448 24 2.7385185651488963E-2
448 28 3.518439532618656E-2
448 75 2.3840233182497887E-2
448 131 2.0873244433003327E-2
448 268 3.694000460539171E-2
448 324 4.4898190899938586E-2
448 375 1.831563888873418E-2
448 439 5.109367615615097E-2
448 452 1.2297699837494099E-2
448 492 3.866737468639875E-2
448 502 4.761069395166148E-2
448 506 2.1342341062647385E-2
449 30 9.165473584450301E-2
449 140 3.0977882958709655E-2
449 142 1.831563888873418E-2
449 177 2.0075297428465316E-1
449 236 1.728804640342464E-2
449 287 1.831563888873418E-2
449 292 1.6702247689153174E-1
449 313 2.2400909494196954E-2
449 352 8.242153647153355E-2
449 465 5.599325994848417E-2
449 481 1.8922193563026664E-2
450 11 3.053388326591104E-2
450 17 1.4818527530631504E-2
450 94 8.174424460175331E-2
450 117 1.7903298420359426E-2
450 127 7.46480317983802E-2
450 169 7.068594565961692E-2
450 172 3.189572238077875E-2
450 186 1.176519138565916E-1
450 206 5.3163165548800496E-2
450 217 5.332321595897883E-2
450 226 6.0812791696260915E-2
450 246 1.0174691798417607E-1
450 312 1.0756601577740779E-1
450 315 6.404893755353276E-2
450 339 3.512655129202271E-2
450 350 2.8816063573861517E-2
450 365 1.831563888873418E-2
450 399 2.2310452335433778E-1
450 417 3.4828699723593554E-1
450 458 2.3053853678876787E-2
451 2 7.020683674487163E-2
451 3 2.937027267000532E-1
451 67 1.831563888873418E-2
451 90 5.0888823004421616E-2
451 112 5.7957723368764535E-2
451 147 5.228138587339848E-2
451 193 1.1711269701535727E-1
451 210 1.7740077313198748E-2
451 382 5.896487914755631E-2
451 398 8.079483299088064E-2
451 496 1.3536510491886967E-3
452 10 1.9595531848330353E-2
452 24 1.831563888873418E-2
452 59 2.111729554458E-2
452 75 2.5372858729306703E-2
452 135 7.70328227320661E-2
452 268 1.243786803458756E-1
452 270 1.8851682737329123E-2
452 277 4.9094528019190606E-2
452 319 2.5107368247915027E-2
452 324 1.7778764966195126E-2
452 353 1.967646269458792E-2
452 389 1.760638665477389E-2
452 448 1.2297699837494099E-2
452 502 9.404584715110052E-2
452 506 6.389842438516292E-2
453 4 1.7130990570526708E-2
453 14 4.238725005173807E-2
453 26 3.131145856926225E-2
453 48 4.1954220468449335E-2
453 80 2.1643278003645905E-2
453 82 1.2163978184245511E-1
453 89 7.837243796188026E-2
453 100 1.638316789164505E-2
453 119 1.831563888873418E-2
453 329 4.3162001077875115E-2
453 394 1.2592367459514173E-1
453 427 2.935421635137966E-2
453 476 1.4313588760787693E-1
453 495 1.831563888873418E-2
453 509 2.0113043209581665E-2
453 513 7.628633971939974E-2
454 113 2.5133536423753863E-2
454 202 9.707284760026286E-2
454 234 2.2406438163445325E-1
454 240 2.1010687325018504E-1
454 261 3.953448583775393E-1
454 344 2.2950811718949787E-1
454 413 3.898252823905545E-1
454 483 1.831563888873418E-2
454 501 1.728967944506394E-1
454 512 6.481351037881364E-2
454 521 7.707825238572084E-2
455 28 4.526744514769955E-2
455 161 2.1137160448737008E-2
455 190 1.9150660398585463E-2
455 221 3.308591829272568E-2
455 239 1.176975707436613E-2
455 256 6.984373733296209E-2
455 299 1.2308555941823686E-1
455 322 1.591091032904273E-2
455 345 2.84449545238592E-2
455 375 6.91955587569151E-2
455 426 8.017305458617607E-2
455 441 2.5263233621131878E-2
455 473 6.2397777687703375E-2
455 492 3.367917543110498E-2
456 34 1.2711054512678175E-2
456 86 3.8287418645431524E-2
456 130 2.4285414202021925E-2
456 137 1.7416927177544828E-1
456 207 1.40493909154189E-2
456 275 1.2292181266768061E-1
456 306 6.298273644937744E-2
456 311 1.6523241471363062E-1
456 340 1.831563888873418E-2
456 366 1.831563888873418E-2
456 415 2.1032729567655502E-2
456 430 1.831563888873418E-2
456 434 1.830823741910913E-2
456 442 2.3714075181595465E-2
456 479 3.9861610916649304E-1
456 480 2.2510754056359168E-2
456 494 3.922722447432085E-2
456 524 2.0776442888963312E-2
456 528 8.889758333919678E-2
457 52 4.006164055005341E-2
457 97 1.831563888873418E-2
457 118 2.0321675188158556E-2
457 141 8.949586653993973E-2
457 155 4.81816189565748E-2
457 163 4.52961852802993E-2
457 245 2.047108117390265E-2
457 302 3.0028608257721346E-2
457 330 1.831563888873418E-2
457 346 4.4333340333859765E-2
457 355 9.835285123691219E-2
457 420 3.189320655005488E-2
458 17 1.2229864917513125E-1
458 94 1.831563888873418E-2
458 127 1.0983542485982785E-1
458 165 1.816479865455614E-2
458 169 1.5816710130411173E-2
458 212 2.280645605884597E-2
458 226 8.47873965543701E-2
458 312 2.9929989115378905E-2
458 315 7.653696643012947E-2
458 417 2.671849890493255E-2
458 450 2.3053853678876787E-2
458 526 1.9068524610412068E-2
459 53 1.047758379089069E-1
459 262 4.5441543231096365E-1
459 304 2.024991081719796E-2
459 310 1.831563888873418E-2
459 326 4.199150543731868E-2
459 332 2.285197834666186E-2
459 348 4.6511552995107275E-1
459 388 6.152467044166599E-1
459 499 3.411491723245291E-1
459 518 6.07122648354979E-1
460 13 1.831563888873418E-2
460 50 2.5579132455061687E-2
460 74 2.696950967186216E-2
460 209 2.7108040444069458E-2
460 253 1.8357449614077693E-2
460 266 2.4622829613058292E-1
460 285 1.831563888873418E-2
460 300 3.847988691370631E-2
460 316 8.482853044466945E-2
460 402 5.372941256389646E-2
460 445 1.4046617827914457E-1
460 511 1.3020926693694652E-2
461 47 1.7272698482202836E-2
461 72 1.3081194405778816E-2
461 73 2.8208210295223624E-1
461 152 1.038882708822625E-1
461 160 6.0646734709308585E-2
461 181 1.831563888873418E-2
461 186 1.5709590154377704E-2
461 200 3.20097451675171E-2
461 246 3.137220687905271E-2
461 258 3.1958486394218466E-1
461 391 5.279844060055619E-2
461 399 2.3910551527324478E-2
461 504 1.7109708612360952E-1
461 514 1.6353784963949036E-1
461 515 4.5684584911294415E-2
462 31 5.199789122113931E-2
462 43 3.5032368286013124E-2
462 78 2.6518236394490774E-2
462 123 1.3605181370173568E-2
462 166 4.5200282631276734E-2
462 236 1.831563888873418E-2
462 358 6.606006714084814E-2
462 404 1.831563888873418E-2
462 465 4.9809643306377896E-2
462 475 4.852689411510389E-2
462 500 8.300332536494127E-2
463 5 5.663543153766439E-2
463 13 1.7751465992026174E-2
463 27 1.831563888873418E-2
463 38 5.2739193388837376E-2
463 84 9.902566921764153E-2
463 149 1.831563888873418E-2
463 201 5.9714752364991644E-2
463 204 1.644411982439593E-2
463 269 1.7131480175549857E-2
463 316 3.5523355016707954E-2
463 317 2.8961359422937302E-2
463 341 1.9901110214334872E-1
463 368 3.3694594612495E-2
463 402 5.333687503122839E-2
463 414 2.6595527784576956E-2
463 433 1.1048816299002858E-2
463 444 6.205264712208924E-2
463 471 2.6711928275621563E-2
463 486 2.73153113058039E-2
463 511 5.530245051804376E-2
463 527 3.1126289951077492E-2
464 38 3.30596706980009E-2
464 104 2.1679910979981617E-2
464 142 7.018836300932882E-2
464 151 3.338838694922328E-2
464 164 1.8137140981471365E-2
464 228 8.5212168398548E-2
464 232 2.132538435660961E-2
464 243 2.2633066823815565E-2
464 282 8.724991158464654E-2
464 335 1.831563888873418E-2
464 336 6.146518511848898E-2
464 343 7.23876343138961E-2
464 384 4.710123538093345E-2
464 418 1.9162462090437673E-2
464 423 3.37583160255246E-2
464 433 3.837849177373237E-2
464 493 1.6382074481444442E-1
465 30 1.831563888873418E-2
465 31 8.691148401355749E-2
465 166 2.5352516301630344E-2
465 177 3.343321086089697E-2
465 236 5.7267298292767915E-2
465 352 1.90641452299745E-2
465 358 6.587695540655901E-2
465 449 5.599325994848417E-2
465 462 4.9809643306377896E-2
465 475 1.4026064393409634E-2
465 500 4.1379070143602634E-2
466 6 1.5408908736244216E-2
466 19 1.831563888873418E-2
466 22 3.458494995501092E-2
466 50 2.8021230472759923E-2
466 248 4.0449746446446874E-2
466 253 1.487307477215848E-2
466 266 2.10458506376823E-2
466 293 4.856714092545606E-2
466 300 2.569031091410033E-2
466 321 1.831563888873418E-2
466 445 1.937331337705229E-2
466 507 2.0514330091326357E-2
467 7 1.9373087737754254E-2
467 25 9.46693546466836E-2
467 34 5.539458947493196E-2
467 35 1.85555993664477E-2
467 103 1.1166036992309862E-2
467 134 1.831563888873418E-2
467 175 3.170401066374763E-1
467 383 4.1521180130426316E-1
467 406 9.847974413019105E-2
467 488 1.2884870017730568E-1
467 524 9.37338430932092E-2
468 21 3.4926686074586244E-1
468 80 4.529573231468703E-2
468 100 2.021669124375046E-2
468 105 4.562777296114286E-2
468 200 1.818414688953798E-2
468 286 1.0901781917492889E-1
468 305 5.965252064288503E-2
468 333 5.706156269189373E-2
468 342 4.0361767773494955E-1
468 367 1.9741430911279162E-1
468 407 1.831563888873418E-2
468 425 2.0721642153106207E-2
469 35 1.831563888873418E-2
469 102 3.01681585209907E-2
469 115 2.477479329273738E-2
469 236 2.1120869382248317E-2
469 260 1.5960106486152252E-2
469 264 2.272695960555002E-2
469 272 2.6009052773730695E-2
469 290 6.196445686879765E-2
469 475 2.8173731460435586E-2
469 500 2.3834308954454434E-2
470 9 8.87342036676649E-2
470 66 1.6838846865606472E-1
470 77 2.818283381684988E-1
470 85 3.0855667861601523E-2
470 93 7.748807524465562E-2
470 176 1.2279910793026556E-1
470 265 1.831563888873418E-2
470 284 8.219426283150522E-3
470 289 3.778688298094063E-2
470 482 4.921961513615554E-2
471 5 2.488143763746344E-2
471 27 1.9043298559000305E-2
471 38 3.142179722335934E-2
471 51 6.421095143381075E-2
471 84 8.583130753285531E-2
471 142 1.5808439258068897E-2
471 212 2.3644988757371584E-2
471 228 2.219487833705603E-2
471 294 6.772558757532383E-2
471 327 1.7099841723543657E-2
471 402 2.7892550979655397E-2
471 414 4.142567703002116E-2
471 433 5.9634938552121916E-2
471 444 8.00688230392071E-2
471 463 2.6711928275621563E-2
471 493 1.9424437874515806E-2
471 523 2.1301647027319192E-2
472 17 2.224625959845298E-2
472 104 2.989226933006267E-2
472 114 2.5396769541663415E-2
472 127 1.831563888873418E-2
472 150 4.6844432761814395E-2
472 165 3.4509463398948975E-2
472 212 1.937303649039655E-2
472 312 2.1686893412522446E-2
472 315 1.7890996252091115E-2
472 497 2.6973072543877274E-2
473 161 1.831563888873418E-2
473 191 5.2866431614387054E-2
473 208 4.0149199551390305E-2
473 221 3.7071252664883515E-2
473 239 2.690154936510263E-2
473 256 3.567876507588974E-2
473 299 8.594553721635469E-2
473 349 4.828764771363801E-2
473 379 1.0689541700860533E-1
473 380 4.156986490277651E-2
473 426 1.831563888873418E-2
473 434 7.286508120866057E-2
473 455 6.2397777687703375E-2
474 37 6.307688343518411E-2
474 91 9.54954522224496E-2
474 162 2.2702602198826827E-1
474 170 6.882500051624617E-2
474 218 5.2002631415580376E-2
474 252 4.324421716693521E-2
474 279 2.3389909173879824E-2
474 295 1.3373428104286085E-2
474 297 1.4529714068684498E-2
474 313 1.831563888873418E-2
474 314 1.9843537950489973E-2
474 325 5.095704958379634E-1
475 30 8.994520855817217E-2
475 31 1.4727170875482209E-2
475 35 2.3808940393354787E-2
475 102 3.9338901588799E-2
475 115 5.289821437395811E-2
475 184 2.5894324207917332E-2
475 236 2.7026488842469158E-2
475 249 1.8138389880856566E-2
475 260 4.728613287896312E-2
475 272 3.047937487908707E-2
475 290 1.2593770962536624E-1
475 301 2.258651158852283E-2
475 352 9.489135350579415E-2
475 404 1.8788151178347416E-2
475 462 4.852689411510389E-2
475 465 1.4026064393409634E-2
475 469 2.8173731460435586E-2
475 481 5.0078745529836724E-2
475 500 9.716625513171569E-2
476 4 1.8287735664322544E-2
476 14 5.3967509460341456E-2
476 82 7.865392879688525E-2
476 89 4.9706837753638426E-2
476 100 1.857775801067443E-2
476 145 1.831563888873418E-2
476 329 5.766576781608569E-2
476 390 2.0023407391776653E-2
476 394 6.406518574051652E-2
476 427 2.8371089175073166E-2
476 453 1.4313588760787693E-1
476 513 3.533606592132084E-2
477 54 1.692228982424086E-2
477 56 2.8091656905009914E-2
477 68 3.3624136653220527E-1
477 144 2.0617973352082555E-1
477 173 2.1846697953740828E-2
477 180 1.730768332781899E-1
477 185 1.831563888873418E-2
477 235 9.199196949361979E-2
477 296 5.804468974143854E-2
477 307 1.903146267009121E-2
477 338 2.6108195982334187E-2
477 364 3.210655206674248E-1
477 421 1.461588019079254E-1
477 487 6.422471499431481E-1
477 517 9.929642200436313E-2
478 32 1.831563888873418E-2
478 40 2.120004727114639E-2
478 44 4.996610218781212E-2
478 54 6.512392979838913E-2
478 55 3.074259169048266E-2
478 56 3.1101763338395535E-2
478 107 1.0685368707710602E-1
478 128 1.5731478233720612E-2
478 136 1.2459109120076955E-1
478 159 1.831563888873418E-2
478 167 3.4514711122043296E-2
478 185 1.831563888873418E-2
478 187 1.1166954048306504E-1
478 259 7.773828473121187E-3
478 338 7.340135198360052E-2
478 371 6.236068795353013E-2
479 34 2.338497178429161E-2
479 71 1.831563888873418E-2
479 86 1.505198133377576E-2
479 130 3.236657396135701E-2
479 137 1.9608414538841246E-1
479 213 2.983876263143077E-2
479 224 4.306460155326746E-2
479 275 1.3566870175823448E-1
479 306 9.954173268848812E-2
479 309 1.881683960291637E-2
479 311 7.126183289163023E-2
479 340 2.3481575614011353E-2
479 366 2.3642277093925135E-2
479 415 6.554115465458209E-2
479 430 2.015808299544585E-2
479 456 3.9861610916649304E-1
479 494 1.3885407185903528E-1
479 524 2.1643224909304003E-2
479 528 2.467019866838104E-2
480 29 1.6380735050192993E-2
480 130 6.1223465407043404E-2
480 137 4.2727236729440954E-2
480 207 1.0456498636908539E-1
480 242 5.5590760252417735E-2
480 386 2.017730802965885E-2
480 400 1.831563888873418E-2
480 409 1.831563888873418E-2
480 410 9.171929682126387E-2
480 434 2.981349842663788E-2
480 447 3.0542559467420113E-2
480 456 2.2510754056359168E-2
480 524 2.0055535574050293E-1
481 30 2.07554573173617E-1
481 140 6.113082547160467E-2
481 177 3.672247034154425E-2
481 184 2.8740931671848123E-2
481 231 3.2128311880452E-2
481 236 1.826993691130848E-2
481 249 1.455567762324122E-1
481 260 1.5558495383835321E-2
481 290 5.7623354605418675E-2
481 292 2.294743270619197E-2
481 318 6.650556381093552E-2
481 352 4.186938217705968E-1
481 435 1.831563888873418E-2
481 449 1.8922193563026664E-2
481 475 5.0078745529836724E-2
482 9 3.044458652045238E-2
482 66 1.3479680988589976E-1
482 77 6.485133062335567E-2
482 85 2.204558651951571E-1
482 176 1.370088221929574E-1
482 265 2.7853602296020727E-2
482 289 8.581881693152663E-2
482 377 4.1937320354107424E-2
482 470 4.921961513615554E-2
482 485 1.358092493203062E-1
482 522 1.119733770691439E-2
483 109 3.2052652172706135E-2
483 202 2.8389922415025415E-2
483 205 5.1117331094732765E-2
483 222 2.8226224140923007E-2
483 240 3.0441931629760256E-2
483 257 2.9042349500553655E-1
483 261 4.0902008455184574E-2
483 344 1.4157951890148898E-2
483 374 5.722910390472474E-2
483 413 5.0188171183895264E-2
483 454 1.831563888873418E-2
483 498 3.178376562602134E-2
483 521 5.633328824070285E-2
483 525 1.831563888873418E-2
484 7 4.053497071034631E-2
484 43 1.397353239228059E-1
484 78 4.358650096773053E-1
484 106 4.763351659895965E-2
484 115 1.831563888873418E-2
484 125 5.135839878882649E-2
484 301 3.3419566798446466E-2
484 356 3.5738969615978715E-2
484 378 4.509608368011074E-2
484 404 7.524551032506027E-2
484 422 4.6888249640026344E-2
484 432 4.762105686335693E-1
484 491 1.7597795145229442E-2
484 508 2.3647565572008394E-2
484 510 7.533563438531564E-2
484 529 1.7081966966380052E-1
485 66 6.752407127788902E-2
485 77 1.2213450865540133E-2
485 85 2.5867876603365153E-1
485 145 1.5157848258450842E-2
485 176 7.290217207740181E-2
485 265 3.3390764112676156E-2
485 284 1.831563888873418E-2
485 289 8.412200661022076E-2
485 377 1.268635946346474E-1
485 482 1.358092493203062E-1
485 522 1.91415635095047E-2
486 5 2.9330429438402368E-2
486 13 6.0679017889306096E-2
486 149 1.8237996727074615E-2
486 182 6.588010245279119E-2
486 204 4.5578427723996694E-2
486 316 2.179545596232214E-2
486 341 6.551098500835514E-2
486 368 6.840869864067861E-2
486 402 1.831563888873418E-2
486 463 2.73153113058039E-2
486 511 6.307845550273394E-2
487 54 5.732394396237507E-3
487 56 2.1842510912709633E-2
487 68 3.64845211297726E-1
487 144 1.0985390410583436E-1
487 173 1.543133125408122E-2
487 180 2.693849623576099E-1
487 185 1.831563888873418E-2
487 235 1.109700071502845E-1
487 296 7.484117158512407E-2
487 307 2.0257502928411764E-2
487 338 2.3514034448819388E-2
487 364 4.992268898256006E-1
487 421 2.1156192981143768E-1
487 477 6.422471499431481E-1
487 517 1.3866613205118897E-1
488 34 1.831563888873418E-2
488 106 7.103528872909941E-2
488 121 1.831563888873418E-2
488 134 2.6042294993463028E-2
488 175 2.2098777363515398E-1
488 224 8.221773038370087E-3
488 383 6.67373265176309E-2
488 406 1.1247784851504186E-1
488 447 3.0275188091799982E-2
488 467 1.2884870017730568E-1
488 524 5.566908668810472E-2
489 43 5.545492773441651E-2
489 57 1.7074364634267744E-2
489 84 2.3765816650477223E-2
489 114 7.071312688277118E-2
489 123 1.831563888873418E-2
489 166 8.241368715470757E-2
489 196 1.2370851818977703E-1
489 358 1.3670873079931728E-1
489 372 1.0885593483618983E-1
489 508 1.6555141366861783E-2
489 510 2.5777165767467046E-2
490 60 1.8214735917660062E-2
490 64 1.7836874260025837E-2
490 69 1.9501765026865778E-2
490 98 1.7455858424234694E-1
490 126 3.7562448914661706E-2
490 129 1.5793219410873788E-1
490 183 1.831563888873418E-2
490 195 1.831563888873418E-2
490 203 3.3754610699648205E-2
490 223 1.831563888873418E-2
490 238 2.611282861858678E-2
490 395 1.9953501139067444E-2
490 505 3.493906309268274E-2
490 516 6.07224986584194E-2
491 43 1.831563888873418E-2
491 79 1.7589072635980394E-2
491 125 8.119809895768051E-2
491 196 6.620115983275211E-2
491 229 5.208758280717813E-2
491 356 1.342689537320098E-1
491 372 1.0101989179775758E-1
491 385 3.306942479773062E-1
491 419 5.735515299135915E-2
491 484 1.7597795145229442E-2
491 508 7.556435446038029E-2
491 510 3.770255064863959E-2
491 519 1.0195124746675342E-1
491 529 4.720065992735328E-2
492 24 6.335219303424737E-2
492 28 1.1838788445061124E-1
492 58 3.4896143955033085E-2
492 131 6.062513740214601E-2
492 239 1.4342231097428125E-2
492 256 3.1440098412880535E-2
492 267 4.979235612786047E-2
492 322 1.831563888873418E-2
492 324 5.060078914809528E-2
492 345 2.6198552635254543E-2
492 375 8.395734308805329E-2
492 426 7.34419206600044E-2
492 439 6.68532824943444E-2
492 441 1.0544375797297979E-1
492 448 3.866737468639875E-2
492 455 3.367917543110498E-2
492 502 4.561657112375836E-2
492 506 2.3043178107240776E-2
493 27 1.807254337585077E-2
493 38 4.589780394947567E-2
493 142 1.1376378819559776E-1
493 151 1.4646956648759916E-2
493 164 2.047137796217026E-2
493 228 1.4647030599984756E-1
493 232 1.7508005611941862E-2
493 282 2.1526802039871194E-2
493 294 8.149342587425118E-2
493 327 8.09829995006315E-2
493 336 6.684069961460176E-2
493 343 6.381214215892345E-2
493 384 1.831563888873418E-2
493 418 2.415208814980504E-2
493 423 3.1470934671380034E-2
493 433 2.5369782738362834E-1
493 464 1.6382074481444442E-1
493 471 1.9424437874515806E-2
493 523 6.402853184310459E-2
494 137 1.831563888873418E-2
494 213 5.3972578389071844E-2
494 275 1.811137661898382E-2
494 306 2.1901785732085892E-2
494 340 1.9361651370476036E-2
494 366 4.229574857439201E-2
494 380 3.6061462845867046E-2
494 415 1.1936295117280236E-1
494 456 3.922722447432085E-2
494 479 1.3885407185903528E-1
495 4 7.989760729167554E-2
495 9 1.9633150598975493E-2
495 26 8.903070609640718E-2
495 48 2.5728428316089628E-2
495 89 6.74891527057297E-2
495 93 2.832237656295685E-2
495 145 1.0914681153581163E-1
495 146 3.8529466164973034E-2
495 265 4.6694791218806264E-2
495 284 1.0010625813602764E-1
495 390 1.5034429887559677E-2
495 453 1.831563888873418E-2
495 513 1.1533987432139216E-1
495 522 2.4589886922520916E-2
496 2 1.831563888873418E-2
496 3 5.026402920123117E-2
496 67 6.178557850858724E-2
496 122 6.1244264869922724E-2
496 147 4.102607946884501E-2
496 280 7.03613910990923E-2
496 281 2.1109011704911543E-2
496 370 1.0324750946326763E-1
496 371 1.650997115795487E-2
496 382 1.4913239339213608E-1
496 398 1.0230069172236264E-1
496 451 1.3536510491886967E-3
497 17 3.470167872675086E-2
497 104 5.719012788673569E-2
497 114 3.754423845973634E-2
497 127 1.831563888873418E-2
497 150 7.154089056655197E-2
497 165 7.624677452198855E-2
497 206 1.6000451249789726E-2
497 312 3.723812307843156E-2
497 315 1.9747018260663513E-2
497 384 1.8527116975274587E-2
497 405 1.9175395623855777E-2
497 472 2.6973072543877274E-2
498 29 5.666918165461051E-2
498 207 4.99319183504989E-2
498 220 1.831563888873418E-2
498 222 1.3346766305723162E-1
498 242 1.8052099202744483E-2
498 257 8.0964531237253E-2
498 299 4.383046709531021E-2
498 345 2.9596892539492124E-2
498 374 3.7842725005340604E-2
498 400 1.831563888873418E-2
498 483 3.178376562602134E-2
499 53 1.2666634654721665E-1
499 63 1.633730641755718E-2
499 218 1.831563888873418E-2
499 262 1.8618319037524167E-1
499 297 1.7598940641628355E-2
499 310 1.425710860393497E-2
499 326 3.3756087947613145E-2
499 332 4.828229892290357E-2
499 334 2.056928134742169E-2
499 348 4.067286239103648E-1
499 388 3.412770028533136E-1
499 437 3.4040970518794615E-2
499 459 3.411491723245291E-1
499 518 1.3350049886776363E-1
500 31 5.684976231174618E-2
500 78 1.831563888873418E-2
500 102 3.771019315710856E-2
500 123 1.4829144659104843E-2
500 166 1.0279114909792533E-1
500 177 1.3683167651092086E-2
500 236 5.920323612747541E-2
500 290 1.852277294151863E-2
500 358 4.145197995119623E-2
500 378 1.604857357254843E-2
500 404 2.091356225744761E-2
500 462 8.300332536494127E-2
500 465 4.1379070143602634E-2
500 469 2.3834308954454434E-2
500 475 9.716625513171569E-2
501 113 5.397541268443533E-2
501 202 3.247704167227793E-2
501 234 1.741328046412145E-1
501 240 4.654963558610322E-2
501 257 1.831563888873418E-2
501 261 5.2377036171379045E-2
501 344 6.931300159951287E-2
501 413 2.9120520904503733E-2
501 454 1.728967944506394E-1
501 512 1.780367390569101E-1
501 516 1.4151155851747308E-2
501 521 7.494248016845394E-2
502 75 1.786340831234772E-2
502 135 2.2388504671828655E-2
502 158 1.6167871214333076E-2
502 239 1.831563888873418E-2
502 268 4.442442997428532E-2
502 277 1.9567005760628153E-2
502 319 6.207731110045822E-2
502 324 6.663762610915452E-2
502 448 4.761069395166148E-2
502 452 9.404584715110052E-2
502 492 4.561657112375836E-2
502 506 4.5569438575943366E-2
503 61 1.1486218577754655E-1
503 214 1.419299381590874E-1
503 241 4.5241225353281705E-2
503 263 2.1062924968979968E-1
503 270 5.910910773486509E-2
503 277 4.020619923648659E-2
503 291 3.0826771373587015E-2
503 369 1.837401397147818E-2
503 386 1.831563888873418E-2
503 389 2.1342437439592454E-1
503 410 1.2027652255101055E-2
503 447 2.9928059866396955E-1
503 531 1.756887701174633E-2
504 21 2.165530918726325E-2
504 33 1.831563888873418E-2
504 72 4.3878507456545465E-2
504 73 9.186621959642044E-2
504 105 1.831563888873418E-2
504 152 6.795779062424043E-2
504 160 3.142467208015464E-1
504 200 6.681056876006326E-2
504 258 2.5515045282211224E-1
504 283 1.831563888873418E-2
504 333 5.777715460526728E-2
504 367 2.1886206565468552E-2
504 391 1.916325963659606E-2
504 407 2.4759149753137588E-2
504 461 1.7109708612360952E-1
504 514 2.887363604419563E-1
504 515 1.26176711408562E-1
505 1 2.9063095127990435E-2
505 8 7.53374744091452E-2
505 60 2.6050322000721726E-1
505 64 4.365037104143642E-2
505 69 4.41597288950769E-2
505 98 1.1592345034976642E-1
505 111 6.288199200741927E-2
505 126 1.5716549959861034E-1
505 133 1.6070038943006494E-2
505 203 1.3980034086463972E-1
505 205 4.5044076650542816E-2
505 223 2.677820392478274E-2
505 238 7.000335834481193E-2
505 331 6.907478830680552E-2
505 395 1.0331394191432494E-1
505 396 1.9150243392832939E-1
505 490 3.493906309268274E-2
505 516 2.181434386672569E-2
505 525 5.302538589070635E-2
506 24 1.7802295890878977E-1
506 28 1.831563888873418E-2
506 36 1.7981850966511972E-2
506 58 1.59024273484252E-2
506 131 1.2742020810842986E-2
506 135 2.3548276180213636E-2
506 197 6.072637185892271E-2
506 239 5.701230584621396E-2
506 267 4.3415034117106524E-2
506 268 4.599293676253623E-2
506 270 3.4459103696374595E-2
506 277 5.579756311219242E-2
506 291 2.182209752424008E-2
506 319 1.467175382317044E-2
506 324 2.4688923877126245E-2
506 375 1.3818864402363759E-2
506 426 2.5904503882172178E-2
506 441 3.170878324418678E-2
506 448 2.1342341062647385E-2
506 452 6.389842438516292E-2
506 492 2.3043178107240776E-2
506 502 4.5569438575943366E-2
507 19 4.935275496598753E-2
507 22 2.4131340882359603E-2
507 99 4.246689262437729E-2
507 188 1.831563888873418E-2
507 209 1.693601337800928E-2
507 273 1.9731383544965575E-1
507 274 1.7704899976645472E-1
507 285 7.054072711273482E-2
507 293 5.370970289747423E-2
507 300 8.772042233212807E-2
507 321 1.8883009174147213E-2
507 387 1.2083770394021501E-1
507 425 1.831563888873418E-2
507 429 9.540326484510563E-2
507 445 3.1280411675254326E-2
507 446 1.0416358686552153E-1
507 466 2.0514330091326357E-2
508 43 1.831563888873418E-2
508 57 4.524161693207571E-2
508 78 1.360007017399056E-2
508 79 3.268582479104617E-2
508 125 2.4884761902319627E-2
508 196 4.712153482843285E-2
508 229 1.657200402305065E-2
508 356 3.2406880678412256E-2
508 372 8.923443242218443E-2
508 385 1.2573389460144505E-1
508 432 1.831563888873418E-2
508 484 2.3647565572008394E-2
508 489 1.6555141366861783E-2
508 491 7.556435446038029E-2
508 510 7.917927204798023E-2
508 519 1.5653364205183326E-1
508 529 1.1049127295821128E-1
509 14 3.680698588500073E-2
509 48 3.358846938360694E-2
509 80 2.160231927347788E-2
509 82 3.364173768737545E-2
509 119 2.9312563976087308E-2
509 329 2.5515180467936983E-2
509 390 1.4566139063834237E-2
509 394 2.4006123876025284E-2
509 427 1.831563888873418E-2
509 453 2.0113043209581665E-2
510 43 1.2069702070116893E-1
510 57 2.6823130150042973E-1
510 78 1.0132063252923448E-1
510 79 2.4625060643808823E-2
510 196 1.9606195551361907E-2
510 372 2.7582858814588832E-2
510 385 4.375414588339744E-2
510 419 1.831563888873418E-2
510 422 1.8843339810816047E-2
510 432 7.19542935110484E-2
510 484 7.533563438531564E-2
510 489 2.5777165767467046E-2
510 491 3.770255064863959E-2
510 508 7.917927204798023E-2
510 519 4.728484891902758E-2
510 529 1.9020898980182746E-1
511 13 1.2505808453172404E-1
511 50 7.625431527868168E-2
511 99 2.3910360978669692E-2
511 149 6.958957800142183E-2
511 182 5.292298107458776E-2
511 188 3.9718522595933045E-2
511 201 2.7817636168302604E-2
511 204 1.5823409720508802E-1
511 253 4.499815546075718E-2
511 269 3.7020746240148415E-2
511 316 1.258540852338855E-1
511 317 3.334666805920665E-2
511 341 1.8743397548076507E-1
511 368 1.315857139489201E-1
511 402 1.25532351003587E-2
511 443 2.2302984238895766E-2
511 460 1.3020926693694652E-2
511 463 5.530245051804376E-2
511 486 6.307845550273394E-2
511 527 7.904881813865171E-2
512 8 3.197730799723096E-2
512 64 3.596107439171036E-2
512 113 4.388283446287283E-2
512 202 3.99434880808286E-2
512 203 2.755272535780619E-2
512 234 3.0572824478578096E-2
512 257 3.231370657786905E-2
512 261 3.0673765926778652E-2
512 344 1.831563888873418E-2
512 396 1.7161311823117077E-2
512 413 2.0056019705534386E-2
512 454 6.481351037881364E-2
512 501 1.780367390569101E-1
512 516 1.498782899579819E-1
512 521 1.6850293876248704E-2
513 4 1.5845885972473117E-1
513 9 1.831563888873418E-2
513 12 3.6061401830994655E-2
513 26 1.0152773173321607E-1
513 48 8.667972846578421E-2
513 80 8.062323433293694E-3
513 82 2.7894199237499903E-2
513 89 1.9022039712074051E-1
513 93 4.164976731912458E-2
513 145 1.5857471600343445E-1
513 146 1.1283764233084448E-1
513 176 1.1953931876005875E-2
513 265 1.3637975405488062E-1
513 284 9.320030158459092E-2
513 329 2.4223329806476495E-2
513 377 1.7932774006087407E-2
513 390 9.78205316964664E-2
513 394 1.733836965777115E-2
513 453 7.628633971939974E-2
513 476 3.533606592132084E-2
513 495 1.1533987432139216E-1
513 522 2.5115193294799474E-2
514 72 4.4039755545591586E-2
514 73 2.2901568477718237E-1
514 152 7.314938086313237E-2
514 160 1.1867275262773941E-1
514 200 5.267107999783904E-2
514 217 4.2639075594334296E-2
514 225 2.2232031397153663E-2
514 246 3.5327773149074024E-2
514 258 3.071236527780344E-1
514 283 3.857487238872187E-2
514 391 2.565443418097712E-2
514 399 1.7348251783496558E-2
514 461 1.6353784963949036E-1
514 504 2.887363604419563E-1
514 515 1.4341157240797375E-1
515 33 2.1608112208559252E-2
515 72 1.0148279483577821E-1
515 73 6.969236160820748E-2
515 152 1.831563888873418E-2
515 160 1.939638680814859E-2
515 181 2.684978074196436E-2
515 186 3.0790459158434664E-2
515 200 2.003047702014767E-1
515 217 1.831563888873418E-2
515 258 8.527410719454694E-2
515 391 3.960912044039017E-2
515 399 3.255835897288128E-2
515 425 5.093649292077434E-2
515 461 4.5684584911294415E-2
515 504 1.26176711408562E-1
515 514 1.4341157240797375E-1
516 8 1.831563888873418E-2
516 64 9.177994524935462E-2
516 98 1.831563888873418E-2
516 126 4.013811380109451E-2
516 133 5.7203658950856516E-2
516 203 7.804588715779003E-2
516 220 2.6820808257007424E-2
516 222 5.1293009880526215E-2
516 238 1.566028271162657E-2
516 257 4.570833099819567E-2
516 396 2.591571009253349E-2
516 490 6.07224986584194E-2
516 501 1.4151155851747308E-2
516 505 2.181434386672569E-2
516 512 1.498782899579819E-1
516 525 2.0727900609960985E-2
517 54 1.464076701704797E-2
517 68 4.60640391251152E-2
517 144 1.831563888873418E-2
517 180 7.009160212990029E-2
517 210 2.1184934141098163E-2
517 235 5.032325072799351E-1
517 296 2.4606134970496157E-1
517 307 3.270785431572932E-2
517 364 1.782221987071371E-1
517 421 3.8278269452165226E-1
517 477 9.929642200436313E-2
517 487 1.3866613205118897E-1
518 53 2.4997993557005493E-2
518 262 4.122643554517206E-1
518 302 2.929633252957619E-2
518 304 3.442150506154776E-2
518 310 1.831563888873418E-2
518 326 3.1163459337033052E-2
518 332 1.1887918329423862E-2
518 348 1.2113335526163563E-1
518 388 4.2631069460019555E-1
518 459 6.07122648354979E-1
518 499 1.3350049886776363E-1
519 74 3.8165628872476876E-2
519 79 1.9423521668637853E-2
519 87 1.7894433782207557E-2
519 114 1.831563888873418E-2
519 196 6.552055655446964E-2
519 229 2.982461257818975E-2
519 356 1.8540179188997034E-2
519 372 1.443273776743348E-1
519 385 9.955585349455057E-2
519 491 1.0195124746675342E-1
519 508 1.5653364205183326E-1
519 510 4.728484891902758E-2
519 529 3.384680388853163E-2
520 46 1.0892118603305101E-1
520 108 1.98330545674084E-2
520 148 2.225671219930507E-2
520 171 1.048324934783301E-1
520 207 2.4671380844663894E-2
520 215 4.856065538275208E-2
520 220 1.6908502363420945E-2
520 233 4.0682127133974295E-2
520 244 3.94764495781049E-2
520 247 5.1861715824281604E-2
520 361 1.126063841235273E-1
520 376 1.831563888873418E-2
520 381 2.426814381716238E-2
520 392 2.1446002451688394E-2
520 400 5.569040018353907E-2
520 442 8.088681963210549E-2
521 202 1.831563888873418E-2
521 234 3.679674487741656E-2
521 240 1.8595215602558085E-1
521 257 5.138564422151666E-2
521 261 1.1850500669209542E-1
521 344 8.129398382083158E-2
521 413 4.980044993988231E-2
521 454 7.707825238572084E-2
521 483 5.633328824070285E-2
521 501 7.494248016845394E-2
521 512 1.6850293876248704E-2
522 4 3.1698684913407923E-2
522 26 1.9751502948893565E-2
522 89 1.831563888873418E-2
522 145 3.270594234997127E-2
522 146 1.754548833919385E-2
522 265 4.031361380604262E-2
522 284 6.2037362618568154E-2
522 377 2.7747899158757285E-2
522 482 1.119733770691439E-2
522 485 1.91415635095047E-2
522 495 2.4589886922520916E-2
522 513 2.5115193294799474E-2
523 27 5.355287554062476E-1
523 41 4.21726859043304E-2
523 49 4.897193271919582E-2
523 51 2.1793401155224736E-2
523 84 8.799212314404203E-2
523 95 7.718151058142625E-2
523 201 4.745829952286813E-2
523 228 1.8492188428291947E-2
523 294 1.0022208552271869E-1
523 327 4.8727247773614696E-1
523 402 1.831563888873418E-2
523 433 1.4217453664590787E-1
523 440 2.369237343347026E-2
523 443 5.301013468382064E-2
523 471 2.1301647027319192E-2
523 493 6.402853184310459E-2
524 25 1.9208466939706344E-2
524 34 1.5814757405320023E-1
524 130 1.9548184705096575E-2
524 137 2.8182522789054115E-2
524 175 1.831563888873418E-2
524 224 3.9255932110682686E-2
524 383 3.463471259558249E-2
524 447 4.787748097722201E-2
524 456 2.0776442888963312E-2
524 467 9.37338430932092E-2
524 479 2.1643224909304003E-2
524 480 2.0055535574050293E-1
524 488 5.566908668810472E-2
525 64 3.2524482462558506E-2
525 202 2.9754935526032644E-2
525 238 3.1787859852638806E-1
525 261 1.6709529593490244E-2
525 331 8.52857346161538E-2
525 396 3.938318523094944E-2
525 413 3.7086300178801844E-2
525 483 1.831563888873418E-2
525 505 5.302538589070635E-2
525 516 2.0727900609960985E-2
526 17 3.535631714835498E-2
526 31 2.0488098243613216E-2
526 104 7.219311893303867E-2
526 114 1.7500333320232136E-2
526 150 8.744977462126517E-2
526 165 7.48322811244738E-2
526 212 4.986833981408446E-2
526 315 1.831563888873418E-2
526 384 6.064089973649425E-2
526 458 1.9068524610412068E-2
527 13 3.235145896601679E-2
527 149 1.63570910923193E-2
527 182 1.831563888873418E-2
527 269 3.025533561477043E-2
527 316 2.621345283749167E-2
527 341 3.306787211907711E-2
527 368 2.13891985367664E-2
527 402 1.92815748760793E-2
527 463 3.1126289951077492E-2
527 511 7.904881813865171E-2
528 23 2.909037311606672E-2
528 39 1.831563888873418E-2
528 71 6.778261797668299E-2
528 76 3.0086974474725532E-2
528 86 7.123144114719954E-2
528 92 6.367397681565881E-2
528 116 1.492849221966362E-1
528 137 1.831563888873418E-2
528 154 8.843228007276138E-2
528 211 5.3505889732590545E-2
528 306 2.6431864630405488E-2
528 311 3.494854136218788E-1
528 430 7.764516772974965E-2
528 456 8.889758333919678E-2
528 479 2.467019866838104E-2
529 43 1.393932571550633E-1
529 57 1.1337124864631062E-1
529 78 2.2536556805156133E-1
529 125 2.7695019460599074E-2
529 196 1.8592821875282058E-2
529 356 1.8287849538717017E-2
529 372 1.6644218719736523E-2
529 378 1.831563888873418E-2
529 385 4.916677009609666E-2
529 404 5.305225921514014E-2
529 422 3.37794313779485E-2
529 432 1.2547610359069167E-1
529 484 1.7081966966380052E-1
529 491 4.720065992735328E-2
529 508 1.1049127295821128E-1
529 510 1.9020898980182746E-1
529 519 3.384680388853163E-2
530 55 4.2262881677378156E-2
530 107 2.123894742234411E-2
530 120 2.327419444602877E-1
530 189 1.7310333625458674E-1
530 199 5.413031585555534E-2
530 237 7.606312170891914E-2
530 243 1.794250583298897E-2
530 279 1.831563888873418E-2
530 287 2.5297973665082334E-2
530 298 2.1659382311892655E-2
530 354 1.3213170069744995E-1
530 357 2.6166321948664122E-2
530 424 1.9633267018977003E-2
531 61 1.2648813680666923E-1
531 70 2.161157511524395E-2
531 121 1.3834316030868168E-1
531 229 2.431520339582557E-2
531 241 1.831563888873418E-2
531 263 2.334178283963447E-2
531 360 2.3777884005034816E-1
531 389 3.26063459369346E-2
531 447 2.0494676226770935E-2
531 503 1.756887701174633E-2
