%%MatrixMarket matrix coordinate real symmetric
%
66 66 258
1 1 1
2 1 1
2 2 1
3 1 1
3 2 1
3 3 1
4 1 1
4 2 1
4 4 1
5 1 1
5 3 1
5 4 1
5 5 1
6 2 1
6 3 1
6 6 1
7 2 1
7 4 1
7 7 1
8 3 1
8 5 1
8 8 1
9 4 1
9 5 1
9 9 1
10 2 1
10 6 1
10 7 1
10 10 1
11 3 1
11 6 1
11 8 1
11 11 1
12 4 1
12 7 1
12 9 1
12 12 1
13 5 1
13 8 1
13 9 1
13 13 1
14 6 1
14 10 1
14 14 1
15 7 1
15 10 1
15 15 1
16 6 1
16 11 1
16 14 1
16 16 1
17 7 1
17 12 1
17 15 1
17 17 1
18 8 1
18 11 1
18 18 1
19 9 1
19 12 1
19 19 1
20 8 1
20 13 1
20 18 1
20 20 1
21 9 1
21 13 1
21 19 1
21 21 1
22 10 1
22 14 1
22 15 1
22 22 1
23 11 1
23 16 1
23 18 1
23 23 1
24 12 1
24 17 1
24 19 1
24 24 1
25 13 1
25 20 1
25 21 1
25 25 1
26 22 1
26 26 1
27 14 1
27 22 1
27 26 1
27 27 1
28 15 1
28 22 1
28 26 1
28 28 1
29 14 1
29 16 1
29 27 1
29 29 1
30 15 1
30 17 1
30 28 1
30 30 1
31 16 1
31 23 1
31 29 1
31 31 1
32 17 1
32 24 1
32 30 1
32 32 1
33 23 1
33 31 1
33 33 1
34 24 1
34 32 1
34 34 1
35 18 1
35 23 1
35 33 1
35 35 1
36 19 1
36 24 1
36 34 1
36 36 1
37 18 1
37 20 1
37 35 1
37 37 1
38 19 1
38 21 1
38 36 1
38 38 1
39 20 1
39 25 1
39 37 1
39 39 1
40 21 1
40 25 1
40 38 1
40 40 1
41 25 1
41 39 1
41 40 1
41 41 1
42 26 1
42 27 1
42 28 1
42 42 1
43 31 1
43 33 1
43 35 1
43 43 1
44 32 1
44 34 1
44 36 1
44 44 1
45 39 1
45 40 1
45 41 1
45 45 1
46 27 1
46 29 1
46 42 1
46 46 1
47 28 1
47 30 1
47 42 1
47 47 1
48 29 1
48 31 1
48 43 1
48 46 1
48 48 1
49 30 1
49 32 1
49 44 1
49 47 1
49 49 1
50 35 1
50 37 1
50 43 1
50 50 1
51 36 1
51 38 1
51 44 1
51 51 1
52 37 1
52 39 1
52 45 1
52 50 1
52 52 1
53 38 1
53 40 1
53 45 1
53 51 1
53 53 1
54 42 1
54 46 1
54 47 1
54 54 1
55 43 1
55 48 1
55 50 1
55 55 1
56 44 1
56 49 1
56 51 1
56 56 1
57 45 1
57 52 1
57 53 1
57 57 1
58 46 1
58 48 1
58 54 1
58 55 1
58 58 1
59 47 1
59 49 1
59 54 1
59 56 1
59 59 1
60 50 1
60 52 1
60 55 1
60 57 1
60 60 1
61 51 1
61 53 1
61 56 1
61 57 1
61 61 1
62 54 1
62 58 1
62 59 1
62 62 1
63 55 1
63 58 1
63 60 1
63 62 1
63 63 1
64 56 1
64 59 1
64 61 1
64 62 1
64 64 1
65 57 1
65 60 1
65 61 1
65 63 1
65 64 1
65 65 1
66 62 1
66 63 1
66 64 1
66 65 1
66 66 1
