%%MatrixMarket matrix coordinate real general
%
258 258 1794
1 1 1
1 2 1
1 3 1
1 4 1
1 5 1
2 1 1
2 2 1
2 3 1
2 4 1
2 6 1
2 7 1
2 10 1
3 1 1
3 2 1
3 3 1
3 5 1
3 6 1
3 8 1
3 11 1
4 1 1
4 2 1
4 4 1
4 5 1
4 7 1
4 9 1
4 12 1
5 1 1
5 3 1
5 4 1
5 5 1
5 8 1
5 9 1
5 13 1
6 2 1
6 3 1
6 6 1
6 10 1
6 11 1
6 14 1
6 16 1
7 2 1
7 4 1
7 7 1
7 10 1
7 12 1
7 15 1
7 17 1
8 3 1
8 5 1
8 8 1
8 11 1
8 13 1
8 18 1
8 20 1
9 4 1
9 5 1
9 9 1
9 12 1
9 13 1
9 19 1
9 21 1
10 2 1
10 6 1
10 7 1
10 10 1
10 14 1
10 15 1
10 22 1
11 3 1
11 6 1
11 8 1
11 11 1
11 16 1
11 18 1
11 23 1
12 4 1
12 7 1
12 9 1
12 12 1
12 17 1
12 19 1
12 24 1
13 5 1
13 8 1
13 9 1
13 13 1
13 20 1
13 21 1
13 25 1
14 6 1
14 10 1
14 14 1
14 16 1
14 22 1
14 26 1
14 30 1
15 7 1
15 10 1
15 15 1
15 17 1
15 22 1
15 27 1
15 31 1
16 6 1
16 11 1
16 14 1
16 16 1
16 23 1
16 26 1
16 32 1
17 7 1
17 12 1
17 15 1
17 17 1
17 24 1
17 27 1
17 33 1
18 8 1
18 11 1
18 18 1
18 20 1
18 23 1
18 28 1
18 34 1
19 9 1
19 12 1
19 19 1
19 21 1
19 24 1
19 29 1
19 35 1
20 8 1
20 13 1
20 18 1
20 20 1
20 25 1
20 28 1
20 36 1
21 9 1
21 13 1
21 19 1
21 21 1
21 25 1
21 29 1
21 37 1
22 10 1
22 14 1
22 15 1
22 22 1
22 30 1
22 31 1
22 38 1
23 11 1
23 16 1
23 18 1
23 23 1
23 32 1
23 34 1
23 39 1
24 12 1
24 17 1
24 19 1
24 24 1
24 33 1
24 35 1
24 40 1
25 13 1
25 20 1
25 21 1
25 25 1
25 36 1
25 37 1
25 41 1
26 14 1
26 16 1
26 26 1
26 30 1
26 32 1
26 42 1
26 44 1
27 15 1
27 17 1
27 27 1
27 31 1
27 33 1
27 43 1
27 45 1
28 18 1
28 20 1
28 28 1
28 34 1
28 36 1
28 46 1
28 48 1
29 19 1
29 21 1
29 29 1
29 35 1
29 37 1
29 47 1
29 49 1
30 14 1
30 22 1
30 26 1
30 30 1
30 38 1
30 42 1
30 50 1
31 15 1
31 22 1
31 27 1
31 31 1
31 38 1
31 43 1
31 51 1
32 16 1
32 23 1
32 26 1
32 32 1
32 39 1
32 44 1
32 52 1
33 17 1
33 24 1
33 27 1
33 33 1
33 40 1
33 45 1
33 53 1
34 18 1
34 23 1
34 28 1
34 34 1
34 39 1
34 46 1
34 54 1
35 19 1
35 24 1
35 29 1
35 35 1
35 40 1
35 47 1
35 55 1
36 20 1
36 25 1
36 28 1
36 36 1
36 41 1
36 48 1
36 56 1
37 21 1
37 25 1
37 29 1
37 37 1
37 41 1
37 49 1
37 57 1
38 22 1
38 30 1
38 31 1
38 38 1
38 50 1
38 51 1
38 58 1
39 23 1
39 32 1
39 34 1
39 39 1
39 52 1
39 54 1
39 59 1
40 24 1
40 33 1
40 35 1
40 40 1
40 53 1
40 55 1
40 60 1
41 25 1
41 36 1
41 37 1
41 41 1
41 56 1
41 57 1
41 61 1
42 26 1
42 30 1
42 42 1
42 44 1
42 50 1
42 62 1
42 66 1
43 27 1
43 31 1
43 43 1
43 45 1
43 51 1
43 63 1
43 67 1
44 26 1
44 32 1
44 42 1
44 44 1
44 52 1
44 62 1
44 68 1
45 27 1
45 33 1
45 43 1
45 45 1
45 53 1
45 63 1
45 69 1
46 28 1
46 34 1
46 46 1
46 48 1
46 54 1
46 64 1
46 70 1
47 29 1
47 35 1
47 47 1
47 49 1
47 55 1
47 65 1
47 71 1
48 28 1
48 36 1
48 46 1
48 48 1
48 56 1
48 64 1
48 72 1
49 29 1
49 37 1
49 47 1
49 49 1
49 57 1
49 65 1
49 73 1
50 30 1
50 38 1
50 42 1
50 50 1
50 58 1
50 66 1
50 74 1
51 31 1
51 38 1
51 43 1
51 51 1
51 58 1
51 67 1
51 75 1
52 32 1
52 39 1
52 44 1
52 52 1
52 59 1
52 68 1
52 76 1
53 33 1
53 40 1
53 45 1
53 53 1
53 60 1
53 69 1
53 77 1
54 34 1
54 39 1
54 46 1
54 54 1
54 59 1
54 70 1
54 78 1
55 35 1
55 40 1
55 47 1
55 55 1
55 60 1
55 71 1
55 79 1
56 36 1
56 41 1
56 48 1
56 56 1
56 61 1
56 72 1
56 80 1
57 37 1
57 41 1
57 49 1
57 57 1
57 61 1
57 73 1
57 81 1
58 38 1
58 50 1
58 51 1
58 58 1
58 74 1
58 75 1
58 82 1
59 39 1
59 52 1
59 54 1
59 59 1
59 76 1
59 78 1
59 83 1
60 40 1
60 53 1
60 55 1
60 60 1
60 77 1
60 79 1
60 84 1
61 41 1
61 56 1
61 57 1
61 61 1
61 80 1
61 81 1
61 85 1
62 42 1
62 44 1
62 62 1
62 66 1
62 68 1
62 86 1
62 88 1
63 43 1
63 45 1
63 63 1
63 67 1
63 69 1
63 87 1
63 89 1
64 46 1
64 48 1
64 64 1
64 70 1
64 72 1
64 90 1
64 92 1
65 47 1
65 49 1
65 65 1
65 71 1
65 73 1
65 91 1
65 93 1
66 42 1
66 50 1
66 62 1
66 66 1
66 74 1
66 86 1
66 94 1
67 43 1
67 51 1
67 63 1
67 67 1
67 75 1
67 87 1
67 95 1
68 44 1
68 52 1
68 62 1
68 68 1
68 76 1
68 88 1
68 96 1
69 45 1
69 53 1
69 63 1
69 69 1
69 77 1
69 89 1
69 97 1
70 46 1
70 54 1
70 64 1
70 70 1
70 78 1
70 90 1
70 98 1
71 47 1
71 55 1
71 65 1
71 71 1
71 79 1
71 91 1
71 99 1
72 48 1
72 56 1
72 64 1
72 72 1
72 80 1
72 92 1
72 100 1
73 49 1
73 57 1
73 65 1
73 73 1
73 81 1
73 93 1
73 101 1
74 50 1
74 58 1
74 66 1
74 74 1
74 82 1
74 94 1
74 102 1
75 51 1
75 58 1
75 67 1
75 75 1
75 82 1
75 95 1
75 103 1
76 52 1
76 59 1
76 68 1
76 76 1
76 83 1
76 96 1
76 104 1
77 53 1
77 60 1
77 69 1
77 77 1
77 84 1
77 97 1
77 105 1
78 54 1
78 59 1
78 70 1
78 78 1
78 83 1
78 98 1
78 106 1
79 55 1
79 60 1
79 71 1
79 79 1
79 84 1
79 99 1
79 107 1
80 56 1
80 61 1
80 72 1
80 80 1
80 85 1
80 100 1
80 108 1
81 57 1
81 61 1
81 73 1
81 81 1
81 85 1
81 101 1
81 109 1
82 58 1
82 74 1
82 75 1
82 82 1
82 102 1
82 103 1
82 110 1
83 59 1
83 76 1
83 78 1
83 83 1
83 104 1
83 106 1
83 111 1
84 60 1
84 77 1
84 79 1
84 84 1
84 105 1
84 107 1
84 112 1
85 61 1
85 80 1
85 81 1
85 85 1
85 108 1
85 109 1
85 113 1
86 62 1
86 66 1
86 86 1
86 88 1
86 94 1
86 119 1
86 121 1
87 63 1
87 67 1
87 87 1
87 89 1
87 95 1
87 120 1
87 122 1
88 62 1
88 68 1
88 86 1
88 88 1
88 96 1
88 121 1
88 123 1
89 63 1
89 69 1
89 87 1
89 89 1
89 97 1
89 122 1
89 124 1
90 64 1
90 70 1
90 90 1
90 92 1
90 98 1
90 135 1
90 137 1
91 65 1
91 71 1
91 91 1
91 93 1
91 99 1
91 136 1
91 138 1
92 64 1
92 72 1
92 90 1
92 92 1
92 100 1
92 137 1
92 139 1
93 65 1
93 73 1
93 91 1
93 93 1
93 101 1
93 138 1
93 140 1
94 66 1
94 74 1
94 86 1
94 94 1
94 102 1
94 117 1
94 119 1
95 67 1
95 75 1
95 87 1
95 95 1
95 103 1
95 118 1
95 120 1
96 68 1
96 76 1
96 88 1
96 96 1
96 104 1
96 123 1
96 125 1
97 69 1
97 77 1
97 89 1
97 97 1
97 105 1
97 124 1
97 126 1
98 70 1
98 78 1
98 90 1
98 98 1
98 106 1
98 133 1
98 135 1
99 71 1
99 79 1
99 91 1
99 99 1
99 107 1
99 134 1
99 136 1
100 72 1
100 80 1
100 92 1
100 100 1
100 108 1
100 139 1
100 141 1
101 73 1
101 81 1
101 93 1
101 101 1
101 109 1
101 140 1
101 142 1
102 74 1
102 82 1
102 94 1
102 102 1
102 110 1
102 115 1
102 117 1
103 75 1
103 82 1
103 95 1
103 103 1
103 110 1
103 116 1
103 118 1
104 76 1
104 83 1
104 96 1
104 104 1
104 111 1
104 125 1
104 127 1
105 77 1
105 84 1
105 97 1
105 105 1
105 112 1
105 126 1
105 128 1
106 78 1
106 83 1
106 98 1
106 106 1
106 111 1
106 131 1
106 133 1
107 79 1
107 84 1
107 99 1
107 107 1
107 112 1
107 132 1
107 134 1
108 80 1
108 85 1
108 100 1
108 108 1
108 113 1
108 141 1
108 143 1
109 81 1
109 85 1
109 101 1
109 109 1
109 113 1
109 142 1
109 144 1
110 82 1
110 102 1
110 103 1
110 110 1
110 114 1
110 115 1
110 116 1
111 83 1
111 104 1
111 106 1
111 111 1
111 127 1
111 129 1
111 131 1
112 84 1
112 105 1
112 107 1
112 112 1
112 128 1
112 130 1
112 132 1
113 85 1
113 108 1
113 109 1
113 113 1
113 143 1
113 144 1
113 145 1
114 110 1
114 114 1
114 115 1
114 116 1
114 146 1
115 102 1
115 110 1
115 114 1
115 115 1
115 117 1
115 146 1
115 150 1
116 103 1
116 110 1
116 114 1
116 116 1
116 118 1
116 146 1
116 151 1
117 94 1
117 102 1
117 115 1
117 117 1
117 119 1
117 150 1
117 158 1
118 95 1
118 103 1
118 116 1
118 118 1
118 120 1
118 151 1
118 159 1
119 86 1
119 94 1
119 117 1
119 119 1
119 121 1
119 158 1
119 166 1
120 87 1
120 95 1
120 118 1
120 120 1
120 122 1
120 159 1
120 167 1
121 86 1
121 88 1
121 119 1
121 121 1
121 123 1
121 166 1
121 168 1
122 87 1
122 89 1
122 120 1
122 122 1
122 124 1
122 167 1
122 169 1
123 88 1
123 96 1
123 121 1
123 123 1
123 125 1
123 160 1
123 168 1
124 89 1
124 97 1
124 122 1
124 124 1
124 126 1
124 161 1
124 169 1
125 96 1
125 104 1
125 123 1
125 125 1
125 127 1
125 152 1
125 160 1
126 97 1
126 105 1
126 124 1
126 126 1
126 128 1
126 153 1
126 161 1
127 104 1
127 111 1
127 125 1
127 127 1
127 129 1
127 147 1
127 152 1
128 105 1
128 112 1
128 126 1
128 128 1
128 130 1
128 148 1
128 153 1
129 111 1
129 127 1
129 129 1
129 131 1
129 147 1
130 112 1
130 128 1
130 130 1
130 132 1
130 148 1
131 106 1
131 111 1
131 129 1
131 131 1
131 133 1
131 147 1
131 154 1
132 107 1
132 112 1
132 130 1
132 132 1
132 134 1
132 148 1
132 155 1
133 98 1
133 106 1
133 131 1
133 133 1
133 135 1
133 154 1
133 162 1
134 99 1
134 107 1
134 132 1
134 134 1
134 136 1
134 155 1
134 163 1
135 90 1
135 98 1
135 133 1
135 135 1
135 137 1
135 162 1
135 170 1
136 91 1
136 99 1
136 134 1
136 136 1
136 138 1
136 163 1
136 171 1
137 90 1
137 92 1
137 135 1
137 137 1
137 139 1
137 170 1
137 172 1
138 91 1
138 93 1
138 136 1
138 138 1
138 140 1
138 171 1
138 173 1
139 92 1
139 100 1
139 137 1
139 139 1
139 141 1
139 164 1
139 172 1
140 93 1
140 101 1
140 138 1
140 140 1
140 142 1
140 165 1
140 173 1
141 100 1
141 108 1
141 139 1
141 141 1
141 143 1
141 156 1
141 164 1
142 101 1
142 109 1
142 140 1
142 142 1
142 144 1
142 157 1
142 165 1
143 108 1
143 113 1
143 141 1
143 143 1
143 145 1
143 149 1
143 156 1
144 109 1
144 113 1
144 142 1
144 144 1
144 145 1
144 149 1
144 157 1
145 113 1
145 143 1
145 144 1
145 145 1
145 149 1
146 114 1
146 115 1
146 116 1
146 146 1
146 150 1
146 151 1
146 174 1
147 127 1
147 129 1
147 131 1
147 147 1
147 152 1
147 154 1
147 175 1
148 128 1
148 130 1
148 132 1
148 148 1
148 153 1
148 155 1
148 176 1
149 143 1
149 144 1
149 145 1
149 149 1
149 156 1
149 157 1
149 177 1
150 115 1
150 117 1
150 146 1
150 150 1
150 158 1
150 174 1
150 178 1
151 116 1
151 118 1
151 146 1
151 151 1
151 159 1
151 174 1
151 179 1
152 125 1
152 127 1
152 147 1
152 152 1
152 160 1
152 175 1
152 180 1
153 126 1
153 128 1
153 148 1
153 153 1
153 161 1
153 176 1
153 181 1
154 131 1
154 133 1
154 147 1
154 154 1
154 162 1
154 175 1
154 182 1
155 132 1
155 134 1
155 148 1
155 155 1
155 163 1
155 176 1
155 183 1
156 141 1
156 143 1
156 149 1
156 156 1
156 164 1
156 177 1
156 184 1
157 142 1
157 144 1
157 149 1
157 157 1
157 165 1
157 177 1
157 185 1
158 117 1
158 119 1
158 150 1
158 158 1
158 166 1
158 178 1
158 186 1
159 118 1
159 120 1
159 151 1
159 159 1
159 167 1
159 179 1
159 187 1
160 123 1
160 125 1
160 152 1
160 160 1
160 168 1
160 180 1
160 188 1
161 124 1
161 126 1
161 153 1
161 161 1
161 169 1
161 181 1
161 189 1
162 133 1
162 135 1
162 154 1
162 162 1
162 170 1
162 182 1
162 190 1
163 134 1
163 136 1
163 155 1
163 163 1
163 171 1
163 183 1
163 191 1
164 139 1
164 141 1
164 156 1
164 164 1
164 172 1
164 184 1
164 192 1
165 140 1
165 142 1
165 157 1
165 165 1
165 173 1
165 185 1
165 193 1
166 119 1
166 121 1
166 158 1
166 166 1
166 168 1
166 186 1
166 194 1
167 120 1
167 122 1
167 159 1
167 167 1
167 169 1
167 187 1
167 195 1
168 121 1
168 123 1
168 160 1
168 166 1
168 168 1
168 188 1
168 194 1
169 122 1
169 124 1
169 161 1
169 167 1
169 169 1
169 189 1
169 195 1
170 135 1
170 137 1
170 162 1
170 170 1
170 172 1
170 190 1
170 196 1
171 136 1
171 138 1
171 163 1
171 171 1
171 173 1
171 191 1
171 197 1
172 137 1
172 139 1
172 164 1
172 170 1
172 172 1
172 192 1
172 196 1
173 138 1
173 140 1
173 165 1
173 171 1
173 173 1
173 193 1
173 197 1
174 146 1
174 150 1
174 151 1
174 174 1
174 178 1
174 179 1
174 198 1
175 147 1
175 152 1
175 154 1
175 175 1
175 180 1
175 182 1
175 199 1
176 148 1
176 153 1
176 155 1
176 176 1
176 181 1
176 183 1
176 200 1
177 149 1
177 156 1
177 157 1
177 177 1
177 184 1
177 185 1
177 201 1
178 150 1
178 158 1
178 174 1
178 178 1
178 186 1
178 198 1
178 202 1
179 151 1
179 159 1
179 174 1
179 179 1
179 187 1
179 198 1
179 203 1
180 152 1
180 160 1
180 175 1
180 180 1
180 188 1
180 199 1
180 204 1
181 153 1
181 161 1
181 176 1
181 181 1
181 189 1
181 200 1
181 205 1
182 154 1
182 162 1
182 175 1
182 182 1
182 190 1
182 199 1
182 206 1
183 155 1
183 163 1
183 176 1
183 183 1
183 191 1
183 200 1
183 207 1
184 156 1
184 164 1
184 177 1
184 184 1
184 192 1
184 201 1
184 208 1
185 157 1
185 165 1
185 177 1
185 185 1
185 193 1
185 201 1
185 209 1
186 158 1
186 166 1
186 178 1
186 186 1
186 194 1
186 202 1
186 210 1
187 159 1
187 167 1
187 179 1
187 187 1
187 195 1
187 203 1
187 211 1
188 160 1
188 168 1
188 180 1
188 188 1
188 194 1
188 204 1
188 212 1
189 161 1
189 169 1
189 181 1
189 189 1
189 195 1
189 205 1
189 213 1
190 162 1
190 170 1
190 182 1
190 190 1
190 196 1
190 206 1
190 214 1
191 163 1
191 171 1
191 183 1
191 191 1
191 197 1
191 207 1
191 215 1
192 164 1
192 172 1
192 184 1
192 192 1
192 196 1
192 208 1
192 216 1
193 165 1
193 173 1
193 185 1
193 193 1
193 197 1
193 209 1
193 217 1
194 166 1
194 168 1
194 186 1
194 188 1
194 194 1
194 210 1
194 212 1
195 167 1
195 169 1
195 187 1
195 189 1
195 195 1
195 211 1
195 213 1
196 170 1
196 172 1
196 190 1
196 192 1
196 196 1
196 214 1
196 216 1
197 171 1
197 173 1
197 191 1
197 193 1
197 197 1
197 215 1
197 217 1
198 174 1
198 178 1
198 179 1
198 198 1
198 202 1
198 203 1
198 218 1
199 175 1
199 180 1
199 182 1
199 199 1
199 204 1
199 206 1
199 219 1
200 176 1
200 181 1
200 183 1
200 200 1
200 205 1
200 207 1
200 220 1
201 177 1
201 184 1
201 185 1
201 201 1
201 208 1
201 209 1
201 221 1
202 178 1
202 186 1
202 198 1
202 202 1
202 210 1
202 218 1
202 222 1
203 179 1
203 187 1
203 198 1
203 203 1
203 211 1
203 218 1
203 223 1
204 180 1
204 188 1
204 199 1
204 204 1
204 212 1
204 219 1
204 224 1
205 181 1
205 189 1
205 200 1
205 205 1
205 213 1
205 220 1
205 225 1
206 182 1
206 190 1
206 199 1
206 206 1
206 214 1
206 219 1
206 226 1
207 183 1
207 191 1
207 200 1
207 207 1
207 215 1
207 220 1
207 227 1
208 184 1
208 192 1
208 201 1
208 208 1
208 216 1
208 221 1
208 228 1
209 185 1
209 193 1
209 201 1
209 209 1
209 217 1
209 221 1
209 229 1
210 186 1
210 194 1
210 202 1
210 210 1
210 212 1
210 222 1
210 230 1
211 187 1
211 195 1
211 203 1
211 211 1
211 213 1
211 223 1
211 231 1
212 188 1
212 194 1
212 204 1
212 210 1
212 212 1
212 224 1
212 230 1
213 189 1
213 195 1
213 205 1
213 211 1
213 213 1
213 225 1
213 231 1
214 190 1
214 196 1
214 206 1
214 214 1
214 216 1
214 226 1
214 232 1
215 191 1
215 197 1
215 207 1
215 215 1
215 217 1
215 227 1
215 233 1
216 192 1
216 196 1
216 208 1
216 214 1
216 216 1
216 228 1
216 232 1
217 193 1
217 197 1
217 209 1
217 215 1
217 217 1
217 229 1
217 233 1
218 198 1
218 202 1
218 203 1
218 218 1
218 222 1
218 223 1
218 234 1
219 199 1
219 204 1
219 206 1
219 219 1
219 224 1
219 226 1
219 235 1
220 200 1
220 205 1
220 207 1
220 220 1
220 225 1
220 227 1
220 236 1
221 201 1
221 208 1
221 209 1
221 221 1
221 228 1
221 229 1
221 237 1
222 202 1
222 210 1
222 218 1
222 222 1
222 230 1
222 234 1
222 238 1
223 203 1
223 211 1
223 218 1
223 223 1
223 231 1
223 234 1
223 239 1
224 204 1
224 212 1
224 219 1
224 224 1
224 230 1
224 235 1
224 240 1
225 205 1
225 213 1
225 220 1
225 225 1
225 231 1
225 236 1
225 241 1
226 206 1
226 214 1
226 219 1
226 226 1
226 232 1
226 235 1
226 242 1
227 207 1
227 215 1
227 220 1
227 227 1
227 233 1
227 236 1
227 243 1
228 208 1
228 216 1
228 221 1
228 228 1
228 232 1
228 237 1
228 244 1
229 209 1
229 217 1
229 221 1
229 229 1
229 233 1
229 237 1
229 245 1
230 210 1
230 212 1
230 222 1
230 224 1
230 230 1
230 238 1
230 240 1
231 211 1
231 213 1
231 223 1
231 225 1
231 231 1
231 239 1
231 241 1
232 214 1
232 216 1
232 226 1
232 228 1
232 232 1
232 242 1
232 244 1
233 215 1
233 217 1
233 227 1
233 229 1
233 233 1
233 243 1
233 245 1
234 218 1
234 222 1
234 223 1
234 234 1
234 238 1
234 239 1
234 246 1
235 219 1
235 224 1
235 226 1
235 235 1
235 240 1
235 242 1
235 247 1
236 220 1
236 225 1
236 227 1
236 236 1
236 241 1
236 243 1
236 248 1
237 221 1
237 228 1
237 229 1
237 237 1
237 244 1
237 245 1
237 249 1
238 222 1
238 230 1
238 234 1
238 238 1
238 240 1
238 246 1
238 250 1
239 223 1
239 231 1
239 234 1
239 239 1
239 241 1
239 246 1
239 251 1
240 224 1
240 230 1
240 235 1
240 238 1
240 240 1
240 247 1
240 250 1
241 225 1
241 231 1
241 236 1
241 239 1
241 241 1
241 248 1
241 251 1
242 226 1
242 232 1
242 235 1
242 242 1
242 244 1
242 247 1
242 252 1
243 227 1
243 233 1
243 236 1
243 243 1
243 245 1
243 248 1
243 253 1
244 228 1
244 232 1
244 237 1
244 242 1
244 244 1
244 249 1
244 252 1
245 229 1
245 233 1
245 237 1
245 243 1
245 245 1
245 249 1
245 253 1
246 234 1
246 238 1
246 239 1
246 246 1
246 250 1
246 251 1
246 254 1
247 235 1
247 240 1
247 242 1
247 247 1
247 250 1
247 252 1
247 255 1
248 236 1
248 241 1
248 243 1
248 248 1
248 251 1
248 253 1
248 256 1
249 237 1
249 244 1
249 245 1
249 249 1
249 252 1
249 253 1
249 257 1
250 238 1
250 240 1
250 246 1
250 247 1
250 250 1
250 254 1
250 255 1
251 239 1
251 241 1
251 246 1
251 248 1
251 251 1
251 254 1
251 256 1
252 242 1
252 244 1
252 247 1
252 249 1
252 252 1
252 255 1
252 257 1
253 243 1
253 245 1
253 248 1
253 249 1
253 253 1
253 256 1
253 257 1
254 246 1
254 250 1
254 251 1
254 254 1
254 255 1
254 256 1
254 258 1
255 247 1
255 250 1
255 252 1
255 254 1
255 255 1
255 257 1
255 258 1
256 248 1
256 251 1
256 253 1
256 254 1
256 256 1
256 257 1
256 258 1
257 249 1
257 252 1
257 253 1
257 255 1
257 256 1
257 257 1
257 258 1
258 254 1
258 255 1
258 256 1
258 257 1
258 258 1
