%%MatrixMarket matrix coordinate real general
%
300 300 4678
1 1 2
1 2 1
1 3 1
1 5 1
1 9 1
1 17 1
1 33 1
1 65 1
1 129 1
1 257 1
2 1 1
2 2 3
2 3 1
2 4 1
2 6 1
2 10 1
2 18 1
2 34 1
2 66 1
2 130 1
2 258 1
3 1 1
3 2 1
3 3 5
3 4 1
3 5 1
3 7 1
3 11 1
3 19 1
3 35 1
3 67 1
3 131 1
3 259 1
4 2 1
4 3 1
4 4 7
4 5 1
4 6 1
4 8 1
4 12 1
4 20 1
4 36 1
4 68 1
4 132 1
4 260 1
5 1 1
5 3 1
5 4 1
5 5 1.1E1
5 6 1
5 7 1
5 9 1
5 13 1
5 21 1
5 37 1
5 69 1
5 133 1
5 261 1
6 2 1
6 4 1
6 5 1
6 6 1.3E1
6 7 1
6 8 1
6 10 1
6 14 1
6 22 1
6 38 1
6 70 1
6 134 1
6 262 1
7 3 1
7 5 1
7 6 1
7 7 1.7E1
7 8 1
7 9 1
7 11 1
7 15 1
7 23 1
7 39 1
7 71 1
7 135 1
7 263 1
8 4 1
8 6 1
8 7 1
8 8 1.9E1
8 9 1
8 10 1
8 12 1
8 16 1
8 24 1
8 40 1
8 72 1
8 136 1
8 264 1
9 1 1
9 5 1
9 7 1
9 8 1
9 9 2.3E1
9 10 1
9 11 1
9 13 1
9 17 1
9 25 1
9 41 1
9 73 1
9 137 1
9 265 1
10 2 1
10 6 1
10 8 1
10 9 1
10 10 2.9E1
10 11 1
10 12 1
10 14 1
10 18 1
10 26 1
10 42 1
10 74 1
10 138 1
10 266 1
11 3 1
11 7 1
11 9 1
11 10 1
11 11 3.1E1
11 12 1
11 13 1
11 15 1
11 19 1
11 27 1
11 43 1
11 75 1
11 139 1
11 267 1
12 4 1
12 8 1
12 10 1
12 11 1
12 12 3.7E1
12 13 1
12 14 1
12 16 1
12 20 1
12 28 1
12 44 1
12 76 1
12 140 1
12 268 1
13 5 1
13 9 1
13 11 1
13 12 1
13 13 4.1E1
13 14 1
13 15 1
13 17 1
13 21 1
13 29 1
13 45 1
13 77 1
13 141 1
13 269 1
14 6 1
14 10 1
14 12 1
14 13 1
14 14 4.3E1
14 15 1
14 16 1
14 18 1
14 22 1
14 30 1
14 46 1
14 78 1
14 142 1
14 270 1
15 7 1
15 11 1
15 13 1
15 14 1
15 15 4.7E1
15 16 1
15 17 1
15 19 1
15 23 1
15 31 1
15 47 1
15 79 1
15 143 1
15 271 1
16 8 1
16 12 1
16 14 1
16 15 1
16 16 5.3E1
16 17 1
16 18 1
16 20 1
16 24 1
16 32 1
16 48 1
16 80 1
16 144 1
16 272 1
17 1 1
17 9 1
17 13 1
17 15 1
17 16 1
17 17 5.9E1
17 18 1
17 19 1
17 21 1
17 25 1
17 33 1
17 49 1
17 81 1
17 145 1
17 273 1
18 2 1
18 10 1
18 14 1
18 16 1
18 17 1
18 18 6.1E1
18 19 1
18 20 1
18 22 1
18 26 1
18 34 1
18 50 1
18 82 1
18 146 1
18 274 1
19 3 1
19 11 1
19 15 1
19 17 1
19 18 1
19 19 6.7E1
19 20 1
19 21 1
19 23 1
19 27 1
19 35 1
19 51 1
19 83 1
19 147 1
19 275 1
20 4 1
20 12 1
20 16 1
20 18 1
20 19 1
20 20 7.1E1
20 21 1
20 22 1
20 24 1
20 28 1
20 36 1
20 52 1
20 84 1
20 148 1
20 276 1
21 5 1
21 13 1
21 17 1
21 19 1
21 20 1
21 21 7.3E1
21 22 1
21 23 1
21 25 1
21 29 1
21 37 1
21 53 1
21 85 1
21 149 1
21 277 1
22 6 1
22 14 1
22 18 1
22 20 1
22 21 1
22 22 7.9E1
22 23 1
22 24 1
22 26 1
22 30 1
22 38 1
22 54 1
22 86 1
22 150 1
22 278 1
23 7 1
23 15 1
23 19 1
23 21 1
23 22 1
23 23 8.3E1
23 24 1
23 25 1
23 27 1
23 31 1
23 39 1
23 55 1
23 87 1
23 151 1
23 279 1
24 8 1
24 16 1
24 20 1
24 22 1
24 23 1
24 24 8.9E1
24 25 1
24 26 1
24 28 1
24 32 1
24 40 1
24 56 1
24 88 1
24 152 1
24 280 1
25 9 1
25 17 1
25 21 1
25 23 1
25 24 1
25 25 9.7E1
25 26 1
25 27 1
25 29 1
25 33 1
25 41 1
25 57 1
25 89 1
25 153 1
25 281 1
26 10 1
26 18 1
26 22 1
26 24 1
26 25 1
26 26 1.01E2
26 27 1
26 28 1
26 30 1
26 34 1
26 42 1
26 58 1
26 90 1
26 154 1
26 282 1
27 11 1
27 19 1
27 23 1
27 25 1
27 26 1
27 27 1.03E2
27 28 1
27 29 1
27 31 1
27 35 1
27 43 1
27 59 1
27 91 1
27 155 1
27 283 1
28 12 1
28 20 1
28 24 1
28 26 1
28 27 1
28 28 1.07E2
28 29 1
28 30 1
28 32 1
28 36 1
28 44 1
28 60 1
28 92 1
28 156 1
28 284 1
29 13 1
29 21 1
29 25 1
29 27 1
29 28 1
29 29 1.09E2
29 30 1
29 31 1
29 33 1
29 37 1
29 45 1
29 61 1
29 93 1
29 157 1
29 285 1
30 14 1
30 22 1
30 26 1
30 28 1
30 29 1
30 30 1.13E2
30 31 1
30 32 1
30 34 1
30 38 1
30 46 1
30 62 1
30 94 1
30 158 1
30 286 1
31 15 1
31 23 1
31 27 1
31 29 1
31 30 1
31 31 1.27E2
31 32 1
31 33 1
31 35 1
31 39 1
31 47 1
31 63 1
31 95 1
31 159 1
31 287 1
32 16 1
32 24 1
32 28 1
32 30 1
32 31 1
32 32 1.31E2
32 33 1
32 34 1
32 36 1
32 40 1
32 48 1
32 64 1
32 96 1
32 160 1
32 288 1
33 1 1
33 17 1
33 25 1
33 29 1
33 31 1
33 32 1
33 33 1.37E2
33 34 1
33 35 1
33 37 1
33 41 1
33 49 1
33 65 1
33 97 1
33 161 1
33 289 1
34 2 1
34 18 1
34 26 1
34 30 1
34 32 1
34 33 1
34 34 1.39E2
34 35 1
34 36 1
34 38 1
34 42 1
34 50 1
34 66 1
34 98 1
34 162 1
34 290 1
35 3 1
35 19 1
35 27 1
35 31 1
35 33 1
35 34 1
35 35 1.49E2
35 36 1
35 37 1
35 39 1
35 43 1
35 51 1
35 67 1
35 99 1
35 163 1
35 291 1
36 4 1
36 20 1
36 28 1
36 32 1
36 34 1
36 35 1
36 36 1.51E2
36 37 1
36 38 1
36 40 1
36 44 1
36 52 1
36 68 1
36 100 1
36 164 1
36 292 1
37 5 1
37 21 1
37 29 1
37 33 1
37 35 1
37 36 1
37 37 1.57E2
37 38 1
37 39 1
37 41 1
37 45 1
37 53 1
37 69 1
37 101 1
37 165 1
37 293 1
38 6 1
38 22 1
38 30 1
38 34 1
38 36 1
38 37 1
38 38 1.63E2
38 39 1
38 40 1
38 42 1
38 46 1
38 54 1
38 70 1
38 102 1
38 166 1
38 294 1
39 7 1
39 23 1
39 31 1
39 35 1
39 37 1
39 38 1
39 39 1.67E2
39 40 1
39 41 1
39 43 1
39 47 1
39 55 1
39 71 1
39 103 1
39 167 1
39 295 1
40 8 1
40 24 1
40 32 1
40 36 1
40 38 1
40 39 1
40 40 1.73E2
40 41 1
40 42 1
40 44 1
40 48 1
40 56 1
40 72 1
40 104 1
40 168 1
40 296 1
41 9 1
41 25 1
41 33 1
41 37 1
41 39 1
41 40 1
41 41 1.79E2
41 42 1
41 43 1
41 45 1
41 49 1
41 57 1
41 73 1
41 105 1
41 169 1
41 297 1
42 10 1
42 26 1
42 34 1
42 38 1
42 40 1
42 41 1
42 42 1.81E2
42 43 1
42 44 1
42 46 1
42 50 1
42 58 1
42 74 1
42 106 1
42 170 1
42 298 1
43 11 1
43 27 1
43 35 1
43 39 1
43 41 1
43 42 1
43 43 1.91E2
43 44 1
43 45 1
43 47 1
43 51 1
43 59 1
43 75 1
43 107 1
43 171 1
43 299 1
44 12 1
44 28 1
44 36 1
44 40 1
44 42 1
44 43 1
44 44 1.93E2
44 45 1
44 46 1
44 48 1
44 52 1
44 60 1
44 76 1
44 108 1
44 172 1
44 300 1
45 13 1
45 29 1
45 37 1
45 41 1
45 43 1
45 44 1
45 45 1.97E2
45 46 1
45 47 1
45 49 1
45 53 1
45 61 1
45 77 1
45 109 1
45 173 1
46 14 1
46 30 1
46 38 1
46 42 1
46 44 1
46 45 1
46 46 1.99E2
46 47 1
46 48 1
46 50 1
46 54 1
46 62 1
46 78 1
46 110 1
46 174 1
47 15 1
47 31 1
47 39 1
47 43 1
47 45 1
47 46 1
47 47 2.11E2
47 48 1
47 49 1
47 51 1
47 55 1
47 63 1
47 79 1
47 111 1
47 175 1
48 16 1
48 32 1
48 40 1
48 44 1
48 46 1
48 47 1
48 48 2.23E2
48 49 1
48 50 1
48 52 1
48 56 1
48 64 1
48 80 1
48 112 1
48 176 1
49 17 1
49 33 1
49 41 1
49 45 1
49 47 1
49 48 1
49 49 2.27E2
49 50 1
49 51 1
49 53 1
49 57 1
49 65 1
49 81 1
49 113 1
49 177 1
50 18 1
50 34 1
50 42 1
50 46 1
50 48 1
50 49 1
50 50 2.29E2
50 51 1
50 52 1
50 54 1
50 58 1
50 66 1
50 82 1
50 114 1
50 178 1
51 19 1
51 35 1
51 43 1
51 47 1
51 49 1
51 50 1
51 51 2.33E2
51 52 1
51 53 1
51 55 1
51 59 1
51 67 1
51 83 1
51 115 1
51 179 1
52 20 1
52 36 1
52 44 1
52 48 1
52 50 1
52 51 1
52 52 2.39E2
52 53 1
52 54 1
52 56 1
52 60 1
52 68 1
52 84 1
52 116 1
52 180 1
53 21 1
53 37 1
53 45 1
53 49 1
53 51 1
53 52 1
53 53 2.41E2
53 54 1
53 55 1
53 57 1
53 61 1
53 69 1
53 85 1
53 117 1
53 181 1
54 22 1
54 38 1
54 46 1
54 50 1
54 52 1
54 53 1
54 54 2.51E2
54 55 1
54 56 1
54 58 1
54 62 1
54 70 1
54 86 1
54 118 1
54 182 1
55 23 1
55 39 1
55 47 1
55 51 1
55 53 1
55 54 1
55 55 2.57E2
55 56 1
55 57 1
55 59 1
55 63 1
55 71 1
55 87 1
55 119 1
55 183 1
56 24 1
56 40 1
56 48 1
56 52 1
56 54 1
56 55 1
56 56 2.63E2
56 57 1
56 58 1
56 60 1
56 64 1
56 72 1
56 88 1
56 120 1
56 184 1
57 25 1
57 41 1
57 49 1
57 53 1
57 55 1
57 56 1
57 57 2.69E2
57 58 1
57 59 1
57 61 1
57 65 1
57 73 1
57 89 1
57 121 1
57 185 1
58 26 1
58 42 1
58 50 1
58 54 1
58 56 1
58 57 1
58 58 2.71E2
58 59 1
58 60 1
58 62 1
58 66 1
58 74 1
58 90 1
58 122 1
58 186 1
59 27 1
59 43 1
59 51 1
59 55 1
59 57 1
59 58 1
59 59 2.77E2
59 60 1
59 61 1
59 63 1
59 67 1
59 75 1
59 91 1
59 123 1
59 187 1
60 28 1
60 44 1
60 52 1
60 56 1
60 58 1
60 59 1
60 60 2.81E2
60 61 1
60 62 1
60 64 1
60 68 1
60 76 1
60 92 1
60 124 1
60 188 1
61 29 1
61 45 1
61 53 1
61 57 1
61 59 1
61 60 1
61 61 2.83E2
61 62 1
61 63 1
61 65 1
61 69 1
61 77 1
61 93 1
61 125 1
61 189 1
62 30 1
62 46 1
62 54 1
62 58 1
62 60 1
62 61 1
62 62 2.93E2
62 63 1
62 64 1
62 66 1
62 70 1
62 78 1
62 94 1
62 126 1
62 190 1
63 31 1
63 47 1
63 55 1
63 59 1
63 61 1
63 62 1
63 63 3.07E2
63 64 1
63 65 1
63 67 1
63 71 1
63 79 1
63 95 1
63 127 1
63 191 1
64 32 1
64 48 1
64 56 1
64 60 1
64 62 1
64 63 1
64 64 3.11E2
64 65 1
64 66 1
64 68 1
64 72 1
64 80 1
64 96 1
64 128 1
64 192 1
65 1 1
65 33 1
65 49 1
65 57 1
65 61 1
65 63 1
65 64 1
65 65 3.13E2
65 66 1
65 67 1
65 69 1
65 73 1
65 81 1
65 97 1
65 129 1
65 193 1
66 2 1
66 34 1
66 50 1
66 58 1
66 62 1
66 64 1
66 65 1
66 66 3.17E2
66 67 1
66 68 1
66 70 1
66 74 1
66 82 1
66 98 1
66 130 1
66 194 1
67 3 1
67 35 1
67 51 1
67 59 1
67 63 1
67 65 1
67 66 1
67 67 3.31E2
67 68 1
67 69 1
67 71 1
67 75 1
67 83 1
67 99 1
67 131 1
67 195 1
68 4 1
68 36 1
68 52 1
68 60 1
68 64 1
68 66 1
68 67 1
68 68 3.37E2
68 69 1
68 70 1
68 72 1
68 76 1
68 84 1
68 100 1
68 132 1
68 196 1
69 5 1
69 37 1
69 53 1
69 61 1
69 65 1
69 67 1
69 68 1
69 69 3.47E2
69 70 1
69 71 1
69 73 1
69 77 1
69 85 1
69 101 1
69 133 1
69 197 1
70 6 1
70 38 1
70 54 1
70 62 1
70 66 1
70 68 1
70 69 1
70 70 3.49E2
70 71 1
70 72 1
70 74 1
70 78 1
70 86 1
70 102 1
70 134 1
70 198 1
71 7 1
71 39 1
71 55 1
71 63 1
71 67 1
71 69 1
71 70 1
71 71 3.53E2
71 72 1
71 73 1
71 75 1
71 79 1
71 87 1
71 103 1
71 135 1
71 199 1
72 8 1
72 40 1
72 56 1
72 64 1
72 68 1
72 70 1
72 71 1
72 72 3.59E2
72 73 1
72 74 1
72 76 1
72 80 1
72 88 1
72 104 1
72 136 1
72 200 1
73 9 1
73 41 1
73 57 1
73 65 1
73 69 1
73 71 1
73 72 1
73 73 3.67E2
73 74 1
73 75 1
73 77 1
73 81 1
73 89 1
73 105 1
73 137 1
73 201 1
74 10 1
74 42 1
74 58 1
74 66 1
74 70 1
74 72 1
74 73 1
74 74 3.73E2
74 75 1
74 76 1
74 78 1
74 82 1
74 90 1
74 106 1
74 138 1
74 202 1
75 11 1
75 43 1
75 59 1
75 67 1
75 71 1
75 73 1
75 74 1
75 75 3.79E2
75 76 1
75 77 1
75 79 1
75 83 1
75 91 1
75 107 1
75 139 1
75 203 1
76 12 1
76 44 1
76 60 1
76 68 1
76 72 1
76 74 1
76 75 1
76 76 3.83E2
76 77 1
76 78 1
76 80 1
76 84 1
76 92 1
76 108 1
76 140 1
76 204 1
77 13 1
77 45 1
77 61 1
77 69 1
77 73 1
77 75 1
77 76 1
77 77 3.89E2
77 78 1
77 79 1
77 81 1
77 85 1
77 93 1
77 109 1
77 141 1
77 205 1
78 14 1
78 46 1
78 62 1
78 70 1
78 74 1
78 76 1
78 77 1
78 78 3.97E2
78 79 1
78 80 1
78 82 1
78 86 1
78 94 1
78 110 1
78 142 1
78 206 1
79 15 1
79 47 1
79 63 1
79 71 1
79 75 1
79 77 1
79 78 1
79 79 4.01E2
79 80 1
79 81 1
79 83 1
79 87 1
79 95 1
79 111 1
79 143 1
79 207 1
80 16 1
80 48 1
80 64 1
80 72 1
80 76 1
80 78 1
80 79 1
80 80 4.09E2
80 81 1
80 82 1
80 84 1
80 88 1
80 96 1
80 112 1
80 144 1
80 208 1
81 17 1
81 49 1
81 65 1
81 73 1
81 77 1
81 79 1
81 80 1
81 81 4.19E2
81 82 1
81 83 1
81 85 1
81 89 1
81 97 1
81 113 1
81 145 1
81 209 1
82 18 1
82 50 1
82 66 1
82 74 1
82 78 1
82 80 1
82 81 1
82 82 4.21E2
82 83 1
82 84 1
82 86 1
82 90 1
82 98 1
82 114 1
82 146 1
82 210 1
83 19 1
83 51 1
83 67 1
83 75 1
83 79 1
83 81 1
83 82 1
83 83 4.31E2
83 84 1
83 85 1
83 87 1
83 91 1
83 99 1
83 115 1
83 147 1
83 211 1
84 20 1
84 52 1
84 68 1
84 76 1
84 80 1
84 82 1
84 83 1
84 84 4.33E2
84 85 1
84 86 1
84 88 1
84 92 1
84 100 1
84 116 1
84 148 1
84 212 1
85 21 1
85 53 1
85 69 1
85 77 1
85 81 1
85 83 1
85 84 1
85 85 4.39E2
85 86 1
85 87 1
85 89 1
85 93 1
85 101 1
85 117 1
85 149 1
85 213 1
86 22 1
86 54 1
86 70 1
86 78 1
86 82 1
86 84 1
86 85 1
86 86 4.43E2
86 87 1
86 88 1
86 90 1
86 94 1
86 102 1
86 118 1
86 150 1
86 214 1
87 23 1
87 55 1
87 71 1
87 79 1
87 83 1
87 85 1
87 86 1
87 87 4.49E2
87 88 1
87 89 1
87 91 1
87 95 1
87 103 1
87 119 1
87 151 1
87 215 1
88 24 1
88 56 1
88 72 1
88 80 1
88 84 1
88 86 1
88 87 1
88 88 4.57E2
88 89 1
88 90 1
88 92 1
88 96 1
88 104 1
88 120 1
88 152 1
88 216 1
89 25 1
89 57 1
89 73 1
89 81 1
89 85 1
89 87 1
89 88 1
89 89 4.61E2
89 90 1
89 91 1
89 93 1
89 97 1
89 105 1
89 121 1
89 153 1
89 217 1
90 26 1
90 58 1
90 74 1
90 82 1
90 86 1
90 88 1
90 89 1
90 90 4.63E2
90 91 1
90 92 1
90 94 1
90 98 1
90 106 1
90 122 1
90 154 1
90 218 1
91 27 1
91 59 1
91 75 1
91 83 1
91 87 1
91 89 1
91 90 1
91 91 4.67E2
91 92 1
91 93 1
91 95 1
91 99 1
91 107 1
91 123 1
91 155 1
91 219 1
92 28 1
92 60 1
92 76 1
92 84 1
92 88 1
92 90 1
92 91 1
92 92 4.79E2
92 93 1
92 94 1
92 96 1
92 100 1
92 108 1
92 124 1
92 156 1
92 220 1
93 29 1
93 61 1
93 77 1
93 85 1
93 89 1
93 91 1
93 92 1
93 93 4.87E2
93 94 1
93 95 1
93 97 1
93 101 1
93 109 1
93 125 1
93 157 1
93 221 1
94 30 1
94 62 1
94 78 1
94 86 1
94 90 1
94 92 1
94 93 1
94 94 4.91E2
94 95 1
94 96 1
94 98 1
94 102 1
94 110 1
94 126 1
94 158 1
94 222 1
95 31 1
95 63 1
95 79 1
95 87 1
95 91 1
95 93 1
95 94 1
95 95 4.99E2
95 96 1
95 97 1
95 99 1
95 103 1
95 111 1
95 127 1
95 159 1
95 223 1
96 32 1
96 64 1
96 80 1
96 88 1
96 92 1
96 94 1
96 95 1
96 96 5.03E2
96 97 1
96 98 1
96 100 1
96 104 1
96 112 1
96 128 1
96 160 1
96 224 1
97 33 1
97 65 1
97 81 1
97 89 1
97 93 1
97 95 1
97 96 1
97 97 5.09E2
97 98 1
97 99 1
97 101 1
97 105 1
97 113 1
97 129 1
97 161 1
97 225 1
98 34 1
98 66 1
98 82 1
98 90 1
98 94 1
98 96 1
98 97 1
98 98 5.21E2
98 99 1
98 100 1
98 102 1
98 106 1
98 114 1
98 130 1
98 162 1
98 226 1
99 35 1
99 67 1
99 83 1
99 91 1
99 95 1
99 97 1
99 98 1
99 99 5.23E2
99 100 1
99 101 1
99 103 1
99 107 1
99 115 1
99 131 1
99 163 1
99 227 1
100 36 1
100 68 1
100 84 1
100 92 1
100 96 1
100 98 1
100 99 1
100 100 5.41E2
100 101 1
100 102 1
100 104 1
100 108 1
100 116 1
100 132 1
100 164 1
100 228 1
101 37 1
101 69 1
101 85 1
101 93 1
101 97 1
101 99 1
101 100 1
101 101 5.47E2
101 102 1
101 103 1
101 105 1
101 109 1
101 117 1
101 133 1
101 165 1
101 229 1
102 38 1
102 70 1
102 86 1
102 94 1
102 98 1
102 100 1
102 101 1
102 102 5.57E2
102 103 1
102 104 1
102 106 1
102 110 1
102 118 1
102 134 1
102 166 1
102 230 1
103 39 1
103 71 1
103 87 1
103 95 1
103 99 1
103 101 1
103 102 1
103 103 5.63E2
103 104 1
103 105 1
103 107 1
103 111 1
103 119 1
103 135 1
103 167 1
103 231 1
104 40 1
104 72 1
104 88 1
104 96 1
104 100 1
104 102 1
104 103 1
104 104 5.69E2
104 105 1
104 106 1
104 108 1
104 112 1
104 120 1
104 136 1
104 168 1
104 232 1
105 41 1
105 73 1
105 89 1
105 97 1
105 101 1
105 103 1
105 104 1
105 105 5.71E2
105 106 1
105 107 1
105 109 1
105 113 1
105 121 1
105 137 1
105 169 1
105 233 1
106 42 1
106 74 1
106 90 1
106 98 1
106 102 1
106 104 1
106 105 1
106 106 5.77E2
106 107 1
106 108 1
106 110 1
106 114 1
106 122 1
106 138 1
106 170 1
106 234 1
107 43 1
107 75 1
107 91 1
107 99 1
107 103 1
107 105 1
107 106 1
107 107 5.87E2
107 108 1
107 109 1
107 111 1
107 115 1
107 123 1
107 139 1
107 171 1
107 235 1
108 44 1
108 76 1
108 92 1
108 100 1
108 104 1
108 106 1
108 107 1
108 108 5.93E2
108 109 1
108 110 1
108 112 1
108 116 1
108 124 1
108 140 1
108 172 1
108 236 1
109 45 1
109 77 1
109 93 1
109 101 1
109 105 1
109 107 1
109 108 1
109 109 5.99E2
109 110 1
109 111 1
109 113 1
109 117 1
109 125 1
109 141 1
109 173 1
109 237 1
110 46 1
110 78 1
110 94 1
110 102 1
110 106 1
110 108 1
110 109 1
110 110 6.01E2
110 111 1
110 112 1
110 114 1
110 118 1
110 126 1
110 142 1
110 174 1
110 238 1
111 47 1
111 79 1
111 95 1
111 103 1
111 107 1
111 109 1
111 110 1
111 111 6.07E2
111 112 1
111 113 1
111 115 1
111 119 1
111 127 1
111 143 1
111 175 1
111 239 1
112 48 1
112 80 1
112 96 1
112 104 1
112 108 1
112 110 1
112 111 1
112 112 6.13E2
112 113 1
112 114 1
112 116 1
112 120 1
112 128 1
112 144 1
112 176 1
112 240 1
113 49 1
113 81 1
113 97 1
113 105 1
113 109 1
113 111 1
113 112 1
113 113 6.17E2
113 114 1
113 115 1
113 117 1
113 121 1
113 129 1
113 145 1
113 177 1
113 241 1
114 50 1
114 82 1
114 98 1
114 106 1
114 110 1
114 112 1
114 113 1
114 114 6.19E2
114 115 1
114 116 1
114 118 1
114 122 1
114 130 1
114 146 1
114 178 1
114 242 1
115 51 1
115 83 1
115 99 1
115 107 1
115 111 1
115 113 1
115 114 1
115 115 6.31E2
115 116 1
115 117 1
115 119 1
115 123 1
115 131 1
115 147 1
115 179 1
115 243 1
116 52 1
116 84 1
116 100 1
116 108 1
116 112 1
116 114 1
116 115 1
116 116 6.41E2
116 117 1
116 118 1
116 120 1
116 124 1
116 132 1
116 148 1
116 180 1
116 244 1
117 53 1
117 85 1
117 101 1
117 109 1
117 113 1
117 115 1
117 116 1
117 117 6.43E2
117 118 1
117 119 1
117 121 1
117 125 1
117 133 1
117 149 1
117 181 1
117 245 1
118 54 1
118 86 1
118 102 1
118 110 1
118 114 1
118 116 1
118 117 1
118 118 6.47E2
118 119 1
118 120 1
118 122 1
118 126 1
118 134 1
118 150 1
118 182 1
118 246 1
119 55 1
119 87 1
119 103 1
119 111 1
119 115 1
119 117 1
119 118 1
119 119 6.53E2
119 120 1
119 121 1
119 123 1
119 127 1
119 135 1
119 151 1
119 183 1
119 247 1
120 56 1
120 88 1
120 104 1
120 112 1
120 116 1
120 118 1
120 119 1
120 120 6.59E2
120 121 1
120 122 1
120 124 1
120 128 1
120 136 1
120 152 1
120 184 1
120 248 1
121 57 1
121 89 1
121 105 1
121 113 1
121 117 1
121 119 1
121 120 1
121 121 6.61E2
121 122 1
121 123 1
121 125 1
121 129 1
121 137 1
121 153 1
121 185 1
121 249 1
122 58 1
122 90 1
122 106 1
122 114 1
122 118 1
122 120 1
122 121 1
122 122 6.73E2
122 123 1
122 124 1
122 126 1
122 130 1
122 138 1
122 154 1
122 186 1
122 250 1
123 59 1
123 91 1
123 107 1
123 115 1
123 119 1
123 121 1
123 122 1
123 123 6.77E2
123 124 1
123 125 1
123 127 1
123 131 1
123 139 1
123 155 1
123 187 1
123 251 1
124 60 1
124 92 1
124 108 1
124 116 1
124 120 1
124 122 1
124 123 1
124 124 6.83E2
124 125 1
124 126 1
124 128 1
124 132 1
124 140 1
124 156 1
124 188 1
124 252 1
125 61 1
125 93 1
125 109 1
125 117 1
125 121 1
125 123 1
125 124 1
125 125 6.91E2
125 126 1
125 127 1
125 129 1
125 133 1
125 141 1
125 157 1
125 189 1
125 253 1
126 62 1
126 94 1
126 110 1
126 118 1
126 122 1
126 124 1
126 125 1
126 126 7.01E2
126 127 1
126 128 1
126 130 1
126 134 1
126 142 1
126 158 1
126 190 1
126 254 1
127 63 1
127 95 1
127 111 1
127 119 1
127 123 1
127 125 1
127 126 1
127 127 7.09E2
127 128 1
127 129 1
127 131 1
127 135 1
127 143 1
127 159 1
127 191 1
127 255 1
128 64 1
128 96 1
128 112 1
128 120 1
128 124 1
128 126 1
128 127 1
128 128 7.19E2
128 129 1
128 130 1
128 132 1
128 136 1
128 144 1
128 160 1
128 192 1
128 256 1
129 1 1
129 65 1
129 97 1
129 113 1
129 121 1
129 125 1
129 127 1
129 128 1
129 129 7.27E2
129 130 1
129 131 1
129 133 1
129 137 1
129 145 1
129 161 1
129 193 1
129 257 1
130 2 1
130 66 1
130 98 1
130 114 1
130 122 1
130 126 1
130 128 1
130 129 1
130 130 7.33E2
130 131 1
130 132 1
130 134 1
130 138 1
130 146 1
130 162 1
130 194 1
130 258 1
131 3 1
131 67 1
131 99 1
131 115 1
131 123 1
131 127 1
131 129 1
131 130 1
131 131 7.39E2
131 132 1
131 133 1
131 135 1
131 139 1
131 147 1
131 163 1
131 195 1
131 259 1
132 4 1
132 68 1
132 100 1
132 116 1
132 124 1
132 128 1
132 130 1
132 131 1
132 132 7.43E2
132 133 1
132 134 1
132 136 1
132 140 1
132 148 1
132 164 1
132 196 1
132 260 1
133 5 1
133 69 1
133 101 1
133 117 1
133 125 1
133 129 1
133 131 1
133 132 1
133 133 7.51E2
133 134 1
133 135 1
133 137 1
133 141 1
133 149 1
133 165 1
133 197 1
133 261 1
134 6 1
134 70 1
134 102 1
134 118 1
134 126 1
134 130 1
134 132 1
134 133 1
134 134 7.57E2
134 135 1
134 136 1
134 138 1
134 142 1
134 150 1
134 166 1
134 198 1
134 262 1
135 7 1
135 71 1
135 103 1
135 119 1
135 127 1
135 131 1
135 133 1
135 134 1
135 135 7.61E2
135 136 1
135 137 1
135 139 1
135 143 1
135 151 1
135 167 1
135 199 1
135 263 1
136 8 1
136 72 1
136 104 1
136 120 1
136 128 1
136 132 1
136 134 1
136 135 1
136 136 7.69E2
136 137 1
136 138 1
136 140 1
136 144 1
136 152 1
136 168 1
136 200 1
136 264 1
137 9 1
137 73 1
137 105 1
137 121 1
137 129 1
137 133 1
137 135 1
137 136 1
137 137 7.73E2
137 138 1
137 139 1
137 141 1
137 145 1
137 153 1
137 169 1
137 201 1
137 265 1
138 10 1
138 74 1
138 106 1
138 122 1
138 130 1
138 134 1
138 136 1
138 137 1
138 138 7.87E2
138 139 1
138 140 1
138 142 1
138 146 1
138 154 1
138 170 1
138 202 1
138 266 1
139 11 1
139 75 1
139 107 1
139 123 1
139 131 1
139 135 1
139 137 1
139 138 1
139 139 7.97E2
139 140 1
139 141 1
139 143 1
139 147 1
139 155 1
139 171 1
139 203 1
139 267 1
140 12 1
140 76 1
140 108 1
140 124 1
140 132 1
140 136 1
140 138 1
140 139 1
140 140 8.09E2
140 141 1
140 142 1
140 144 1
140 148 1
140 156 1
140 172 1
140 204 1
140 268 1
141 13 1
141 77 1
141 109 1
141 125 1
141 133 1
141 137 1
141 139 1
141 140 1
141 141 8.11E2
141 142 1
141 143 1
141 145 1
141 149 1
141 157 1
141 173 1
141 205 1
141 269 1
142 14 1
142 78 1
142 110 1
142 126 1
142 134 1
142 138 1
142 140 1
142 141 1
142 142 8.21E2
142 143 1
142 144 1
142 146 1
142 150 1
142 158 1
142 174 1
142 206 1
142 270 1
143 15 1
143 79 1
143 111 1
143 127 1
143 135 1
143 139 1
143 141 1
143 142 1
143 143 8.23E2
143 144 1
143 145 1
143 147 1
143 151 1
143 159 1
143 175 1
143 207 1
143 271 1
144 16 1
144 80 1
144 112 1
144 128 1
144 136 1
144 140 1
144 142 1
144 143 1
144 144 8.27E2
144 145 1
144 146 1
144 148 1
144 152 1
144 160 1
144 176 1
144 208 1
144 272 1
145 17 1
145 81 1
145 113 1
145 129 1
145 137 1
145 141 1
145 143 1
145 144 1
145 145 8.29E2
145 146 1
145 147 1
145 149 1
145 153 1
145 161 1
145 177 1
145 209 1
145 273 1
146 18 1
146 82 1
146 114 1
146 130 1
146 138 1
146 142 1
146 144 1
146 145 1
146 146 8.39E2
146 147 1
146 148 1
146 150 1
146 154 1
146 162 1
146 178 1
146 210 1
146 274 1
147 19 1
147 83 1
147 115 1
147 131 1
147 139 1
147 143 1
147 145 1
147 146 1
147 147 8.53E2
147 148 1
147 149 1
147 151 1
147 155 1
147 163 1
147 179 1
147 211 1
147 275 1
148 20 1
148 84 1
148 116 1
148 132 1
148 140 1
148 144 1
148 146 1
148 147 1
148 148 8.57E2
148 149 1
148 150 1
148 152 1
148 156 1
148 164 1
148 180 1
148 212 1
148 276 1
149 21 1
149 85 1
149 117 1
149 133 1
149 141 1
149 145 1
149 147 1
149 148 1
149 149 8.59E2
149 150 1
149 151 1
149 153 1
149 157 1
149 165 1
149 181 1
149 213 1
149 277 1
150 22 1
150 86 1
150 118 1
150 134 1
150 142 1
150 146 1
150 148 1
150 149 1
150 150 8.63E2
150 151 1
150 152 1
150 154 1
150 158 1
150 166 1
150 182 1
150 214 1
150 278 1
151 23 1
151 87 1
151 119 1
151 135 1
151 143 1
151 147 1
151 149 1
151 150 1
151 151 8.77E2
151 152 1
151 153 1
151 155 1
151 159 1
151 167 1
151 183 1
151 215 1
151 279 1
152 24 1
152 88 1
152 120 1
152 136 1
152 144 1
152 148 1
152 150 1
152 151 1
152 152 8.81E2
152 153 1
152 154 1
152 156 1
152 160 1
152 168 1
152 184 1
152 216 1
152 280 1
153 25 1
153 89 1
153 121 1
153 137 1
153 145 1
153 149 1
153 151 1
153 152 1
153 153 8.83E2
153 154 1
153 155 1
153 157 1
153 161 1
153 169 1
153 185 1
153 217 1
153 281 1
154 26 1
154 90 1
154 122 1
154 138 1
154 146 1
154 150 1
154 152 1
154 153 1
154 154 8.87E2
154 155 1
154 156 1
154 158 1
154 162 1
154 170 1
154 186 1
154 218 1
154 282 1
155 27 1
155 91 1
155 123 1
155 139 1
155 147 1
155 151 1
155 153 1
155 154 1
155 155 9.07E2
155 156 1
155 157 1
155 159 1
155 163 1
155 171 1
155 187 1
155 219 1
155 283 1
156 28 1
156 92 1
156 124 1
156 140 1
156 148 1
156 152 1
156 154 1
156 155 1
156 156 9.11E2
156 157 1
156 158 1
156 160 1
156 164 1
156 172 1
156 188 1
156 220 1
156 284 1
157 29 1
157 93 1
157 125 1
157 141 1
157 149 1
157 153 1
157 155 1
157 156 1
157 157 9.19E2
157 158 1
157 159 1
157 161 1
157 165 1
157 173 1
157 189 1
157 221 1
157 285 1
158 30 1
158 94 1
158 126 1
158 142 1
158 150 1
158 154 1
158 156 1
158 157 1
158 158 9.29E2
158 159 1
158 160 1
158 162 1
158 166 1
158 174 1
158 190 1
158 222 1
158 286 1
159 31 1
159 95 1
159 127 1
159 143 1
159 151 1
159 155 1
159 157 1
159 158 1
159 159 9.37E2
159 160 1
159 161 1
159 163 1
159 167 1
159 175 1
159 191 1
159 223 1
159 287 1
160 32 1
160 96 1
160 128 1
160 144 1
160 152 1
160 156 1
160 158 1
160 159 1
160 160 9.41E2
160 161 1
160 162 1
160 164 1
160 168 1
160 176 1
160 192 1
160 224 1
160 288 1
161 33 1
161 97 1
161 129 1
161 145 1
161 153 1
161 157 1
161 159 1
161 160 1
161 161 9.47E2
161 162 1
161 163 1
161 165 1
161 169 1
161 177 1
161 193 1
161 225 1
161 289 1
162 34 1
162 98 1
162 130 1
162 146 1
162 154 1
162 158 1
162 160 1
162 161 1
162 162 9.53E2
162 163 1
162 164 1
162 166 1
162 170 1
162 178 1
162 194 1
162 226 1
162 290 1
163 35 1
163 99 1
163 131 1
163 147 1
163 155 1
163 159 1
163 161 1
163 162 1
163 163 9.67E2
163 164 1
163 165 1
163 167 1
163 171 1
163 179 1
163 195 1
163 227 1
163 291 1
164 36 1
164 100 1
164 132 1
164 148 1
164 156 1
164 160 1
164 162 1
164 163 1
164 164 9.71E2
164 165 1
164 166 1
164 168 1
164 172 1
164 180 1
164 196 1
164 228 1
164 292 1
165 37 1
165 101 1
165 133 1
165 149 1
165 157 1
165 161 1
165 163 1
165 164 1
165 165 9.77E2
165 166 1
165 167 1
165 169 1
165 173 1
165 181 1
165 197 1
165 229 1
165 293 1
166 38 1
166 102 1
166 134 1
166 150 1
166 158 1
166 162 1
166 164 1
166 165 1
166 166 9.83E2
166 167 1
166 168 1
166 170 1
166 174 1
166 182 1
166 198 1
166 230 1
166 294 1
167 39 1
167 103 1
167 135 1
167 151 1
167 159 1
167 163 1
167 165 1
167 166 1
167 167 9.91E2
167 168 1
167 169 1
167 171 1
167 175 1
167 183 1
167 199 1
167 231 1
167 295 1
168 40 1
168 104 1
168 136 1
168 152 1
168 160 1
168 164 1
168 166 1
168 167 1
168 168 9.97E2
168 169 1
168 170 1
168 172 1
168 176 1
168 184 1
168 200 1
168 232 1
168 296 1
169 41 1
169 105 1
169 137 1
169 153 1
169 161 1
169 165 1
169 167 1
169 168 1
169 169 1.009E3
169 170 1
169 171 1
169 173 1
169 177 1
169 185 1
169 201 1
169 233 1
169 297 1
170 42 1
170 106 1
170 138 1
170 154 1
170 162 1
170 166 1
170 168 1
170 169 1
170 170 1.013E3
170 171 1
170 172 1
170 174 1
170 178 1
170 186 1
170 202 1
170 234 1
170 298 1
171 43 1
171 107 1
171 139 1
171 155 1
171 163 1
171 167 1
171 169 1
171 170 1
171 171 1.019E3
171 172 1
171 173 1
171 175 1
171 179 1
171 187 1
171 203 1
171 235 1
171 299 1
172 44 1
172 108 1
172 140 1
172 156 1
172 164 1
172 168 1
172 170 1
172 171 1
172 172 1.021E3
172 173 1
172 174 1
172 176 1
172 180 1
172 188 1
172 204 1
172 236 1
172 300 1
173 45 1
173 109 1
173 141 1
173 157 1
173 165 1
173 169 1
173 171 1
173 172 1
173 173 1.031E3
173 174 1
173 175 1
173 177 1
173 181 1
173 189 1
173 205 1
173 237 1
174 46 1
174 110 1
174 142 1
174 158 1
174 166 1
174 170 1
174 172 1
174 173 1
174 174 1.033E3
174 175 1
174 176 1
174 178 1
174 182 1
174 190 1
174 206 1
174 238 1
175 47 1
175 111 1
175 143 1
175 159 1
175 167 1
175 171 1
175 173 1
175 174 1
175 175 1.039E3
175 176 1
175 177 1
175 179 1
175 183 1
175 191 1
175 207 1
175 239 1
176 48 1
176 112 1
176 144 1
176 160 1
176 168 1
176 172 1
176 174 1
176 175 1
176 176 1.049E3
176 177 1
176 178 1
176 180 1
176 184 1
176 192 1
176 208 1
176 240 1
177 49 1
177 113 1
177 145 1
177 161 1
177 169 1
177 173 1
177 175 1
177 176 1
177 177 1.051E3
177 178 1
177 179 1
177 181 1
177 185 1
177 193 1
177 209 1
177 241 1
178 50 1
178 114 1
178 146 1
178 162 1
178 170 1
178 174 1
178 176 1
178 177 1
178 178 1.061E3
178 179 1
178 180 1
178 182 1
178 186 1
178 194 1
178 210 1
178 242 1
179 51 1
179 115 1
179 147 1
179 163 1
179 171 1
179 175 1
179 177 1
179 178 1
179 179 1.063E3
179 180 1
179 181 1
179 183 1
179 187 1
179 195 1
179 211 1
179 243 1
180 52 1
180 116 1
180 148 1
180 164 1
180 172 1
180 176 1
180 178 1
180 179 1
180 180 1.069E3
180 181 1
180 182 1
180 184 1
180 188 1
180 196 1
180 212 1
180 244 1
181 53 1
181 117 1
181 149 1
181 165 1
181 173 1
181 177 1
181 179 1
181 180 1
181 181 1.087E3
181 182 1
181 183 1
181 185 1
181 189 1
181 197 1
181 213 1
181 245 1
182 54 1
182 118 1
182 150 1
182 166 1
182 174 1
182 178 1
182 180 1
182 181 1
182 182 1.091E3
182 183 1
182 184 1
182 186 1
182 190 1
182 198 1
182 214 1
182 246 1
183 55 1
183 119 1
183 151 1
183 167 1
183 175 1
183 179 1
183 181 1
183 182 1
183 183 1.093E3
183 184 1
183 185 1
183 187 1
183 191 1
183 199 1
183 215 1
183 247 1
184 56 1
184 120 1
184 152 1
184 168 1
184 176 1
184 180 1
184 182 1
184 183 1
184 184 1.097E3
184 185 1
184 186 1
184 188 1
184 192 1
184 200 1
184 216 1
184 248 1
185 57 1
185 121 1
185 153 1
185 169 1
185 177 1
185 181 1
185 183 1
185 184 1
185 185 1.103E3
185 186 1
185 187 1
185 189 1
185 193 1
185 201 1
185 217 1
185 249 1
186 58 1
186 122 1
186 154 1
186 170 1
186 178 1
186 182 1
186 184 1
186 185 1
186 186 1.109E3
186 187 1
186 188 1
186 190 1
186 194 1
186 202 1
186 218 1
186 250 1
187 59 1
187 123 1
187 155 1
187 171 1
187 179 1
187 183 1
187 185 1
187 186 1
187 187 1.117E3
187 188 1
187 189 1
187 191 1
187 195 1
187 203 1
187 219 1
187 251 1
188 60 1
188 124 1
188 156 1
188 172 1
188 180 1
188 184 1
188 186 1
188 187 1
188 188 1.123E3
188 189 1
188 190 1
188 192 1
188 196 1
188 204 1
188 220 1
188 252 1
189 61 1
189 125 1
189 157 1
189 173 1
189 181 1
189 185 1
189 187 1
189 188 1
189 189 1.129E3
189 190 1
189 191 1
189 193 1
189 197 1
189 205 1
189 221 1
189 253 1
190 62 1
190 126 1
190 158 1
190 174 1
190 182 1
190 186 1
190 188 1
190 189 1
190 190 1.151E3
190 191 1
190 192 1
190 194 1
190 198 1
190 206 1
190 222 1
190 254 1
191 63 1
191 127 1
191 159 1
191 175 1
191 183 1
191 187 1
191 189 1
191 190 1
191 191 1.153E3
191 192 1
191 193 1
191 195 1
191 199 1
191 207 1
191 223 1
191 255 1
192 64 1
192 128 1
192 160 1
192 176 1
192 184 1
192 188 1
192 190 1
192 191 1
192 192 1.163E3
192 193 1
192 194 1
192 196 1
192 200 1
192 208 1
192 224 1
192 256 1
193 65 1
193 129 1
193 161 1
193 177 1
193 185 1
193 189 1
193 191 1
193 192 1
193 193 1.171E3
193 194 1
193 195 1
193 197 1
193 201 1
193 209 1
193 225 1
193 257 1
194 66 1
194 130 1
194 162 1
194 178 1
194 186 1
194 190 1
194 192 1
194 193 1
194 194 1.181E3
194 195 1
194 196 1
194 198 1
194 202 1
194 210 1
194 226 1
194 258 1
195 67 1
195 131 1
195 163 1
195 179 1
195 187 1
195 191 1
195 193 1
195 194 1
195 195 1.187E3
195 196 1
195 197 1
195 199 1
195 203 1
195 211 1
195 227 1
195 259 1
196 68 1
196 132 1
196 164 1
196 180 1
196 188 1
196 192 1
196 194 1
196 195 1
196 196 1.193E3
196 197 1
196 198 1
196 200 1
196 204 1
196 212 1
196 228 1
196 260 1
197 69 1
197 133 1
197 165 1
197 181 1
197 189 1
197 193 1
197 195 1
197 196 1
197 197 1.201E3
197 198 1
197 199 1
197 201 1
197 205 1
197 213 1
197 229 1
197 261 1
198 70 1
198 134 1
198 166 1
198 182 1
198 190 1
198 194 1
198 196 1
198 197 1
198 198 1.213E3
198 199 1
198 200 1
198 202 1
198 206 1
198 214 1
198 230 1
198 262 1
199 71 1
199 135 1
199 167 1
199 183 1
199 191 1
199 195 1
199 197 1
199 198 1
199 199 1.217E3
199 200 1
199 201 1
199 203 1
199 207 1
199 215 1
199 231 1
199 263 1
200 72 1
200 136 1
200 168 1
200 184 1
200 192 1
200 196 1
200 198 1
200 199 1
200 200 1.223E3
200 201 1
200 202 1
200 204 1
200 208 1
200 216 1
200 232 1
200 264 1
201 73 1
201 137 1
201 169 1
201 185 1
201 193 1
201 197 1
201 199 1
201 200 1
201 201 1.229E3
201 202 1
201 203 1
201 205 1
201 209 1
201 217 1
201 233 1
201 265 1
202 74 1
202 138 1
202 170 1
202 186 1
202 194 1
202 198 1
202 200 1
202 201 1
202 202 1.231E3
202 203 1
202 204 1
202 206 1
202 210 1
202 218 1
202 234 1
202 266 1
203 75 1
203 139 1
203 171 1
203 187 1
203 195 1
203 199 1
203 201 1
203 202 1
203 203 1.237E3
203 204 1
203 205 1
203 207 1
203 211 1
203 219 1
203 235 1
203 267 1
204 76 1
204 140 1
204 172 1
204 188 1
204 196 1
204 200 1
204 202 1
204 203 1
204 204 1.249E3
204 205 1
204 206 1
204 208 1
204 212 1
204 220 1
204 236 1
204 268 1
205 77 1
205 141 1
205 173 1
205 189 1
205 197 1
205 201 1
205 203 1
205 204 1
205 205 1.259E3
205 206 1
205 207 1
205 209 1
205 213 1
205 221 1
205 237 1
205 269 1
206 78 1
206 142 1
206 174 1
206 190 1
206 198 1
206 202 1
206 204 1
206 205 1
206 206 1.277E3
206 207 1
206 208 1
206 210 1
206 214 1
206 222 1
206 238 1
206 270 1
207 79 1
207 143 1
207 175 1
207 191 1
207 199 1
207 203 1
207 205 1
207 206 1
207 207 1.279E3
207 208 1
207 209 1
207 211 1
207 215 1
207 223 1
207 239 1
207 271 1
208 80 1
208 144 1
208 176 1
208 192 1
208 200 1
208 204 1
208 206 1
208 207 1
208 208 1.283E3
208 209 1
208 210 1
208 212 1
208 216 1
208 224 1
208 240 1
208 272 1
209 81 1
209 145 1
209 177 1
209 193 1
209 201 1
209 205 1
209 207 1
209 208 1
209 209 1.289E3
209 210 1
209 211 1
209 213 1
209 217 1
209 225 1
209 241 1
209 273 1
210 82 1
210 146 1
210 178 1
210 194 1
210 202 1
210 206 1
210 208 1
210 209 1
210 210 1.291E3
210 211 1
210 212 1
210 214 1
210 218 1
210 226 1
210 242 1
210 274 1
211 83 1
211 147 1
211 179 1
211 195 1
211 203 1
211 207 1
211 209 1
211 210 1
211 211 1.297E3
211 212 1
211 213 1
211 215 1
211 219 1
211 227 1
211 243 1
211 275 1
212 84 1
212 148 1
212 180 1
212 196 1
212 204 1
212 208 1
212 210 1
212 211 1
212 212 1.301E3
212 213 1
212 214 1
212 216 1
212 220 1
212 228 1
212 244 1
212 276 1
213 85 1
213 149 1
213 181 1
213 197 1
213 205 1
213 209 1
213 211 1
213 212 1
213 213 1.303E3
213 214 1
213 215 1
213 217 1
213 221 1
213 229 1
213 245 1
213 277 1
214 86 1
214 150 1
214 182 1
214 198 1
214 206 1
214 210 1
214 212 1
214 213 1
214 214 1.307E3
214 215 1
214 216 1
214 218 1
214 222 1
214 230 1
214 246 1
214 278 1
215 87 1
215 151 1
215 183 1
215 199 1
215 207 1
215 211 1
215 213 1
215 214 1
215 215 1.319E3
215 216 1
215 217 1
215 219 1
215 223 1
215 231 1
215 247 1
215 279 1
216 88 1
216 152 1
216 184 1
216 200 1
216 208 1
216 212 1
216 214 1
216 215 1
216 216 1.321E3
216 217 1
216 218 1
216 220 1
216 224 1
216 232 1
216 248 1
216 280 1
217 89 1
217 153 1
217 185 1
217 201 1
217 209 1
217 213 1
217 215 1
217 216 1
217 217 1.327E3
217 218 1
217 219 1
217 221 1
217 225 1
217 233 1
217 249 1
217 281 1
218 90 1
218 154 1
218 186 1
218 202 1
218 210 1
218 214 1
218 216 1
218 217 1
218 218 1.361E3
218 219 1
218 220 1
218 222 1
218 226 1
218 234 1
218 250 1
218 282 1
219 91 1
219 155 1
219 187 1
219 203 1
219 211 1
219 215 1
219 217 1
219 218 1
219 219 1.367E3
219 220 1
219 221 1
219 223 1
219 227 1
219 235 1
219 251 1
219 283 1
220 92 1
220 156 1
220 188 1
220 204 1
220 212 1
220 216 1
220 218 1
220 219 1
220 220 1.373E3
220 221 1
220 222 1
220 224 1
220 228 1
220 236 1
220 252 1
220 284 1
221 93 1
221 157 1
221 189 1
221 205 1
221 213 1
221 217 1
221 219 1
221 220 1
221 221 1.381E3
221 222 1
221 223 1
221 225 1
221 229 1
221 237 1
221 253 1
221 285 1
222 94 1
222 158 1
222 190 1
222 206 1
222 214 1
222 218 1
222 220 1
222 221 1
222 222 1.399E3
222 223 1
222 224 1
222 226 1
222 230 1
222 238 1
222 254 1
222 286 1
223 95 1
223 159 1
223 191 1
223 207 1
223 215 1
223 219 1
223 221 1
223 222 1
223 223 1.409E3
223 224 1
223 225 1
223 227 1
223 231 1
223 239 1
223 255 1
223 287 1
224 96 1
224 160 1
224 192 1
224 208 1
224 216 1
224 220 1
224 222 1
224 223 1
224 224 1.423E3
224 225 1
224 226 1
224 228 1
224 232 1
224 240 1
224 256 1
224 288 1
225 97 1
225 161 1
225 193 1
225 209 1
225 217 1
225 221 1
225 223 1
225 224 1
225 225 1.427E3
225 226 1
225 227 1
225 229 1
225 233 1
225 241 1
225 257 1
225 289 1
226 98 1
226 162 1
226 194 1
226 210 1
226 218 1
226 222 1
226 224 1
226 225 1
226 226 1.429E3
226 227 1
226 228 1
226 230 1
226 234 1
226 242 1
226 258 1
226 290 1
227 99 1
227 163 1
227 195 1
227 211 1
227 219 1
227 223 1
227 225 1
227 226 1
227 227 1.433E3
227 228 1
227 229 1
227 231 1
227 235 1
227 243 1
227 259 1
227 291 1
228 100 1
228 164 1
228 196 1
228 212 1
228 220 1
228 224 1
228 226 1
228 227 1
228 228 1.439E3
228 229 1
228 230 1
228 232 1
228 236 1
228 244 1
228 260 1
228 292 1
229 101 1
229 165 1
229 197 1
229 213 1
229 221 1
229 225 1
229 227 1
229 228 1
229 229 1.447E3
229 230 1
229 231 1
229 233 1
229 237 1
229 245 1
229 261 1
229 293 1
230 102 1
230 166 1
230 198 1
230 214 1
230 222 1
230 226 1
230 228 1
230 229 1
230 230 1.451E3
230 231 1
230 232 1
230 234 1
230 238 1
230 246 1
230 262 1
230 294 1
231 103 1
231 167 1
231 199 1
231 215 1
231 223 1
231 227 1
231 229 1
231 230 1
231 231 1.453E3
231 232 1
231 233 1
231 235 1
231 239 1
231 247 1
231 263 1
231 295 1
232 104 1
232 168 1
232 200 1
232 216 1
232 224 1
232 228 1
232 230 1
232 231 1
232 232 1.459E3
232 233 1
232 234 1
232 236 1
232 240 1
232 248 1
232 264 1
232 296 1
233 105 1
233 169 1
233 201 1
233 217 1
233 225 1
233 229 1
233 231 1
233 232 1
233 233 1.471E3
233 234 1
233 235 1
233 237 1
233 241 1
233 249 1
233 265 1
233 297 1
234 106 1
234 170 1
234 202 1
234 218 1
234 226 1
234 230 1
234 232 1
234 233 1
234 234 1.481E3
234 235 1
234 236 1
234 238 1
234 242 1
234 250 1
234 266 1
234 298 1
235 107 1
235 171 1
235 203 1
235 219 1
235 227 1
235 231 1
235 233 1
235 234 1
235 235 1.483E3
235 236 1
235 237 1
235 239 1
235 243 1
235 251 1
235 267 1
235 299 1
236 108 1
236 172 1
236 204 1
236 220 1
236 228 1
236 232 1
236 234 1
236 235 1
236 236 1.487E3
236 237 1
236 238 1
236 240 1
236 244 1
236 252 1
236 268 1
236 300 1
237 109 1
237 173 1
237 205 1
237 221 1
237 229 1
237 233 1
237 235 1
237 236 1
237 237 1.489E3
237 238 1
237 239 1
237 241 1
237 245 1
237 253 1
237 269 1
238 110 1
238 174 1
238 206 1
238 222 1
238 230 1
238 234 1
238 236 1
238 237 1
238 238 1.493E3
238 239 1
238 240 1
238 242 1
238 246 1
238 254 1
238 270 1
239 111 1
239 175 1
239 207 1
239 223 1
239 231 1
239 235 1
239 237 1
239 238 1
239 239 1.499E3
239 240 1
239 241 1
239 243 1
239 247 1
239 255 1
239 271 1
240 112 1
240 176 1
240 208 1
240 224 1
240 232 1
240 236 1
240 238 1
240 239 1
240 240 1.511E3
240 241 1
240 242 1
240 244 1
240 248 1
240 256 1
240 272 1
241 113 1
241 177 1
241 209 1
241 225 1
241 233 1
241 237 1
241 239 1
241 240 1
241 241 1.523E3
241 242 1
241 243 1
241 245 1
241 249 1
241 257 1
241 273 1
242 114 1
242 178 1
242 210 1
242 226 1
242 234 1
242 238 1
242 240 1
242 241 1
242 242 1.531E3
242 243 1
242 244 1
242 246 1
242 250 1
242 258 1
242 274 1
243 115 1
243 179 1
243 211 1
243 227 1
243 235 1
243 239 1
243 241 1
243 242 1
243 243 1.543E3
243 244 1
243 245 1
243 247 1
243 251 1
243 259 1
243 275 1
244 116 1
244 180 1
244 212 1
244 228 1
244 236 1
244 240 1
244 242 1
244 243 1
244 244 1.549E3
244 245 1
244 246 1
244 248 1
244 252 1
244 260 1
244 276 1
245 117 1
245 181 1
245 213 1
245 229 1
245 237 1
245 241 1
245 243 1
245 244 1
245 245 1.553E3
245 246 1
245 247 1
245 249 1
245 253 1
245 261 1
245 277 1
246 118 1
246 182 1
246 214 1
246 230 1
246 238 1
246 242 1
246 244 1
246 245 1
246 246 1.559E3
246 247 1
246 248 1
246 250 1
246 254 1
246 262 1
246 278 1
247 119 1
247 183 1
247 215 1
247 231 1
247 239 1
247 243 1
247 245 1
247 246 1
247 247 1.567E3
247 248 1
247 249 1
247 251 1
247 255 1
247 263 1
247 279 1
248 120 1
248 184 1
248 216 1
248 232 1
248 240 1
248 244 1
248 246 1
248 247 1
248 248 1.571E3
248 249 1
248 250 1
248 252 1
248 256 1
248 264 1
248 280 1
249 121 1
249 185 1
249 217 1
249 233 1
249 241 1
249 245 1
249 247 1
249 248 1
249 249 1.579E3
249 250 1
249 251 1
249 253 1
249 257 1
249 265 1
249 281 1
250 122 1
250 186 1
250 218 1
250 234 1
250 242 1
250 246 1
250 248 1
250 249 1
250 250 1.583E3
250 251 1
250 252 1
250 254 1
250 258 1
250 266 1
250 282 1
251 123 1
251 187 1
251 219 1
251 235 1
251 243 1
251 247 1
251 249 1
251 250 1
251 251 1.597E3
251 252 1
251 253 1
251 255 1
251 259 1
251 267 1
251 283 1
252 124 1
252 188 1
252 220 1
252 236 1
252 244 1
252 248 1
252 250 1
252 251 1
252 252 1.601E3
252 253 1
252 254 1
252 256 1
252 260 1
252 268 1
252 284 1
253 125 1
253 189 1
253 221 1
253 237 1
253 245 1
253 249 1
253 251 1
253 252 1
253 253 1.607E3
253 254 1
253 255 1
253 257 1
253 261 1
253 269 1
253 285 1
254 126 1
254 190 1
254 222 1
254 238 1
254 246 1
254 250 1
254 252 1
254 253 1
254 254 1.609E3
254 255 1
254 256 1
254 258 1
254 262 1
254 270 1
254 286 1
255 127 1
255 191 1
255 223 1
255 239 1
255 247 1
255 251 1
255 253 1
255 254 1
255 255 1.613E3
255 256 1
255 257 1
255 259 1
255 263 1
255 271 1
255 287 1
256 128 1
256 192 1
256 224 1
256 240 1
256 248 1
256 252 1
256 254 1
256 255 1
256 256 1.619E3
256 257 1
256 258 1
256 260 1
256 264 1
256 272 1
256 288 1
257 1 1
257 129 1
257 193 1
257 225 1
257 241 1
257 249 1
257 253 1
257 255 1
257 256 1
257 257 1.621E3
257 258 1
257 259 1
257 261 1
257 265 1
257 273 1
257 289 1
258 2 1
258 130 1
258 194 1
258 226 1
258 242 1
258 250 1
258 254 1
258 256 1
258 257 1
258 258 1.627E3
258 259 1
258 260 1
258 262 1
258 266 1
258 274 1
258 290 1
259 3 1
259 131 1
259 195 1
259 227 1
259 243 1
259 251 1
259 255 1
259 257 1
259 258 1
259 259 1.637E3
259 260 1
259 261 1
259 263 1
259 267 1
259 275 1
259 291 1
260 4 1
260 132 1
260 196 1
260 228 1
260 244 1
260 252 1
260 256 1
260 258 1
260 259 1
260 260 1.657E3
260 261 1
260 262 1
260 264 1
260 268 1
260 276 1
260 292 1
261 5 1
261 133 1
261 197 1
261 229 1
261 245 1
261 253 1
261 257 1
261 259 1
261 260 1
261 261 1.663E3
261 262 1
261 263 1
261 265 1
261 269 1
261 277 1
261 293 1
262 6 1
262 134 1
262 198 1
262 230 1
262 246 1
262 254 1
262 258 1
262 260 1
262 261 1
262 262 1.667E3
262 263 1
262 264 1
262 266 1
262 270 1
262 278 1
262 294 1
263 7 1
263 135 1
263 199 1
263 231 1
263 247 1
263 255 1
263 259 1
263 261 1
263 262 1
263 263 1.669E3
263 264 1
263 265 1
263 267 1
263 271 1
263 279 1
263 295 1
264 8 1
264 136 1
264 200 1
264 232 1
264 248 1
264 256 1
264 260 1
264 262 1
264 263 1
264 264 1.693E3
264 265 1
264 266 1
264 268 1
264 272 1
264 280 1
264 296 1
265 9 1
265 137 1
265 201 1
265 233 1
265 249 1
265 257 1
265 261 1
265 263 1
265 264 1
265 265 1.697E3
265 266 1
265 267 1
265 269 1
265 273 1
265 281 1
265 297 1
266 10 1
266 138 1
266 202 1
266 234 1
266 250 1
266 258 1
266 262 1
266 264 1
266 265 1
266 266 1.699E3
266 267 1
266 268 1
266 270 1
266 274 1
266 282 1
266 298 1
267 11 1
267 139 1
267 203 1
267 235 1
267 251 1
267 259 1
267 263 1
267 265 1
267 266 1
267 267 1.709E3
267 268 1
267 269 1
267 271 1
267 275 1
267 283 1
267 299 1
268 12 1
268 140 1
268 204 1
268 236 1
268 252 1
268 260 1
268 264 1
268 266 1
268 267 1
268 268 1.721E3
268 269 1
268 270 1
268 272 1
268 276 1
268 284 1
268 300 1
269 13 1
269 141 1
269 205 1
269 237 1
269 253 1
269 261 1
269 265 1
269 267 1
269 268 1
269 269 1.723E3
269 270 1
269 271 1
269 273 1
269 277 1
269 285 1
270 14 1
270 142 1
270 206 1
270 238 1
270 254 1
270 262 1
270 266 1
270 268 1
270 269 1
270 270 1.733E3
270 271 1
270 272 1
270 274 1
270 278 1
270 286 1
271 15 1
271 143 1
271 207 1
271 239 1
271 255 1
271 263 1
271 267 1
271 269 1
271 270 1
271 271 1.741E3
271 272 1
271 273 1
271 275 1
271 279 1
271 287 1
272 16 1
272 144 1
272 208 1
272 240 1
272 256 1
272 264 1
272 268 1
272 270 1
272 271 1
272 272 1.747E3
272 273 1
272 274 1
272 276 1
272 280 1
272 288 1
273 17 1
273 145 1
273 209 1
273 241 1
273 257 1
273 265 1
273 269 1
273 271 1
273 272 1
273 273 1.753E3
273 274 1
273 275 1
273 277 1
273 281 1
273 289 1
274 18 1
274 146 1
274 210 1
274 242 1
274 258 1
274 266 1
274 270 1
274 272 1
274 273 1
274 274 1.759E3
274 275 1
274 276 1
274 278 1
274 282 1
274 290 1
275 19 1
275 147 1
275 211 1
275 243 1
275 259 1
275 267 1
275 271 1
275 273 1
275 274 1
275 275 1.777E3
275 276 1
275 277 1
275 279 1
275 283 1
275 291 1
276 20 1
276 148 1
276 212 1
276 244 1
276 260 1
276 268 1
276 272 1
276 274 1
276 275 1
276 276 1.783E3
276 277 1
276 278 1
276 280 1
276 284 1
276 292 1
277 21 1
277 149 1
277 213 1
277 245 1
277 261 1
277 269 1
277 273 1
277 275 1
277 276 1
277 277 1.787E3
277 278 1
277 279 1
277 281 1
277 285 1
277 293 1
278 22 1
278 150 1
278 214 1
278 246 1
278 262 1
278 270 1
278 274 1
278 276 1
278 277 1
278 278 1.789E3
278 279 1
278 280 1
278 282 1
278 286 1
278 294 1
279 23 1
279 151 1
279 215 1
279 247 1
279 263 1
279 271 1
279 275 1
279 277 1
279 278 1
279 279 1.801E3
279 280 1
279 281 1
279 283 1
279 287 1
279 295 1
280 24 1
280 152 1
280 216 1
280 248 1
280 264 1
280 272 1
280 276 1
280 278 1
280 279 1
280 280 1.811E3
280 281 1
280 282 1
280 284 1
280 288 1
280 296 1
281 25 1
281 153 1
281 217 1
281 249 1
281 265 1
281 273 1
281 277 1
281 279 1
281 280 1
281 281 1.823E3
281 282 1
281 283 1
281 285 1
281 289 1
281 297 1
282 26 1
282 154 1
282 218 1
282 250 1
282 266 1
282 274 1
282 278 1
282 280 1
282 281 1
282 282 1.831E3
282 283 1
282 284 1
282 286 1
282 290 1
282 298 1
283 27 1
283 155 1
283 219 1
283 251 1
283 267 1
283 275 1
283 279 1
283 281 1
283 282 1
283 283 1.847E3
283 284 1
283 285 1
283 287 1
283 291 1
283 299 1
284 28 1
284 156 1
284 220 1
284 252 1
284 268 1
284 276 1
284 280 1
284 282 1
284 283 1
284 284 1.861E3
284 285 1
284 286 1
284 288 1
284 292 1
284 300 1
285 29 1
285 157 1
285 221 1
285 253 1
285 269 1
285 277 1
285 281 1
285 283 1
285 284 1
285 285 1.867E3
285 286 1
285 287 1
285 289 1
285 293 1
286 30 1
286 158 1
286 222 1
286 254 1
286 270 1
286 278 1
286 282 1
286 284 1
286 285 1
286 286 1.871E3
286 287 1
286 288 1
286 290 1
286 294 1
287 31 1
287 159 1
287 223 1
287 255 1
287 271 1
287 279 1
287 283 1
287 285 1
287 286 1
287 287 1.873E3
287 288 1
287 289 1
287 291 1
287 295 1
288 32 1
288 160 1
288 224 1
288 256 1
288 272 1
288 280 1
288 284 1
288 286 1
288 287 1
288 288 1.877E3
288 289 1
288 290 1
288 292 1
288 296 1
289 33 1
289 161 1
289 225 1
289 257 1
289 273 1
289 281 1
289 285 1
289 287 1
289 288 1
289 289 1.879E3
289 290 1
289 291 1
289 293 1
289 297 1
290 34 1
290 162 1
290 226 1
290 258 1
290 274 1
290 282 1
290 286 1
290 288 1
290 289 1
290 290 1.889E3
290 291 1
290 292 1
290 294 1
290 298 1
291 35 1
291 163 1
291 227 1
291 259 1
291 275 1
291 283 1
291 287 1
291 289 1
291 290 1
291 291 1.901E3
291 292 1
291 293 1
291 295 1
291 299 1
292 36 1
292 164 1
292 228 1
292 260 1
292 276 1
292 284 1
292 288 1
292 290 1
292 291 1
292 292 1.907E3
292 293 1
292 294 1
292 296 1
292 300 1
293 37 1
293 165 1
293 229 1
293 261 1
293 277 1
293 285 1
293 289 1
293 291 1
293 292 1
293 293 1.913E3
293 294 1
293 295 1
293 297 1
294 38 1
294 166 1
294 230 1
294 262 1
294 278 1
294 286 1
294 290 1
294 292 1
294 293 1
294 294 1.931E3
294 295 1
294 296 1
294 298 1
295 39 1
295 167 1
295 231 1
295 263 1
295 279 1
295 287 1
295 291 1
295 293 1
295 294 1
295 295 1.933E3
295 296 1
295 297 1
295 299 1
296 40 1
296 168 1
296 232 1
296 264 1
296 280 1
296 288 1
296 292 1
296 294 1
296 295 1
296 296 1.949E3
296 297 1
296 298 1
296 300 1
297 41 1
297 169 1
297 233 1
297 265 1
297 281 1
297 289 1
297 293 1
297 295 1
297 296 1
297 297 1.951E3
297 298 1
297 299 1
298 42 1
298 170 1
298 234 1
298 266 1
298 282 1
298 290 1
298 294 1
298 296 1
298 297 1
298 298 1.973E3
298 299 1
298 300 1
299 43 1
299 171 1
299 235 1
299 267 1
299 283 1
299 291 1
299 295 1
299 297 1
299 298 1
299 299 1.979E3
299 300 1
300 44 1
300 172 1
300 236 1
300 268 1
300 284 1
300 292 1
300 296 1
300 298 1
300 299 1
300 300 1.987E3
