%%MatrixMarket matrix coordinate real general
%
700 700 12654
1 1 2
1 2 1
1 3 1
1 5 1
1 9 1
1 17 1
1 33 1
1 65 1
1 129 1
1 257 1
1 513 1
2 1 1
2 2 3
2 3 1
2 4 1
2 6 1
2 10 1
2 18 1
2 34 1
2 66 1
2 130 1
2 258 1
2 514 1
3 1 1
3 2 1
3 3 5
3 4 1
3 5 1
3 7 1
3 11 1
3 19 1
3 35 1
3 67 1
3 131 1
3 259 1
3 515 1
4 2 1
4 3 1
4 4 7
4 5 1
4 6 1
4 8 1
4 12 1
4 20 1
4 36 1
4 68 1
4 132 1
4 260 1
4 516 1
5 1 1
5 3 1
5 4 1
5 5 1.1E1
5 6 1
5 7 1
5 9 1
5 13 1
5 21 1
5 37 1
5 69 1
5 133 1
5 261 1
5 517 1
6 2 1
6 4 1
6 5 1
6 6 1.3E1
6 7 1
6 8 1
6 10 1
6 14 1
6 22 1
6 38 1
6 70 1
6 134 1
6 262 1
6 518 1
7 3 1
7 5 1
7 6 1
7 7 1.7E1
7 8 1
7 9 1
7 11 1
7 15 1
7 23 1
7 39 1
7 71 1
7 135 1
7 263 1
7 519 1
8 4 1
8 6 1
8 7 1
8 8 1.9E1
8 9 1
8 10 1
8 12 1
8 16 1
8 24 1
8 40 1
8 72 1
8 136 1
8 264 1
8 520 1
9 1 1
9 5 1
9 7 1
9 8 1
9 9 2.3E1
9 10 1
9 11 1
9 13 1
9 17 1
9 25 1
9 41 1
9 73 1
9 137 1
9 265 1
9 521 1
10 2 1
10 6 1
10 8 1
10 9 1
10 10 2.9E1
10 11 1
10 12 1
10 14 1
10 18 1
10 26 1
10 42 1
10 74 1
10 138 1
10 266 1
10 522 1
11 3 1
11 7 1
11 9 1
11 10 1
11 11 3.1E1
11 12 1
11 13 1
11 15 1
11 19 1
11 27 1
11 43 1
11 75 1
11 139 1
11 267 1
11 523 1
12 4 1
12 8 1
12 10 1
12 11 1
12 12 3.7E1
12 13 1
12 14 1
12 16 1
12 20 1
12 28 1
12 44 1
12 76 1
12 140 1
12 268 1
12 524 1
13 5 1
13 9 1
13 11 1
13 12 1
13 13 4.1E1
13 14 1
13 15 1
13 17 1
13 21 1
13 29 1
13 45 1
13 77 1
13 141 1
13 269 1
13 525 1
14 6 1
14 10 1
14 12 1
14 13 1
14 14 4.3E1
14 15 1
14 16 1
14 18 1
14 22 1
14 30 1
14 46 1
14 78 1
14 142 1
14 270 1
14 526 1
15 7 1
15 11 1
15 13 1
15 14 1
15 15 4.7E1
15 16 1
15 17 1
15 19 1
15 23 1
15 31 1
15 47 1
15 79 1
15 143 1
15 271 1
15 527 1
16 8 1
16 12 1
16 14 1
16 15 1
16 16 5.3E1
16 17 1
16 18 1
16 20 1
16 24 1
16 32 1
16 48 1
16 80 1
16 144 1
16 272 1
16 528 1
17 1 1
17 9 1
17 13 1
17 15 1
17 16 1
17 17 5.9E1
17 18 1
17 19 1
17 21 1
17 25 1
17 33 1
17 49 1
17 81 1
17 145 1
17 273 1
17 529 1
18 2 1
18 10 1
18 14 1
18 16 1
18 17 1
18 18 6.1E1
18 19 1
18 20 1
18 22 1
18 26 1
18 34 1
18 50 1
18 82 1
18 146 1
18 274 1
18 530 1
19 3 1
19 11 1
19 15 1
19 17 1
19 18 1
19 19 6.7E1
19 20 1
19 21 1
19 23 1
19 27 1
19 35 1
19 51 1
19 83 1
19 147 1
19 275 1
19 531 1
20 4 1
20 12 1
20 16 1
20 18 1
20 19 1
20 20 7.1E1
20 21 1
20 22 1
20 24 1
20 28 1
20 36 1
20 52 1
20 84 1
20 148 1
20 276 1
20 532 1
21 5 1
21 13 1
21 17 1
21 19 1
21 20 1
21 21 7.3E1
21 22 1
21 23 1
21 25 1
21 29 1
21 37 1
21 53 1
21 85 1
21 149 1
21 277 1
21 533 1
22 6 1
22 14 1
22 18 1
22 20 1
22 21 1
22 22 7.9E1
22 23 1
22 24 1
22 26 1
22 30 1
22 38 1
22 54 1
22 86 1
22 150 1
22 278 1
22 534 1
23 7 1
23 15 1
23 19 1
23 21 1
23 22 1
23 23 8.3E1
23 24 1
23 25 1
23 27 1
23 31 1
23 39 1
23 55 1
23 87 1
23 151 1
23 279 1
23 535 1
24 8 1
24 16 1
24 20 1
24 22 1
24 23 1
24 24 8.9E1
24 25 1
24 26 1
24 28 1
24 32 1
24 40 1
24 56 1
24 88 1
24 152 1
24 280 1
24 536 1
25 9 1
25 17 1
25 21 1
25 23 1
25 24 1
25 25 9.7E1
25 26 1
25 27 1
25 29 1
25 33 1
25 41 1
25 57 1
25 89 1
25 153 1
25 281 1
25 537 1
26 10 1
26 18 1
26 22 1
26 24 1
26 25 1
26 26 1.01E2
26 27 1
26 28 1
26 30 1
26 34 1
26 42 1
26 58 1
26 90 1
26 154 1
26 282 1
26 538 1
27 11 1
27 19 1
27 23 1
27 25 1
27 26 1
27 27 1.03E2
27 28 1
27 29 1
27 31 1
27 35 1
27 43 1
27 59 1
27 91 1
27 155 1
27 283 1
27 539 1
28 12 1
28 20 1
28 24 1
28 26 1
28 27 1
28 28 1.07E2
28 29 1
28 30 1
28 32 1
28 36 1
28 44 1
28 60 1
28 92 1
28 156 1
28 284 1
28 540 1
29 13 1
29 21 1
29 25 1
29 27 1
29 28 1
29 29 1.09E2
29 30 1
29 31 1
29 33 1
29 37 1
29 45 1
29 61 1
29 93 1
29 157 1
29 285 1
29 541 1
30 14 1
30 22 1
30 26 1
30 28 1
30 29 1
30 30 1.13E2
30 31 1
30 32 1
30 34 1
30 38 1
30 46 1
30 62 1
30 94 1
30 158 1
30 286 1
30 542 1
31 15 1
31 23 1
31 27 1
31 29 1
31 30 1
31 31 1.27E2
31 32 1
31 33 1
31 35 1
31 39 1
31 47 1
31 63 1
31 95 1
31 159 1
31 287 1
31 543 1
32 16 1
32 24 1
32 28 1
32 30 1
32 31 1
32 32 1.31E2
32 33 1
32 34 1
32 36 1
32 40 1
32 48 1
32 64 1
32 96 1
32 160 1
32 288 1
32 544 1
33 1 1
33 17 1
33 25 1
33 29 1
33 31 1
33 32 1
33 33 1.37E2
33 34 1
33 35 1
33 37 1
33 41 1
33 49 1
33 65 1
33 97 1
33 161 1
33 289 1
33 545 1
34 2 1
34 18 1
34 26 1
34 30 1
34 32 1
34 33 1
34 34 1.39E2
34 35 1
34 36 1
34 38 1
34 42 1
34 50 1
34 66 1
34 98 1
34 162 1
34 290 1
34 546 1
35 3 1
35 19 1
35 27 1
35 31 1
35 33 1
35 34 1
35 35 1.49E2
35 36 1
35 37 1
35 39 1
35 43 1
35 51 1
35 67 1
35 99 1
35 163 1
35 291 1
35 547 1
36 4 1
36 20 1
36 28 1
36 32 1
36 34 1
36 35 1
36 36 1.51E2
36 37 1
36 38 1
36 40 1
36 44 1
36 52 1
36 68 1
36 100 1
36 164 1
36 292 1
36 548 1
37 5 1
37 21 1
37 29 1
37 33 1
37 35 1
37 36 1
37 37 1.57E2
37 38 1
37 39 1
37 41 1
37 45 1
37 53 1
37 69 1
37 101 1
37 165 1
37 293 1
37 549 1
38 6 1
38 22 1
38 30 1
38 34 1
38 36 1
38 37 1
38 38 1.63E2
38 39 1
38 40 1
38 42 1
38 46 1
38 54 1
38 70 1
38 102 1
38 166 1
38 294 1
38 550 1
39 7 1
39 23 1
39 31 1
39 35 1
39 37 1
39 38 1
39 39 1.67E2
39 40 1
39 41 1
39 43 1
39 47 1
39 55 1
39 71 1
39 103 1
39 167 1
39 295 1
39 551 1
40 8 1
40 24 1
40 32 1
40 36 1
40 38 1
40 39 1
40 40 1.73E2
40 41 1
40 42 1
40 44 1
40 48 1
40 56 1
40 72 1
40 104 1
40 168 1
40 296 1
40 552 1
41 9 1
41 25 1
41 33 1
41 37 1
41 39 1
41 40 1
41 41 1.79E2
41 42 1
41 43 1
41 45 1
41 49 1
41 57 1
41 73 1
41 105 1
41 169 1
41 297 1
41 553 1
42 10 1
42 26 1
42 34 1
42 38 1
42 40 1
42 41 1
42 42 1.81E2
42 43 1
42 44 1
42 46 1
42 50 1
42 58 1
42 74 1
42 106 1
42 170 1
42 298 1
42 554 1
43 11 1
43 27 1
43 35 1
43 39 1
43 41 1
43 42 1
43 43 1.91E2
43 44 1
43 45 1
43 47 1
43 51 1
43 59 1
43 75 1
43 107 1
43 171 1
43 299 1
43 555 1
44 12 1
44 28 1
44 36 1
44 40 1
44 42 1
44 43 1
44 44 1.93E2
44 45 1
44 46 1
44 48 1
44 52 1
44 60 1
44 76 1
44 108 1
44 172 1
44 300 1
44 556 1
45 13 1
45 29 1
45 37 1
45 41 1
45 43 1
45 44 1
45 45 1.97E2
45 46 1
45 47 1
45 49 1
45 53 1
45 61 1
45 77 1
45 109 1
45 173 1
45 301 1
45 557 1
46 14 1
46 30 1
46 38 1
46 42 1
46 44 1
46 45 1
46 46 1.99E2
46 47 1
46 48 1
46 50 1
46 54 1
46 62 1
46 78 1
46 110 1
46 174 1
46 302 1
46 558 1
47 15 1
47 31 1
47 39 1
47 43 1
47 45 1
47 46 1
47 47 2.11E2
47 48 1
47 49 1
47 51 1
47 55 1
47 63 1
47 79 1
47 111 1
47 175 1
47 303 1
47 559 1
48 16 1
48 32 1
48 40 1
48 44 1
48 46 1
48 47 1
48 48 2.23E2
48 49 1
48 50 1
48 52 1
48 56 1
48 64 1
48 80 1
48 112 1
48 176 1
48 304 1
48 560 1
49 17 1
49 33 1
49 41 1
49 45 1
49 47 1
49 48 1
49 49 2.27E2
49 50 1
49 51 1
49 53 1
49 57 1
49 65 1
49 81 1
49 113 1
49 177 1
49 305 1
49 561 1
50 18 1
50 34 1
50 42 1
50 46 1
50 48 1
50 49 1
50 50 2.29E2
50 51 1
50 52 1
50 54 1
50 58 1
50 66 1
50 82 1
50 114 1
50 178 1
50 306 1
50 562 1
51 19 1
51 35 1
51 43 1
51 47 1
51 49 1
51 50 1
51 51 2.33E2
51 52 1
51 53 1
51 55 1
51 59 1
51 67 1
51 83 1
51 115 1
51 179 1
51 307 1
51 563 1
52 20 1
52 36 1
52 44 1
52 48 1
52 50 1
52 51 1
52 52 2.39E2
52 53 1
52 54 1
52 56 1
52 60 1
52 68 1
52 84 1
52 116 1
52 180 1
52 308 1
52 564 1
53 21 1
53 37 1
53 45 1
53 49 1
53 51 1
53 52 1
53 53 2.41E2
53 54 1
53 55 1
53 57 1
53 61 1
53 69 1
53 85 1
53 117 1
53 181 1
53 309 1
53 565 1
54 22 1
54 38 1
54 46 1
54 50 1
54 52 1
54 53 1
54 54 2.51E2
54 55 1
54 56 1
54 58 1
54 62 1
54 70 1
54 86 1
54 118 1
54 182 1
54 310 1
54 566 1
55 23 1
55 39 1
55 47 1
55 51 1
55 53 1
55 54 1
55 55 2.57E2
55 56 1
55 57 1
55 59 1
55 63 1
55 71 1
55 87 1
55 119 1
55 183 1
55 311 1
55 567 1
56 24 1
56 40 1
56 48 1
56 52 1
56 54 1
56 55 1
56 56 2.63E2
56 57 1
56 58 1
56 60 1
56 64 1
56 72 1
56 88 1
56 120 1
56 184 1
56 312 1
56 568 1
57 25 1
57 41 1
57 49 1
57 53 1
57 55 1
57 56 1
57 57 2.69E2
57 58 1
57 59 1
57 61 1
57 65 1
57 73 1
57 89 1
57 121 1
57 185 1
57 313 1
57 569 1
58 26 1
58 42 1
58 50 1
58 54 1
58 56 1
58 57 1
58 58 2.71E2
58 59 1
58 60 1
58 62 1
58 66 1
58 74 1
58 90 1
58 122 1
58 186 1
58 314 1
58 570 1
59 27 1
59 43 1
59 51 1
59 55 1
59 57 1
59 58 1
59 59 2.77E2
59 60 1
59 61 1
59 63 1
59 67 1
59 75 1
59 91 1
59 123 1
59 187 1
59 315 1
59 571 1
60 28 1
60 44 1
60 52 1
60 56 1
60 58 1
60 59 1
60 60 2.81E2
60 61 1
60 62 1
60 64 1
60 68 1
60 76 1
60 92 1
60 124 1
60 188 1
60 316 1
60 572 1
61 29 1
61 45 1
61 53 1
61 57 1
61 59 1
61 60 1
61 61 2.83E2
61 62 1
61 63 1
61 65 1
61 69 1
61 77 1
61 93 1
61 125 1
61 189 1
61 317 1
61 573 1
62 30 1
62 46 1
62 54 1
62 58 1
62 60 1
62 61 1
62 62 2.93E2
62 63 1
62 64 1
62 66 1
62 70 1
62 78 1
62 94 1
62 126 1
62 190 1
62 318 1
62 574 1
63 31 1
63 47 1
63 55 1
63 59 1
63 61 1
63 62 1
63 63 3.07E2
63 64 1
63 65 1
63 67 1
63 71 1
63 79 1
63 95 1
63 127 1
63 191 1
63 319 1
63 575 1
64 32 1
64 48 1
64 56 1
64 60 1
64 62 1
64 63 1
64 64 3.11E2
64 65 1
64 66 1
64 68 1
64 72 1
64 80 1
64 96 1
64 128 1
64 192 1
64 320 1
64 576 1
65 1 1
65 33 1
65 49 1
65 57 1
65 61 1
65 63 1
65 64 1
65 65 3.13E2
65 66 1
65 67 1
65 69 1
65 73 1
65 81 1
65 97 1
65 129 1
65 193 1
65 321 1
65 577 1
66 2 1
66 34 1
66 50 1
66 58 1
66 62 1
66 64 1
66 65 1
66 66 3.17E2
66 67 1
66 68 1
66 70 1
66 74 1
66 82 1
66 98 1
66 130 1
66 194 1
66 322 1
66 578 1
67 3 1
67 35 1
67 51 1
67 59 1
67 63 1
67 65 1
67 66 1
67 67 3.31E2
67 68 1
67 69 1
67 71 1
67 75 1
67 83 1
67 99 1
67 131 1
67 195 1
67 323 1
67 579 1
68 4 1
68 36 1
68 52 1
68 60 1
68 64 1
68 66 1
68 67 1
68 68 3.37E2
68 69 1
68 70 1
68 72 1
68 76 1
68 84 1
68 100 1
68 132 1
68 196 1
68 324 1
68 580 1
69 5 1
69 37 1
69 53 1
69 61 1
69 65 1
69 67 1
69 68 1
69 69 3.47E2
69 70 1
69 71 1
69 73 1
69 77 1
69 85 1
69 101 1
69 133 1
69 197 1
69 325 1
69 581 1
70 6 1
70 38 1
70 54 1
70 62 1
70 66 1
70 68 1
70 69 1
70 70 3.49E2
70 71 1
70 72 1
70 74 1
70 78 1
70 86 1
70 102 1
70 134 1
70 198 1
70 326 1
70 582 1
71 7 1
71 39 1
71 55 1
71 63 1
71 67 1
71 69 1
71 70 1
71 71 3.53E2
71 72 1
71 73 1
71 75 1
71 79 1
71 87 1
71 103 1
71 135 1
71 199 1
71 327 1
71 583 1
72 8 1
72 40 1
72 56 1
72 64 1
72 68 1
72 70 1
72 71 1
72 72 3.59E2
72 73 1
72 74 1
72 76 1
72 80 1
72 88 1
72 104 1
72 136 1
72 200 1
72 328 1
72 584 1
73 9 1
73 41 1
73 57 1
73 65 1
73 69 1
73 71 1
73 72 1
73 73 3.67E2
73 74 1
73 75 1
73 77 1
73 81 1
73 89 1
73 105 1
73 137 1
73 201 1
73 329 1
73 585 1
74 10 1
74 42 1
74 58 1
74 66 1
74 70 1
74 72 1
74 73 1
74 74 3.73E2
74 75 1
74 76 1
74 78 1
74 82 1
74 90 1
74 106 1
74 138 1
74 202 1
74 330 1
74 586 1
75 11 1
75 43 1
75 59 1
75 67 1
75 71 1
75 73 1
75 74 1
75 75 3.79E2
75 76 1
75 77 1
75 79 1
75 83 1
75 91 1
75 107 1
75 139 1
75 203 1
75 331 1
75 587 1
76 12 1
76 44 1
76 60 1
76 68 1
76 72 1
76 74 1
76 75 1
76 76 3.83E2
76 77 1
76 78 1
76 80 1
76 84 1
76 92 1
76 108 1
76 140 1
76 204 1
76 332 1
76 588 1
77 13 1
77 45 1
77 61 1
77 69 1
77 73 1
77 75 1
77 76 1
77 77 3.89E2
77 78 1
77 79 1
77 81 1
77 85 1
77 93 1
77 109 1
77 141 1
77 205 1
77 333 1
77 589 1
78 14 1
78 46 1
78 62 1
78 70 1
78 74 1
78 76 1
78 77 1
78 78 3.97E2
78 79 1
78 80 1
78 82 1
78 86 1
78 94 1
78 110 1
78 142 1
78 206 1
78 334 1
78 590 1
79 15 1
79 47 1
79 63 1
79 71 1
79 75 1
79 77 1
79 78 1
79 79 4.01E2
79 80 1
79 81 1
79 83 1
79 87 1
79 95 1
79 111 1
79 143 1
79 207 1
79 335 1
79 591 1
80 16 1
80 48 1
80 64 1
80 72 1
80 76 1
80 78 1
80 79 1
80 80 4.09E2
80 81 1
80 82 1
80 84 1
80 88 1
80 96 1
80 112 1
80 144 1
80 208 1
80 336 1
80 592 1
81 17 1
81 49 1
81 65 1
81 73 1
81 77 1
81 79 1
81 80 1
81 81 4.19E2
81 82 1
81 83 1
81 85 1
81 89 1
81 97 1
81 113 1
81 145 1
81 209 1
81 337 1
81 593 1
82 18 1
82 50 1
82 66 1
82 74 1
82 78 1
82 80 1
82 81 1
82 82 4.21E2
82 83 1
82 84 1
82 86 1
82 90 1
82 98 1
82 114 1
82 146 1
82 210 1
82 338 1
82 594 1
83 19 1
83 51 1
83 67 1
83 75 1
83 79 1
83 81 1
83 82 1
83 83 4.31E2
83 84 1
83 85 1
83 87 1
83 91 1
83 99 1
83 115 1
83 147 1
83 211 1
83 339 1
83 595 1
84 20 1
84 52 1
84 68 1
84 76 1
84 80 1
84 82 1
84 83 1
84 84 4.33E2
84 85 1
84 86 1
84 88 1
84 92 1
84 100 1
84 116 1
84 148 1
84 212 1
84 340 1
84 596 1
85 21 1
85 53 1
85 69 1
85 77 1
85 81 1
85 83 1
85 84 1
85 85 4.39E2
85 86 1
85 87 1
85 89 1
85 93 1
85 101 1
85 117 1
85 149 1
85 213 1
85 341 1
85 597 1
86 22 1
86 54 1
86 70 1
86 78 1
86 82 1
86 84 1
86 85 1
86 86 4.43E2
86 87 1
86 88 1
86 90 1
86 94 1
86 102 1
86 118 1
86 150 1
86 214 1
86 342 1
86 598 1
87 23 1
87 55 1
87 71 1
87 79 1
87 83 1
87 85 1
87 86 1
87 87 4.49E2
87 88 1
87 89 1
87 91 1
87 95 1
87 103 1
87 119 1
87 151 1
87 215 1
87 343 1
87 599 1
88 24 1
88 56 1
88 72 1
88 80 1
88 84 1
88 86 1
88 87 1
88 88 4.57E2
88 89 1
88 90 1
88 92 1
88 96 1
88 104 1
88 120 1
88 152 1
88 216 1
88 344 1
88 600 1
89 25 1
89 57 1
89 73 1
89 81 1
89 85 1
89 87 1
89 88 1
89 89 4.61E2
89 90 1
89 91 1
89 93 1
89 97 1
89 105 1
89 121 1
89 153 1
89 217 1
89 345 1
89 601 1
90 26 1
90 58 1
90 74 1
90 82 1
90 86 1
90 88 1
90 89 1
90 90 4.63E2
90 91 1
90 92 1
90 94 1
90 98 1
90 106 1
90 122 1
90 154 1
90 218 1
90 346 1
90 602 1
91 27 1
91 59 1
91 75 1
91 83 1
91 87 1
91 89 1
91 90 1
91 91 4.67E2
91 92 1
91 93 1
91 95 1
91 99 1
91 107 1
91 123 1
91 155 1
91 219 1
91 347 1
91 603 1
92 28 1
92 60 1
92 76 1
92 84 1
92 88 1
92 90 1
92 91 1
92 92 4.79E2
92 93 1
92 94 1
92 96 1
92 100 1
92 108 1
92 124 1
92 156 1
92 220 1
92 348 1
92 604 1
93 29 1
93 61 1
93 77 1
93 85 1
93 89 1
93 91 1
93 92 1
93 93 4.87E2
93 94 1
93 95 1
93 97 1
93 101 1
93 109 1
93 125 1
93 157 1
93 221 1
93 349 1
93 605 1
94 30 1
94 62 1
94 78 1
94 86 1
94 90 1
94 92 1
94 93 1
94 94 4.91E2
94 95 1
94 96 1
94 98 1
94 102 1
94 110 1
94 126 1
94 158 1
94 222 1
94 350 1
94 606 1
95 31 1
95 63 1
95 79 1
95 87 1
95 91 1
95 93 1
95 94 1
95 95 4.99E2
95 96 1
95 97 1
95 99 1
95 103 1
95 111 1
95 127 1
95 159 1
95 223 1
95 351 1
95 607 1
96 32 1
96 64 1
96 80 1
96 88 1
96 92 1
96 94 1
96 95 1
96 96 5.03E2
96 97 1
96 98 1
96 100 1
96 104 1
96 112 1
96 128 1
96 160 1
96 224 1
96 352 1
96 608 1
97 33 1
97 65 1
97 81 1
97 89 1
97 93 1
97 95 1
97 96 1
97 97 5.09E2
97 98 1
97 99 1
97 101 1
97 105 1
97 113 1
97 129 1
97 161 1
97 225 1
97 353 1
97 609 1
98 34 1
98 66 1
98 82 1
98 90 1
98 94 1
98 96 1
98 97 1
98 98 5.21E2
98 99 1
98 100 1
98 102 1
98 106 1
98 114 1
98 130 1
98 162 1
98 226 1
98 354 1
98 610 1
99 35 1
99 67 1
99 83 1
99 91 1
99 95 1
99 97 1
99 98 1
99 99 5.23E2
99 100 1
99 101 1
99 103 1
99 107 1
99 115 1
99 131 1
99 163 1
99 227 1
99 355 1
99 611 1
100 36 1
100 68 1
100 84 1
100 92 1
100 96 1
100 98 1
100 99 1
100 100 5.41E2
100 101 1
100 102 1
100 104 1
100 108 1
100 116 1
100 132 1
100 164 1
100 228 1
100 356 1
100 612 1
101 37 1
101 69 1
101 85 1
101 93 1
101 97 1
101 99 1
101 100 1
101 101 5.47E2
101 102 1
101 103 1
101 105 1
101 109 1
101 117 1
101 133 1
101 165 1
101 229 1
101 357 1
101 613 1
102 38 1
102 70 1
102 86 1
102 94 1
102 98 1
102 100 1
102 101 1
102 102 5.57E2
102 103 1
102 104 1
102 106 1
102 110 1
102 118 1
102 134 1
102 166 1
102 230 1
102 358 1
102 614 1
103 39 1
103 71 1
103 87 1
103 95 1
103 99 1
103 101 1
103 102 1
103 103 5.63E2
103 104 1
103 105 1
103 107 1
103 111 1
103 119 1
103 135 1
103 167 1
103 231 1
103 359 1
103 615 1
104 40 1
104 72 1
104 88 1
104 96 1
104 100 1
104 102 1
104 103 1
104 104 5.69E2
104 105 1
104 106 1
104 108 1
104 112 1
104 120 1
104 136 1
104 168 1
104 232 1
104 360 1
104 616 1
105 41 1
105 73 1
105 89 1
105 97 1
105 101 1
105 103 1
105 104 1
105 105 5.71E2
105 106 1
105 107 1
105 109 1
105 113 1
105 121 1
105 137 1
105 169 1
105 233 1
105 361 1
105 617 1
106 42 1
106 74 1
106 90 1
106 98 1
106 102 1
106 104 1
106 105 1
106 106 5.77E2
106 107 1
106 108 1
106 110 1
106 114 1
106 122 1
106 138 1
106 170 1
106 234 1
106 362 1
106 618 1
107 43 1
107 75 1
107 91 1
107 99 1
107 103 1
107 105 1
107 106 1
107 107 5.87E2
107 108 1
107 109 1
107 111 1
107 115 1
107 123 1
107 139 1
107 171 1
107 235 1
107 363 1
107 619 1
108 44 1
108 76 1
108 92 1
108 100 1
108 104 1
108 106 1
108 107 1
108 108 5.93E2
108 109 1
108 110 1
108 112 1
108 116 1
108 124 1
108 140 1
108 172 1
108 236 1
108 364 1
108 620 1
109 45 1
109 77 1
109 93 1
109 101 1
109 105 1
109 107 1
109 108 1
109 109 5.99E2
109 110 1
109 111 1
109 113 1
109 117 1
109 125 1
109 141 1
109 173 1
109 237 1
109 365 1
109 621 1
110 46 1
110 78 1
110 94 1
110 102 1
110 106 1
110 108 1
110 109 1
110 110 6.01E2
110 111 1
110 112 1
110 114 1
110 118 1
110 126 1
110 142 1
110 174 1
110 238 1
110 366 1
110 622 1
111 47 1
111 79 1
111 95 1
111 103 1
111 107 1
111 109 1
111 110 1
111 111 6.07E2
111 112 1
111 113 1
111 115 1
111 119 1
111 127 1
111 143 1
111 175 1
111 239 1
111 367 1
111 623 1
112 48 1
112 80 1
112 96 1
112 104 1
112 108 1
112 110 1
112 111 1
112 112 6.13E2
112 113 1
112 114 1
112 116 1
112 120 1
112 128 1
112 144 1
112 176 1
112 240 1
112 368 1
112 624 1
113 49 1
113 81 1
113 97 1
113 105 1
113 109 1
113 111 1
113 112 1
113 113 6.17E2
113 114 1
113 115 1
113 117 1
113 121 1
113 129 1
113 145 1
113 177 1
113 241 1
113 369 1
113 625 1
114 50 1
114 82 1
114 98 1
114 106 1
114 110 1
114 112 1
114 113 1
114 114 6.19E2
114 115 1
114 116 1
114 118 1
114 122 1
114 130 1
114 146 1
114 178 1
114 242 1
114 370 1
114 626 1
115 51 1
115 83 1
115 99 1
115 107 1
115 111 1
115 113 1
115 114 1
115 115 6.31E2
115 116 1
115 117 1
115 119 1
115 123 1
115 131 1
115 147 1
115 179 1
115 243 1
115 371 1
115 627 1
116 52 1
116 84 1
116 100 1
116 108 1
116 112 1
116 114 1
116 115 1
116 116 6.41E2
116 117 1
116 118 1
116 120 1
116 124 1
116 132 1
116 148 1
116 180 1
116 244 1
116 372 1
116 628 1
117 53 1
117 85 1
117 101 1
117 109 1
117 113 1
117 115 1
117 116 1
117 117 6.43E2
117 118 1
117 119 1
117 121 1
117 125 1
117 133 1
117 149 1
117 181 1
117 245 1
117 373 1
117 629 1
118 54 1
118 86 1
118 102 1
118 110 1
118 114 1
118 116 1
118 117 1
118 118 6.47E2
118 119 1
118 120 1
118 122 1
118 126 1
118 134 1
118 150 1
118 182 1
118 246 1
118 374 1
118 630 1
119 55 1
119 87 1
119 103 1
119 111 1
119 115 1
119 117 1
119 118 1
119 119 6.53E2
119 120 1
119 121 1
119 123 1
119 127 1
119 135 1
119 151 1
119 183 1
119 247 1
119 375 1
119 631 1
120 56 1
120 88 1
120 104 1
120 112 1
120 116 1
120 118 1
120 119 1
120 120 6.59E2
120 121 1
120 122 1
120 124 1
120 128 1
120 136 1
120 152 1
120 184 1
120 248 1
120 376 1
120 632 1
121 57 1
121 89 1
121 105 1
121 113 1
121 117 1
121 119 1
121 120 1
121 121 6.61E2
121 122 1
121 123 1
121 125 1
121 129 1
121 137 1
121 153 1
121 185 1
121 249 1
121 377 1
121 633 1
122 58 1
122 90 1
122 106 1
122 114 1
122 118 1
122 120 1
122 121 1
122 122 6.73E2
122 123 1
122 124 1
122 126 1
122 130 1
122 138 1
122 154 1
122 186 1
122 250 1
122 378 1
122 634 1
123 59 1
123 91 1
123 107 1
123 115 1
123 119 1
123 121 1
123 122 1
123 123 6.77E2
123 124 1
123 125 1
123 127 1
123 131 1
123 139 1
123 155 1
123 187 1
123 251 1
123 379 1
123 635 1
124 60 1
124 92 1
124 108 1
124 116 1
124 120 1
124 122 1
124 123 1
124 124 6.83E2
124 125 1
124 126 1
124 128 1
124 132 1
124 140 1
124 156 1
124 188 1
124 252 1
124 380 1
124 636 1
125 61 1
125 93 1
125 109 1
125 117 1
125 121 1
125 123 1
125 124 1
125 125 6.91E2
125 126 1
125 127 1
125 129 1
125 133 1
125 141 1
125 157 1
125 189 1
125 253 1
125 381 1
125 637 1
126 62 1
126 94 1
126 110 1
126 118 1
126 122 1
126 124 1
126 125 1
126 126 7.01E2
126 127 1
126 128 1
126 130 1
126 134 1
126 142 1
126 158 1
126 190 1
126 254 1
126 382 1
126 638 1
127 63 1
127 95 1
127 111 1
127 119 1
127 123 1
127 125 1
127 126 1
127 127 7.09E2
127 128 1
127 129 1
127 131 1
127 135 1
127 143 1
127 159 1
127 191 1
127 255 1
127 383 1
127 639 1
128 64 1
128 96 1
128 112 1
128 120 1
128 124 1
128 126 1
128 127 1
128 128 7.19E2
128 129 1
128 130 1
128 132 1
128 136 1
128 144 1
128 160 1
128 192 1
128 256 1
128 384 1
128 640 1
129 1 1
129 65 1
129 97 1
129 113 1
129 121 1
129 125 1
129 127 1
129 128 1
129 129 7.27E2
129 130 1
129 131 1
129 133 1
129 137 1
129 145 1
129 161 1
129 193 1
129 257 1
129 385 1
129 641 1
130 2 1
130 66 1
130 98 1
130 114 1
130 122 1
130 126 1
130 128 1
130 129 1
130 130 7.33E2
130 131 1
130 132 1
130 134 1
130 138 1
130 146 1
130 162 1
130 194 1
130 258 1
130 386 1
130 642 1
131 3 1
131 67 1
131 99 1
131 115 1
131 123 1
131 127 1
131 129 1
131 130 1
131 131 7.39E2
131 132 1
131 133 1
131 135 1
131 139 1
131 147 1
131 163 1
131 195 1
131 259 1
131 387 1
131 643 1
132 4 1
132 68 1
132 100 1
132 116 1
132 124 1
132 128 1
132 130 1
132 131 1
132 132 7.43E2
132 133 1
132 134 1
132 136 1
132 140 1
132 148 1
132 164 1
132 196 1
132 260 1
132 388 1
132 644 1
133 5 1
133 69 1
133 101 1
133 117 1
133 125 1
133 129 1
133 131 1
133 132 1
133 133 7.51E2
133 134 1
133 135 1
133 137 1
133 141 1
133 149 1
133 165 1
133 197 1
133 261 1
133 389 1
133 645 1
134 6 1
134 70 1
134 102 1
134 118 1
134 126 1
134 130 1
134 132 1
134 133 1
134 134 7.57E2
134 135 1
134 136 1
134 138 1
134 142 1
134 150 1
134 166 1
134 198 1
134 262 1
134 390 1
134 646 1
135 7 1
135 71 1
135 103 1
135 119 1
135 127 1
135 131 1
135 133 1
135 134 1
135 135 7.61E2
135 136 1
135 137 1
135 139 1
135 143 1
135 151 1
135 167 1
135 199 1
135 263 1
135 391 1
135 647 1
136 8 1
136 72 1
136 104 1
136 120 1
136 128 1
136 132 1
136 134 1
136 135 1
136 136 7.69E2
136 137 1
136 138 1
136 140 1
136 144 1
136 152 1
136 168 1
136 200 1
136 264 1
136 392 1
136 648 1
137 9 1
137 73 1
137 105 1
137 121 1
137 129 1
137 133 1
137 135 1
137 136 1
137 137 7.73E2
137 138 1
137 139 1
137 141 1
137 145 1
137 153 1
137 169 1
137 201 1
137 265 1
137 393 1
137 649 1
138 10 1
138 74 1
138 106 1
138 122 1
138 130 1
138 134 1
138 136 1
138 137 1
138 138 7.87E2
138 139 1
138 140 1
138 142 1
138 146 1
138 154 1
138 170 1
138 202 1
138 266 1
138 394 1
138 650 1
139 11 1
139 75 1
139 107 1
139 123 1
139 131 1
139 135 1
139 137 1
139 138 1
139 139 7.97E2
139 140 1
139 141 1
139 143 1
139 147 1
139 155 1
139 171 1
139 203 1
139 267 1
139 395 1
139 651 1
140 12 1
140 76 1
140 108 1
140 124 1
140 132 1
140 136 1
140 138 1
140 139 1
140 140 8.09E2
140 141 1
140 142 1
140 144 1
140 148 1
140 156 1
140 172 1
140 204 1
140 268 1
140 396 1
140 652 1
141 13 1
141 77 1
141 109 1
141 125 1
141 133 1
141 137 1
141 139 1
141 140 1
141 141 8.11E2
141 142 1
141 143 1
141 145 1
141 149 1
141 157 1
141 173 1
141 205 1
141 269 1
141 397 1
141 653 1
142 14 1
142 78 1
142 110 1
142 126 1
142 134 1
142 138 1
142 140 1
142 141 1
142 142 8.21E2
142 143 1
142 144 1
142 146 1
142 150 1
142 158 1
142 174 1
142 206 1
142 270 1
142 398 1
142 654 1
143 15 1
143 79 1
143 111 1
143 127 1
143 135 1
143 139 1
143 141 1
143 142 1
143 143 8.23E2
143 144 1
143 145 1
143 147 1
143 151 1
143 159 1
143 175 1
143 207 1
143 271 1
143 399 1
143 655 1
144 16 1
144 80 1
144 112 1
144 128 1
144 136 1
144 140 1
144 142 1
144 143 1
144 144 8.27E2
144 145 1
144 146 1
144 148 1
144 152 1
144 160 1
144 176 1
144 208 1
144 272 1
144 400 1
144 656 1
145 17 1
145 81 1
145 113 1
145 129 1
145 137 1
145 141 1
145 143 1
145 144 1
145 145 8.29E2
145 146 1
145 147 1
145 149 1
145 153 1
145 161 1
145 177 1
145 209 1
145 273 1
145 401 1
145 657 1
146 18 1
146 82 1
146 114 1
146 130 1
146 138 1
146 142 1
146 144 1
146 145 1
146 146 8.39E2
146 147 1
146 148 1
146 150 1
146 154 1
146 162 1
146 178 1
146 210 1
146 274 1
146 402 1
146 658 1
147 19 1
147 83 1
147 115 1
147 131 1
147 139 1
147 143 1
147 145 1
147 146 1
147 147 8.53E2
147 148 1
147 149 1
147 151 1
147 155 1
147 163 1
147 179 1
147 211 1
147 275 1
147 403 1
147 659 1
148 20 1
148 84 1
148 116 1
148 132 1
148 140 1
148 144 1
148 146 1
148 147 1
148 148 8.57E2
148 149 1
148 150 1
148 152 1
148 156 1
148 164 1
148 180 1
148 212 1
148 276 1
148 404 1
148 660 1
149 21 1
149 85 1
149 117 1
149 133 1
149 141 1
149 145 1
149 147 1
149 148 1
149 149 8.59E2
149 150 1
149 151 1
149 153 1
149 157 1
149 165 1
149 181 1
149 213 1
149 277 1
149 405 1
149 661 1
150 22 1
150 86 1
150 118 1
150 134 1
150 142 1
150 146 1
150 148 1
150 149 1
150 150 8.63E2
150 151 1
150 152 1
150 154 1
150 158 1
150 166 1
150 182 1
150 214 1
150 278 1
150 406 1
150 662 1
151 23 1
151 87 1
151 119 1
151 135 1
151 143 1
151 147 1
151 149 1
151 150 1
151 151 8.77E2
151 152 1
151 153 1
151 155 1
151 159 1
151 167 1
151 183 1
151 215 1
151 279 1
151 407 1
151 663 1
152 24 1
152 88 1
152 120 1
152 136 1
152 144 1
152 148 1
152 150 1
152 151 1
152 152 8.81E2
152 153 1
152 154 1
152 156 1
152 160 1
152 168 1
152 184 1
152 216 1
152 280 1
152 408 1
152 664 1
153 25 1
153 89 1
153 121 1
153 137 1
153 145 1
153 149 1
153 151 1
153 152 1
153 153 8.83E2
153 154 1
153 155 1
153 157 1
153 161 1
153 169 1
153 185 1
153 217 1
153 281 1
153 409 1
153 665 1
154 26 1
154 90 1
154 122 1
154 138 1
154 146 1
154 150 1
154 152 1
154 153 1
154 154 8.87E2
154 155 1
154 156 1
154 158 1
154 162 1
154 170 1
154 186 1
154 218 1
154 282 1
154 410 1
154 666 1
155 27 1
155 91 1
155 123 1
155 139 1
155 147 1
155 151 1
155 153 1
155 154 1
155 155 9.07E2
155 156 1
155 157 1
155 159 1
155 163 1
155 171 1
155 187 1
155 219 1
155 283 1
155 411 1
155 667 1
156 28 1
156 92 1
156 124 1
156 140 1
156 148 1
156 152 1
156 154 1
156 155 1
156 156 9.11E2
156 157 1
156 158 1
156 160 1
156 164 1
156 172 1
156 188 1
156 220 1
156 284 1
156 412 1
156 668 1
157 29 1
157 93 1
157 125 1
157 141 1
157 149 1
157 153 1
157 155 1
157 156 1
157 157 9.19E2
157 158 1
157 159 1
157 161 1
157 165 1
157 173 1
157 189 1
157 221 1
157 285 1
157 413 1
157 669 1
158 30 1
158 94 1
158 126 1
158 142 1
158 150 1
158 154 1
158 156 1
158 157 1
158 158 9.29E2
158 159 1
158 160 1
158 162 1
158 166 1
158 174 1
158 190 1
158 222 1
158 286 1
158 414 1
158 670 1
159 31 1
159 95 1
159 127 1
159 143 1
159 151 1
159 155 1
159 157 1
159 158 1
159 159 9.37E2
159 160 1
159 161 1
159 163 1
159 167 1
159 175 1
159 191 1
159 223 1
159 287 1
159 415 1
159 671 1
160 32 1
160 96 1
160 128 1
160 144 1
160 152 1
160 156 1
160 158 1
160 159 1
160 160 9.41E2
160 161 1
160 162 1
160 164 1
160 168 1
160 176 1
160 192 1
160 224 1
160 288 1
160 416 1
160 672 1
161 33 1
161 97 1
161 129 1
161 145 1
161 153 1
161 157 1
161 159 1
161 160 1
161 161 9.47E2
161 162 1
161 163 1
161 165 1
161 169 1
161 177 1
161 193 1
161 225 1
161 289 1
161 417 1
161 673 1
162 34 1
162 98 1
162 130 1
162 146 1
162 154 1
162 158 1
162 160 1
162 161 1
162 162 9.53E2
162 163 1
162 164 1
162 166 1
162 170 1
162 178 1
162 194 1
162 226 1
162 290 1
162 418 1
162 674 1
163 35 1
163 99 1
163 131 1
163 147 1
163 155 1
163 159 1
163 161 1
163 162 1
163 163 9.67E2
163 164 1
163 165 1
163 167 1
163 171 1
163 179 1
163 195 1
163 227 1
163 291 1
163 419 1
163 675 1
164 36 1
164 100 1
164 132 1
164 148 1
164 156 1
164 160 1
164 162 1
164 163 1
164 164 9.71E2
164 165 1
164 166 1
164 168 1
164 172 1
164 180 1
164 196 1
164 228 1
164 292 1
164 420 1
164 676 1
165 37 1
165 101 1
165 133 1
165 149 1
165 157 1
165 161 1
165 163 1
165 164 1
165 165 9.77E2
165 166 1
165 167 1
165 169 1
165 173 1
165 181 1
165 197 1
165 229 1
165 293 1
165 421 1
165 677 1
166 38 1
166 102 1
166 134 1
166 150 1
166 158 1
166 162 1
166 164 1
166 165 1
166 166 9.83E2
166 167 1
166 168 1
166 170 1
166 174 1
166 182 1
166 198 1
166 230 1
166 294 1
166 422 1
166 678 1
167 39 1
167 103 1
167 135 1
167 151 1
167 159 1
167 163 1
167 165 1
167 166 1
167 167 9.91E2
167 168 1
167 169 1
167 171 1
167 175 1
167 183 1
167 199 1
167 231 1
167 295 1
167 423 1
167 679 1
168 40 1
168 104 1
168 136 1
168 152 1
168 160 1
168 164 1
168 166 1
168 167 1
168 168 9.97E2
168 169 1
168 170 1
168 172 1
168 176 1
168 184 1
168 200 1
168 232 1
168 296 1
168 424 1
168 680 1
169 41 1
169 105 1
169 137 1
169 153 1
169 161 1
169 165 1
169 167 1
169 168 1
169 169 1.009E3
169 170 1
169 171 1
169 173 1
169 177 1
169 185 1
169 201 1
169 233 1
169 297 1
169 425 1
169 681 1
170 42 1
170 106 1
170 138 1
170 154 1
170 162 1
170 166 1
170 168 1
170 169 1
170 170 1.013E3
170 171 1
170 172 1
170 174 1
170 178 1
170 186 1
170 202 1
170 234 1
170 298 1
170 426 1
170 682 1
171 43 1
171 107 1
171 139 1
171 155 1
171 163 1
171 167 1
171 169 1
171 170 1
171 171 1.019E3
171 172 1
171 173 1
171 175 1
171 179 1
171 187 1
171 203 1
171 235 1
171 299 1
171 427 1
171 683 1
172 44 1
172 108 1
172 140 1
172 156 1
172 164 1
172 168 1
172 170 1
172 171 1
172 172 1.021E3
172 173 1
172 174 1
172 176 1
172 180 1
172 188 1
172 204 1
172 236 1
172 300 1
172 428 1
172 684 1
173 45 1
173 109 1
173 141 1
173 157 1
173 165 1
173 169 1
173 171 1
173 172 1
173 173 1.031E3
173 174 1
173 175 1
173 177 1
173 181 1
173 189 1
173 205 1
173 237 1
173 301 1
173 429 1
173 685 1
174 46 1
174 110 1
174 142 1
174 158 1
174 166 1
174 170 1
174 172 1
174 173 1
174 174 1.033E3
174 175 1
174 176 1
174 178 1
174 182 1
174 190 1
174 206 1
174 238 1
174 302 1
174 430 1
174 686 1
175 47 1
175 111 1
175 143 1
175 159 1
175 167 1
175 171 1
175 173 1
175 174 1
175 175 1.039E3
175 176 1
175 177 1
175 179 1
175 183 1
175 191 1
175 207 1
175 239 1
175 303 1
175 431 1
175 687 1
176 48 1
176 112 1
176 144 1
176 160 1
176 168 1
176 172 1
176 174 1
176 175 1
176 176 1.049E3
176 177 1
176 178 1
176 180 1
176 184 1
176 192 1
176 208 1
176 240 1
176 304 1
176 432 1
176 688 1
177 49 1
177 113 1
177 145 1
177 161 1
177 169 1
177 173 1
177 175 1
177 176 1
177 177 1.051E3
177 178 1
177 179 1
177 181 1
177 185 1
177 193 1
177 209 1
177 241 1
177 305 1
177 433 1
177 689 1
178 50 1
178 114 1
178 146 1
178 162 1
178 170 1
178 174 1
178 176 1
178 177 1
178 178 1.061E3
178 179 1
178 180 1
178 182 1
178 186 1
178 194 1
178 210 1
178 242 1
178 306 1
178 434 1
178 690 1
179 51 1
179 115 1
179 147 1
179 163 1
179 171 1
179 175 1
179 177 1
179 178 1
179 179 1.063E3
179 180 1
179 181 1
179 183 1
179 187 1
179 195 1
179 211 1
179 243 1
179 307 1
179 435 1
179 691 1
180 52 1
180 116 1
180 148 1
180 164 1
180 172 1
180 176 1
180 178 1
180 179 1
180 180 1.069E3
180 181 1
180 182 1
180 184 1
180 188 1
180 196 1
180 212 1
180 244 1
180 308 1
180 436 1
180 692 1
181 53 1
181 117 1
181 149 1
181 165 1
181 173 1
181 177 1
181 179 1
181 180 1
181 181 1.087E3
181 182 1
181 183 1
181 185 1
181 189 1
181 197 1
181 213 1
181 245 1
181 309 1
181 437 1
181 693 1
182 54 1
182 118 1
182 150 1
182 166 1
182 174 1
182 178 1
182 180 1
182 181 1
182 182 1.091E3
182 183 1
182 184 1
182 186 1
182 190 1
182 198 1
182 214 1
182 246 1
182 310 1
182 438 1
182 694 1
183 55 1
183 119 1
183 151 1
183 167 1
183 175 1
183 179 1
183 181 1
183 182 1
183 183 1.093E3
183 184 1
183 185 1
183 187 1
183 191 1
183 199 1
183 215 1
183 247 1
183 311 1
183 439 1
183 695 1
184 56 1
184 120 1
184 152 1
184 168 1
184 176 1
184 180 1
184 182 1
184 183 1
184 184 1.097E3
184 185 1
184 186 1
184 188 1
184 192 1
184 200 1
184 216 1
184 248 1
184 312 1
184 440 1
184 696 1
185 57 1
185 121 1
185 153 1
185 169 1
185 177 1
185 181 1
185 183 1
185 184 1
185 185 1.103E3
185 186 1
185 187 1
185 189 1
185 193 1
185 201 1
185 217 1
185 249 1
185 313 1
185 441 1
185 697 1
186 58 1
186 122 1
186 154 1
186 170 1
186 178 1
186 182 1
186 184 1
186 185 1
186 186 1.109E3
186 187 1
186 188 1
186 190 1
186 194 1
186 202 1
186 218 1
186 250 1
186 314 1
186 442 1
186 698 1
187 59 1
187 123 1
187 155 1
187 171 1
187 179 1
187 183 1
187 185 1
187 186 1
187 187 1.117E3
187 188 1
187 189 1
187 191 1
187 195 1
187 203 1
187 219 1
187 251 1
187 315 1
187 443 1
187 699 1
188 60 1
188 124 1
188 156 1
188 172 1
188 180 1
188 184 1
188 186 1
188 187 1
188 188 1.123E3
188 189 1
188 190 1
188 192 1
188 196 1
188 204 1
188 220 1
188 252 1
188 316 1
188 444 1
188 700 1
189 61 1
189 125 1
189 157 1
189 173 1
189 181 1
189 185 1
189 187 1
189 188 1
189 189 1.129E3
189 190 1
189 191 1
189 193 1
189 197 1
189 205 1
189 221 1
189 253 1
189 317 1
189 445 1
190 62 1
190 126 1
190 158 1
190 174 1
190 182 1
190 186 1
190 188 1
190 189 1
190 190 1.151E3
190 191 1
190 192 1
190 194 1
190 198 1
190 206 1
190 222 1
190 254 1
190 318 1
190 446 1
191 63 1
191 127 1
191 159 1
191 175 1
191 183 1
191 187 1
191 189 1
191 190 1
191 191 1.153E3
191 192 1
191 193 1
191 195 1
191 199 1
191 207 1
191 223 1
191 255 1
191 319 1
191 447 1
192 64 1
192 128 1
192 160 1
192 176 1
192 184 1
192 188 1
192 190 1
192 191 1
192 192 1.163E3
192 193 1
192 194 1
192 196 1
192 200 1
192 208 1
192 224 1
192 256 1
192 320 1
192 448 1
193 65 1
193 129 1
193 161 1
193 177 1
193 185 1
193 189 1
193 191 1
193 192 1
193 193 1.171E3
193 194 1
193 195 1
193 197 1
193 201 1
193 209 1
193 225 1
193 257 1
193 321 1
193 449 1
194 66 1
194 130 1
194 162 1
194 178 1
194 186 1
194 190 1
194 192 1
194 193 1
194 194 1.181E3
194 195 1
194 196 1
194 198 1
194 202 1
194 210 1
194 226 1
194 258 1
194 322 1
194 450 1
195 67 1
195 131 1
195 163 1
195 179 1
195 187 1
195 191 1
195 193 1
195 194 1
195 195 1.187E3
195 196 1
195 197 1
195 199 1
195 203 1
195 211 1
195 227 1
195 259 1
195 323 1
195 451 1
196 68 1
196 132 1
196 164 1
196 180 1
196 188 1
196 192 1
196 194 1
196 195 1
196 196 1.193E3
196 197 1
196 198 1
196 200 1
196 204 1
196 212 1
196 228 1
196 260 1
196 324 1
196 452 1
197 69 1
197 133 1
197 165 1
197 181 1
197 189 1
197 193 1
197 195 1
197 196 1
197 197 1.201E3
197 198 1
197 199 1
197 201 1
197 205 1
197 213 1
197 229 1
197 261 1
197 325 1
197 453 1
198 70 1
198 134 1
198 166 1
198 182 1
198 190 1
198 194 1
198 196 1
198 197 1
198 198 1.213E3
198 199 1
198 200 1
198 202 1
198 206 1
198 214 1
198 230 1
198 262 1
198 326 1
198 454 1
199 71 1
199 135 1
199 167 1
199 183 1
199 191 1
199 195 1
199 197 1
199 198 1
199 199 1.217E3
199 200 1
199 201 1
199 203 1
199 207 1
199 215 1
199 231 1
199 263 1
199 327 1
199 455 1
200 72 1
200 136 1
200 168 1
200 184 1
200 192 1
200 196 1
200 198 1
200 199 1
200 200 1.223E3
200 201 1
200 202 1
200 204 1
200 208 1
200 216 1
200 232 1
200 264 1
200 328 1
200 456 1
201 73 1
201 137 1
201 169 1
201 185 1
201 193 1
201 197 1
201 199 1
201 200 1
201 201 1.229E3
201 202 1
201 203 1
201 205 1
201 209 1
201 217 1
201 233 1
201 265 1
201 329 1
201 457 1
202 74 1
202 138 1
202 170 1
202 186 1
202 194 1
202 198 1
202 200 1
202 201 1
202 202 1.231E3
202 203 1
202 204 1
202 206 1
202 210 1
202 218 1
202 234 1
202 266 1
202 330 1
202 458 1
203 75 1
203 139 1
203 171 1
203 187 1
203 195 1
203 199 1
203 201 1
203 202 1
203 203 1.237E3
203 204 1
203 205 1
203 207 1
203 211 1
203 219 1
203 235 1
203 267 1
203 331 1
203 459 1
204 76 1
204 140 1
204 172 1
204 188 1
204 196 1
204 200 1
204 202 1
204 203 1
204 204 1.249E3
204 205 1
204 206 1
204 208 1
204 212 1
204 220 1
204 236 1
204 268 1
204 332 1
204 460 1
205 77 1
205 141 1
205 173 1
205 189 1
205 197 1
205 201 1
205 203 1
205 204 1
205 205 1.259E3
205 206 1
205 207 1
205 209 1
205 213 1
205 221 1
205 237 1
205 269 1
205 333 1
205 461 1
206 78 1
206 142 1
206 174 1
206 190 1
206 198 1
206 202 1
206 204 1
206 205 1
206 206 1.277E3
206 207 1
206 208 1
206 210 1
206 214 1
206 222 1
206 238 1
206 270 1
206 334 1
206 462 1
207 79 1
207 143 1
207 175 1
207 191 1
207 199 1
207 203 1
207 205 1
207 206 1
207 207 1.279E3
207 208 1
207 209 1
207 211 1
207 215 1
207 223 1
207 239 1
207 271 1
207 335 1
207 463 1
208 80 1
208 144 1
208 176 1
208 192 1
208 200 1
208 204 1
208 206 1
208 207 1
208 208 1.283E3
208 209 1
208 210 1
208 212 1
208 216 1
208 224 1
208 240 1
208 272 1
208 336 1
208 464 1
209 81 1
209 145 1
209 177 1
209 193 1
209 201 1
209 205 1
209 207 1
209 208 1
209 209 1.289E3
209 210 1
209 211 1
209 213 1
209 217 1
209 225 1
209 241 1
209 273 1
209 337 1
209 465 1
210 82 1
210 146 1
210 178 1
210 194 1
210 202 1
210 206 1
210 208 1
210 209 1
210 210 1.291E3
210 211 1
210 212 1
210 214 1
210 218 1
210 226 1
210 242 1
210 274 1
210 338 1
210 466 1
211 83 1
211 147 1
211 179 1
211 195 1
211 203 1
211 207 1
211 209 1
211 210 1
211 211 1.297E3
211 212 1
211 213 1
211 215 1
211 219 1
211 227 1
211 243 1
211 275 1
211 339 1
211 467 1
212 84 1
212 148 1
212 180 1
212 196 1
212 204 1
212 208 1
212 210 1
212 211 1
212 212 1.301E3
212 213 1
212 214 1
212 216 1
212 220 1
212 228 1
212 244 1
212 276 1
212 340 1
212 468 1
213 85 1
213 149 1
213 181 1
213 197 1
213 205 1
213 209 1
213 211 1
213 212 1
213 213 1.303E3
213 214 1
213 215 1
213 217 1
213 221 1
213 229 1
213 245 1
213 277 1
213 341 1
213 469 1
214 86 1
214 150 1
214 182 1
214 198 1
214 206 1
214 210 1
214 212 1
214 213 1
214 214 1.307E3
214 215 1
214 216 1
214 218 1
214 222 1
214 230 1
214 246 1
214 278 1
214 342 1
214 470 1
215 87 1
215 151 1
215 183 1
215 199 1
215 207 1
215 211 1
215 213 1
215 214 1
215 215 1.319E3
215 216 1
215 217 1
215 219 1
215 223 1
215 231 1
215 247 1
215 279 1
215 343 1
215 471 1
216 88 1
216 152 1
216 184 1
216 200 1
216 208 1
216 212 1
216 214 1
216 215 1
216 216 1.321E3
216 217 1
216 218 1
216 220 1
216 224 1
216 232 1
216 248 1
216 280 1
216 344 1
216 472 1
217 89 1
217 153 1
217 185 1
217 201 1
217 209 1
217 213 1
217 215 1
217 216 1
217 217 1.327E3
217 218 1
217 219 1
217 221 1
217 225 1
217 233 1
217 249 1
217 281 1
217 345 1
217 473 1
218 90 1
218 154 1
218 186 1
218 202 1
218 210 1
218 214 1
218 216 1
218 217 1
218 218 1.361E3
218 219 1
218 220 1
218 222 1
218 226 1
218 234 1
218 250 1
218 282 1
218 346 1
218 474 1
219 91 1
219 155 1
219 187 1
219 203 1
219 211 1
219 215 1
219 217 1
219 218 1
219 219 1.367E3
219 220 1
219 221 1
219 223 1
219 227 1
219 235 1
219 251 1
219 283 1
219 347 1
219 475 1
220 92 1
220 156 1
220 188 1
220 204 1
220 212 1
220 216 1
220 218 1
220 219 1
220 220 1.373E3
220 221 1
220 222 1
220 224 1
220 228 1
220 236 1
220 252 1
220 284 1
220 348 1
220 476 1
221 93 1
221 157 1
221 189 1
221 205 1
221 213 1
221 217 1
221 219 1
221 220 1
221 221 1.381E3
221 222 1
221 223 1
221 225 1
221 229 1
221 237 1
221 253 1
221 285 1
221 349 1
221 477 1
222 94 1
222 158 1
222 190 1
222 206 1
222 214 1
222 218 1
222 220 1
222 221 1
222 222 1.399E3
222 223 1
222 224 1
222 226 1
222 230 1
222 238 1
222 254 1
222 286 1
222 350 1
222 478 1
223 95 1
223 159 1
223 191 1
223 207 1
223 215 1
223 219 1
223 221 1
223 222 1
223 223 1.409E3
223 224 1
223 225 1
223 227 1
223 231 1
223 239 1
223 255 1
223 287 1
223 351 1
223 479 1
224 96 1
224 160 1
224 192 1
224 208 1
224 216 1
224 220 1
224 222 1
224 223 1
224 224 1.423E3
224 225 1
224 226 1
224 228 1
224 232 1
224 240 1
224 256 1
224 288 1
224 352 1
224 480 1
225 97 1
225 161 1
225 193 1
225 209 1
225 217 1
225 221 1
225 223 1
225 224 1
225 225 1.427E3
225 226 1
225 227 1
225 229 1
225 233 1
225 241 1
225 257 1
225 289 1
225 353 1
225 481 1
226 98 1
226 162 1
226 194 1
226 210 1
226 218 1
226 222 1
226 224 1
226 225 1
226 226 1.429E3
226 227 1
226 228 1
226 230 1
226 234 1
226 242 1
226 258 1
226 290 1
226 354 1
226 482 1
227 99 1
227 163 1
227 195 1
227 211 1
227 219 1
227 223 1
227 225 1
227 226 1
227 227 1.433E3
227 228 1
227 229 1
227 231 1
227 235 1
227 243 1
227 259 1
227 291 1
227 355 1
227 483 1
228 100 1
228 164 1
228 196 1
228 212 1
228 220 1
228 224 1
228 226 1
228 227 1
228 228 1.439E3
228 229 1
228 230 1
228 232 1
228 236 1
228 244 1
228 260 1
228 292 1
228 356 1
228 484 1
229 101 1
229 165 1
229 197 1
229 213 1
229 221 1
229 225 1
229 227 1
229 228 1
229 229 1.447E3
229 230 1
229 231 1
229 233 1
229 237 1
229 245 1
229 261 1
229 293 1
229 357 1
229 485 1
230 102 1
230 166 1
230 198 1
230 214 1
230 222 1
230 226 1
230 228 1
230 229 1
230 230 1.451E3
230 231 1
230 232 1
230 234 1
230 238 1
230 246 1
230 262 1
230 294 1
230 358 1
230 486 1
231 103 1
231 167 1
231 199 1
231 215 1
231 223 1
231 227 1
231 229 1
231 230 1
231 231 1.453E3
231 232 1
231 233 1
231 235 1
231 239 1
231 247 1
231 263 1
231 295 1
231 359 1
231 487 1
232 104 1
232 168 1
232 200 1
232 216 1
232 224 1
232 228 1
232 230 1
232 231 1
232 232 1.459E3
232 233 1
232 234 1
232 236 1
232 240 1
232 248 1
232 264 1
232 296 1
232 360 1
232 488 1
233 105 1
233 169 1
233 201 1
233 217 1
233 225 1
233 229 1
233 231 1
233 232 1
233 233 1.471E3
233 234 1
233 235 1
233 237 1
233 241 1
233 249 1
233 265 1
233 297 1
233 361 1
233 489 1
234 106 1
234 170 1
234 202 1
234 218 1
234 226 1
234 230 1
234 232 1
234 233 1
234 234 1.481E3
234 235 1
234 236 1
234 238 1
234 242 1
234 250 1
234 266 1
234 298 1
234 362 1
234 490 1
235 107 1
235 171 1
235 203 1
235 219 1
235 227 1
235 231 1
235 233 1
235 234 1
235 235 1.483E3
235 236 1
235 237 1
235 239 1
235 243 1
235 251 1
235 267 1
235 299 1
235 363 1
235 491 1
236 108 1
236 172 1
236 204 1
236 220 1
236 228 1
236 232 1
236 234 1
236 235 1
236 236 1.487E3
236 237 1
236 238 1
236 240 1
236 244 1
236 252 1
236 268 1
236 300 1
236 364 1
236 492 1
237 109 1
237 173 1
237 205 1
237 221 1
237 229 1
237 233 1
237 235 1
237 236 1
237 237 1.489E3
237 238 1
237 239 1
237 241 1
237 245 1
237 253 1
237 269 1
237 301 1
237 365 1
237 493 1
238 110 1
238 174 1
238 206 1
238 222 1
238 230 1
238 234 1
238 236 1
238 237 1
238 238 1.493E3
238 239 1
238 240 1
238 242 1
238 246 1
238 254 1
238 270 1
238 302 1
238 366 1
238 494 1
239 111 1
239 175 1
239 207 1
239 223 1
239 231 1
239 235 1
239 237 1
239 238 1
239 239 1.499E3
239 240 1
239 241 1
239 243 1
239 247 1
239 255 1
239 271 1
239 303 1
239 367 1
239 495 1
240 112 1
240 176 1
240 208 1
240 224 1
240 232 1
240 236 1
240 238 1
240 239 1
240 240 1.511E3
240 241 1
240 242 1
240 244 1
240 248 1
240 256 1
240 272 1
240 304 1
240 368 1
240 496 1
241 113 1
241 177 1
241 209 1
241 225 1
241 233 1
241 237 1
241 239 1
241 240 1
241 241 1.523E3
241 242 1
241 243 1
241 245 1
241 249 1
241 257 1
241 273 1
241 305 1
241 369 1
241 497 1
242 114 1
242 178 1
242 210 1
242 226 1
242 234 1
242 238 1
242 240 1
242 241 1
242 242 1.531E3
242 243 1
242 244 1
242 246 1
242 250 1
242 258 1
242 274 1
242 306 1
242 370 1
242 498 1
243 115 1
243 179 1
243 211 1
243 227 1
243 235 1
243 239 1
243 241 1
243 242 1
243 243 1.543E3
243 244 1
243 245 1
243 247 1
243 251 1
243 259 1
243 275 1
243 307 1
243 371 1
243 499 1
244 116 1
244 180 1
244 212 1
244 228 1
244 236 1
244 240 1
244 242 1
244 243 1
244 244 1.549E3
244 245 1
244 246 1
244 248 1
244 252 1
244 260 1
244 276 1
244 308 1
244 372 1
244 500 1
245 117 1
245 181 1
245 213 1
245 229 1
245 237 1
245 241 1
245 243 1
245 244 1
245 245 1.553E3
245 246 1
245 247 1
245 249 1
245 253 1
245 261 1
245 277 1
245 309 1
245 373 1
245 501 1
246 118 1
246 182 1
246 214 1
246 230 1
246 238 1
246 242 1
246 244 1
246 245 1
246 246 1.559E3
246 247 1
246 248 1
246 250 1
246 254 1
246 262 1
246 278 1
246 310 1
246 374 1
246 502 1
247 119 1
247 183 1
247 215 1
247 231 1
247 239 1
247 243 1
247 245 1
247 246 1
247 247 1.567E3
247 248 1
247 249 1
247 251 1
247 255 1
247 263 1
247 279 1
247 311 1
247 375 1
247 503 1
248 120 1
248 184 1
248 216 1
248 232 1
248 240 1
248 244 1
248 246 1
248 247 1
248 248 1.571E3
248 249 1
248 250 1
248 252 1
248 256 1
248 264 1
248 280 1
248 312 1
248 376 1
248 504 1
249 121 1
249 185 1
249 217 1
249 233 1
249 241 1
249 245 1
249 247 1
249 248 1
249 249 1.579E3
249 250 1
249 251 1
249 253 1
249 257 1
249 265 1
249 281 1
249 313 1
249 377 1
249 505 1
250 122 1
250 186 1
250 218 1
250 234 1
250 242 1
250 246 1
250 248 1
250 249 1
250 250 1.583E3
250 251 1
250 252 1
250 254 1
250 258 1
250 266 1
250 282 1
250 314 1
250 378 1
250 506 1
251 123 1
251 187 1
251 219 1
251 235 1
251 243 1
251 247 1
251 249 1
251 250 1
251 251 1.597E3
251 252 1
251 253 1
251 255 1
251 259 1
251 267 1
251 283 1
251 315 1
251 379 1
251 507 1
252 124 1
252 188 1
252 220 1
252 236 1
252 244 1
252 248 1
252 250 1
252 251 1
252 252 1.601E3
252 253 1
252 254 1
252 256 1
252 260 1
252 268 1
252 284 1
252 316 1
252 380 1
252 508 1
253 125 1
253 189 1
253 221 1
253 237 1
253 245 1
253 249 1
253 251 1
253 252 1
253 253 1.607E3
253 254 1
253 255 1
253 257 1
253 261 1
253 269 1
253 285 1
253 317 1
253 381 1
253 509 1
254 126 1
254 190 1
254 222 1
254 238 1
254 246 1
254 250 1
254 252 1
254 253 1
254 254 1.609E3
254 255 1
254 256 1
254 258 1
254 262 1
254 270 1
254 286 1
254 318 1
254 382 1
254 510 1
255 127 1
255 191 1
255 223 1
255 239 1
255 247 1
255 251 1
255 253 1
255 254 1
255 255 1.613E3
255 256 1
255 257 1
255 259 1
255 263 1
255 271 1
255 287 1
255 319 1
255 383 1
255 511 1
256 128 1
256 192 1
256 224 1
256 240 1
256 248 1
256 252 1
256 254 1
256 255 1
256 256 1.619E3
256 257 1
256 258 1
256 260 1
256 264 1
256 272 1
256 288 1
256 320 1
256 384 1
256 512 1
257 1 1
257 129 1
257 193 1
257 225 1
257 241 1
257 249 1
257 253 1
257 255 1
257 256 1
257 257 1.621E3
257 258 1
257 259 1
257 261 1
257 265 1
257 273 1
257 289 1
257 321 1
257 385 1
257 513 1
258 2 1
258 130 1
258 194 1
258 226 1
258 242 1
258 250 1
258 254 1
258 256 1
258 257 1
258 258 1.627E3
258 259 1
258 260 1
258 262 1
258 266 1
258 274 1
258 290 1
258 322 1
258 386 1
258 514 1
259 3 1
259 131 1
259 195 1
259 227 1
259 243 1
259 251 1
259 255 1
259 257 1
259 258 1
259 259 1.637E3
259 260 1
259 261 1
259 263 1
259 267 1
259 275 1
259 291 1
259 323 1
259 387 1
259 515 1
260 4 1
260 132 1
260 196 1
260 228 1
260 244 1
260 252 1
260 256 1
260 258 1
260 259 1
260 260 1.657E3
260 261 1
260 262 1
260 264 1
260 268 1
260 276 1
260 292 1
260 324 1
260 388 1
260 516 1
261 5 1
261 133 1
261 197 1
261 229 1
261 245 1
261 253 1
261 257 1
261 259 1
261 260 1
261 261 1.663E3
261 262 1
261 263 1
261 265 1
261 269 1
261 277 1
261 293 1
261 325 1
261 389 1
261 517 1
262 6 1
262 134 1
262 198 1
262 230 1
262 246 1
262 254 1
262 258 1
262 260 1
262 261 1
262 262 1.667E3
262 263 1
262 264 1
262 266 1
262 270 1
262 278 1
262 294 1
262 326 1
262 390 1
262 518 1
263 7 1
263 135 1
263 199 1
263 231 1
263 247 1
263 255 1
263 259 1
263 261 1
263 262 1
263 263 1.669E3
263 264 1
263 265 1
263 267 1
263 271 1
263 279 1
263 295 1
263 327 1
263 391 1
263 519 1
264 8 1
264 136 1
264 200 1
264 232 1
264 248 1
264 256 1
264 260 1
264 262 1
264 263 1
264 264 1.693E3
264 265 1
264 266 1
264 268 1
264 272 1
264 280 1
264 296 1
264 328 1
264 392 1
264 520 1
265 9 1
265 137 1
265 201 1
265 233 1
265 249 1
265 257 1
265 261 1
265 263 1
265 264 1
265 265 1.697E3
265 266 1
265 267 1
265 269 1
265 273 1
265 281 1
265 297 1
265 329 1
265 393 1
265 521 1
266 10 1
266 138 1
266 202 1
266 234 1
266 250 1
266 258 1
266 262 1
266 264 1
266 265 1
266 266 1.699E3
266 267 1
266 268 1
266 270 1
266 274 1
266 282 1
266 298 1
266 330 1
266 394 1
266 522 1
267 11 1
267 139 1
267 203 1
267 235 1
267 251 1
267 259 1
267 263 1
267 265 1
267 266 1
267 267 1.709E3
267 268 1
267 269 1
267 271 1
267 275 1
267 283 1
267 299 1
267 331 1
267 395 1
267 523 1
268 12 1
268 140 1
268 204 1
268 236 1
268 252 1
268 260 1
268 264 1
268 266 1
268 267 1
268 268 1.721E3
268 269 1
268 270 1
268 272 1
268 276 1
268 284 1
268 300 1
268 332 1
268 396 1
268 524 1
269 13 1
269 141 1
269 205 1
269 237 1
269 253 1
269 261 1
269 265 1
269 267 1
269 268 1
269 269 1.723E3
269 270 1
269 271 1
269 273 1
269 277 1
269 285 1
269 301 1
269 333 1
269 397 1
269 525 1
270 14 1
270 142 1
270 206 1
270 238 1
270 254 1
270 262 1
270 266 1
270 268 1
270 269 1
270 270 1.733E3
270 271 1
270 272 1
270 274 1
270 278 1
270 286 1
270 302 1
270 334 1
270 398 1
270 526 1
271 15 1
271 143 1
271 207 1
271 239 1
271 255 1
271 263 1
271 267 1
271 269 1
271 270 1
271 271 1.741E3
271 272 1
271 273 1
271 275 1
271 279 1
271 287 1
271 303 1
271 335 1
271 399 1
271 527 1
272 16 1
272 144 1
272 208 1
272 240 1
272 256 1
272 264 1
272 268 1
272 270 1
272 271 1
272 272 1.747E3
272 273 1
272 274 1
272 276 1
272 280 1
272 288 1
272 304 1
272 336 1
272 400 1
272 528 1
273 17 1
273 145 1
273 209 1
273 241 1
273 257 1
273 265 1
273 269 1
273 271 1
273 272 1
273 273 1.753E3
273 274 1
273 275 1
273 277 1
273 281 1
273 289 1
273 305 1
273 337 1
273 401 1
273 529 1
274 18 1
274 146 1
274 210 1
274 242 1
274 258 1
274 266 1
274 270 1
274 272 1
274 273 1
274 274 1.759E3
274 275 1
274 276 1
274 278 1
274 282 1
274 290 1
274 306 1
274 338 1
274 402 1
274 530 1
275 19 1
275 147 1
275 211 1
275 243 1
275 259 1
275 267 1
275 271 1
275 273 1
275 274 1
275 275 1.777E3
275 276 1
275 277 1
275 279 1
275 283 1
275 291 1
275 307 1
275 339 1
275 403 1
275 531 1
276 20 1
276 148 1
276 212 1
276 244 1
276 260 1
276 268 1
276 272 1
276 274 1
276 275 1
276 276 1.783E3
276 277 1
276 278 1
276 280 1
276 284 1
276 292 1
276 308 1
276 340 1
276 404 1
276 532 1
277 21 1
277 149 1
277 213 1
277 245 1
277 261 1
277 269 1
277 273 1
277 275 1
277 276 1
277 277 1.787E3
277 278 1
277 279 1
277 281 1
277 285 1
277 293 1
277 309 1
277 341 1
277 405 1
277 533 1
278 22 1
278 150 1
278 214 1
278 246 1
278 262 1
278 270 1
278 274 1
278 276 1
278 277 1
278 278 1.789E3
278 279 1
278 280 1
278 282 1
278 286 1
278 294 1
278 310 1
278 342 1
278 406 1
278 534 1
279 23 1
279 151 1
279 215 1
279 247 1
279 263 1
279 271 1
279 275 1
279 277 1
279 278 1
279 279 1.801E3
279 280 1
279 281 1
279 283 1
279 287 1
279 295 1
279 311 1
279 343 1
279 407 1
279 535 1
280 24 1
280 152 1
280 216 1
280 248 1
280 264 1
280 272 1
280 276 1
280 278 1
280 279 1
280 280 1.811E3
280 281 1
280 282 1
280 284 1
280 288 1
280 296 1
280 312 1
280 344 1
280 408 1
280 536 1
281 25 1
281 153 1
281 217 1
281 249 1
281 265 1
281 273 1
281 277 1
281 279 1
281 280 1
281 281 1.823E3
281 282 1
281 283 1
281 285 1
281 289 1
281 297 1
281 313 1
281 345 1
281 409 1
281 537 1
282 26 1
282 154 1
282 218 1
282 250 1
282 266 1
282 274 1
282 278 1
282 280 1
282 281 1
282 282 1.831E3
282 283 1
282 284 1
282 286 1
282 290 1
282 298 1
282 314 1
282 346 1
282 410 1
282 538 1
283 27 1
283 155 1
283 219 1
283 251 1
283 267 1
283 275 1
283 279 1
283 281 1
283 282 1
283 283 1.847E3
283 284 1
283 285 1
283 287 1
283 291 1
283 299 1
283 315 1
283 347 1
283 411 1
283 539 1
284 28 1
284 156 1
284 220 1
284 252 1
284 268 1
284 276 1
284 280 1
284 282 1
284 283 1
284 284 1.861E3
284 285 1
284 286 1
284 288 1
284 292 1
284 300 1
284 316 1
284 348 1
284 412 1
284 540 1
285 29 1
285 157 1
285 221 1
285 253 1
285 269 1
285 277 1
285 281 1
285 283 1
285 284 1
285 285 1.867E3
285 286 1
285 287 1
285 289 1
285 293 1
285 301 1
285 317 1
285 349 1
285 413 1
285 541 1
286 30 1
286 158 1
286 222 1
286 254 1
286 270 1
286 278 1
286 282 1
286 284 1
286 285 1
286 286 1.871E3
286 287 1
286 288 1
286 290 1
286 294 1
286 302 1
286 318 1
286 350 1
286 414 1
286 542 1
287 31 1
287 159 1
287 223 1
287 255 1
287 271 1
287 279 1
287 283 1
287 285 1
287 286 1
287 287 1.873E3
287 288 1
287 289 1
287 291 1
287 295 1
287 303 1
287 319 1
287 351 1
287 415 1
287 543 1
288 32 1
288 160 1
288 224 1
288 256 1
288 272 1
288 280 1
288 284 1
288 286 1
288 287 1
288 288 1.877E3
288 289 1
288 290 1
288 292 1
288 296 1
288 304 1
288 320 1
288 352 1
288 416 1
288 544 1
289 33 1
289 161 1
289 225 1
289 257 1
289 273 1
289 281 1
289 285 1
289 287 1
289 288 1
289 289 1.879E3
289 290 1
289 291 1
289 293 1
289 297 1
289 305 1
289 321 1
289 353 1
289 417 1
289 545 1
290 34 1
290 162 1
290 226 1
290 258 1
290 274 1
290 282 1
290 286 1
290 288 1
290 289 1
290 290 1.889E3
290 291 1
290 292 1
290 294 1
290 298 1
290 306 1
290 322 1
290 354 1
290 418 1
290 546 1
291 35 1
291 163 1
291 227 1
291 259 1
291 275 1
291 283 1
291 287 1
291 289 1
291 290 1
291 291 1.901E3
291 292 1
291 293 1
291 295 1
291 299 1
291 307 1
291 323 1
291 355 1
291 419 1
291 547 1
292 36 1
292 164 1
292 228 1
292 260 1
292 276 1
292 284 1
292 288 1
292 290 1
292 291 1
292 292 1.907E3
292 293 1
292 294 1
292 296 1
292 300 1
292 308 1
292 324 1
292 356 1
292 420 1
292 548 1
293 37 1
293 165 1
293 229 1
293 261 1
293 277 1
293 285 1
293 289 1
293 291 1
293 292 1
293 293 1.913E3
293 294 1
293 295 1
293 297 1
293 301 1
293 309 1
293 325 1
293 357 1
293 421 1
293 549 1
294 38 1
294 166 1
294 230 1
294 262 1
294 278 1
294 286 1
294 290 1
294 292 1
294 293 1
294 294 1.931E3
294 295 1
294 296 1
294 298 1
294 302 1
294 310 1
294 326 1
294 358 1
294 422 1
294 550 1
295 39 1
295 167 1
295 231 1
295 263 1
295 279 1
295 287 1
295 291 1
295 293 1
295 294 1
295 295 1.933E3
295 296 1
295 297 1
295 299 1
295 303 1
295 311 1
295 327 1
295 359 1
295 423 1
295 551 1
296 40 1
296 168 1
296 232 1
296 264 1
296 280 1
296 288 1
296 292 1
296 294 1
296 295 1
296 296 1.949E3
296 297 1
296 298 1
296 300 1
296 304 1
296 312 1
296 328 1
296 360 1
296 424 1
296 552 1
297 41 1
297 169 1
297 233 1
297 265 1
297 281 1
297 289 1
297 293 1
297 295 1
297 296 1
297 297 1.951E3
297 298 1
297 299 1
297 301 1
297 305 1
297 313 1
297 329 1
297 361 1
297 425 1
297 553 1
298 42 1
298 170 1
298 234 1
298 266 1
298 282 1
298 290 1
298 294 1
298 296 1
298 297 1
298 298 1.973E3
298 299 1
298 300 1
298 302 1
298 306 1
298 314 1
298 330 1
298 362 1
298 426 1
298 554 1
299 43 1
299 171 1
299 235 1
299 267 1
299 283 1
299 291 1
299 295 1
299 297 1
299 298 1
299 299 1.979E3
299 300 1
299 301 1
299 303 1
299 307 1
299 315 1
299 331 1
299 363 1
299 427 1
299 555 1
300 44 1
300 172 1
300 236 1
300 268 1
300 284 1
300 292 1
300 296 1
300 298 1
300 299 1
300 300 1.987E3
300 301 1
300 302 1
300 304 1
300 308 1
300 316 1
300 332 1
300 364 1
300 428 1
300 556 1
301 45 1
301 173 1
301 237 1
301 269 1
301 285 1
301 293 1
301 297 1
301 299 1
301 300 1
301 301 1.993E3
301 302 1
301 303 1
301 305 1
301 309 1
301 317 1
301 333 1
301 365 1
301 429 1
301 557 1
302 46 1
302 174 1
302 238 1
302 270 1
302 286 1
302 294 1
302 298 1
302 300 1
302 301 1
302 302 1.997E3
302 303 1
302 304 1
302 306 1
302 310 1
302 318 1
302 334 1
302 366 1
302 430 1
302 558 1
303 47 1
303 175 1
303 239 1
303 271 1
303 287 1
303 295 1
303 299 1
303 301 1
303 302 1
303 303 1.999E3
303 304 1
303 305 1
303 307 1
303 311 1
303 319 1
303 335 1
303 367 1
303 431 1
303 559 1
304 48 1
304 176 1
304 240 1
304 272 1
304 288 1
304 296 1
304 300 1
304 302 1
304 303 1
304 304 2.003E3
304 305 1
304 306 1
304 308 1
304 312 1
304 320 1
304 336 1
304 368 1
304 432 1
304 560 1
305 49 1
305 177 1
305 241 1
305 273 1
305 289 1
305 297 1
305 301 1
305 303 1
305 304 1
305 305 2.011E3
305 306 1
305 307 1
305 309 1
305 313 1
305 321 1
305 337 1
305 369 1
305 433 1
305 561 1
306 50 1
306 178 1
306 242 1
306 274 1
306 290 1
306 298 1
306 302 1
306 304 1
306 305 1
306 306 2.017E3
306 307 1
306 308 1
306 310 1
306 314 1
306 322 1
306 338 1
306 370 1
306 434 1
306 562 1
307 51 1
307 179 1
307 243 1
307 275 1
307 291 1
307 299 1
307 303 1
307 305 1
307 306 1
307 307 2.027E3
307 308 1
307 309 1
307 311 1
307 315 1
307 323 1
307 339 1
307 371 1
307 435 1
307 563 1
308 52 1
308 180 1
308 244 1
308 276 1
308 292 1
308 300 1
308 304 1
308 306 1
308 307 1
308 308 2.029E3
308 309 1
308 310 1
308 312 1
308 316 1
308 324 1
308 340 1
308 372 1
308 436 1
308 564 1
309 53 1
309 181 1
309 245 1
309 277 1
309 293 1
309 301 1
309 305 1
309 307 1
309 308 1
309 309 2.039E3
309 310 1
309 311 1
309 313 1
309 317 1
309 325 1
309 341 1
309 373 1
309 437 1
309 565 1
310 54 1
310 182 1
310 246 1
310 278 1
310 294 1
310 302 1
310 306 1
310 308 1
310 309 1
310 310 2.053E3
310 311 1
310 312 1
310 314 1
310 318 1
310 326 1
310 342 1
310 374 1
310 438 1
310 566 1
311 55 1
311 183 1
311 247 1
311 279 1
311 295 1
311 303 1
311 307 1
311 309 1
311 310 1
311 311 2.063E3
311 312 1
311 313 1
311 315 1
311 319 1
311 327 1
311 343 1
311 375 1
311 439 1
311 567 1
312 56 1
312 184 1
312 248 1
312 280 1
312 296 1
312 304 1
312 308 1
312 310 1
312 311 1
312 312 2.069E3
312 313 1
312 314 1
312 316 1
312 320 1
312 328 1
312 344 1
312 376 1
312 440 1
312 568 1
313 57 1
313 185 1
313 249 1
313 281 1
313 297 1
313 305 1
313 309 1
313 311 1
313 312 1
313 313 2.081E3
313 314 1
313 315 1
313 317 1
313 321 1
313 329 1
313 345 1
313 377 1
313 441 1
313 569 1
314 58 1
314 186 1
314 250 1
314 282 1
314 298 1
314 306 1
314 310 1
314 312 1
314 313 1
314 314 2.083E3
314 315 1
314 316 1
314 318 1
314 322 1
314 330 1
314 346 1
314 378 1
314 442 1
314 570 1
315 59 1
315 187 1
315 251 1
315 283 1
315 299 1
315 307 1
315 311 1
315 313 1
315 314 1
315 315 2.087E3
315 316 1
315 317 1
315 319 1
315 323 1
315 331 1
315 347 1
315 379 1
315 443 1
315 571 1
316 60 1
316 188 1
316 252 1
316 284 1
316 300 1
316 308 1
316 312 1
316 314 1
316 315 1
316 316 2.089E3
316 317 1
316 318 1
316 320 1
316 324 1
316 332 1
316 348 1
316 380 1
316 444 1
316 572 1
317 61 1
317 189 1
317 253 1
317 285 1
317 301 1
317 309 1
317 313 1
317 315 1
317 316 1
317 317 2.099E3
317 318 1
317 319 1
317 321 1
317 325 1
317 333 1
317 349 1
317 381 1
317 445 1
317 573 1
318 62 1
318 190 1
318 254 1
318 286 1
318 302 1
318 310 1
318 314 1
318 316 1
318 317 1
318 318 2.111E3
318 319 1
318 320 1
318 322 1
318 326 1
318 334 1
318 350 1
318 382 1
318 446 1
318 574 1
319 63 1
319 191 1
319 255 1
319 287 1
319 303 1
319 311 1
319 315 1
319 317 1
319 318 1
319 319 2.113E3
319 320 1
319 321 1
319 323 1
319 327 1
319 335 1
319 351 1
319 383 1
319 447 1
319 575 1
320 64 1
320 192 1
320 256 1
320 288 1
320 304 1
320 312 1
320 316 1
320 318 1
320 319 1
320 320 2.129E3
320 321 1
320 322 1
320 324 1
320 328 1
320 336 1
320 352 1
320 384 1
320 448 1
320 576 1
321 65 1
321 193 1
321 257 1
321 289 1
321 305 1
321 313 1
321 317 1
321 319 1
321 320 1
321 321 2.131E3
321 322 1
321 323 1
321 325 1
321 329 1
321 337 1
321 353 1
321 385 1
321 449 1
321 577 1
322 66 1
322 194 1
322 258 1
322 290 1
322 306 1
322 314 1
322 318 1
322 320 1
322 321 1
322 322 2.137E3
322 323 1
322 324 1
322 326 1
322 330 1
322 338 1
322 354 1
322 386 1
322 450 1
322 578 1
323 67 1
323 195 1
323 259 1
323 291 1
323 307 1
323 315 1
323 319 1
323 321 1
323 322 1
323 323 2.141E3
323 324 1
323 325 1
323 327 1
323 331 1
323 339 1
323 355 1
323 387 1
323 451 1
323 579 1
324 68 1
324 196 1
324 260 1
324 292 1
324 308 1
324 316 1
324 320 1
324 322 1
324 323 1
324 324 2.143E3
324 325 1
324 326 1
324 328 1
324 332 1
324 340 1
324 356 1
324 388 1
324 452 1
324 580 1
325 69 1
325 197 1
325 261 1
325 293 1
325 309 1
325 317 1
325 321 1
325 323 1
325 324 1
325 325 2.153E3
325 326 1
325 327 1
325 329 1
325 333 1
325 341 1
325 357 1
325 389 1
325 453 1
325 581 1
326 70 1
326 198 1
326 262 1
326 294 1
326 310 1
326 318 1
326 322 1
326 324 1
326 325 1
326 326 2.161E3
326 327 1
326 328 1
326 330 1
326 334 1
326 342 1
326 358 1
326 390 1
326 454 1
326 582 1
327 71 1
327 199 1
327 263 1
327 295 1
327 311 1
327 319 1
327 323 1
327 325 1
327 326 1
327 327 2.179E3
327 328 1
327 329 1
327 331 1
327 335 1
327 343 1
327 359 1
327 391 1
327 455 1
327 583 1
328 72 1
328 200 1
328 264 1
328 296 1
328 312 1
328 320 1
328 324 1
328 326 1
328 327 1
328 328 2.203E3
328 329 1
328 330 1
328 332 1
328 336 1
328 344 1
328 360 1
328 392 1
328 456 1
328 584 1
329 73 1
329 201 1
329 265 1
329 297 1
329 313 1
329 321 1
329 325 1
329 327 1
329 328 1
329 329 2.207E3
329 330 1
329 331 1
329 333 1
329 337 1
329 345 1
329 361 1
329 393 1
329 457 1
329 585 1
330 74 1
330 202 1
330 266 1
330 298 1
330 314 1
330 322 1
330 326 1
330 328 1
330 329 1
330 330 2.213E3
330 331 1
330 332 1
330 334 1
330 338 1
330 346 1
330 362 1
330 394 1
330 458 1
330 586 1
331 75 1
331 203 1
331 267 1
331 299 1
331 315 1
331 323 1
331 327 1
331 329 1
331 330 1
331 331 2.221E3
331 332 1
331 333 1
331 335 1
331 339 1
331 347 1
331 363 1
331 395 1
331 459 1
331 587 1
332 76 1
332 204 1
332 268 1
332 300 1
332 316 1
332 324 1
332 328 1
332 330 1
332 331 1
332 332 2.237E3
332 333 1
332 334 1
332 336 1
332 340 1
332 348 1
332 364 1
332 396 1
332 460 1
332 588 1
333 77 1
333 205 1
333 269 1
333 301 1
333 317 1
333 325 1
333 329 1
333 331 1
333 332 1
333 333 2.239E3
333 334 1
333 335 1
333 337 1
333 341 1
333 349 1
333 365 1
333 397 1
333 461 1
333 589 1
334 78 1
334 206 1
334 270 1
334 302 1
334 318 1
334 326 1
334 330 1
334 332 1
334 333 1
334 334 2.243E3
334 335 1
334 336 1
334 338 1
334 342 1
334 350 1
334 366 1
334 398 1
334 462 1
334 590 1
335 79 1
335 207 1
335 271 1
335 303 1
335 319 1
335 327 1
335 331 1
335 333 1
335 334 1
335 335 2.251E3
335 336 1
335 337 1
335 339 1
335 343 1
335 351 1
335 367 1
335 399 1
335 463 1
335 591 1
336 80 1
336 208 1
336 272 1
336 304 1
336 320 1
336 328 1
336 332 1
336 334 1
336 335 1
336 336 2.267E3
336 337 1
336 338 1
336 340 1
336 344 1
336 352 1
336 368 1
336 400 1
336 464 1
336 592 1
337 81 1
337 209 1
337 273 1
337 305 1
337 321 1
337 329 1
337 333 1
337 335 1
337 336 1
337 337 2.269E3
337 338 1
337 339 1
337 341 1
337 345 1
337 353 1
337 369 1
337 401 1
337 465 1
337 593 1
338 82 1
338 210 1
338 274 1
338 306 1
338 322 1
338 330 1
338 334 1
338 336 1
338 337 1
338 338 2.273E3
338 339 1
338 340 1
338 342 1
338 346 1
338 354 1
338 370 1
338 402 1
338 466 1
338 594 1
339 83 1
339 211 1
339 275 1
339 307 1
339 323 1
339 331 1
339 335 1
339 337 1
339 338 1
339 339 2.281E3
339 340 1
339 341 1
339 343 1
339 347 1
339 355 1
339 371 1
339 403 1
339 467 1
339 595 1
340 84 1
340 212 1
340 276 1
340 308 1
340 324 1
340 332 1
340 336 1
340 338 1
340 339 1
340 340 2.287E3
340 341 1
340 342 1
340 344 1
340 348 1
340 356 1
340 372 1
340 404 1
340 468 1
340 596 1
341 85 1
341 213 1
341 277 1
341 309 1
341 325 1
341 333 1
341 337 1
341 339 1
341 340 1
341 341 2.293E3
341 342 1
341 343 1
341 345 1
341 349 1
341 357 1
341 373 1
341 405 1
341 469 1
341 597 1
342 86 1
342 214 1
342 278 1
342 310 1
342 326 1
342 334 1
342 338 1
342 340 1
342 341 1
342 342 2.297E3
342 343 1
342 344 1
342 346 1
342 350 1
342 358 1
342 374 1
342 406 1
342 470 1
342 598 1
343 87 1
343 215 1
343 279 1
343 311 1
343 327 1
343 335 1
343 339 1
343 341 1
343 342 1
343 343 2.309E3
343 344 1
343 345 1
343 347 1
343 351 1
343 359 1
343 375 1
343 407 1
343 471 1
343 599 1
344 88 1
344 216 1
344 280 1
344 312 1
344 328 1
344 336 1
344 340 1
344 342 1
344 343 1
344 344 2.311E3
344 345 1
344 346 1
344 348 1
344 352 1
344 360 1
344 376 1
344 408 1
344 472 1
344 600 1
345 89 1
345 217 1
345 281 1
345 313 1
345 329 1
345 337 1
345 341 1
345 343 1
345 344 1
345 345 2.333E3
345 346 1
345 347 1
345 349 1
345 353 1
345 361 1
345 377 1
345 409 1
345 473 1
345 601 1
346 90 1
346 218 1
346 282 1
346 314 1
346 330 1
346 338 1
346 342 1
346 344 1
346 345 1
346 346 2.339E3
346 347 1
346 348 1
346 350 1
346 354 1
346 362 1
346 378 1
346 410 1
346 474 1
346 602 1
347 91 1
347 219 1
347 283 1
347 315 1
347 331 1
347 339 1
347 343 1
347 345 1
347 346 1
347 347 2.341E3
347 348 1
347 349 1
347 351 1
347 355 1
347 363 1
347 379 1
347 411 1
347 475 1
347 603 1
348 92 1
348 220 1
348 284 1
348 316 1
348 332 1
348 340 1
348 344 1
348 346 1
348 347 1
348 348 2.347E3
348 349 1
348 350 1
348 352 1
348 356 1
348 364 1
348 380 1
348 412 1
348 476 1
348 604 1
349 93 1
349 221 1
349 285 1
349 317 1
349 333 1
349 341 1
349 345 1
349 347 1
349 348 1
349 349 2.351E3
349 350 1
349 351 1
349 353 1
349 357 1
349 365 1
349 381 1
349 413 1
349 477 1
349 605 1
350 94 1
350 222 1
350 286 1
350 318 1
350 334 1
350 342 1
350 346 1
350 348 1
350 349 1
350 350 2.357E3
350 351 1
350 352 1
350 354 1
350 358 1
350 366 1
350 382 1
350 414 1
350 478 1
350 606 1
351 95 1
351 223 1
351 287 1
351 319 1
351 335 1
351 343 1
351 347 1
351 349 1
351 350 1
351 351 2.371E3
351 352 1
351 353 1
351 355 1
351 359 1
351 367 1
351 383 1
351 415 1
351 479 1
351 607 1
352 96 1
352 224 1
352 288 1
352 320 1
352 336 1
352 344 1
352 348 1
352 350 1
352 351 1
352 352 2.377E3
352 353 1
352 354 1
352 356 1
352 360 1
352 368 1
352 384 1
352 416 1
352 480 1
352 608 1
353 97 1
353 225 1
353 289 1
353 321 1
353 337 1
353 345 1
353 349 1
353 351 1
353 352 1
353 353 2.381E3
353 354 1
353 355 1
353 357 1
353 361 1
353 369 1
353 385 1
353 417 1
353 481 1
353 609 1
354 98 1
354 226 1
354 290 1
354 322 1
354 338 1
354 346 1
354 350 1
354 352 1
354 353 1
354 354 2.383E3
354 355 1
354 356 1
354 358 1
354 362 1
354 370 1
354 386 1
354 418 1
354 482 1
354 610 1
355 99 1
355 227 1
355 291 1
355 323 1
355 339 1
355 347 1
355 351 1
355 353 1
355 354 1
355 355 2.389E3
355 356 1
355 357 1
355 359 1
355 363 1
355 371 1
355 387 1
355 419 1
355 483 1
355 611 1
356 100 1
356 228 1
356 292 1
356 324 1
356 340 1
356 348 1
356 352 1
356 354 1
356 355 1
356 356 2.393E3
356 357 1
356 358 1
356 360 1
356 364 1
356 372 1
356 388 1
356 420 1
356 484 1
356 612 1
357 101 1
357 229 1
357 293 1
357 325 1
357 341 1
357 349 1
357 353 1
357 355 1
357 356 1
357 357 2.399E3
357 358 1
357 359 1
357 361 1
357 365 1
357 373 1
357 389 1
357 421 1
357 485 1
357 613 1
358 102 1
358 230 1
358 294 1
358 326 1
358 342 1
358 350 1
358 354 1
358 356 1
358 357 1
358 358 2.411E3
358 359 1
358 360 1
358 362 1
358 366 1
358 374 1
358 390 1
358 422 1
358 486 1
358 614 1
359 103 1
359 231 1
359 295 1
359 327 1
359 343 1
359 351 1
359 355 1
359 357 1
359 358 1
359 359 2.417E3
359 360 1
359 361 1
359 363 1
359 367 1
359 375 1
359 391 1
359 423 1
359 487 1
359 615 1
360 104 1
360 232 1
360 296 1
360 328 1
360 344 1
360 352 1
360 356 1
360 358 1
360 359 1
360 360 2.423E3
360 361 1
360 362 1
360 364 1
360 368 1
360 376 1
360 392 1
360 424 1
360 488 1
360 616 1
361 105 1
361 233 1
361 297 1
361 329 1
361 345 1
361 353 1
361 357 1
361 359 1
361 360 1
361 361 2.437E3
361 362 1
361 363 1
361 365 1
361 369 1
361 377 1
361 393 1
361 425 1
361 489 1
361 617 1
362 106 1
362 234 1
362 298 1
362 330 1
362 346 1
362 354 1
362 358 1
362 360 1
362 361 1
362 362 2.441E3
362 363 1
362 364 1
362 366 1
362 370 1
362 378 1
362 394 1
362 426 1
362 490 1
362 618 1
363 107 1
363 235 1
363 299 1
363 331 1
363 347 1
363 355 1
363 359 1
363 361 1
363 362 1
363 363 2.447E3
363 364 1
363 365 1
363 367 1
363 371 1
363 379 1
363 395 1
363 427 1
363 491 1
363 619 1
364 108 1
364 236 1
364 300 1
364 332 1
364 348 1
364 356 1
364 360 1
364 362 1
364 363 1
364 364 2.459E3
364 365 1
364 366 1
364 368 1
364 372 1
364 380 1
364 396 1
364 428 1
364 492 1
364 620 1
365 109 1
365 237 1
365 301 1
365 333 1
365 349 1
365 357 1
365 361 1
365 363 1
365 364 1
365 365 2.467E3
365 366 1
365 367 1
365 369 1
365 373 1
365 381 1
365 397 1
365 429 1
365 493 1
365 621 1
366 110 1
366 238 1
366 302 1
366 334 1
366 350 1
366 358 1
366 362 1
366 364 1
366 365 1
366 366 2.473E3
366 367 1
366 368 1
366 370 1
366 374 1
366 382 1
366 398 1
366 430 1
366 494 1
366 622 1
367 111 1
367 239 1
367 303 1
367 335 1
367 351 1
367 359 1
367 363 1
367 365 1
367 366 1
367 367 2.477E3
367 368 1
367 369 1
367 371 1
367 375 1
367 383 1
367 399 1
367 431 1
367 495 1
367 623 1
368 112 1
368 240 1
368 304 1
368 336 1
368 352 1
368 360 1
368 364 1
368 366 1
368 367 1
368 368 2.503E3
368 369 1
368 370 1
368 372 1
368 376 1
368 384 1
368 400 1
368 432 1
368 496 1
368 624 1
369 113 1
369 241 1
369 305 1
369 337 1
369 353 1
369 361 1
369 365 1
369 367 1
369 368 1
369 369 2.521E3
369 370 1
369 371 1
369 373 1
369 377 1
369 385 1
369 401 1
369 433 1
369 497 1
369 625 1
370 114 1
370 242 1
370 306 1
370 338 1
370 354 1
370 362 1
370 366 1
370 368 1
370 369 1
370 370 2.531E3
370 371 1
370 372 1
370 374 1
370 378 1
370 386 1
370 402 1
370 434 1
370 498 1
370 626 1
371 115 1
371 243 1
371 307 1
371 339 1
371 355 1
371 363 1
371 367 1
371 369 1
371 370 1
371 371 2.539E3
371 372 1
371 373 1
371 375 1
371 379 1
371 387 1
371 403 1
371 435 1
371 499 1
371 627 1
372 116 1
372 244 1
372 308 1
372 340 1
372 356 1
372 364 1
372 368 1
372 370 1
372 371 1
372 372 2.543E3
372 373 1
372 374 1
372 376 1
372 380 1
372 388 1
372 404 1
372 436 1
372 500 1
372 628 1
373 117 1
373 245 1
373 309 1
373 341 1
373 357 1
373 365 1
373 369 1
373 371 1
373 372 1
373 373 2.549E3
373 374 1
373 375 1
373 377 1
373 381 1
373 389 1
373 405 1
373 437 1
373 501 1
373 629 1
374 118 1
374 246 1
374 310 1
374 342 1
374 358 1
374 366 1
374 370 1
374 372 1
374 373 1
374 374 2.551E3
374 375 1
374 376 1
374 378 1
374 382 1
374 390 1
374 406 1
374 438 1
374 502 1
374 630 1
375 119 1
375 247 1
375 311 1
375 343 1
375 359 1
375 367 1
375 371 1
375 373 1
375 374 1
375 375 2.557E3
375 376 1
375 377 1
375 379 1
375 383 1
375 391 1
375 407 1
375 439 1
375 503 1
375 631 1
376 120 1
376 248 1
376 312 1
376 344 1
376 360 1
376 368 1
376 372 1
376 374 1
376 375 1
376 376 2.579E3
376 377 1
376 378 1
376 380 1
376 384 1
376 392 1
376 408 1
376 440 1
376 504 1
376 632 1
377 121 1
377 249 1
377 313 1
377 345 1
377 361 1
377 369 1
377 373 1
377 375 1
377 376 1
377 377 2.591E3
377 378 1
377 379 1
377 381 1
377 385 1
377 393 1
377 409 1
377 441 1
377 505 1
377 633 1
378 122 1
378 250 1
378 314 1
378 346 1
378 362 1
378 370 1
378 374 1
378 376 1
378 377 1
378 378 2.593E3
378 379 1
378 380 1
378 382 1
378 386 1
378 394 1
378 410 1
378 442 1
378 506 1
378 634 1
379 123 1
379 251 1
379 315 1
379 347 1
379 363 1
379 371 1
379 375 1
379 377 1
379 378 1
379 379 2.609E3
379 380 1
379 381 1
379 383 1
379 387 1
379 395 1
379 411 1
379 443 1
379 507 1
379 635 1
380 124 1
380 252 1
380 316 1
380 348 1
380 364 1
380 372 1
380 376 1
380 378 1
380 379 1
380 380 2.617E3
380 381 1
380 382 1
380 384 1
380 388 1
380 396 1
380 412 1
380 444 1
380 508 1
380 636 1
381 125 1
381 253 1
381 317 1
381 349 1
381 365 1
381 373 1
381 377 1
381 379 1
381 380 1
381 381 2.621E3
381 382 1
381 383 1
381 385 1
381 389 1
381 397 1
381 413 1
381 445 1
381 509 1
381 637 1
382 126 1
382 254 1
382 318 1
382 350 1
382 366 1
382 374 1
382 378 1
382 380 1
382 381 1
382 382 2.633E3
382 383 1
382 384 1
382 386 1
382 390 1
382 398 1
382 414 1
382 446 1
382 510 1
382 638 1
383 127 1
383 255 1
383 319 1
383 351 1
383 367 1
383 375 1
383 379 1
383 381 1
383 382 1
383 383 2.647E3
383 384 1
383 385 1
383 387 1
383 391 1
383 399 1
383 415 1
383 447 1
383 511 1
383 639 1
384 128 1
384 256 1
384 320 1
384 352 1
384 368 1
384 376 1
384 380 1
384 382 1
384 383 1
384 384 2.657E3
384 385 1
384 386 1
384 388 1
384 392 1
384 400 1
384 416 1
384 448 1
384 512 1
384 640 1
385 129 1
385 257 1
385 321 1
385 353 1
385 369 1
385 377 1
385 381 1
385 383 1
385 384 1
385 385 2.659E3
385 386 1
385 387 1
385 389 1
385 393 1
385 401 1
385 417 1
385 449 1
385 513 1
385 641 1
386 130 1
386 258 1
386 322 1
386 354 1
386 370 1
386 378 1
386 382 1
386 384 1
386 385 1
386 386 2.663E3
386 387 1
386 388 1
386 390 1
386 394 1
386 402 1
386 418 1
386 450 1
386 514 1
386 642 1
387 131 1
387 259 1
387 323 1
387 355 1
387 371 1
387 379 1
387 383 1
387 385 1
387 386 1
387 387 2.671E3
387 388 1
387 389 1
387 391 1
387 395 1
387 403 1
387 419 1
387 451 1
387 515 1
387 643 1
388 132 1
388 260 1
388 324 1
388 356 1
388 372 1
388 380 1
388 384 1
388 386 1
388 387 1
388 388 2.677E3
388 389 1
388 390 1
388 392 1
388 396 1
388 404 1
388 420 1
388 452 1
388 516 1
388 644 1
389 133 1
389 261 1
389 325 1
389 357 1
389 373 1
389 381 1
389 385 1
389 387 1
389 388 1
389 389 2.683E3
389 390 1
389 391 1
389 393 1
389 397 1
389 405 1
389 421 1
389 453 1
389 517 1
389 645 1
390 134 1
390 262 1
390 326 1
390 358 1
390 374 1
390 382 1
390 386 1
390 388 1
390 389 1
390 390 2.687E3
390 391 1
390 392 1
390 394 1
390 398 1
390 406 1
390 422 1
390 454 1
390 518 1
390 646 1
391 135 1
391 263 1
391 327 1
391 359 1
391 375 1
391 383 1
391 387 1
391 389 1
391 390 1
391 391 2.689E3
391 392 1
391 393 1
391 395 1
391 399 1
391 407 1
391 423 1
391 455 1
391 519 1
391 647 1
392 136 1
392 264 1
392 328 1
392 360 1
392 376 1
392 384 1
392 388 1
392 390 1
392 391 1
392 392 2.693E3
392 393 1
392 394 1
392 396 1
392 400 1
392 408 1
392 424 1
392 456 1
392 520 1
392 648 1
393 137 1
393 265 1
393 329 1
393 361 1
393 377 1
393 385 1
393 389 1
393 391 1
393 392 1
393 393 2.699E3
393 394 1
393 395 1
393 397 1
393 401 1
393 409 1
393 425 1
393 457 1
393 521 1
393 649 1
394 138 1
394 266 1
394 330 1
394 362 1
394 378 1
394 386 1
394 390 1
394 392 1
394 393 1
394 394 2.707E3
394 395 1
394 396 1
394 398 1
394 402 1
394 410 1
394 426 1
394 458 1
394 522 1
394 650 1
395 139 1
395 267 1
395 331 1
395 363 1
395 379 1
395 387 1
395 391 1
395 393 1
395 394 1
395 395 2.711E3
395 396 1
395 397 1
395 399 1
395 403 1
395 411 1
395 427 1
395 459 1
395 523 1
395 651 1
396 140 1
396 268 1
396 332 1
396 364 1
396 380 1
396 388 1
396 392 1
396 394 1
396 395 1
396 396 2.713E3
396 397 1
396 398 1
396 400 1
396 404 1
396 412 1
396 428 1
396 460 1
396 524 1
396 652 1
397 141 1
397 269 1
397 333 1
397 365 1
397 381 1
397 389 1
397 393 1
397 395 1
397 396 1
397 397 2.719E3
397 398 1
397 399 1
397 401 1
397 405 1
397 413 1
397 429 1
397 461 1
397 525 1
397 653 1
398 142 1
398 270 1
398 334 1
398 366 1
398 382 1
398 390 1
398 394 1
398 396 1
398 397 1
398 398 2.729E3
398 399 1
398 400 1
398 402 1
398 406 1
398 414 1
398 430 1
398 462 1
398 526 1
398 654 1
399 143 1
399 271 1
399 335 1
399 367 1
399 383 1
399 391 1
399 395 1
399 397 1
399 398 1
399 399 2.731E3
399 400 1
399 401 1
399 403 1
399 407 1
399 415 1
399 431 1
399 463 1
399 527 1
399 655 1
400 144 1
400 272 1
400 336 1
400 368 1
400 384 1
400 392 1
400 396 1
400 398 1
400 399 1
400 400 2.741E3
400 401 1
400 402 1
400 404 1
400 408 1
400 416 1
400 432 1
400 464 1
400 528 1
400 656 1
401 145 1
401 273 1
401 337 1
401 369 1
401 385 1
401 393 1
401 397 1
401 399 1
401 400 1
401 401 2.749E3
401 402 1
401 403 1
401 405 1
401 409 1
401 417 1
401 433 1
401 465 1
401 529 1
401 657 1
402 146 1
402 274 1
402 338 1
402 370 1
402 386 1
402 394 1
402 398 1
402 400 1
402 401 1
402 402 2.753E3
402 403 1
402 404 1
402 406 1
402 410 1
402 418 1
402 434 1
402 466 1
402 530 1
402 658 1
403 147 1
403 275 1
403 339 1
403 371 1
403 387 1
403 395 1
403 399 1
403 401 1
403 402 1
403 403 2.767E3
403 404 1
403 405 1
403 407 1
403 411 1
403 419 1
403 435 1
403 467 1
403 531 1
403 659 1
404 148 1
404 276 1
404 340 1
404 372 1
404 388 1
404 396 1
404 400 1
404 402 1
404 403 1
404 404 2.777E3
404 405 1
404 406 1
404 408 1
404 412 1
404 420 1
404 436 1
404 468 1
404 532 1
404 660 1
405 149 1
405 277 1
405 341 1
405 373 1
405 389 1
405 397 1
405 401 1
405 403 1
405 404 1
405 405 2.789E3
405 406 1
405 407 1
405 409 1
405 413 1
405 421 1
405 437 1
405 469 1
405 533 1
405 661 1
406 150 1
406 278 1
406 342 1
406 374 1
406 390 1
406 398 1
406 402 1
406 404 1
406 405 1
406 406 2.791E3
406 407 1
406 408 1
406 410 1
406 414 1
406 422 1
406 438 1
406 470 1
406 534 1
406 662 1
407 151 1
407 279 1
407 343 1
407 375 1
407 391 1
407 399 1
407 403 1
407 405 1
407 406 1
407 407 2.797E3
407 408 1
407 409 1
407 411 1
407 415 1
407 423 1
407 439 1
407 471 1
407 535 1
407 663 1
408 152 1
408 280 1
408 344 1
408 376 1
408 392 1
408 400 1
408 404 1
408 406 1
408 407 1
408 408 2.801E3
408 409 1
408 410 1
408 412 1
408 416 1
408 424 1
408 440 1
408 472 1
408 536 1
408 664 1
409 153 1
409 281 1
409 345 1
409 377 1
409 393 1
409 401 1
409 405 1
409 407 1
409 408 1
409 409 2.803E3
409 410 1
409 411 1
409 413 1
409 417 1
409 425 1
409 441 1
409 473 1
409 537 1
409 665 1
410 154 1
410 282 1
410 346 1
410 378 1
410 394 1
410 402 1
410 406 1
410 408 1
410 409 1
410 410 2.819E3
410 411 1
410 412 1
410 414 1
410 418 1
410 426 1
410 442 1
410 474 1
410 538 1
410 666 1
411 155 1
411 283 1
411 347 1
411 379 1
411 395 1
411 403 1
411 407 1
411 409 1
411 410 1
411 411 2.833E3
411 412 1
411 413 1
411 415 1
411 419 1
411 427 1
411 443 1
411 475 1
411 539 1
411 667 1
412 156 1
412 284 1
412 348 1
412 380 1
412 396 1
412 404 1
412 408 1
412 410 1
412 411 1
412 412 2.837E3
412 413 1
412 414 1
412 416 1
412 420 1
412 428 1
412 444 1
412 476 1
412 540 1
412 668 1
413 157 1
413 285 1
413 349 1
413 381 1
413 397 1
413 405 1
413 409 1
413 411 1
413 412 1
413 413 2.843E3
413 414 1
413 415 1
413 417 1
413 421 1
413 429 1
413 445 1
413 477 1
413 541 1
413 669 1
414 158 1
414 286 1
414 350 1
414 382 1
414 398 1
414 406 1
414 410 1
414 412 1
414 413 1
414 414 2.851E3
414 415 1
414 416 1
414 418 1
414 422 1
414 430 1
414 446 1
414 478 1
414 542 1
414 670 1
415 159 1
415 287 1
415 351 1
415 383 1
415 399 1
415 407 1
415 411 1
415 413 1
415 414 1
415 415 2.857E3
415 416 1
415 417 1
415 419 1
415 423 1
415 431 1
415 447 1
415 479 1
415 543 1
415 671 1
416 160 1
416 288 1
416 352 1
416 384 1
416 400 1
416 408 1
416 412 1
416 414 1
416 415 1
416 416 2.861E3
416 417 1
416 418 1
416 420 1
416 424 1
416 432 1
416 448 1
416 480 1
416 544 1
416 672 1
417 161 1
417 289 1
417 353 1
417 385 1
417 401 1
417 409 1
417 413 1
417 415 1
417 416 1
417 417 2.879E3
417 418 1
417 419 1
417 421 1
417 425 1
417 433 1
417 449 1
417 481 1
417 545 1
417 673 1
418 162 1
418 290 1
418 354 1
418 386 1
418 402 1
418 410 1
418 414 1
418 416 1
418 417 1
418 418 2.887E3
418 419 1
418 420 1
418 422 1
418 426 1
418 434 1
418 450 1
418 482 1
418 546 1
418 674 1
419 163 1
419 291 1
419 355 1
419 387 1
419 403 1
419 411 1
419 415 1
419 417 1
419 418 1
419 419 2.897E3
419 420 1
419 421 1
419 423 1
419 427 1
419 435 1
419 451 1
419 483 1
419 547 1
419 675 1
420 164 1
420 292 1
420 356 1
420 388 1
420 404 1
420 412 1
420 416 1
420 418 1
420 419 1
420 420 2.903E3
420 421 1
420 422 1
420 424 1
420 428 1
420 436 1
420 452 1
420 484 1
420 548 1
420 676 1
421 165 1
421 293 1
421 357 1
421 389 1
421 405 1
421 413 1
421 417 1
421 419 1
421 420 1
421 421 2.909E3
421 422 1
421 423 1
421 425 1
421 429 1
421 437 1
421 453 1
421 485 1
421 549 1
421 677 1
422 166 1
422 294 1
422 358 1
422 390 1
422 406 1
422 414 1
422 418 1
422 420 1
422 421 1
422 422 2.917E3
422 423 1
422 424 1
422 426 1
422 430 1
422 438 1
422 454 1
422 486 1
422 550 1
422 678 1
423 167 1
423 295 1
423 359 1
423 391 1
423 407 1
423 415 1
423 419 1
423 421 1
423 422 1
423 423 2.927E3
423 424 1
423 425 1
423 427 1
423 431 1
423 439 1
423 455 1
423 487 1
423 551 1
423 679 1
424 168 1
424 296 1
424 360 1
424 392 1
424 408 1
424 416 1
424 420 1
424 422 1
424 423 1
424 424 2.939E3
424 425 1
424 426 1
424 428 1
424 432 1
424 440 1
424 456 1
424 488 1
424 552 1
424 680 1
425 169 1
425 297 1
425 361 1
425 393 1
425 409 1
425 417 1
425 421 1
425 423 1
425 424 1
425 425 2.953E3
425 426 1
425 427 1
425 429 1
425 433 1
425 441 1
425 457 1
425 489 1
425 553 1
425 681 1
426 170 1
426 298 1
426 362 1
426 394 1
426 410 1
426 418 1
426 422 1
426 424 1
426 425 1
426 426 2.957E3
426 427 1
426 428 1
426 430 1
426 434 1
426 442 1
426 458 1
426 490 1
426 554 1
426 682 1
427 171 1
427 299 1
427 363 1
427 395 1
427 411 1
427 419 1
427 423 1
427 425 1
427 426 1
427 427 2.963E3
427 428 1
427 429 1
427 431 1
427 435 1
427 443 1
427 459 1
427 491 1
427 555 1
427 683 1
428 172 1
428 300 1
428 364 1
428 396 1
428 412 1
428 420 1
428 424 1
428 426 1
428 427 1
428 428 2.969E3
428 429 1
428 430 1
428 432 1
428 436 1
428 444 1
428 460 1
428 492 1
428 556 1
428 684 1
429 173 1
429 301 1
429 365 1
429 397 1
429 413 1
429 421 1
429 425 1
429 427 1
429 428 1
429 429 2.971E3
429 430 1
429 431 1
429 433 1
429 437 1
429 445 1
429 461 1
429 493 1
429 557 1
429 685 1
430 174 1
430 302 1
430 366 1
430 398 1
430 414 1
430 422 1
430 426 1
430 428 1
430 429 1
430 430 2.999E3
430 431 1
430 432 1
430 434 1
430 438 1
430 446 1
430 462 1
430 494 1
430 558 1
430 686 1
431 175 1
431 303 1
431 367 1
431 399 1
431 415 1
431 423 1
431 427 1
431 429 1
431 430 1
431 431 3.001E3
431 432 1
431 433 1
431 435 1
431 439 1
431 447 1
431 463 1
431 495 1
431 559 1
431 687 1
432 176 1
432 304 1
432 368 1
432 400 1
432 416 1
432 424 1
432 428 1
432 430 1
432 431 1
432 432 3.011E3
432 433 1
432 434 1
432 436 1
432 440 1
432 448 1
432 464 1
432 496 1
432 560 1
432 688 1
433 177 1
433 305 1
433 369 1
433 401 1
433 417 1
433 425 1
433 429 1
433 431 1
433 432 1
433 433 3.019E3
433 434 1
433 435 1
433 437 1
433 441 1
433 449 1
433 465 1
433 497 1
433 561 1
433 689 1
434 178 1
434 306 1
434 370 1
434 402 1
434 418 1
434 426 1
434 430 1
434 432 1
434 433 1
434 434 3.023E3
434 435 1
434 436 1
434 438 1
434 442 1
434 450 1
434 466 1
434 498 1
434 562 1
434 690 1
435 179 1
435 307 1
435 371 1
435 403 1
435 419 1
435 427 1
435 431 1
435 433 1
435 434 1
435 435 3.037E3
435 436 1
435 437 1
435 439 1
435 443 1
435 451 1
435 467 1
435 499 1
435 563 1
435 691 1
436 180 1
436 308 1
436 372 1
436 404 1
436 420 1
436 428 1
436 432 1
436 434 1
436 435 1
436 436 3.041E3
436 437 1
436 438 1
436 440 1
436 444 1
436 452 1
436 468 1
436 500 1
436 564 1
436 692 1
437 181 1
437 309 1
437 373 1
437 405 1
437 421 1
437 429 1
437 433 1
437 435 1
437 436 1
437 437 3.049E3
437 438 1
437 439 1
437 441 1
437 445 1
437 453 1
437 469 1
437 501 1
437 565 1
437 693 1
438 182 1
438 310 1
438 374 1
438 406 1
438 422 1
438 430 1
438 434 1
438 436 1
438 437 1
438 438 3.061E3
438 439 1
438 440 1
438 442 1
438 446 1
438 454 1
438 470 1
438 502 1
438 566 1
438 694 1
439 183 1
439 311 1
439 375 1
439 407 1
439 423 1
439 431 1
439 435 1
439 437 1
439 438 1
439 439 3.067E3
439 440 1
439 441 1
439 443 1
439 447 1
439 455 1
439 471 1
439 503 1
439 567 1
439 695 1
440 184 1
440 312 1
440 376 1
440 408 1
440 424 1
440 432 1
440 436 1
440 438 1
440 439 1
440 440 3.079E3
440 441 1
440 442 1
440 444 1
440 448 1
440 456 1
440 472 1
440 504 1
440 568 1
440 696 1
441 185 1
441 313 1
441 377 1
441 409 1
441 425 1
441 433 1
441 437 1
441 439 1
441 440 1
441 441 3.083E3
441 442 1
441 443 1
441 445 1
441 449 1
441 457 1
441 473 1
441 505 1
441 569 1
441 697 1
442 186 1
442 314 1
442 378 1
442 410 1
442 426 1
442 434 1
442 438 1
442 440 1
442 441 1
442 442 3.089E3
442 443 1
442 444 1
442 446 1
442 450 1
442 458 1
442 474 1
442 506 1
442 570 1
442 698 1
443 187 1
443 315 1
443 379 1
443 411 1
443 427 1
443 435 1
443 439 1
443 441 1
443 442 1
443 443 3.109E3
443 444 1
443 445 1
443 447 1
443 451 1
443 459 1
443 475 1
443 507 1
443 571 1
443 699 1
444 188 1
444 316 1
444 380 1
444 412 1
444 428 1
444 436 1
444 440 1
444 442 1
444 443 1
444 444 3.119E3
444 445 1
444 446 1
444 448 1
444 452 1
444 460 1
444 476 1
444 508 1
444 572 1
444 700 1
445 189 1
445 317 1
445 381 1
445 413 1
445 429 1
445 437 1
445 441 1
445 443 1
445 444 1
445 445 3.121E3
445 446 1
445 447 1
445 449 1
445 453 1
445 461 1
445 477 1
445 509 1
445 573 1
446 190 1
446 318 1
446 382 1
446 414 1
446 430 1
446 438 1
446 442 1
446 444 1
446 445 1
446 446 3.137E3
446 447 1
446 448 1
446 450 1
446 454 1
446 462 1
446 478 1
446 510 1
446 574 1
447 191 1
447 319 1
447 383 1
447 415 1
447 431 1
447 439 1
447 443 1
447 445 1
447 446 1
447 447 3.163E3
447 448 1
447 449 1
447 451 1
447 455 1
447 463 1
447 479 1
447 511 1
447 575 1
448 192 1
448 320 1
448 384 1
448 416 1
448 432 1
448 440 1
448 444 1
448 446 1
448 447 1
448 448 3.167E3
448 449 1
448 450 1
448 452 1
448 456 1
448 464 1
448 480 1
448 512 1
448 576 1
449 193 1
449 321 1
449 385 1
449 417 1
449 433 1
449 441 1
449 445 1
449 447 1
449 448 1
449 449 3.169E3
449 450 1
449 451 1
449 453 1
449 457 1
449 465 1
449 481 1
449 513 1
449 577 1
450 194 1
450 322 1
450 386 1
450 418 1
450 434 1
450 442 1
450 446 1
450 448 1
450 449 1
450 450 3.181E3
450 451 1
450 452 1
450 454 1
450 458 1
450 466 1
450 482 1
450 514 1
450 578 1
451 195 1
451 323 1
451 387 1
451 419 1
451 435 1
451 443 1
451 447 1
451 449 1
451 450 1
451 451 3.187E3
451 452 1
451 453 1
451 455 1
451 459 1
451 467 1
451 483 1
451 515 1
451 579 1
452 196 1
452 324 1
452 388 1
452 420 1
452 436 1
452 444 1
452 448 1
452 450 1
452 451 1
452 452 3.191E3
452 453 1
452 454 1
452 456 1
452 460 1
452 468 1
452 484 1
452 516 1
452 580 1
453 197 1
453 325 1
453 389 1
453 421 1
453 437 1
453 445 1
453 449 1
453 451 1
453 452 1
453 453 3.203E3
453 454 1
453 455 1
453 457 1
453 461 1
453 469 1
453 485 1
453 517 1
453 581 1
454 198 1
454 326 1
454 390 1
454 422 1
454 438 1
454 446 1
454 450 1
454 452 1
454 453 1
454 454 3.209E3
454 455 1
454 456 1
454 458 1
454 462 1
454 470 1
454 486 1
454 518 1
454 582 1
455 199 1
455 327 1
455 391 1
455 423 1
455 439 1
455 447 1
455 451 1
455 453 1
455 454 1
455 455 3.217E3
455 456 1
455 457 1
455 459 1
455 463 1
455 471 1
455 487 1
455 519 1
455 583 1
456 200 1
456 328 1
456 392 1
456 424 1
456 440 1
456 448 1
456 452 1
456 454 1
456 455 1
456 456 3.221E3
456 457 1
456 458 1
456 460 1
456 464 1
456 472 1
456 488 1
456 520 1
456 584 1
457 201 1
457 329 1
457 393 1
457 425 1
457 441 1
457 449 1
457 453 1
457 455 1
457 456 1
457 457 3.229E3
457 458 1
457 459 1
457 461 1
457 465 1
457 473 1
457 489 1
457 521 1
457 585 1
458 202 1
458 330 1
458 394 1
458 426 1
458 442 1
458 450 1
458 454 1
458 456 1
458 457 1
458 458 3.251E3
458 459 1
458 460 1
458 462 1
458 466 1
458 474 1
458 490 1
458 522 1
458 586 1
459 203 1
459 331 1
459 395 1
459 427 1
459 443 1
459 451 1
459 455 1
459 457 1
459 458 1
459 459 3.253E3
459 460 1
459 461 1
459 463 1
459 467 1
459 475 1
459 491 1
459 523 1
459 587 1
460 204 1
460 332 1
460 396 1
460 428 1
460 444 1
460 452 1
460 456 1
460 458 1
460 459 1
460 460 3.257E3
460 461 1
460 462 1
460 464 1
460 468 1
460 476 1
460 492 1
460 524 1
460 588 1
461 205 1
461 333 1
461 397 1
461 429 1
461 445 1
461 453 1
461 457 1
461 459 1
461 460 1
461 461 3.259E3
461 462 1
461 463 1
461 465 1
461 469 1
461 477 1
461 493 1
461 525 1
461 589 1
462 206 1
462 334 1
462 398 1
462 430 1
462 446 1
462 454 1
462 458 1
462 460 1
462 461 1
462 462 3.271E3
462 463 1
462 464 1
462 466 1
462 470 1
462 478 1
462 494 1
462 526 1
462 590 1
463 207 1
463 335 1
463 399 1
463 431 1
463 447 1
463 455 1
463 459 1
463 461 1
463 462 1
463 463 3.299E3
463 464 1
463 465 1
463 467 1
463 471 1
463 479 1
463 495 1
463 527 1
463 591 1
464 208 1
464 336 1
464 400 1
464 432 1
464 448 1
464 456 1
464 460 1
464 462 1
464 463 1
464 464 3.301E3
464 465 1
464 466 1
464 468 1
464 472 1
464 480 1
464 496 1
464 528 1
464 592 1
465 209 1
465 337 1
465 401 1
465 433 1
465 449 1
465 457 1
465 461 1
465 463 1
465 464 1
465 465 3.307E3
465 466 1
465 467 1
465 469 1
465 473 1
465 481 1
465 497 1
465 529 1
465 593 1
466 210 1
466 338 1
466 402 1
466 434 1
466 450 1
466 458 1
466 462 1
466 464 1
466 465 1
466 466 3.313E3
466 467 1
466 468 1
466 470 1
466 474 1
466 482 1
466 498 1
466 530 1
466 594 1
467 211 1
467 339 1
467 403 1
467 435 1
467 451 1
467 459 1
467 463 1
467 465 1
467 466 1
467 467 3.319E3
467 468 1
467 469 1
467 471 1
467 475 1
467 483 1
467 499 1
467 531 1
467 595 1
468 212 1
468 340 1
468 404 1
468 436 1
468 452 1
468 460 1
468 464 1
468 466 1
468 467 1
468 468 3.323E3
468 469 1
468 470 1
468 472 1
468 476 1
468 484 1
468 500 1
468 532 1
468 596 1
469 213 1
469 341 1
469 405 1
469 437 1
469 453 1
469 461 1
469 465 1
469 467 1
469 468 1
469 469 3.329E3
469 470 1
469 471 1
469 473 1
469 477 1
469 485 1
469 501 1
469 533 1
469 597 1
470 214 1
470 342 1
470 406 1
470 438 1
470 454 1
470 462 1
470 466 1
470 468 1
470 469 1
470 470 3.331E3
470 471 1
470 472 1
470 474 1
470 478 1
470 486 1
470 502 1
470 534 1
470 598 1
471 215 1
471 343 1
471 407 1
471 439 1
471 455 1
471 463 1
471 467 1
471 469 1
471 470 1
471 471 3.343E3
471 472 1
471 473 1
471 475 1
471 479 1
471 487 1
471 503 1
471 535 1
471 599 1
472 216 1
472 344 1
472 408 1
472 440 1
472 456 1
472 464 1
472 468 1
472 470 1
472 471 1
472 472 3.347E3
472 473 1
472 474 1
472 476 1
472 480 1
472 488 1
472 504 1
472 536 1
472 600 1
473 217 1
473 345 1
473 409 1
473 441 1
473 457 1
473 465 1
473 469 1
473 471 1
473 472 1
473 473 3.359E3
473 474 1
473 475 1
473 477 1
473 481 1
473 489 1
473 505 1
473 537 1
473 601 1
474 218 1
474 346 1
474 410 1
474 442 1
474 458 1
474 466 1
474 470 1
474 472 1
474 473 1
474 474 3.361E3
474 475 1
474 476 1
474 478 1
474 482 1
474 490 1
474 506 1
474 538 1
474 602 1
475 219 1
475 347 1
475 411 1
475 443 1
475 459 1
475 467 1
475 471 1
475 473 1
475 474 1
475 475 3.371E3
475 476 1
475 477 1
475 479 1
475 483 1
475 491 1
475 507 1
475 539 1
475 603 1
476 220 1
476 348 1
476 412 1
476 444 1
476 460 1
476 468 1
476 472 1
476 474 1
476 475 1
476 476 3.373E3
476 477 1
476 478 1
476 480 1
476 484 1
476 492 1
476 508 1
476 540 1
476 604 1
477 221 1
477 349 1
477 413 1
477 445 1
477 461 1
477 469 1
477 473 1
477 475 1
477 476 1
477 477 3.389E3
477 478 1
477 479 1
477 481 1
477 485 1
477 493 1
477 509 1
477 541 1
477 605 1
478 222 1
478 350 1
478 414 1
478 446 1
478 462 1
478 470 1
478 474 1
478 476 1
478 477 1
478 478 3.391E3
478 479 1
478 480 1
478 482 1
478 486 1
478 494 1
478 510 1
478 542 1
478 606 1
479 223 1
479 351 1
479 415 1
479 447 1
479 463 1
479 471 1
479 475 1
479 477 1
479 478 1
479 479 3.407E3
479 480 1
479 481 1
479 483 1
479 487 1
479 495 1
479 511 1
479 543 1
479 607 1
480 224 1
480 352 1
480 416 1
480 448 1
480 464 1
480 472 1
480 476 1
480 478 1
480 479 1
480 480 3.413E3
480 481 1
480 482 1
480 484 1
480 488 1
480 496 1
480 512 1
480 544 1
480 608 1
481 225 1
481 353 1
481 417 1
481 449 1
481 465 1
481 473 1
481 477 1
481 479 1
481 480 1
481 481 3.433E3
481 482 1
481 483 1
481 485 1
481 489 1
481 497 1
481 513 1
481 545 1
481 609 1
482 226 1
482 354 1
482 418 1
482 450 1
482 466 1
482 474 1
482 478 1
482 480 1
482 481 1
482 482 3.449E3
482 483 1
482 484 1
482 486 1
482 490 1
482 498 1
482 514 1
482 546 1
482 610 1
483 227 1
483 355 1
483 419 1
483 451 1
483 467 1
483 475 1
483 479 1
483 481 1
483 482 1
483 483 3.457E3
483 484 1
483 485 1
483 487 1
483 491 1
483 499 1
483 515 1
483 547 1
483 611 1
484 228 1
484 356 1
484 420 1
484 452 1
484 468 1
484 476 1
484 480 1
484 482 1
484 483 1
484 484 3.461E3
484 485 1
484 486 1
484 488 1
484 492 1
484 500 1
484 516 1
484 548 1
484 612 1
485 229 1
485 357 1
485 421 1
485 453 1
485 469 1
485 477 1
485 481 1
485 483 1
485 484 1
485 485 3.463E3
485 486 1
485 487 1
485 489 1
485 493 1
485 501 1
485 517 1
485 549 1
485 613 1
486 230 1
486 358 1
486 422 1
486 454 1
486 470 1
486 478 1
486 482 1
486 484 1
486 485 1
486 486 3.467E3
486 487 1
486 488 1
486 490 1
486 494 1
486 502 1
486 518 1
486 550 1
486 614 1
487 231 1
487 359 1
487 423 1
487 455 1
487 471 1
487 479 1
487 483 1
487 485 1
487 486 1
487 487 3.469E3
487 488 1
487 489 1
487 491 1
487 495 1
487 503 1
487 519 1
487 551 1
487 615 1
488 232 1
488 360 1
488 424 1
488 456 1
488 472 1
488 480 1
488 484 1
488 486 1
488 487 1
488 488 3.491E3
488 489 1
488 490 1
488 492 1
488 496 1
488 504 1
488 520 1
488 552 1
488 616 1
489 233 1
489 361 1
489 425 1
489 457 1
489 473 1
489 481 1
489 485 1
489 487 1
489 488 1
489 489 3.499E3
489 490 1
489 491 1
489 493 1
489 497 1
489 505 1
489 521 1
489 553 1
489 617 1
490 234 1
490 362 1
490 426 1
490 458 1
490 474 1
490 482 1
490 486 1
490 488 1
490 489 1
490 490 3.511E3
490 491 1
490 492 1
490 494 1
490 498 1
490 506 1
490 522 1
490 554 1
490 618 1
491 235 1
491 363 1
491 427 1
491 459 1
491 475 1
491 483 1
491 487 1
491 489 1
491 490 1
491 491 3.517E3
491 492 1
491 493 1
491 495 1
491 499 1
491 507 1
491 523 1
491 555 1
491 619 1
492 236 1
492 364 1
492 428 1
492 460 1
492 476 1
492 484 1
492 488 1
492 490 1
492 491 1
492 492 3.527E3
492 493 1
492 494 1
492 496 1
492 500 1
492 508 1
492 524 1
492 556 1
492 620 1
493 237 1
493 365 1
493 429 1
493 461 1
493 477 1
493 485 1
493 489 1
493 491 1
493 492 1
493 493 3.529E3
493 494 1
493 495 1
493 497 1
493 501 1
493 509 1
493 525 1
493 557 1
493 621 1
494 238 1
494 366 1
494 430 1
494 462 1
494 478 1
494 486 1
494 490 1
494 492 1
494 493 1
494 494 3.533E3
494 495 1
494 496 1
494 498 1
494 502 1
494 510 1
494 526 1
494 558 1
494 622 1
495 239 1
495 367 1
495 431 1
495 463 1
495 479 1
495 487 1
495 491 1
495 493 1
495 494 1
495 495 3.539E3
495 496 1
495 497 1
495 499 1
495 503 1
495 511 1
495 527 1
495 559 1
495 623 1
496 240 1
496 368 1
496 432 1
496 464 1
496 480 1
496 488 1
496 492 1
496 494 1
496 495 1
496 496 3.541E3
496 497 1
496 498 1
496 500 1
496 504 1
496 512 1
496 528 1
496 560 1
496 624 1
497 241 1
497 369 1
497 433 1
497 465 1
497 481 1
497 489 1
497 493 1
497 495 1
497 496 1
497 497 3.547E3
497 498 1
497 499 1
497 501 1
497 505 1
497 513 1
497 529 1
497 561 1
497 625 1
498 242 1
498 370 1
498 434 1
498 466 1
498 482 1
498 490 1
498 494 1
498 496 1
498 497 1
498 498 3.557E3
498 499 1
498 500 1
498 502 1
498 506 1
498 514 1
498 530 1
498 562 1
498 626 1
499 243 1
499 371 1
499 435 1
499 467 1
499 483 1
499 491 1
499 495 1
499 497 1
499 498 1
499 499 3.559E3
499 500 1
499 501 1
499 503 1
499 507 1
499 515 1
499 531 1
499 563 1
499 627 1
500 244 1
500 372 1
500 436 1
500 468 1
500 484 1
500 492 1
500 496 1
500 498 1
500 499 1
500 500 3.571E3
500 501 1
500 502 1
500 504 1
500 508 1
500 516 1
500 532 1
500 564 1
500 628 1
501 245 1
501 373 1
501 437 1
501 469 1
501 485 1
501 493 1
501 497 1
501 499 1
501 500 1
501 501 3.581E3
501 502 1
501 503 1
501 505 1
501 509 1
501 517 1
501 533 1
501 565 1
501 629 1
502 246 1
502 374 1
502 438 1
502 470 1
502 486 1
502 494 1
502 498 1
502 500 1
502 501 1
502 502 3.583E3
502 503 1
502 504 1
502 506 1
502 510 1
502 518 1
502 534 1
502 566 1
502 630 1
503 247 1
503 375 1
503 439 1
503 471 1
503 487 1
503 495 1
503 499 1
503 501 1
503 502 1
503 503 3.593E3
503 504 1
503 505 1
503 507 1
503 511 1
503 519 1
503 535 1
503 567 1
503 631 1
504 248 1
504 376 1
504 440 1
504 472 1
504 488 1
504 496 1
504 500 1
504 502 1
504 503 1
504 504 3.607E3
504 505 1
504 506 1
504 508 1
504 512 1
504 520 1
504 536 1
504 568 1
504 632 1
505 249 1
505 377 1
505 441 1
505 473 1
505 489 1
505 497 1
505 501 1
505 503 1
505 504 1
505 505 3.613E3
505 506 1
505 507 1
505 509 1
505 513 1
505 521 1
505 537 1
505 569 1
505 633 1
506 250 1
506 378 1
506 442 1
506 474 1
506 490 1
506 498 1
506 502 1
506 504 1
506 505 1
506 506 3.617E3
506 507 1
506 508 1
506 510 1
506 514 1
506 522 1
506 538 1
506 570 1
506 634 1
507 251 1
507 379 1
507 443 1
507 475 1
507 491 1
507 499 1
507 503 1
507 505 1
507 506 1
507 507 3.623E3
507 508 1
507 509 1
507 511 1
507 515 1
507 523 1
507 539 1
507 571 1
507 635 1
508 252 1
508 380 1
508 444 1
508 476 1
508 492 1
508 500 1
508 504 1
508 506 1
508 507 1
508 508 3.631E3
508 509 1
508 510 1
508 512 1
508 516 1
508 524 1
508 540 1
508 572 1
508 636 1
509 253 1
509 381 1
509 445 1
509 477 1
509 493 1
509 501 1
509 505 1
509 507 1
509 508 1
509 509 3.637E3
509 510 1
509 511 1
509 513 1
509 517 1
509 525 1
509 541 1
509 573 1
509 637 1
510 254 1
510 382 1
510 446 1
510 478 1
510 494 1
510 502 1
510 506 1
510 508 1
510 509 1
510 510 3.643E3
510 511 1
510 512 1
510 514 1
510 518 1
510 526 1
510 542 1
510 574 1
510 638 1
511 255 1
511 383 1
511 447 1
511 479 1
511 495 1
511 503 1
511 507 1
511 509 1
511 510 1
511 511 3.659E3
511 512 1
511 513 1
511 515 1
511 519 1
511 527 1
511 543 1
511 575 1
511 639 1
512 256 1
512 384 1
512 448 1
512 480 1
512 496 1
512 504 1
512 508 1
512 510 1
512 511 1
512 512 3.671E3
512 513 1
512 514 1
512 516 1
512 520 1
512 528 1
512 544 1
512 576 1
512 640 1
513 1 1
513 257 1
513 385 1
513 449 1
513 481 1
513 497 1
513 505 1
513 509 1
513 511 1
513 512 1
513 513 3.673E3
513 514 1
513 515 1
513 517 1
513 521 1
513 529 1
513 545 1
513 577 1
513 641 1
514 2 1
514 258 1
514 386 1
514 450 1
514 482 1
514 498 1
514 506 1
514 510 1
514 512 1
514 513 1
514 514 3.677E3
514 515 1
514 516 1
514 518 1
514 522 1
514 530 1
514 546 1
514 578 1
514 642 1
515 3 1
515 259 1
515 387 1
515 451 1
515 483 1
515 499 1
515 507 1
515 511 1
515 513 1
515 514 1
515 515 3.691E3
515 516 1
515 517 1
515 519 1
515 523 1
515 531 1
515 547 1
515 579 1
515 643 1
516 4 1
516 260 1
516 388 1
516 452 1
516 484 1
516 500 1
516 508 1
516 512 1
516 514 1
516 515 1
516 516 3.697E3
516 517 1
516 518 1
516 520 1
516 524 1
516 532 1
516 548 1
516 580 1
516 644 1
517 5 1
517 261 1
517 389 1
517 453 1
517 485 1
517 501 1
517 509 1
517 513 1
517 515 1
517 516 1
517 517 3.701E3
517 518 1
517 519 1
517 521 1
517 525 1
517 533 1
517 549 1
517 581 1
517 645 1
518 6 1
518 262 1
518 390 1
518 454 1
518 486 1
518 502 1
518 510 1
518 514 1
518 516 1
518 517 1
518 518 3.709E3
518 519 1
518 520 1
518 522 1
518 526 1
518 534 1
518 550 1
518 582 1
518 646 1
519 7 1
519 263 1
519 391 1
519 455 1
519 487 1
519 503 1
519 511 1
519 515 1
519 517 1
519 518 1
519 519 3.719E3
519 520 1
519 521 1
519 523 1
519 527 1
519 535 1
519 551 1
519 583 1
519 647 1
520 8 1
520 264 1
520 392 1
520 456 1
520 488 1
520 504 1
520 512 1
520 516 1
520 518 1
520 519 1
520 520 3.727E3
520 521 1
520 522 1
520 524 1
520 528 1
520 536 1
520 552 1
520 584 1
520 648 1
521 9 1
521 265 1
521 393 1
521 457 1
521 489 1
521 505 1
521 513 1
521 517 1
521 519 1
521 520 1
521 521 3.733E3
521 522 1
521 523 1
521 525 1
521 529 1
521 537 1
521 553 1
521 585 1
521 649 1
522 10 1
522 266 1
522 394 1
522 458 1
522 490 1
522 506 1
522 514 1
522 518 1
522 520 1
522 521 1
522 522 3.739E3
522 523 1
522 524 1
522 526 1
522 530 1
522 538 1
522 554 1
522 586 1
522 650 1
523 11 1
523 267 1
523 395 1
523 459 1
523 491 1
523 507 1
523 515 1
523 519 1
523 521 1
523 522 1
523 523 3.761E3
523 524 1
523 525 1
523 527 1
523 531 1
523 539 1
523 555 1
523 587 1
523 651 1
524 12 1
524 268 1
524 396 1
524 460 1
524 492 1
524 508 1
524 516 1
524 520 1
524 522 1
524 523 1
524 524 3.767E3
524 525 1
524 526 1
524 528 1
524 532 1
524 540 1
524 556 1
524 588 1
524 652 1
525 13 1
525 269 1
525 397 1
525 461 1
525 493 1
525 509 1
525 517 1
525 521 1
525 523 1
525 524 1
525 525 3.769E3
525 526 1
525 527 1
525 529 1
525 533 1
525 541 1
525 557 1
525 589 1
525 653 1
526 14 1
526 270 1
526 398 1
526 462 1
526 494 1
526 510 1
526 518 1
526 522 1
526 524 1
526 525 1
526 526 3.779E3
526 527 1
526 528 1
526 530 1
526 534 1
526 542 1
526 558 1
526 590 1
526 654 1
527 15 1
527 271 1
527 399 1
527 463 1
527 495 1
527 511 1
527 519 1
527 523 1
527 525 1
527 526 1
527 527 3.793E3
527 528 1
527 529 1
527 531 1
527 535 1
527 543 1
527 559 1
527 591 1
527 655 1
528 16 1
528 272 1
528 400 1
528 464 1
528 496 1
528 512 1
528 520 1
528 524 1
528 526 1
528 527 1
528 528 3.797E3
528 529 1
528 530 1
528 532 1
528 536 1
528 544 1
528 560 1
528 592 1
528 656 1
529 17 1
529 273 1
529 401 1
529 465 1
529 497 1
529 513 1
529 521 1
529 525 1
529 527 1
529 528 1
529 529 3.803E3
529 530 1
529 531 1
529 533 1
529 537 1
529 545 1
529 561 1
529 593 1
529 657 1
530 18 1
530 274 1
530 402 1
530 466 1
530 498 1
530 514 1
530 522 1
530 526 1
530 528 1
530 529 1
530 530 3.821E3
530 531 1
530 532 1
530 534 1
530 538 1
530 546 1
530 562 1
530 594 1
530 658 1
531 19 1
531 275 1
531 403 1
531 467 1
531 499 1
531 515 1
531 523 1
531 527 1
531 529 1
531 530 1
531 531 3.823E3
531 532 1
531 533 1
531 535 1
531 539 1
531 547 1
531 563 1
531 595 1
531 659 1
532 20 1
532 276 1
532 404 1
532 468 1
532 500 1
532 516 1
532 524 1
532 528 1
532 530 1
532 531 1
532 532 3.833E3
532 533 1
532 534 1
532 536 1
532 540 1
532 548 1
532 564 1
532 596 1
532 660 1
533 21 1
533 277 1
533 405 1
533 469 1
533 501 1
533 517 1
533 525 1
533 529 1
533 531 1
533 532 1
533 533 3.847E3
533 534 1
533 535 1
533 537 1
533 541 1
533 549 1
533 565 1
533 597 1
533 661 1
534 22 1
534 278 1
534 406 1
534 470 1
534 502 1
534 518 1
534 526 1
534 530 1
534 532 1
534 533 1
534 534 3.851E3
534 535 1
534 536 1
534 538 1
534 542 1
534 550 1
534 566 1
534 598 1
534 662 1
535 23 1
535 279 1
535 407 1
535 471 1
535 503 1
535 519 1
535 527 1
535 531 1
535 533 1
535 534 1
535 535 3.853E3
535 536 1
535 537 1
535 539 1
535 543 1
535 551 1
535 567 1
535 599 1
535 663 1
536 24 1
536 280 1
536 408 1
536 472 1
536 504 1
536 520 1
536 528 1
536 532 1
536 534 1
536 535 1
536 536 3.863E3
536 537 1
536 538 1
536 540 1
536 544 1
536 552 1
536 568 1
536 600 1
536 664 1
537 25 1
537 281 1
537 409 1
537 473 1
537 505 1
537 521 1
537 529 1
537 533 1
537 535 1
537 536 1
537 537 3.877E3
537 538 1
537 539 1
537 541 1
537 545 1
537 553 1
537 569 1
537 601 1
537 665 1
538 26 1
538 282 1
538 410 1
538 474 1
538 506 1
538 522 1
538 530 1
538 534 1
538 536 1
538 537 1
538 538 3.881E3
538 539 1
538 540 1
538 542 1
538 546 1
538 554 1
538 570 1
538 602 1
538 666 1
539 27 1
539 283 1
539 411 1
539 475 1
539 507 1
539 523 1
539 531 1
539 535 1
539 537 1
539 538 1
539 539 3.889E3
539 540 1
539 541 1
539 543 1
539 547 1
539 555 1
539 571 1
539 603 1
539 667 1
540 28 1
540 284 1
540 412 1
540 476 1
540 508 1
540 524 1
540 532 1
540 536 1
540 538 1
540 539 1
540 540 3.907E3
540 541 1
540 542 1
540 544 1
540 548 1
540 556 1
540 572 1
540 604 1
540 668 1
541 29 1
541 285 1
541 413 1
541 477 1
541 509 1
541 525 1
541 533 1
541 537 1
541 539 1
541 540 1
541 541 3.911E3
541 542 1
541 543 1
541 545 1
541 549 1
541 557 1
541 573 1
541 605 1
541 669 1
542 30 1
542 286 1
542 414 1
542 478 1
542 510 1
542 526 1
542 534 1
542 538 1
542 540 1
542 541 1
542 542 3.917E3
542 543 1
542 544 1
542 546 1
542 550 1
542 558 1
542 574 1
542 606 1
542 670 1
543 31 1
543 287 1
543 415 1
543 479 1
543 511 1
543 527 1
543 535 1
543 539 1
543 541 1
543 542 1
543 543 3.919E3
543 544 1
543 545 1
543 547 1
543 551 1
543 559 1
543 575 1
543 607 1
543 671 1
544 32 1
544 288 1
544 416 1
544 480 1
544 512 1
544 528 1
544 536 1
544 540 1
544 542 1
544 543 1
544 544 3.923E3
544 545 1
544 546 1
544 548 1
544 552 1
544 560 1
544 576 1
544 608 1
544 672 1
545 33 1
545 289 1
545 417 1
545 481 1
545 513 1
545 529 1
545 537 1
545 541 1
545 543 1
545 544 1
545 545 3.929E3
545 546 1
545 547 1
545 549 1
545 553 1
545 561 1
545 577 1
545 609 1
545 673 1
546 34 1
546 290 1
546 418 1
546 482 1
546 514 1
546 530 1
546 538 1
546 542 1
546 544 1
546 545 1
546 546 3.931E3
546 547 1
546 548 1
546 550 1
546 554 1
546 562 1
546 578 1
546 610 1
546 674 1
547 35 1
547 291 1
547 419 1
547 483 1
547 515 1
547 531 1
547 539 1
547 543 1
547 545 1
547 546 1
547 547 3.943E3
547 548 1
547 549 1
547 551 1
547 555 1
547 563 1
547 579 1
547 611 1
547 675 1
548 36 1
548 292 1
548 420 1
548 484 1
548 516 1
548 532 1
548 540 1
548 544 1
548 546 1
548 547 1
548 548 3.947E3
548 549 1
548 550 1
548 552 1
548 556 1
548 564 1
548 580 1
548 612 1
548 676 1
549 37 1
549 293 1
549 421 1
549 485 1
549 517 1
549 533 1
549 541 1
549 545 1
549 547 1
549 548 1
549 549 3.967E3
549 550 1
549 551 1
549 553 1
549 557 1
549 565 1
549 581 1
549 613 1
549 677 1
550 38 1
550 294 1
550 422 1
550 486 1
550 518 1
550 534 1
550 542 1
550 546 1
550 548 1
550 549 1
550 550 3.989E3
550 551 1
550 552 1
550 554 1
550 558 1
550 566 1
550 582 1
550 614 1
550 678 1
551 39 1
551 295 1
551 423 1
551 487 1
551 519 1
551 535 1
551 543 1
551 547 1
551 549 1
551 550 1
551 551 4.001E3
551 552 1
551 553 1
551 555 1
551 559 1
551 567 1
551 583 1
551 615 1
551 679 1
552 40 1
552 296 1
552 424 1
552 488 1
552 520 1
552 536 1
552 544 1
552 548 1
552 550 1
552 551 1
552 552 4.003E3
552 553 1
552 554 1
552 556 1
552 560 1
552 568 1
552 584 1
552 616 1
552 680 1
553 41 1
553 297 1
553 425 1
553 489 1
553 521 1
553 537 1
553 545 1
553 549 1
553 551 1
553 552 1
553 553 4.007E3
553 554 1
553 555 1
553 557 1
553 561 1
553 569 1
553 585 1
553 617 1
553 681 1
554 42 1
554 298 1
554 426 1
554 490 1
554 522 1
554 538 1
554 546 1
554 550 1
554 552 1
554 553 1
554 554 4.013E3
554 555 1
554 556 1
554 558 1
554 562 1
554 570 1
554 586 1
554 618 1
554 682 1
555 43 1
555 299 1
555 427 1
555 491 1
555 523 1
555 539 1
555 547 1
555 551 1
555 553 1
555 554 1
555 555 4.019E3
555 556 1
555 557 1
555 559 1
555 563 1
555 571 1
555 587 1
555 619 1
555 683 1
556 44 1
556 300 1
556 428 1
556 492 1
556 524 1
556 540 1
556 548 1
556 552 1
556 554 1
556 555 1
556 556 4.021E3
556 557 1
556 558 1
556 560 1
556 564 1
556 572 1
556 588 1
556 620 1
556 684 1
557 45 1
557 301 1
557 429 1
557 493 1
557 525 1
557 541 1
557 549 1
557 553 1
557 555 1
557 556 1
557 557 4.027E3
557 558 1
557 559 1
557 561 1
557 565 1
557 573 1
557 589 1
557 621 1
557 685 1
558 46 1
558 302 1
558 430 1
558 494 1
558 526 1
558 542 1
558 550 1
558 554 1
558 556 1
558 557 1
558 558 4.049E3
558 559 1
558 560 1
558 562 1
558 566 1
558 574 1
558 590 1
558 622 1
558 686 1
559 47 1
559 303 1
559 431 1
559 495 1
559 527 1
559 543 1
559 551 1
559 555 1
559 557 1
559 558 1
559 559 4.051E3
559 560 1
559 561 1
559 563 1
559 567 1
559 575 1
559 591 1
559 623 1
559 687 1
560 48 1
560 304 1
560 432 1
560 496 1
560 528 1
560 544 1
560 552 1
560 556 1
560 558 1
560 559 1
560 560 4.057E3
560 561 1
560 562 1
560 564 1
560 568 1
560 576 1
560 592 1
560 624 1
560 688 1
561 49 1
561 305 1
561 433 1
561 497 1
561 529 1
561 545 1
561 553 1
561 557 1
561 559 1
561 560 1
561 561 4.073E3
561 562 1
561 563 1
561 565 1
561 569 1
561 577 1
561 593 1
561 625 1
561 689 1
562 50 1
562 306 1
562 434 1
562 498 1
562 530 1
562 546 1
562 554 1
562 558 1
562 560 1
562 561 1
562 562 4.079E3
562 563 1
562 564 1
562 566 1
562 570 1
562 578 1
562 594 1
562 626 1
562 690 1
563 51 1
563 307 1
563 435 1
563 499 1
563 531 1
563 547 1
563 555 1
563 559 1
563 561 1
563 562 1
563 563 4.091E3
563 564 1
563 565 1
563 567 1
563 571 1
563 579 1
563 595 1
563 627 1
563 691 1
564 52 1
564 308 1
564 436 1
564 500 1
564 532 1
564 548 1
564 556 1
564 560 1
564 562 1
564 563 1
564 564 4.093E3
564 565 1
564 566 1
564 568 1
564 572 1
564 580 1
564 596 1
564 628 1
564 692 1
565 53 1
565 309 1
565 437 1
565 501 1
565 533 1
565 549 1
565 557 1
565 561 1
565 563 1
565 564 1
565 565 4.099E3
565 566 1
565 567 1
565 569 1
565 573 1
565 581 1
565 597 1
565 629 1
565 693 1
566 54 1
566 310 1
566 438 1
566 502 1
566 534 1
566 550 1
566 558 1
566 562 1
566 564 1
566 565 1
566 566 4.111E3
566 567 1
566 568 1
566 570 1
566 574 1
566 582 1
566 598 1
566 630 1
566 694 1
567 55 1
567 311 1
567 439 1
567 503 1
567 535 1
567 551 1
567 559 1
567 563 1
567 565 1
567 566 1
567 567 4.127E3
567 568 1
567 569 1
567 571 1
567 575 1
567 583 1
567 599 1
567 631 1
567 695 1
568 56 1
568 312 1
568 440 1
568 504 1
568 536 1
568 552 1
568 560 1
568 564 1
568 566 1
568 567 1
568 568 4.129E3
568 569 1
568 570 1
568 572 1
568 576 1
568 584 1
568 600 1
568 632 1
568 696 1
569 57 1
569 313 1
569 441 1
569 505 1
569 537 1
569 553 1
569 561 1
569 565 1
569 567 1
569 568 1
569 569 4.133E3
569 570 1
569 571 1
569 573 1
569 577 1
569 585 1
569 601 1
569 633 1
569 697 1
570 58 1
570 314 1
570 442 1
570 506 1
570 538 1
570 554 1
570 562 1
570 566 1
570 568 1
570 569 1
570 570 4.139E3
570 571 1
570 572 1
570 574 1
570 578 1
570 586 1
570 602 1
570 634 1
570 698 1
571 59 1
571 315 1
571 443 1
571 507 1
571 539 1
571 555 1
571 563 1
571 567 1
571 569 1
571 570 1
571 571 4.153E3
571 572 1
571 573 1
571 575 1
571 579 1
571 587 1
571 603 1
571 635 1
571 699 1
572 60 1
572 316 1
572 444 1
572 508 1
572 540 1
572 556 1
572 564 1
572 568 1
572 570 1
572 571 1
572 572 4.157E3
572 573 1
572 574 1
572 576 1
572 580 1
572 588 1
572 604 1
572 636 1
572 700 1
573 61 1
573 317 1
573 445 1
573 509 1
573 541 1
573 557 1
573 565 1
573 569 1
573 571 1
573 572 1
573 573 4.159E3
573 574 1
573 575 1
573 577 1
573 581 1
573 589 1
573 605 1
573 637 1
574 62 1
574 318 1
574 446 1
574 510 1
574 542 1
574 558 1
574 566 1
574 570 1
574 572 1
574 573 1
574 574 4.177E3
574 575 1
574 576 1
574 578 1
574 582 1
574 590 1
574 606 1
574 638 1
575 63 1
575 319 1
575 447 1
575 511 1
575 543 1
575 559 1
575 567 1
575 571 1
575 573 1
575 574 1
575 575 4.201E3
575 576 1
575 577 1
575 579 1
575 583 1
575 591 1
575 607 1
575 639 1
576 64 1
576 320 1
576 448 1
576 512 1
576 544 1
576 560 1
576 568 1
576 572 1
576 574 1
576 575 1
576 576 4.211E3
576 577 1
576 578 1
576 580 1
576 584 1
576 592 1
576 608 1
576 640 1
577 65 1
577 321 1
577 449 1
577 513 1
577 545 1
577 561 1
577 569 1
577 573 1
577 575 1
577 576 1
577 577 4.217E3
577 578 1
577 579 1
577 581 1
577 585 1
577 593 1
577 609 1
577 641 1
578 66 1
578 322 1
578 450 1
578 514 1
578 546 1
578 562 1
578 570 1
578 574 1
578 576 1
578 577 1
578 578 4.219E3
578 579 1
578 580 1
578 582 1
578 586 1
578 594 1
578 610 1
578 642 1
579 67 1
579 323 1
579 451 1
579 515 1
579 547 1
579 563 1
579 571 1
579 575 1
579 577 1
579 578 1
579 579 4.229E3
579 580 1
579 581 1
579 583 1
579 587 1
579 595 1
579 611 1
579 643 1
580 68 1
580 324 1
580 452 1
580 516 1
580 548 1
580 564 1
580 572 1
580 576 1
580 578 1
580 579 1
580 580 4.231E3
580 581 1
580 582 1
580 584 1
580 588 1
580 596 1
580 612 1
580 644 1
581 69 1
581 325 1
581 453 1
581 517 1
581 549 1
581 565 1
581 573 1
581 577 1
581 579 1
581 580 1
581 581 4.241E3
581 582 1
581 583 1
581 585 1
581 589 1
581 597 1
581 613 1
581 645 1
582 70 1
582 326 1
582 454 1
582 518 1
582 550 1
582 566 1
582 574 1
582 578 1
582 580 1
582 581 1
582 582 4.243E3
582 583 1
582 584 1
582 586 1
582 590 1
582 598 1
582 614 1
582 646 1
583 71 1
583 327 1
583 455 1
583 519 1
583 551 1
583 567 1
583 575 1
583 579 1
583 581 1
583 582 1
583 583 4.253E3
583 584 1
583 585 1
583 587 1
583 591 1
583 599 1
583 615 1
583 647 1
584 72 1
584 328 1
584 456 1
584 520 1
584 552 1
584 568 1
584 576 1
584 580 1
584 582 1
584 583 1
584 584 4.259E3
584 585 1
584 586 1
584 588 1
584 592 1
584 600 1
584 616 1
584 648 1
585 73 1
585 329 1
585 457 1
585 521 1
585 553 1
585 569 1
585 577 1
585 581 1
585 583 1
585 584 1
585 585 4.261E3
585 586 1
585 587 1
585 589 1
585 593 1
585 601 1
585 617 1
585 649 1
586 74 1
586 330 1
586 458 1
586 522 1
586 554 1
586 570 1
586 578 1
586 582 1
586 584 1
586 585 1
586 586 4.271E3
586 587 1
586 588 1
586 590 1
586 594 1
586 602 1
586 618 1
586 650 1
587 75 1
587 331 1
587 459 1
587 523 1
587 555 1
587 571 1
587 579 1
587 583 1
587 585 1
587 586 1
587 587 4.273E3
587 588 1
587 589 1
587 591 1
587 595 1
587 603 1
587 619 1
587 651 1
588 76 1
588 332 1
588 460 1
588 524 1
588 556 1
588 572 1
588 580 1
588 584 1
588 586 1
588 587 1
588 588 4.283E3
588 589 1
588 590 1
588 592 1
588 596 1
588 604 1
588 620 1
588 652 1
589 77 1
589 333 1
589 461 1
589 525 1
589 557 1
589 573 1
589 581 1
589 585 1
589 587 1
589 588 1
589 589 4.289E3
589 590 1
589 591 1
589 593 1
589 597 1
589 605 1
589 621 1
589 653 1
590 78 1
590 334 1
590 462 1
590 526 1
590 558 1
590 574 1
590 582 1
590 586 1
590 588 1
590 589 1
590 590 4.297E3
590 591 1
590 592 1
590 594 1
590 598 1
590 606 1
590 622 1
590 654 1
591 79 1
591 335 1
591 463 1
591 527 1
591 559 1
591 575 1
591 583 1
591 587 1
591 589 1
591 590 1
591 591 4.327E3
591 592 1
591 593 1
591 595 1
591 599 1
591 607 1
591 623 1
591 655 1
592 80 1
592 336 1
592 464 1
592 528 1
592 560 1
592 576 1
592 584 1
592 588 1
592 590 1
592 591 1
592 592 4.337E3
592 593 1
592 594 1
592 596 1
592 600 1
592 608 1
592 624 1
592 656 1
593 81 1
593 337 1
593 465 1
593 529 1
593 561 1
593 577 1
593 585 1
593 589 1
593 591 1
593 592 1
593 593 4.339E3
593 594 1
593 595 1
593 597 1
593 601 1
593 609 1
593 625 1
593 657 1
594 82 1
594 338 1
594 466 1
594 530 1
594 562 1
594 578 1
594 586 1
594 590 1
594 592 1
594 593 1
594 594 4.349E3
594 595 1
594 596 1
594 598 1
594 602 1
594 610 1
594 626 1
594 658 1
595 83 1
595 339 1
595 467 1
595 531 1
595 563 1
595 579 1
595 587 1
595 591 1
595 593 1
595 594 1
595 595 4.357E3
595 596 1
595 597 1
595 599 1
595 603 1
595 611 1
595 627 1
595 659 1
596 84 1
596 340 1
596 468 1
596 532 1
596 564 1
596 580 1
596 588 1
596 592 1
596 594 1
596 595 1
596 596 4.363E3
596 597 1
596 598 1
596 600 1
596 604 1
596 612 1
596 628 1
596 660 1
597 85 1
597 341 1
597 469 1
597 533 1
597 565 1
597 581 1
597 589 1
597 593 1
597 595 1
597 596 1
597 597 4.373E3
597 598 1
597 599 1
597 601 1
597 605 1
597 613 1
597 629 1
597 661 1
598 86 1
598 342 1
598 470 1
598 534 1
598 566 1
598 582 1
598 590 1
598 594 1
598 596 1
598 597 1
598 598 4.391E3
598 599 1
598 600 1
598 602 1
598 606 1
598 614 1
598 630 1
598 662 1
599 87 1
599 343 1
599 471 1
599 535 1
599 567 1
599 583 1
599 591 1
599 595 1
599 597 1
599 598 1
599 599 4.397E3
599 600 1
599 601 1
599 603 1
599 607 1
599 615 1
599 631 1
599 663 1
600 88 1
600 344 1
600 472 1
600 536 1
600 568 1
600 584 1
600 592 1
600 596 1
600 598 1
600 599 1
600 600 4.409E3
600 601 1
600 602 1
600 604 1
600 608 1
600 616 1
600 632 1
600 664 1
601 89 1
601 345 1
601 473 1
601 537 1
601 569 1
601 585 1
601 593 1
601 597 1
601 599 1
601 600 1
601 601 4.421E3
601 602 1
601 603 1
601 605 1
601 609 1
601 617 1
601 633 1
601 665 1
602 90 1
602 346 1
602 474 1
602 538 1
602 570 1
602 586 1
602 594 1
602 598 1
602 600 1
602 601 1
602 602 4.423E3
602 603 1
602 604 1
602 606 1
602 610 1
602 618 1
602 634 1
602 666 1
603 91 1
603 347 1
603 475 1
603 539 1
603 571 1
603 587 1
603 595 1
603 599 1
603 601 1
603 602 1
603 603 4.441E3
603 604 1
603 605 1
603 607 1
603 611 1
603 619 1
603 635 1
603 667 1
604 92 1
604 348 1
604 476 1
604 540 1
604 572 1
604 588 1
604 596 1
604 600 1
604 602 1
604 603 1
604 604 4.447E3
604 605 1
604 606 1
604 608 1
604 612 1
604 620 1
604 636 1
604 668 1
605 93 1
605 349 1
605 477 1
605 541 1
605 573 1
605 589 1
605 597 1
605 601 1
605 603 1
605 604 1
605 605 4.451E3
605 606 1
605 607 1
605 609 1
605 613 1
605 621 1
605 637 1
605 669 1
606 94 1
606 350 1
606 478 1
606 542 1
606 574 1
606 590 1
606 598 1
606 602 1
606 604 1
606 605 1
606 606 4.457E3
606 607 1
606 608 1
606 610 1
606 614 1
606 622 1
606 638 1
606 670 1
607 95 1
607 351 1
607 479 1
607 543 1
607 575 1
607 591 1
607 599 1
607 603 1
607 605 1
607 606 1
607 607 4.463E3
607 608 1
607 609 1
607 611 1
607 615 1
607 623 1
607 639 1
607 671 1
608 96 1
608 352 1
608 480 1
608 544 1
608 576 1
608 592 1
608 600 1
608 604 1
608 606 1
608 607 1
608 608 4.481E3
608 609 1
608 610 1
608 612 1
608 616 1
608 624 1
608 640 1
608 672 1
609 97 1
609 353 1
609 481 1
609 545 1
609 577 1
609 593 1
609 601 1
609 605 1
609 607 1
609 608 1
609 609 4.483E3
609 610 1
609 611 1
609 613 1
609 617 1
609 625 1
609 641 1
609 673 1
610 98 1
610 354 1
610 482 1
610 546 1
610 578 1
610 594 1
610 602 1
610 606 1
610 608 1
610 609 1
610 610 4.493E3
610 611 1
610 612 1
610 614 1
610 618 1
610 626 1
610 642 1
610 674 1
611 99 1
611 355 1
611 483 1
611 547 1
611 579 1
611 595 1
611 603 1
611 607 1
611 609 1
611 610 1
611 611 4.507E3
611 612 1
611 613 1
611 615 1
611 619 1
611 627 1
611 643 1
611 675 1
612 100 1
612 356 1
612 484 1
612 548 1
612 580 1
612 596 1
612 604 1
612 608 1
612 610 1
612 611 1
612 612 4.513E3
612 613 1
612 614 1
612 616 1
612 620 1
612 628 1
612 644 1
612 676 1
613 101 1
613 357 1
613 485 1
613 549 1
613 581 1
613 597 1
613 605 1
613 609 1
613 611 1
613 612 1
613 613 4.517E3
613 614 1
613 615 1
613 617 1
613 621 1
613 629 1
613 645 1
613 677 1
614 102 1
614 358 1
614 486 1
614 550 1
614 582 1
614 598 1
614 606 1
614 610 1
614 612 1
614 613 1
614 614 4.519E3
614 615 1
614 616 1
614 618 1
614 622 1
614 630 1
614 646 1
614 678 1
615 103 1
615 359 1
615 487 1
615 551 1
615 583 1
615 599 1
615 607 1
615 611 1
615 613 1
615 614 1
615 615 4.523E3
615 616 1
615 617 1
615 619 1
615 623 1
615 631 1
615 647 1
615 679 1
616 104 1
616 360 1
616 488 1
616 552 1
616 584 1
616 600 1
616 608 1
616 612 1
616 614 1
616 615 1
616 616 4.547E3
616 617 1
616 618 1
616 620 1
616 624 1
616 632 1
616 648 1
616 680 1
617 105 1
617 361 1
617 489 1
617 553 1
617 585 1
617 601 1
617 609 1
617 613 1
617 615 1
617 616 1
617 617 4.549E3
617 618 1
617 619 1
617 621 1
617 625 1
617 633 1
617 649 1
617 681 1
618 106 1
618 362 1
618 490 1
618 554 1
618 586 1
618 602 1
618 610 1
618 614 1
618 616 1
618 617 1
618 618 4.561E3
618 619 1
618 620 1
618 622 1
618 626 1
618 634 1
618 650 1
618 682 1
619 107 1
619 363 1
619 491 1
619 555 1
619 587 1
619 603 1
619 611 1
619 615 1
619 617 1
619 618 1
619 619 4.567E3
619 620 1
619 621 1
619 623 1
619 627 1
619 635 1
619 651 1
619 683 1
620 108 1
620 364 1
620 492 1
620 556 1
620 588 1
620 604 1
620 612 1
620 616 1
620 618 1
620 619 1
620 620 4.583E3
620 621 1
620 622 1
620 624 1
620 628 1
620 636 1
620 652 1
620 684 1
621 109 1
621 365 1
621 493 1
621 557 1
621 589 1
621 605 1
621 613 1
621 617 1
621 619 1
621 620 1
621 621 4.591E3
621 622 1
621 623 1
621 625 1
621 629 1
621 637 1
621 653 1
621 685 1
622 110 1
622 366 1
622 494 1
622 558 1
622 590 1
622 606 1
622 614 1
622 618 1
622 620 1
622 621 1
622 622 4.597E3
622 623 1
622 624 1
622 626 1
622 630 1
622 638 1
622 654 1
622 686 1
623 111 1
623 367 1
623 495 1
623 559 1
623 591 1
623 607 1
623 615 1
623 619 1
623 621 1
623 622 1
623 623 4.603E3
623 624 1
623 625 1
623 627 1
623 631 1
623 639 1
623 655 1
623 687 1
624 112 1
624 368 1
624 496 1
624 560 1
624 592 1
624 608 1
624 616 1
624 620 1
624 622 1
624 623 1
624 624 4.621E3
624 625 1
624 626 1
624 628 1
624 632 1
624 640 1
624 656 1
624 688 1
625 113 1
625 369 1
625 497 1
625 561 1
625 593 1
625 609 1
625 617 1
625 621 1
625 623 1
625 624 1
625 625 4.637E3
625 626 1
625 627 1
625 629 1
625 633 1
625 641 1
625 657 1
625 689 1
626 114 1
626 370 1
626 498 1
626 562 1
626 594 1
626 610 1
626 618 1
626 622 1
626 624 1
626 625 1
626 626 4.639E3
626 627 1
626 628 1
626 630 1
626 634 1
626 642 1
626 658 1
626 690 1
627 115 1
627 371 1
627 499 1
627 563 1
627 595 1
627 611 1
627 619 1
627 623 1
627 625 1
627 626 1
627 627 4.643E3
627 628 1
627 629 1
627 631 1
627 635 1
627 643 1
627 659 1
627 691 1
628 116 1
628 372 1
628 500 1
628 564 1
628 596 1
628 612 1
628 620 1
628 624 1
628 626 1
628 627 1
628 628 4.649E3
628 629 1
628 630 1
628 632 1
628 636 1
628 644 1
628 660 1
628 692 1
629 117 1
629 373 1
629 501 1
629 565 1
629 597 1
629 613 1
629 621 1
629 625 1
629 627 1
629 628 1
629 629 4.651E3
629 630 1
629 631 1
629 633 1
629 637 1
629 645 1
629 661 1
629 693 1
630 118 1
630 374 1
630 502 1
630 566 1
630 598 1
630 614 1
630 622 1
630 626 1
630 628 1
630 629 1
630 630 4.657E3
630 631 1
630 632 1
630 634 1
630 638 1
630 646 1
630 662 1
630 694 1
631 119 1
631 375 1
631 503 1
631 567 1
631 599 1
631 615 1
631 623 1
631 627 1
631 629 1
631 630 1
631 631 4.663E3
631 632 1
631 633 1
631 635 1
631 639 1
631 647 1
631 663 1
631 695 1
632 120 1
632 376 1
632 504 1
632 568 1
632 600 1
632 616 1
632 624 1
632 628 1
632 630 1
632 631 1
632 632 4.673E3
632 633 1
632 634 1
632 636 1
632 640 1
632 648 1
632 664 1
632 696 1
633 121 1
633 377 1
633 505 1
633 569 1
633 601 1
633 617 1
633 625 1
633 629 1
633 631 1
633 632 1
633 633 4.679E3
633 634 1
633 635 1
633 637 1
633 641 1
633 649 1
633 665 1
633 697 1
634 122 1
634 378 1
634 506 1
634 570 1
634 602 1
634 618 1
634 626 1
634 630 1
634 632 1
634 633 1
634 634 4.691E3
634 635 1
634 636 1
634 638 1
634 642 1
634 650 1
634 666 1
634 698 1
635 123 1
635 379 1
635 507 1
635 571 1
635 603 1
635 619 1
635 627 1
635 631 1
635 633 1
635 634 1
635 635 4.703E3
635 636 1
635 637 1
635 639 1
635 643 1
635 651 1
635 667 1
635 699 1
636 124 1
636 380 1
636 508 1
636 572 1
636 604 1
636 620 1
636 628 1
636 632 1
636 634 1
636 635 1
636 636 4.721E3
636 637 1
636 638 1
636 640 1
636 644 1
636 652 1
636 668 1
636 700 1
637 125 1
637 381 1
637 509 1
637 573 1
637 605 1
637 621 1
637 629 1
637 633 1
637 635 1
637 636 1
637 637 4.723E3
637 638 1
637 639 1
637 641 1
637 645 1
637 653 1
637 669 1
638 126 1
638 382 1
638 510 1
638 574 1
638 606 1
638 622 1
638 630 1
638 634 1
638 636 1
638 637 1
638 638 4.729E3
638 639 1
638 640 1
638 642 1
638 646 1
638 654 1
638 670 1
639 127 1
639 383 1
639 511 1
639 575 1
639 607 1
639 623 1
639 631 1
639 635 1
639 637 1
639 638 1
639 639 4.733E3
639 640 1
639 641 1
639 643 1
639 647 1
639 655 1
639 671 1
640 128 1
640 384 1
640 512 1
640 576 1
640 608 1
640 624 1
640 632 1
640 636 1
640 638 1
640 639 1
640 640 4.751E3
640 641 1
640 642 1
640 644 1
640 648 1
640 656 1
640 672 1
641 129 1
641 385 1
641 513 1
641 577 1
641 609 1
641 625 1
641 633 1
641 637 1
641 639 1
641 640 1
641 641 4.759E3
641 642 1
641 643 1
641 645 1
641 649 1
641 657 1
641 673 1
642 130 1
642 386 1
642 514 1
642 578 1
642 610 1
642 626 1
642 634 1
642 638 1
642 640 1
642 641 1
642 642 4.783E3
642 643 1
642 644 1
642 646 1
642 650 1
642 658 1
642 674 1
643 131 1
643 387 1
643 515 1
643 579 1
643 611 1
643 627 1
643 635 1
643 639 1
643 641 1
643 642 1
643 643 4.787E3
643 644 1
643 645 1
643 647 1
643 651 1
643 659 1
643 675 1
644 132 1
644 388 1
644 516 1
644 580 1
644 612 1
644 628 1
644 636 1
644 640 1
644 642 1
644 643 1
644 644 4.789E3
644 645 1
644 646 1
644 648 1
644 652 1
644 660 1
644 676 1
645 133 1
645 389 1
645 517 1
645 581 1
645 613 1
645 629 1
645 637 1
645 641 1
645 643 1
645 644 1
645 645 4.793E3
645 646 1
645 647 1
645 649 1
645 653 1
645 661 1
645 677 1
646 134 1
646 390 1
646 518 1
646 582 1
646 614 1
646 630 1
646 638 1
646 642 1
646 644 1
646 645 1
646 646 4.799E3
646 647 1
646 648 1
646 650 1
646 654 1
646 662 1
646 678 1
647 135 1
647 391 1
647 519 1
647 583 1
647 615 1
647 631 1
647 639 1
647 643 1
647 645 1
647 646 1
647 647 4.801E3
647 648 1
647 649 1
647 651 1
647 655 1
647 663 1
647 679 1
648 136 1
648 392 1
648 520 1
648 584 1
648 616 1
648 632 1
648 640 1
648 644 1
648 646 1
648 647 1
648 648 4.813E3
648 649 1
648 650 1
648 652 1
648 656 1
648 664 1
648 680 1
649 137 1
649 393 1
649 521 1
649 585 1
649 617 1
649 633 1
649 641 1
649 645 1
649 647 1
649 648 1
649 649 4.817E3
649 650 1
649 651 1
649 653 1
649 657 1
649 665 1
649 681 1
650 138 1
650 394 1
650 522 1
650 586 1
650 618 1
650 634 1
650 642 1
650 646 1
650 648 1
650 649 1
650 650 4.831E3
650 651 1
650 652 1
650 654 1
650 658 1
650 666 1
650 682 1
651 139 1
651 395 1
651 523 1
651 587 1
651 619 1
651 635 1
651 643 1
651 647 1
651 649 1
651 650 1
651 651 4.861E3
651 652 1
651 653 1
651 655 1
651 659 1
651 667 1
651 683 1
652 140 1
652 396 1
652 524 1
652 588 1
652 620 1
652 636 1
652 644 1
652 648 1
652 650 1
652 651 1
652 652 4.871E3
652 653 1
652 654 1
652 656 1
652 660 1
652 668 1
652 684 1
653 141 1
653 397 1
653 525 1
653 589 1
653 621 1
653 637 1
653 645 1
653 649 1
653 651 1
653 652 1
653 653 4.877E3
653 654 1
653 655 1
653 657 1
653 661 1
653 669 1
653 685 1
654 142 1
654 398 1
654 526 1
654 590 1
654 622 1
654 638 1
654 646 1
654 650 1
654 652 1
654 653 1
654 654 4.889E3
654 655 1
654 656 1
654 658 1
654 662 1
654 670 1
654 686 1
655 143 1
655 399 1
655 527 1
655 591 1
655 623 1
655 639 1
655 647 1
655 651 1
655 653 1
655 654 1
655 655 4.903E3
655 656 1
655 657 1
655 659 1
655 663 1
655 671 1
655 687 1
656 144 1
656 400 1
656 528 1
656 592 1
656 624 1
656 640 1
656 648 1
656 652 1
656 654 1
656 655 1
656 656 4.909E3
656 657 1
656 658 1
656 660 1
656 664 1
656 672 1
656 688 1
657 145 1
657 401 1
657 529 1
657 593 1
657 625 1
657 641 1
657 649 1
657 653 1
657 655 1
657 656 1
657 657 4.919E3
657 658 1
657 659 1
657 661 1
657 665 1
657 673 1
657 689 1
658 146 1
658 402 1
658 530 1
658 594 1
658 626 1
658 642 1
658 650 1
658 654 1
658 656 1
658 657 1
658 658 4.931E3
658 659 1
658 660 1
658 662 1
658 666 1
658 674 1
658 690 1
659 147 1
659 403 1
659 531 1
659 595 1
659 627 1
659 643 1
659 651 1
659 655 1
659 657 1
659 658 1
659 659 4.933E3
659 660 1
659 661 1
659 663 1
659 667 1
659 675 1
659 691 1
660 148 1
660 404 1
660 532 1
660 596 1
660 628 1
660 644 1
660 652 1
660 656 1
660 658 1
660 659 1
660 660 4.937E3
660 661 1
660 662 1
660 664 1
660 668 1
660 676 1
660 692 1
661 149 1
661 405 1
661 533 1
661 597 1
661 629 1
661 645 1
661 653 1
661 657 1
661 659 1
661 660 1
661 661 4.943E3
661 662 1
661 663 1
661 665 1
661 669 1
661 677 1
661 693 1
662 150 1
662 406 1
662 534 1
662 598 1
662 630 1
662 646 1
662 654 1
662 658 1
662 660 1
662 661 1
662 662 4.951E3
662 663 1
662 664 1
662 666 1
662 670 1
662 678 1
662 694 1
663 151 1
663 407 1
663 535 1
663 599 1
663 631 1
663 647 1
663 655 1
663 659 1
663 661 1
663 662 1
663 663 4.957E3
663 664 1
663 665 1
663 667 1
663 671 1
663 679 1
663 695 1
664 152 1
664 408 1
664 536 1
664 600 1
664 632 1
664 648 1
664 656 1
664 660 1
664 662 1
664 663 1
664 664 4.967E3
664 665 1
664 666 1
664 668 1
664 672 1
664 680 1
664 696 1
665 153 1
665 409 1
665 537 1
665 601 1
665 633 1
665 649 1
665 657 1
665 661 1
665 663 1
665 664 1
665 665 4.969E3
665 666 1
665 667 1
665 669 1
665 673 1
665 681 1
665 697 1
666 154 1
666 410 1
666 538 1
666 602 1
666 634 1
666 650 1
666 658 1
666 662 1
666 664 1
666 665 1
666 666 4.973E3
666 667 1
666 668 1
666 670 1
666 674 1
666 682 1
666 698 1
667 155 1
667 411 1
667 539 1
667 603 1
667 635 1
667 651 1
667 659 1
667 663 1
667 665 1
667 666 1
667 667 4.987E3
667 668 1
667 669 1
667 671 1
667 675 1
667 683 1
667 699 1
668 156 1
668 412 1
668 540 1
668 604 1
668 636 1
668 652 1
668 660 1
668 664 1
668 666 1
668 667 1
668 668 4.993E3
668 669 1
668 670 1
668 672 1
668 676 1
668 684 1
668 700 1
669 157 1
669 413 1
669 541 1
669 605 1
669 637 1
669 653 1
669 661 1
669 665 1
669 667 1
669 668 1
669 669 4.999E3
669 670 1
669 671 1
669 673 1
669 677 1
669 685 1
670 158 1
670 414 1
670 542 1
670 606 1
670 638 1
670 654 1
670 662 1
670 666 1
670 668 1
670 669 1
670 670 5.003E3
670 671 1
670 672 1
670 674 1
670 678 1
670 686 1
671 159 1
671 415 1
671 543 1
671 607 1
671 639 1
671 655 1
671 663 1
671 667 1
671 669 1
671 670 1
671 671 5.009E3
671 672 1
671 673 1
671 675 1
671 679 1
671 687 1
672 160 1
672 416 1
672 544 1
672 608 1
672 640 1
672 656 1
672 664 1
672 668 1
672 670 1
672 671 1
672 672 5.011E3
672 673 1
672 674 1
672 676 1
672 680 1
672 688 1
673 161 1
673 417 1
673 545 1
673 609 1
673 641 1
673 657 1
673 665 1
673 669 1
673 671 1
673 672 1
673 673 5.021E3
673 674 1
673 675 1
673 677 1
673 681 1
673 689 1
674 162 1
674 418 1
674 546 1
674 610 1
674 642 1
674 658 1
674 666 1
674 670 1
674 672 1
674 673 1
674 674 5.023E3
674 675 1
674 676 1
674 678 1
674 682 1
674 690 1
675 163 1
675 419 1
675 547 1
675 611 1
675 643 1
675 659 1
675 667 1
675 671 1
675 673 1
675 674 1
675 675 5.039E3
675 676 1
675 677 1
675 679 1
675 683 1
675 691 1
676 164 1
676 420 1
676 548 1
676 612 1
676 644 1
676 660 1
676 668 1
676 672 1
676 674 1
676 675 1
676 676 5.051E3
676 677 1
676 678 1
676 680 1
676 684 1
676 692 1
677 165 1
677 421 1
677 549 1
677 613 1
677 645 1
677 661 1
677 669 1
677 673 1
677 675 1
677 676 1
677 677 5.059E3
677 678 1
677 679 1
677 681 1
677 685 1
677 693 1
678 166 1
678 422 1
678 550 1
678 614 1
678 646 1
678 662 1
678 670 1
678 674 1
678 676 1
678 677 1
678 678 5.077E3
678 679 1
678 680 1
678 682 1
678 686 1
678 694 1
679 167 1
679 423 1
679 551 1
679 615 1
679 647 1
679 663 1
679 671 1
679 675 1
679 677 1
679 678 1
679 679 5.081E3
679 680 1
679 681 1
679 683 1
679 687 1
679 695 1
680 168 1
680 424 1
680 552 1
680 616 1
680 648 1
680 664 1
680 672 1
680 676 1
680 678 1
680 679 1
680 680 5.087E3
680 681 1
680 682 1
680 684 1
680 688 1
680 696 1
681 169 1
681 425 1
681 553 1
681 617 1
681 649 1
681 665 1
681 673 1
681 677 1
681 679 1
681 680 1
681 681 5.099E3
681 682 1
681 683 1
681 685 1
681 689 1
681 697 1
682 170 1
682 426 1
682 554 1
682 618 1
682 650 1
682 666 1
682 674 1
682 678 1
682 680 1
682 681 1
682 682 5.101E3
682 683 1
682 684 1
682 686 1
682 690 1
682 698 1
683 171 1
683 427 1
683 555 1
683 619 1
683 651 1
683 667 1
683 675 1
683 679 1
683 681 1
683 682 1
683 683 5.107E3
683 684 1
683 685 1
683 687 1
683 691 1
683 699 1
684 172 1
684 428 1
684 556 1
684 620 1
684 652 1
684 668 1
684 676 1
684 680 1
684 682 1
684 683 1
684 684 5.113E3
684 685 1
684 686 1
684 688 1
684 692 1
684 700 1
685 173 1
685 429 1
685 557 1
685 621 1
685 653 1
685 669 1
685 677 1
685 681 1
685 683 1
685 684 1
685 685 5.119E3
685 686 1
685 687 1
685 689 1
685 693 1
686 174 1
686 430 1
686 558 1
686 622 1
686 654 1
686 670 1
686 678 1
686 682 1
686 684 1
686 685 1
686 686 5.147E3
686 687 1
686 688 1
686 690 1
686 694 1
687 175 1
687 431 1
687 559 1
687 623 1
687 655 1
687 671 1
687 679 1
687 683 1
687 685 1
687 686 1
687 687 5.153E3
687 688 1
687 689 1
687 691 1
687 695 1
688 176 1
688 432 1
688 560 1
688 624 1
688 656 1
688 672 1
688 680 1
688 684 1
688 686 1
688 687 1
688 688 5.167E3
688 689 1
688 690 1
688 692 1
688 696 1
689 177 1
689 433 1
689 561 1
689 625 1
689 657 1
689 673 1
689 681 1
689 685 1
689 687 1
689 688 1
689 689 5.171E3
689 690 1
689 691 1
689 693 1
689 697 1
690 178 1
690 434 1
690 562 1
690 626 1
690 658 1
690 674 1
690 682 1
690 686 1
690 688 1
690 689 1
690 690 5.179E3
690 691 1
690 692 1
690 694 1
690 698 1
691 179 1
691 435 1
691 563 1
691 627 1
691 659 1
691 675 1
691 683 1
691 687 1
691 689 1
691 690 1
691 691 5.189E3
691 692 1
691 693 1
691 695 1
691 699 1
692 180 1
692 436 1
692 564 1
692 628 1
692 660 1
692 676 1
692 684 1
692 688 1
692 690 1
692 691 1
692 692 5.197E3
692 693 1
692 694 1
692 696 1
692 700 1
693 181 1
693 437 1
693 565 1
693 629 1
693 661 1
693 677 1
693 685 1
693 689 1
693 691 1
693 692 1
693 693 5.209E3
693 694 1
693 695 1
693 697 1
694 182 1
694 438 1
694 566 1
694 630 1
694 662 1
694 678 1
694 686 1
694 690 1
694 692 1
694 693 1
694 694 5.227E3
694 695 1
694 696 1
694 698 1
695 183 1
695 439 1
695 567 1
695 631 1
695 663 1
695 679 1
695 687 1
695 691 1
695 693 1
695 694 1
695 695 5.231E3
695 696 1
695 697 1
695 699 1
696 184 1
696 440 1
696 568 1
696 632 1
696 664 1
696 680 1
696 688 1
696 692 1
696 694 1
696 695 1
696 696 5.233E3
696 697 1
696 698 1
696 700 1
697 185 1
697 441 1
697 569 1
697 633 1
697 665 1
697 681 1
697 689 1
697 693 1
697 695 1
697 696 1
697 697 5.237E3
697 698 1
697 699 1
698 186 1
698 442 1
698 570 1
698 634 1
698 666 1
698 682 1
698 690 1
698 694 1
698 696 1
698 697 1
698 698 5.261E3
698 699 1
698 700 1
699 187 1
699 443 1
699 571 1
699 635 1
699 667 1
699 683 1
699 691 1
699 695 1
699 697 1
699 698 1
699 699 5.273E3
699 700 1
700 188 1
700 444 1
700 572 1
700 636 1
700 668 1
700 684 1
700 692 1
700 696 1
700 698 1
700 699 1
700 700 5.279E3
