%%MatrixMarket matrix coordinate real general
%
575 575 6990
1 2 5.576151615416959E-1
1 3 1.656626658958072E-1
1 4 1.45000827565331E-1
1 5 1.1787935797994334E-1
1 6 7.32068611659384E-2
1 7 3.811586081270288E-2
1 8 2.667041094183053E-2
1 9 2.0851689911376505E-2
1 41 1.831563888873418E-2
1 78 1.611069654099556E-2
2 1 5.576151615416959E-1
2 3 3.062613920021814E-1
2 4 2.1521363510348754E-1
2 5 1.701156576899187E-1
2 6 1.0429598723110899E-1
2 7 4.99282351364959E-2
2 8 3.547026580552576E-2
2 9 2.6723419458024783E-2
2 10 1.6119094982084366E-2
2 41 1.831563888873418E-2
3 1 1.656626658958072E-1
3 2 3.062613920021814E-1
3 4 5.733998218200341E-1
3 5 4.794696312134209E-1
3 6 2.1790333775823043E-1
3 7 8.810235244450011E-2
3 8 4.788373337188463E-2
3 9 3.252435366884622E-2
3 10 1.831563888873418E-2
3 42 1.2159527611750067E-2
4 1 1.45000827565331E-1
4 2 2.1521363510348754E-1
4 3 5.733998218200341E-1
4 5 8.298266976831372E-1
4 6 2.6080233945676895E-1
4 7 1.2946283409462192E-1
4 8 6.171502550099997E-2
4 9 3.826065980413432E-2
4 10 1.831563888873418E-2
4 11 8.902088445052636E-3
5 1 1.1787935797994334E-1
5 2 1.701156576899187E-1
5 3 4.794696312134209E-1
5 4 8.298266976831372E-1
5 6 3.409268170254316E-1
5 7 1.7777614770599143E-1
5 8 7.149942780772876E-2
5 9 4.153322172867388E-2
5 10 1.831563888873418E-2
5 11 9.724138537378003E-3
6 1 7.32068611659384E-2
6 2 1.0429598723110899E-1
6 3 2.1790333775823043E-1
6 4 2.6080233945676895E-1
6 5 3.409268170254316E-1
6 7 4.8045859735287283E-1
6 8 1.8533644849715397E-1
6 9 9.089456914035954E-2
6 10 3.8695888366397514E-2
6 11 1.831563888873418E-2
6 12 1.7706610612679443E-2
7 1 3.811586081270288E-2
7 2 4.99282351364959E-2
7 3 8.810235244450011E-2
7 4 1.2946283409462192E-1
7 5 1.7777614770599143E-1
7 6 4.8045859735287283E-1
7 8 4.2527055311182815E-1
7 9 2.4334444301963384E-1
7 10 9.154402607978923E-2
7 11 3.572696177457787E-2
7 12 1.831563888873418E-2
7 13 1.6687486143717196E-2
8 1 2.667041094183053E-2
8 2 3.547026580552576E-2
8 3 4.788373337188463E-2
8 4 6.171502550099997E-2
8 5 7.149942780772876E-2
8 6 1.8533644849715397E-1
8 7 4.2527055311182815E-1
8 9 6.531771579868118E-1
8 10 2.2508815142893027E-1
8 11 8.315196226597096E-2
8 12 3.4365203311488846E-2
8 13 3.24937680811021E-2
8 14 1.831563888873418E-2
9 1 2.0851689911376505E-2
9 2 2.6723419458024783E-2
9 3 3.252435366884622E-2
9 4 3.826065980413432E-2
9 5 4.153322172867388E-2
9 6 9.089456914035954E-2
9 7 2.4334444301963384E-1
9 8 6.531771579868118E-1
9 10 4.538520388511326E-1
9 11 1.6586327931692701E-1
9 12 5.907153423472975E-2
9 13 5.821194663762424E-2
9 14 3.0774651704611945E-2
9 15 1.831563888873418E-2
10 2 1.6119094982084366E-2
10 3 1.831563888873418E-2
10 4 1.831563888873418E-2
10 5 1.831563888873418E-2
10 6 3.8695888366397514E-2
10 7 9.154402607978923E-2
10 8 2.2508815142893027E-1
10 9 4.538520388511326E-1
10 11 4.834541320774359E-1
10 12 1.4358793907760697E-1
10 13 1.4394408143961365E-1
10 14 6.738426188214411E-2
10 15 3.159517411859853E-2
11 4 8.902088445052636E-3
11 5 9.724138537378003E-3
11 6 1.831563888873418E-2
11 7 3.572696177457787E-2
11 8 8.315196226597096E-2
11 9 1.6586327931692701E-1
11 10 4.834541320774359E-1
11 12 3.70072418770302E-1
11 13 3.362878737716864E-1
11 14 1.5085214964542226E-1
11 15 5.985116413007786E-2
11 16 3.46084150830469E-2
12 6 1.7706610612679443E-2
12 7 1.831563888873418E-2
12 8 3.4365203311488846E-2
12 9 5.907153423472975E-2
12 10 1.4358793907760697E-1
12 11 3.70072418770302E-1
12 13 5.260946728564936E-1
12 14 2.770274911183016E-1
12 15 9.754462255812488E-2
12 16 6.99077732905316E-2
12 17 2.543605628443145E-2
13 7 1.6687486143717196E-2
13 8 3.24937680811021E-2
13 9 5.821194663762424E-2
13 10 1.4394408143961365E-1
13 11 3.362878737716864E-1
13 12 5.260946728564936E-1
13 14 5.426189825002145E-1
13 15 1.814170726296238E-1
13 16 1.0635155501634067E-1
13 17 3.611995164104417E-2
13 18 1.8581892530441874E-2
14 8 1.831563888873418E-2
14 9 3.0774651704611945E-2
14 10 6.738426188214411E-2
14 11 1.5085214964542226E-1
14 12 2.770274911183016E-1
14 13 5.426189825002145E-1
14 15 3.846463498064959E-1
14 16 2.0508858610793484E-1
14 17 6.821547949130907E-2
14 18 3.792209792300358E-2
15 9 1.831563888873418E-2
15 10 3.159517411859853E-2
15 11 5.985116413007786E-2
15 12 9.754462255812488E-2
15 13 1.814170726296238E-1
15 14 3.846463498064959E-1
15 16 2.1648330368484253E-1
15 17 7.775619692764256E-2
15 18 8.944671768047482E-2
15 19 2.4455966115478886E-2
15 49 1.627485796976557E-2
16 11 3.46084150830469E-2
16 12 6.99077732905316E-2
16 13 1.0635155501634067E-1
16 14 2.0508858610793484E-1
16 15 2.1648330368484253E-1
16 17 4.3878778613878344E-1
16 18 1.0865413368742208E-1
16 19 7.121084867638185E-2
16 20 1.932238821807528E-2
16 49 1.831563888873418E-2
16 67 1.831563888873418E-2
17 12 2.543605628443145E-2
17 13 3.611995164104417E-2
17 14 6.821547949130907E-2
17 15 7.775619692764256E-2
17 16 4.3878778613878344E-1
17 18 2.214619338093641E-1
17 19 1.861299411634806E-1
17 20 4.965653704493486E-2
17 50 1.831563888873418E-2
17 51 1.2824475565066051E-2
18 13 1.8581892530441874E-2
18 14 3.792209792300358E-2
18 15 8.944671768047482E-2
18 16 1.0865413368742208E-1
18 17 2.214619338093641E-1
18 19 3.683555300610634E-1
18 20 1.281584213643268E-1
18 21 3.125253784694552E-2
18 22 1.559777306803773E-2
18 51 1.831563888873418E-2
18 68 1.831563888873418E-2
19 15 2.4455966115478886E-2
19 16 7.121084867638185E-2
19 17 1.861299411634806E-1
19 18 3.683555300610634E-1
19 20 3.115560027999822E-1
19 21 6.2073108958521535E-2
19 22 3.834023945753595E-2
19 51 1.831563888873418E-2
19 52 1.9279337989239316E-2
19 68 1.831563888873418E-2
20 16 1.932238821807528E-2
20 17 4.965653704493486E-2
20 18 1.281584213643268E-1
20 19 3.115560027999822E-1
20 21 2.9002860534805713E-1
20 22 1.646201842411956E-1
20 23 4.232340214858151E-2
20 52 1.833503865701845E-2
20 54 1.831563888873418E-2
20 55 1.4964544322973084E-2
21 18 3.125253784694552E-2
21 19 6.2073108958521535E-2
21 20 2.9002860534805713E-1
21 22 5.060694775746576E-1
21 23 1.615688231003422E-1
21 24 3.55811426728487E-2
21 54 1.833623163159629E-2
21 55 2.1189770452372084E-2
21 56 1.4721697472849347E-2
21 70 2.1189770452372084E-2
22 18 1.559777306803773E-2
22 19 3.834023945753595E-2
22 20 1.646201842411956E-1
22 21 5.060694775746576E-1
22 23 3.8428717204676976E-1
22 24 8.282752236810888E-2
22 25 3.0795503384395465E-2
22 55 2.2749707840709548E-2
22 56 2.398887878621541E-2
22 70 2.2749707840709548E-2
23 20 4.232340214858151E-2
23 21 1.615688231003422E-1
23 22 3.8428717204676976E-1
23 24 3.246632069435879E-1
23 25 1.2802065399878432E-1
23 26 3.4314345906977864E-2
23 56 2.3856322552030875E-2
23 57 2.2283830900570054E-2
23 58 1.831563888873418E-2
23 71 1.831563888873418E-2
24 21 3.55811426728487E-2
24 22 8.282752236810888E-2
24 23 3.246632069435879E-1
24 25 5.542865956730304E-1
24 26 1.866590413698077E-1
24 27 5.394321690930305E-2
24 28 1.8244362011815025E-2
24 36 2.935634316015582E-2
24 38 1.831563888873418E-2
24 58 1.831563888873418E-2
24 71 1.831563888873418E-2
25 22 3.0795503384395465E-2
25 23 1.2802065399878432E-1
25 24 5.542865956730304E-1
25 26 5.103494446205369E-1
25 27 1.4652265476146717E-1
25 28 4.562956487799727E-2
25 29 3.769511521359405E-2
25 30 1.831563888873418E-2
25 31 1.581563628136976E-2
25 36 7.763092342613381E-2
25 38 2.183308114027536E-2
26 23 3.4314345906977864E-2
26 24 1.866590413698077E-1
26 25 5.103494446205369E-1
26 27 3.401567961587044E-1
26 28 6.9555964615384E-2
26 29 7.879566409155016E-2
26 30 2.281348238387236E-2
26 31 1.831563888873418E-2
26 32 1.4130849214993897E-2
26 33 1.3316878986300407E-2
26 36 1.5055379795201615E-1
26 38 2.6390506406975628E-2
27 24 5.394321690930305E-2
27 25 1.4652265476146717E-1
27 26 3.401567961587044E-1
27 28 2.2833979419718678E-1
27 29 2.3624043197952552E-1
27 30 4.377273319855873E-2
27 31 3.137210178068162E-2
27 32 2.2500770897385104E-2
27 33 1.831563888873418E-2
27 34 1.831563888873418E-2
27 35 1.2387027434389502E-2
27 36 4.8440860495283267E-1
27 38 2.9860862708313358E-2
28 24 1.8244362011815025E-2
28 25 4.562956487799727E-2
28 26 6.9555964615384E-2
28 27 2.2833979419718678E-1
28 29 4.0279597377542536E-1
28 30 3.048090039571165E-1
28 31 2.4229156671665728E-1
28 32 1.9278681094687078E-1
28 33 1.3535217529185195E-1
28 34 8.163104669509627E-2
28 35 4.925155806422346E-2
28 36 5.550773205751618E-1
28 38 2.3151319141717655E-2
29 25 3.769511521359405E-2
29 26 7.879566409155016E-2
29 27 2.3624043197952552E-1
29 28 4.0279597377542536E-1
29 30 3.2570731724418356E-1
29 31 2.5910129585024655E-1
29 32 1.7503653168517444E-1
29 33 1.8376545563642707E-1
29 34 5.366126346441153E-2
29 35 3.472733636484598E-2
29 36 3.942272255205287E-1
29 38 2.31087250170376E-2
30 25 1.831563888873418E-2
30 26 2.281348238387236E-2
30 27 4.377273319855873E-2
30 28 3.048090039571165E-1
30 29 3.2570731724418356E-1
30 31 8.214984650191643E-1
30 32 5.583933172805096E-1
30 33 6.332639945244913E-1
30 34 2.028483869756493E-1
30 35 1.3504131837190858E-1
30 36 1.5746969781165582E-1
30 38 1.804193337333814E-2
31 25 1.581563628136976E-2
31 26 1.831563888873418E-2
31 27 3.137210178068162E-2
31 28 2.4229156671665728E-1
31 29 2.5910129585024655E-1
31 30 8.214984650191643E-1
31 32 7.089128824983455E-1
31 33 8.356264059978219E-1
31 34 2.6684013362356E-1
31 35 1.5594335003070695E-1
31 36 1.177375144786714E-1
32 26 1.4130849214993897E-2
32 27 2.2500770897385104E-2
32 28 1.9278681094687078E-1
32 29 1.7503653168517444E-1
32 30 5.583933172805096E-1
32 31 7.089128824983455E-1
32 33 7.012651899200368E-1
32 34 3.2313955101728675E-1
32 35 1.4329085826210394E-1
32 36 9.413574048379328E-2
33 26 1.3316878986300407E-2
33 27 1.831563888873418E-2
33 28 1.3535217529185195E-1
33 29 1.8376545563642707E-1
33 30 6.332639945244913E-1
33 31 8.356264059978219E-1
33 32 7.012651899200368E-1
33 34 3.557093648596946E-1
33 35 2.030229606736574E-1
33 36 7.29507265943691E-2
33 37 1.8284341069967413E-2
34 27 1.831563888873418E-2
34 28 8.163104669509627E-2
34 29 5.366126346441153E-2
34 30 2.028483869756493E-1
34 31 2.6684013362356E-1
34 32 3.2313955101728675E-1
34 33 3.557093648596946E-1
34 35 4.6829078476576824E-1
34 36 3.6671878723990005E-2
34 37 3.133911195901076E-2
34 97 1.2216926828892562E-2
35 27 1.2387027434389502E-2
35 28 4.925155806422346E-2
35 29 3.472733636484598E-2
35 30 1.3504131837190858E-1
35 31 1.5594335003070695E-1
35 32 1.4329085826210394E-1
35 33 2.030229606736574E-1
35 34 4.6829078476576824E-1
35 36 2.3356032495781748E-2
35 37 4.521026572189994E-2
36 24 2.935634316015582E-2
36 25 7.763092342613381E-2
36 26 1.5055379795201615E-1
36 27 4.8440860495283267E-1
36 28 5.550773205751618E-1
36 29 3.942272255205287E-1
36 30 1.5746969781165582E-1
36 31 1.177375144786714E-1
36 32 9.413574048379328E-2
36 33 7.29507265943691E-2
36 34 3.6671878723990005E-2
36 35 2.3356032495781748E-2
36 38 3.0395933770339986E-2
37 33 1.8284341069967413E-2
37 34 3.133911195901076E-2
37 35 4.521026572189994E-2
37 95 2.1818494361250065E-2
37 96 2.1205848286899982E-2
37 97 5.9712680995947905E-2
37 98 1.291852260135316E-1
37 99 5.71619636857476E-2
37 292 1.831563888873418E-2
37 294 1.9589604725374597E-2
38 24 1.831563888873418E-2
38 25 2.183308114027536E-2
38 26 2.6390506406975628E-2
38 27 2.9860862708313358E-2
38 28 2.3151319141717655E-2
38 29 2.31087250170376E-2
38 30 1.804193337333814E-2
38 36 3.0395933770339986E-2
38 94 1.9288225854126335E-2
38 95 2.1977532191935715E-2
39 40 6.648871877998581E-1
39 41 6.0318358677926065E-2
39 42 3.151798140217751E-2
39 43 1.9925534504607698E-2
39 64 1.9925534504607698E-2
39 74 6.840725759126019E-2
39 75 2.55263146236549E-2
39 234 1.8868526098499924E-2
39 235 2.120182086434882E-2
39 375 1.831563888873418E-2
40 39 6.648871877998581E-1
40 41 8.13980041032614E-2
40 42 4.182827136860538E-2
40 43 3.0077367651972647E-2
40 45 1.1762325120724644E-2
40 64 3.0077367651972647E-2
40 65 1.1762325120724644E-2
40 74 6.448568875546906E-2
40 75 2.5970529028042512E-2
40 234 2.250853216964857E-2
40 235 2.271870079315494E-2
40 375 1.831563888873418E-2
41 1 1.831563888873418E-2
41 2 1.831563888873418E-2
41 39 6.0318358677926065E-2
41 40 8.13980041032614E-2
41 42 2.627219160916735E-1
41 43 9.829843599746084E-2
41 44 5.075782600368369E-2
41 45 3.7482918677089305E-2
41 46 1.831563888873418E-2
41 64 9.829843599746084E-2
41 65 3.7482918677089305E-2
41 74 2.159508903268119E-2
41 75 2.9795423749721196E-2
41 76 1.85109165934699E-2
41 77 1.831563888873418E-2
41 375 1.2390947686059507E-2
42 3 1.2159527611750067E-2
42 39 3.151798140217751E-2
42 40 4.182827136860538E-2
42 41 2.627219160916735E-1
42 43 3.376002855283743E-1
42 44 2.775193385610427E-1
42 45 1.65696254667072E-1
42 46 9.514727160335182E-2
42 64 3.376002855283743E-1
42 65 1.65696254667072E-1
42 74 1.831563888873418E-2
42 75 1.722073560724964E-2
42 76 1.5587495574752785E-2
42 77 1.537972250249246E-2
42 375 1.4426008862266623E-2
43 39 1.9925534504607698E-2
43 40 3.0077367651972647E-2
43 41 9.829843599746084E-2
43 42 3.376002855283743E-1
43 44 2.3695559182847256E-1
43 45 5.314531807429427E-1
43 46 1.058622278654951E-1
43 47 1.831563888873418E-2
43 64 1
43 65 5.314531807429427E-1
43 66 1.831563888873418E-2
43 76 1.541026168704301E-2
44 41 5.075782600368369E-2
44 42 2.775193385610427E-1
44 43 2.3695559182847256E-1
44 45 3.9193518049673E-1
44 46 4.3366143551088243E-1
44 47 3.8041298164548404E-2
44 64 2.3695559182847256E-1
44 65 3.9193518049673E-1
44 66 3.8041298164548404E-2
44 79 4.7324355216685175E-3
44 375 7.198603713031797E-3
45 40 1.1762325120724644E-2
45 41 3.7482918677089305E-2
45 42 1.65696254667072E-1
45 43 5.314531807429427E-1
45 44 3.9193518049673E-1
45 46 1.9935293966706513E-1
45 47 2.947752367817198E-2
45 64 5.314531807429427E-1
45 65 1
45 66 2.947752367817198E-2
46 41 1.831563888873418E-2
46 42 9.514727160335182E-2
46 43 1.058622278654951E-1
46 44 4.3366143551088243E-1
46 45 1.9935293966706513E-1
46 47 9.201832793553652E-2
46 64 1.058622278654951E-1
46 65 1.9935293966706513E-1
46 66 9.201832793553652E-2
46 411 8.283339793907166E-3
47 43 1.831563888873418E-2
47 44 3.8041298164548404E-2
47 45 2.947752367817198E-2
47 46 9.201832793553652E-2
47 48 1.5961341295274162E-1
47 49 1.9362440837872544E-2
47 64 1.831563888873418E-2
47 65 2.947752367817198E-2
47 66 1
47 67 1.9362440837872544E-2
47 82 1.0529083640480934E-2
47 83 1.5806991252538094E-2
48 47 1.5961341295274162E-1
48 49 1.3443189840391892E-1
48 50 3.814817052105627E-2
48 66 1.5961341295274162E-1
48 67 1.3443189840391892E-1
48 84 2.2801757112359808E-2
48 85 2.127298426446343E-2
48 86 2.0651939018525012E-2
48 413 2.183832221782815E-2
48 414 1.831563888873418E-2
49 15 1.627485796976557E-2
49 16 1.831563888873418E-2
49 47 1.9362440837872544E-2
49 48 1.3443189840391892E-1
49 50 1.8452876780744992E-1
49 51 1.0383833615825076E-1
49 52 2.6831491855649987E-2
49 53 1.9388052395167645E-2
49 66 1.9362440837872544E-2
49 67 1
49 68 1.0383833615825076E-1
49 69 1.9388052395167645E-2
50 17 1.831563888873418E-2
50 48 3.814817052105627E-2
50 49 1.8452876780744992E-1
50 51 2.298245427248578E-1
50 52 1.5151751775167965E-1
50 53 6.625596757504516E-2
50 54 1.7734786123065425E-2
50 67 1.8452876780744992E-1
50 68 2.298245427248578E-1
50 69 6.625596757504516E-2
50 414 1.5241955286588085E-2
50 415 1.831563888873418E-2
51 17 1.2824475565066051E-2
51 18 1.831563888873418E-2
51 19 1.831563888873418E-2
51 49 1.0383833615825076E-1
51 50 2.298245427248578E-1
51 52 4.369573636678178E-1
51 53 3.577947279099577E-1
51 54 4.362883071908703E-2
51 55 1.5908745442144517E-2
51 67 1.0383833615825076E-1
51 68 1
51 69 3.577947279099577E-1
51 70 1.5908745442144517E-2
51 415 1.831563888873418E-2
52 19 1.9279337989239316E-2
52 20 1.833503865701845E-2
52 49 2.6831491855649987E-2
52 50 1.5151751775167965E-1
52 51 4.369573636678178E-1
52 53 4.61237540249823E-1
52 54 1.3085201835455576E-1
52 55 1.9829816224361085E-2
52 67 2.6831491855649987E-2
52 68 4.369573636678178E-1
52 69 4.61237540249823E-1
52 70 1.9829816224361085E-2
53 49 1.9388052395167645E-2
53 50 6.625596757504516E-2
53 51 3.577947279099577E-1
53 52 4.61237540249823E-1
53 54 1.2666670015209516E-1
53 55 2.6748248787268156E-2
53 67 1.9388052395167645E-2
53 68 3.577947279099577E-1
53 69 1
53 70 2.6748248787268156E-2
54 20 1.831563888873418E-2
54 21 1.833623163159629E-2
54 50 1.7734786123065425E-2
54 51 4.362883071908703E-2
54 52 1.3085201835455576E-1
54 53 1.2666670015209516E-1
54 55 3.264893746117422E-1
54 56 1.1379290132106629E-1
54 57 1.831563888873418E-2
54 68 4.362883071908703E-2
54 69 1.2666670015209516E-1
54 70 3.264893746117422E-1
54 417 1.831563888873418E-2
55 20 1.4964544322973084E-2
55 21 2.1189770452372084E-2
55 22 2.2749707840709548E-2
55 51 1.5908745442144517E-2
55 52 1.9829816224361085E-2
55 53 2.6748248787268156E-2
55 54 3.264893746117422E-1
55 56 4.370773069956261E-1
55 57 8.065323605586347E-2
55 58 4.795695448155316E-2
55 68 1.5908745442144517E-2
55 69 2.6748248787268156E-2
55 70 1
55 71 4.795695448155316E-2
56 21 1.4721697472849347E-2
56 22 2.398887878621541E-2
56 23 2.3856322552030875E-2
56 54 1.1379290132106629E-1
56 55 4.370773069956261E-1
56 57 2.4017874846772092E-1
56 58 1.3680278735311463E-1
56 59 2.7191857516216604E-2
56 70 4.370773069956261E-1
56 71 1.3680278735311463E-1
56 90 2.3985622928931243E-2
56 418 1.831563888873418E-2
56 419 2.018278700655306E-2
57 23 2.2283830900570054E-2
57 54 1.831563888873418E-2
57 55 8.065323605586347E-2
57 56 2.4017874846772092E-1
57 58 5.131181705873019E-1
57 59 1.2085738588606768E-1
57 60 2.161938064945613E-2
57 70 8.065323605586347E-2
57 71 5.131181705873019E-1
57 72 2.161938064945613E-2
57 91 2.2731230039072795E-2
58 23 1.831563888873418E-2
58 24 1.831563888873418E-2
58 55 4.795695448155316E-2
58 56 1.3680278735311463E-1
58 57 5.131181705873019E-1
58 59 2.7834143284108614E-1
58 60 5.629999669776469E-2
58 70 4.795695448155316E-2
58 71 1
58 72 5.629999669776469E-2
58 93 1.7873434218141766E-2
58 422 1.831563888873418E-2
59 56 2.7191857516216604E-2
59 57 1.2085738588606768E-1
59 58 2.7834143284108614E-1
59 60 2.1378332132645572E-1
59 61 4.468706095601396E-2
59 71 2.7834143284108614E-1
59 72 2.1378332132645572E-1
59 92 1.831563888873418E-2
59 93 3.183194429622779E-2
59 95 1.831563888873418E-2
60 57 2.161938064945613E-2
60 58 5.629999669776469E-2
60 59 2.1378332132645572E-1
60 61 1.3633451101725588E-1
60 62 2.9069838855194208E-2
60 71 5.629999669776469E-2
60 72 1
60 73 2.9069838855194208E-2
60 93 2.6254336961269244E-2
60 94 1.9695965635095902E-2
60 95 3.882546733384137E-2
60 96 2.4287805736826377E-2
61 59 4.468706095601396E-2
61 60 1.3633451101725588E-1
61 62 1.6423400334809274E-1
61 63 4.09521992959514E-2
61 72 1.3633451101725588E-1
61 73 1.6423400334809274E-1
61 95 4.179977350641464E-2
61 96 6.289503956268978E-2
61 97 2.1450574639713896E-2
61 425 1.831563888873418E-2
62 60 2.9069838855194208E-2
62 61 1.6423400334809274E-1
62 63 1.8274619693013722E-1
62 72 2.9069838855194208E-2
62 73 1
62 95 1.831563888873418E-2
62 96 4.054125093610832E-2
62 97 5.435512947065707E-2
62 98 2.7266258746506927E-2
62 99 1.720601852158329E-2
62 425 1.6603338151285448E-2
63 61 4.09521992959514E-2
63 62 1.8274619693013722E-1
63 73 1.8274619693013722E-1
63 96 1.831563888873418E-2
63 97 3.7673061804653483E-2
63 98 4.285320260006306E-2
63 99 6.831663574110952E-2
63 371 2.198533691311235E-2
63 428 1.9864382482257782E-2
63 429 1.5010011713951062E-2
64 39 1.9925534504607698E-2
64 40 3.0077367651972647E-2
64 41 9.829843599746084E-2
64 42 3.376002855283743E-1
64 43 1
64 44 2.3695559182847256E-1
64 45 5.314531807429427E-1
64 46 1.058622278654951E-1
64 47 1.831563888873418E-2
64 65 5.314531807429427E-1
64 66 1.831563888873418E-2
64 76 1.541026168704301E-2
65 40 1.1762325120724644E-2
65 41 3.7482918677089305E-2
65 42 1.65696254667072E-1
65 43 5.314531807429427E-1
65 44 3.9193518049673E-1
65 45 1
65 46 1.9935293966706513E-1
65 47 2.947752367817198E-2
65 64 5.314531807429427E-1
65 66 2.947752367817198E-2
66 43 1.831563888873418E-2
66 44 3.8041298164548404E-2
66 45 2.947752367817198E-2
66 46 9.201832793553652E-2
66 47 1
66 48 1.5961341295274162E-1
66 49 1.9362440837872544E-2
66 64 1.831563888873418E-2
66 65 2.947752367817198E-2
66 67 1.9362440837872544E-2
67 16 1.831563888873418E-2
67 47 1.9362440837872544E-2
67 48 1.3443189840391892E-1
67 49 1
67 50 1.8452876780744992E-1
67 51 1.0383833615825076E-1
67 52 2.6831491855649987E-2
67 53 1.9388052395167645E-2
67 66 1.9362440837872544E-2
67 68 1.0383833615825076E-1
67 69 1.9388052395167645E-2
68 18 1.831563888873418E-2
68 19 1.831563888873418E-2
68 49 1.0383833615825076E-1
68 50 2.298245427248578E-1
68 51 1
68 52 4.369573636678178E-1
68 53 3.577947279099577E-1
68 54 4.362883071908703E-2
68 55 1.5908745442144517E-2
68 67 1.0383833615825076E-1
68 69 3.577947279099577E-1
68 415 1.831563888873418E-2
69 49 1.9388052395167645E-2
69 50 6.625596757504516E-2
69 51 3.577947279099577E-1
69 52 4.61237540249823E-1
69 53 1
69 54 1.2666670015209516E-1
69 55 2.6748248787268156E-2
69 67 1.9388052395167645E-2
69 68 3.577947279099577E-1
69 70 2.6748248787268156E-2
70 21 2.1189770452372084E-2
70 22 2.2749707840709548E-2
70 51 1.5908745442144517E-2
70 52 1.9829816224361085E-2
70 53 2.6748248787268156E-2
70 54 3.264893746117422E-1
70 55 1
70 56 4.370773069956261E-1
70 57 8.065323605586347E-2
70 58 4.795695448155316E-2
70 69 2.6748248787268156E-2
70 71 4.795695448155316E-2
71 23 1.831563888873418E-2
71 24 1.831563888873418E-2
71 55 4.795695448155316E-2
71 56 1.3680278735311463E-1
71 57 5.131181705873019E-1
71 58 1
71 59 2.7834143284108614E-1
71 60 5.629999669776469E-2
71 70 4.795695448155316E-2
71 72 5.629999669776469E-2
71 93 1.7873434218141766E-2
71 422 1.831563888873418E-2
72 57 2.161938064945613E-2
72 58 5.629999669776469E-2
72 59 2.1378332132645572E-1
72 60 1
72 61 1.3633451101725588E-1
72 62 2.9069838855194208E-2
72 71 5.629999669776469E-2
72 73 2.9069838855194208E-2
72 93 2.6254336961269244E-2
72 94 1.9695965635095902E-2
72 95 3.882546733384137E-2
72 96 2.4287805736826377E-2
73 60 2.9069838855194208E-2
73 61 1.6423400334809274E-1
73 62 1
73 63 1.8274619693013722E-1
73 72 2.9069838855194208E-2
73 95 1.831563888873418E-2
73 96 4.054125093610832E-2
73 97 5.435512947065707E-2
73 98 2.7266258746506927E-2
73 425 1.6603338151285448E-2
74 39 6.840725759126019E-2
74 40 6.448568875546906E-2
74 41 2.159508903268119E-2
74 42 1.831563888873418E-2
74 75 1.2946299690740543E-1
74 76 1.0812208483681451E-1
74 77 9.241964938015632E-2
74 78 5.848924150406101E-2
74 80 1.8004512302318344E-2
74 235 2.46062020296441E-2
75 39 2.55263146236549E-2
75 40 2.5970529028042512E-2
75 41 2.9795423749721196E-2
75 42 1.722073560724964E-2
75 74 1.2946299690740543E-1
75 76 5.724882543188612E-1
75 77 3.426006204515736E-1
75 78 1.9282155699401943E-1
75 79 5.89644315239049E-2
75 80 3.4309636399585834E-2
75 81 1.831563888873418E-2
75 82 1.831563888873418E-2
76 41 1.85109165934699E-2
76 42 1.5587495574752785E-2
76 43 1.541026168704301E-2
76 64 1.541026168704301E-2
76 74 1.0812208483681451E-1
76 75 5.724882543188612E-1
76 77 5.333091779604286E-1
76 78 3.6739278359228017E-1
76 79 7.277964889749866E-2
76 80 6.185455957736561E-2
76 81 2.8076360744277273E-2
76 82 3.488613407116431E-2
77 41 1.831563888873418E-2
77 42 1.537972250249246E-2
77 74 9.241964938015632E-2
77 75 3.426006204515736E-1
77 76 5.333091779604286E-1
77 78 5.499430445421127E-1
77 79 1.0959799559032427E-1
77 80 1.5110591667655132E-1
77 81 2.5331544386285453E-2
77 82 5.488765295422689E-2
77 83 1.831563888873418E-2
78 1 1.611069654099556E-2
78 74 5.848924150406101E-2
78 75 1.9282155699401943E-1
78 76 3.6739278359228017E-1
78 77 5.499430445421127E-1
78 79 1.6432567046412372E-1
78 80 2.648794945035532E-1
78 81 3.9273039002357124E-2
78 82 9.071605582254949E-2
78 83 2.357425440828637E-2
78 84 1.9998174268461226E-2
79 44 4.7324355216685175E-3
79 75 5.89644315239049E-2
79 76 7.277964889749866E-2
79 77 1.0959799559032427E-1
79 78 1.6432567046412372E-1
79 80 2.143838158283889E-1
79 81 1.8342446408573565E-1
79 82 1.5021959695196513E-1
79 83 6.158657297610909E-2
79 84 5.746521788055615E-2
80 74 1.8004512302318344E-2
80 75 3.4309636399585834E-2
80 76 6.185455957736561E-2
80 77 1.5110591667655132E-1
80 78 2.648794945035532E-1
80 79 2.143838158283889E-1
80 81 9.924257132243632E-2
80 82 3.2530941764535726E-1
80 83 6.646223277944936E-2
80 84 5.261028501911387E-2
81 75 1.831563888873418E-2
81 76 2.8076360744277273E-2
81 77 2.5331544386285453E-2
81 78 3.9273039002357124E-2
81 79 1.8342446408573565E-1
81 80 9.924257132243632E-2
81 82 3.2210794789691355E-1
81 83 2.596516366775633E-1
81 84 2.3572809230631103E-1
81 85 2.8775793079226213E-2
81 86 3.0226101848621276E-2
82 47 1.0529083640480934E-2
82 75 1.831563888873418E-2
82 76 3.488613407116431E-2
82 77 5.488765295422689E-2
82 78 9.071605582254949E-2
82 79 1.5021959695196513E-1
82 80 3.2530941764535726E-1
82 81 3.2210794789691355E-1
82 83 2.5962995637756E-1
82 84 2.1428323876793554E-1
83 47 1.5806991252538094E-2
83 77 1.831563888873418E-2
83 78 2.357425440828637E-2
83 79 6.158657297610909E-2
83 80 6.646223277944936E-2
83 81 2.596516366775633E-1
83 82 2.5962995637756E-1
83 84 5.159122004143866E-1
83 85 3.036527458304373E-2
83 86 3.626805189243666E-2
83 87 1.9410814010971358E-2
84 48 2.2801757112359808E-2
84 78 1.9998174268461226E-2
84 79 5.746521788055615E-2
84 80 5.261028501911387E-2
84 81 2.3572809230631103E-1
84 82 2.1428323876793554E-1
84 83 5.159122004143866E-1
84 85 7.57981702502212E-2
84 86 8.692154821338853E-2
84 87 3.301753424339912E-2
84 88 1.957646926082081E-2
85 48 2.127298426446343E-2
85 81 2.8775793079226213E-2
85 83 3.036527458304373E-2
85 84 7.57981702502212E-2
85 86 5.45746269601563E-1
85 87 2.4831466072284802E-1
85 88 1.362870773170334E-1
85 89 6.346307277216665E-2
85 414 1.7168621933012135E-2
85 467 1.831563888873418E-2
86 48 2.0651939018525012E-2
86 81 3.0226101848621276E-2
86 83 3.626805189243666E-2
86 84 8.692154821338853E-2
86 85 5.45746269601563E-1
86 87 2.8641835803845217E-1
86 88 2.7864861660403495E-1
86 89 8.532384168222029E-2
86 90 1.831563888873418E-2
86 467 1.831563888873418E-2
86 468 1.827189030666986E-2
87 83 1.9410814010971358E-2
87 84 3.301753424339912E-2
87 85 2.4831466072284802E-1
87 86 2.8641835803845217E-1
87 88 3.254699522750201E-1
87 89 2.72228639776263E-1
87 90 6.762277510899742E-2
87 91 1.8583804818500006E-2
87 467 1.831563888873418E-2
87 468 1.7284683271526532E-2
87 469 2.5332370757772463E-2
88 84 1.957646926082081E-2
88 85 1.362870773170334E-1
88 86 2.7864861660403495E-1
88 87 3.254699522750201E-1
88 89 2.8352074440468095E-1
88 90 5.524830019343103E-2
88 91 3.503661511102985E-2
88 468 2.038615286086018E-2
88 469 2.5049912032818086E-2
88 470 1.7507770115791507E-2
89 85 6.346307277216665E-2
89 86 8.532384168222029E-2
89 87 2.72228639776263E-1
89 88 2.8352074440468095E-1
89 90 3.3331986426405646E-1
89 91 1.0832243919564905E-1
89 92 2.588909669281895E-2
89 417 1.831563888873418E-2
89 469 2.2014391037809864E-2
89 473 1.5724389515900935E-2
90 56 2.3985622928931243E-2
90 86 1.831563888873418E-2
90 87 6.762277510899742E-2
90 88 5.524830019343103E-2
90 89 3.3331986426405646E-1
90 91 2.6171685446366083E-1
90 92 8.827231700847876E-2
90 93 1.70649223026713E-2
90 418 1.8634597692137326E-2
90 419 2.0759261041028876E-2
91 57 2.2731230039072795E-2
91 87 1.8583804818500006E-2
91 88 3.503661511102985E-2
91 89 1.0832243919564905E-1
91 90 2.6171685446366083E-1
91 92 4.3199040895845825E-1
91 93 1.3404360747563224E-1
91 94 5.1810222439562036E-2
91 419 1.8195985000492333E-2
91 473 1.831563888873418E-2
92 59 1.831563888873418E-2
92 89 2.588909669281895E-2
92 90 8.827231700847876E-2
92 91 4.3199040895845825E-1
92 93 3.9605952773570635E-1
92 94 1.2502727840175837E-1
92 95 3.352480796368016E-2
92 96 2.471874326042443E-2
92 421 1.897084301495105E-2
92 422 1.4223309341354493E-2
93 58 1.7873434218141766E-2
93 59 3.183194429622779E-2
93 60 2.6254336961269244E-2
93 71 1.7873434218141766E-2
93 72 2.6254336961269244E-2
93 90 1.70649223026713E-2
93 91 1.3404360747563224E-1
93 92 3.9605952773570635E-1
93 94 3.0444136416673223E-1
93 95 1.6085394060960886E-1
93 96 8.481312528252266E-2
93 97 2.123013522216407E-2
93 422 1.7088043871038225E-2
94 38 1.9288225854126335E-2
94 60 1.9695965635095902E-2
94 72 1.9695965635095902E-2
94 91 5.1810222439562036E-2
94 92 1.2502727840175837E-1
94 93 3.0444136416673223E-1
94 95 2.026773070557653E-1
94 96 1.0710941754028588E-1
94 97 3.313324871926309E-2
94 98 1.831563888873418E-2
94 423 1.7167221294732637E-2
94 424 1.831563888873418E-2
95 37 2.1818494361250065E-2
95 38 2.1977532191935715E-2
95 59 1.831563888873418E-2
95 60 3.882546733384137E-2
95 61 4.179977350641464E-2
95 62 1.831563888873418E-2
95 72 3.882546733384137E-2
95 73 1.831563888873418E-2
95 92 3.352480796368016E-2
95 93 1.6085394060960886E-1
95 94 2.026773070557653E-1
95 96 5.320523865439647E-1
95 97 1.0234702203618977E-1
95 98 3.2835010358780274E-2
95 425 1.7471334762028536E-2
96 37 2.1205848286899982E-2
96 60 2.4287805736826377E-2
96 61 6.289503956268978E-2
96 62 4.054125093610832E-2
96 63 1.831563888873418E-2
96 72 2.4287805736826377E-2
96 73 4.054125093610832E-2
96 92 2.471874326042443E-2
96 93 8.481312528252266E-2
96 94 1.0710941754028588E-1
96 95 5.320523865439647E-1
96 97 2.3762644571775818E-1
96 98 6.156197486067942E-2
96 99 2.0169472548067648E-2
97 34 1.2216926828892562E-2
97 37 5.9712680995947905E-2
97 61 2.1450574639713896E-2
97 62 5.435512947065707E-2
97 63 3.7673061804653483E-2
97 73 5.435512947065707E-2
97 93 2.123013522216407E-2
97 94 3.313324871926309E-2
97 95 1.0234702203618977E-1
97 96 2.3762644571775818E-1
97 98 3.438368982701196E-1
97 99 5.68096745912423E-2
98 37 1.291852260135316E-1
98 62 2.7266258746506927E-2
98 63 4.285320260006306E-2
98 73 2.7266258746506927E-2
98 94 1.831563888873418E-2
98 95 3.2835010358780274E-2
98 96 6.156197486067942E-2
98 97 3.438368982701196E-1
98 99 1.4363405271995716E-1
98 371 1.6138279833089228E-2
99 37 5.71619636857476E-2
99 62 1.720601852158329E-2
99 63 6.831663574110952E-2
99 96 2.0169472548067648E-2
99 97 5.68096745912423E-2
99 98 1.4363405271995716E-1
99 428 1.831563888873418E-2
99 429 2.173304181262577E-2
99 430 2.3064220834179795E-2
99 431 1.88282814627773E-2
100 101 7.528686944221313E-2
100 102 4.3088251722746176E-2
100 186 2.2792330415374762E-2
100 187 2.2874337586668132E-2
100 188 3.0101402997223938E-2
100 189 3.897259656232681E-2
100 190 3.0126719304620964E-2
100 191 2.3749390780075146E-2
100 300 1.725253019893342E-2
100 301 1.831563888873418E-2
101 100 7.528686944221313E-2
101 102 6.0520873121786965E-2
101 103 4.085416430417087E-2
101 174 1.8156215982747234E-2
101 187 2.04416559479954E-2
101 188 2.162921681405903E-2
101 189 2.869086207472911E-2
101 234 1.9503016687817825E-2
101 235 1.831563888873418E-2
101 236 1.8516822118480387E-2
102 100 4.3088251722746176E-2
102 101 6.0520873121786965E-2
102 103 2.5017676564564145E-1
102 104 8.364303795185551E-2
102 105 4.939084331766734E-2
102 106 4.356881819170495E-2
102 173 1.6125094542265937E-2
102 191 1.8825219552422473E-2
102 238 1.831563888873418E-2
102 239 2.0048156720462278E-2
103 101 4.085416430417087E-2
103 102 2.5017676564564145E-1
103 104 4.0983038043248425E-2
103 105 3.1022702685872993E-2
103 106 1.1859935647548853E-1
103 107 2.2032191286005462E-2
103 174 1.8104053226338825E-2
103 239 2.497360338180723E-2
103 240 1.831563888873418E-2
103 494 1.8564729664081667E-2
103 495 2.0132087994705748E-2
104 102 8.364303795185551E-2
104 103 4.0983038043248425E-2
104 105 2.149466899930127E-1
104 106 4.7631449071020765E-2
104 108 2.09964565890803E-2
104 191 1.82995395930521E-2
104 243 1.831563888873418E-2
104 266 2.8680167949150442E-2
104 267 2.471758485903788E-2
104 268 2.008186698081429E-2
105 102 4.939084331766734E-2
105 103 3.1022702685872993E-2
105 104 2.149466899930127E-1
105 106 1.8271794269395286E-1
105 107 2.63170528396095E-2
105 108 6.856265317769165E-2
105 109 1.86498778820605E-2
105 243 2.097602357120637E-2
105 245 1.831563888873418E-2
105 266 2.01734983119125E-2
106 102 4.356881819170495E-2
106 103 1.1859935647548853E-1
106 104 4.7631449071020765E-2
106 105 1.8271794269395286E-1
106 107 1.289918191948976E-1
106 108 1.2972048087372592E-1
106 109 2.5198130904180216E-2
106 110 2.9840333470724876E-2
106 175 1.81246100253643E-2
106 243 1.831563888873418E-2
107 103 2.2032191286005462E-2
107 105 2.63170528396095E-2
107 106 1.289918191948976E-1
107 108 3.902190754867825E-2
107 110 6.1609836354278816E-2
107 242 1.8641559616526984E-2
107 243 2.1199677855429477E-2
107 500 1.831563888873418E-2
107 504 1.811434323206606E-2
107 509 1.8637794906505765E-2
108 104 2.09964565890803E-2
108 105 6.856265317769165E-2
108 106 1.2972048087372592E-1
108 107 3.902190754867825E-2
108 109 1.589025758868164E-1
108 110 2.0929618450732762E-1
108 111 6.948702062325401E-2
108 112 7.185239824371208E-2
108 113 2.1115972556416458E-2
108 114 2.1249303307688247E-2
109 105 1.86498778820605E-2
109 106 2.5198130904180216E-2
109 108 1.589025758868164E-1
109 110 1.3283042551029933E-1
109 111 4.0954096610516755E-1
109 112 3.3808151583108115E-1
109 113 6.43558050994998E-2
109 114 2.922434873707804E-2
109 115 2.527338921015986E-2
109 116 1.675143554308258E-2
109 247 1.4158759575745103E-2
110 106 2.9840333470724876E-2
110 107 6.1609836354278816E-2
110 108 2.0929618450732762E-1
110 109 1.3283042551029933E-1
110 111 8.446433917445359E-2
110 112 9.566528229802794E-2
110 113 1.0943788236802549E-1
110 114 7.208044218289747E-2
110 115 1.831563888873418E-2
110 116 1.6446278672197247E-2
111 108 6.948702062325401E-2
111 109 4.0954096610516755E-1
111 110 8.446433917445359E-2
111 112 7.019096694005518E-1
111 113 1.2749337515170295E-1
111 114 5.808046010526511E-2
111 115 7.947626658641632E-2
111 116 4.112790883497333E-2
111 176 1.8154862564198872E-2
111 248 1.831563888873418E-2
112 108 7.185239824371208E-2
112 109 3.3808151583108115E-1
112 110 9.566528229802794E-2
112 111 7.019096694005518E-1
112 113 2.1584295077870466E-1
112 114 8.957859408541144E-2
112 115 1.391963883703402E-1
112 116 6.982735467564365E-2
112 117 1.831563888873418E-2
112 248 1.831563888873418E-2
112 511 1.797374227050083E-2
113 108 2.1115972556416458E-2
113 109 6.43558050994998E-2
113 110 1.0943788236802549E-1
113 111 1.2749337515170295E-1
113 112 2.1584295077870466E-1
113 114 3.0045614605725246E-1
113 115 2.9868188504410387E-1
113 116 1.62212607735293E-1
113 117 3.096933145731171E-2
113 118 1.9877087737030417E-2
114 108 2.1249303307688247E-2
114 109 2.922434873707804E-2
114 110 7.208044218289747E-2
114 111 5.808046010526511E-2
114 112 8.957859408541144E-2
114 113 3.0045614605725246E-1
114 115 1.771527602803678E-1
114 116 2.284351022012395E-1
114 117 3.577420726214468E-2
114 118 2.078966631425129E-2
114 177 1.1913021957013686E-2
115 109 2.527338921015986E-2
115 110 1.831563888873418E-2
115 111 7.947626658641632E-2
115 112 1.391963883703402E-1
115 113 2.9868188504410387E-1
115 114 1.771527602803678E-1
115 116 4.052085834018477E-1
115 117 1.030298332290848E-1
115 118 4.970293761389498E-2
115 119 2.7409925903137594E-2
115 120 2.063325722627571E-2
116 109 1.675143554308258E-2
116 110 1.6446278672197247E-2
116 111 4.112790883497333E-2
116 112 6.982735467564365E-2
116 113 1.62212607735293E-1
116 114 2.284351022012395E-1
116 115 4.052085834018477E-1
116 117 1.6995840423897923E-1
116 118 8.979560254695021E-2
116 119 4.8454213815728266E-2
116 120 3.0152824497650523E-2
116 121 2.051659314906862E-2
117 112 1.831563888873418E-2
117 113 3.096933145731171E-2
117 114 3.577420726214468E-2
117 115 1.030298332290848E-1
117 116 1.6995840423897923E-1
117 118 4.4979453549572107E-1
117 119 2.277857913981089E-1
117 120 1.399154357386059E-1
117 121 5.527972225589785E-2
117 122 2.4599225700587025E-2
118 113 1.9877087737030417E-2
118 114 2.078966631425129E-2
118 115 4.970293761389498E-2
118 116 8.979560254695021E-2
118 117 4.4979453549572107E-1
118 119 2.1588733924315495E-1
118 120 2.3352693513986453E-1
118 121 9.130452986778738E-2
118 122 3.114183875393504E-2
118 144 1.1515413036482895E-2
119 115 2.7409925903137594E-2
119 116 4.8454213815728266E-2
119 117 2.277857913981089E-1
119 118 2.1588733924315495E-1
119 120 2.4531133106639758E-1
119 121 7.132739503470588E-2
119 122 3.518266448329352E-2
119 144 1.750046540082777E-2
119 324 1.831563888873418E-2
119 326 1.9160304749792675E-2
120 115 2.063325722627571E-2
120 116 3.0152824497650523E-2
120 117 1.399154357386059E-1
120 118 2.3352693513986453E-1
120 119 2.4531133106639758E-1
120 121 1.3957236535710493E-1
120 122 6.535961267216463E-2
120 168 1.831563888873418E-2
120 370 1.745571061354448E-2
120 389 2.113899029348296E-2
121 116 2.051659314906862E-2
121 117 5.527972225589785E-2
121 118 9.130452986778738E-2
121 119 7.132739503470588E-2
121 120 1.3957236535710493E-1
121 122 2.842512195435582E-1
121 123 5.4200822898386014E-2
121 171 1.8274119328379544E-2
121 260 2.2625033659213735E-2
121 331 1.831563888873418E-2
122 117 2.4599225700587025E-2
122 118 3.114183875393504E-2
122 119 3.518266448329352E-2
122 120 6.535961267216463E-2
122 121 2.842512195435582E-1
122 123 9.853528836495243E-2
122 171 1.8076753369034845E-2
122 260 1.916148202433291E-2
122 332 1.831563888873418E-2
122 428 1.8847484719068032E-2
123 121 5.4200822898386014E-2
123 122 9.853528836495243E-2
123 260 2.052970497007141E-2
123 261 1.7636723726092967E-2
123 262 2.5094036163889027E-2
123 263 2.0790254850758368E-2
123 292 1.831563888873418E-2
123 294 1.8638623316807587E-2
123 333 2.2385427864248908E-2
123 539 2.0144100494397264E-2
123 540 1.8325352865053025E-2
124 125 8.187323413007572E-1
124 126 6.509868851988634E-1
124 127 3.101981058408481E-1
124 128 2.8245934079188917E-1
124 129 2.0463721150293007E-1
124 130 8.302357614466778E-2
124 131 5.667871147362234E-2
124 132 3.6459993172868486E-2
124 133 1.831563888873418E-2
124 192 1.075648158010091E-2
125 124 8.187323413007572E-1
125 126 6.86802972721511E-1
125 127 4.250182801580405E-1
125 128 3.420603064169268E-1
125 129 2.3169045070691877E-1
125 130 8.865025767958007E-2
125 131 5.6260125777732234E-2
125 132 3.898948317444208E-2
125 133 1.831563888873418E-2
125 192 1.266196854249172E-2
126 124 6.509868851988634E-1
126 125 6.86802972721511E-1
126 127 4.111470590597158E-1
126 128 4.01724936226791E-1
126 129 2.6214155742949385E-1
126 130 8.422941930144018E-2
126 131 5.8924687871845065E-2
126 132 3.385068992833633E-2
126 133 1.831563888873418E-2
126 192 9.049509827773722E-3
127 124 3.101981058408481E-1
127 125 4.250182801580405E-1
127 126 4.111470590597158E-1
127 128 6.309192278920974E-1
127 129 3.830538223417582E-1
127 130 1.0554733653735665E-1
127 131 5.8962645677884354E-2
127 132 4.145778602144756E-2
127 133 1.831563888873418E-2
127 192 1.0283707646719395E-2
128 124 2.8245934079188917E-1
128 125 3.420603064169268E-1
128 126 4.01724936226791E-1
128 127 6.309192278920974E-1
128 129 6.007101892690954E-1
128 130 1.4191835392097435E-1
128 131 7.574347872247715E-2
128 132 6.1090572126036295E-2
128 133 3.89391274303052E-2
128 134 2.0350785048768423E-2
129 124 2.0463721150293007E-1
129 125 2.3169045070691877E-1
129 126 2.6214155742949385E-1
129 127 3.830538223417582E-1
129 128 6.007101892690954E-1
129 130 2.4801419881606868E-1
129 131 1.4107520041970806E-1
129 132 1.3216994101620416E-1
129 133 6.83345071515495E-2
129 134 3.8723480371098504E-2
130 124 8.302357614466778E-2
130 125 8.865025767958007E-2
130 126 8.422941930144018E-2
130 127 1.0554733653735665E-1
130 128 1.4191835392097435E-1
130 129 2.4801419881606868E-1
130 131 4.407017241110534E-1
130 132 4.5914383307578027E-1
130 133 1.0779233778171045E-1
130 134 8.301288004095858E-2
131 124 5.667871147362234E-2
131 125 5.6260125777732234E-2
131 126 5.8924687871845065E-2
131 127 5.8962645677884354E-2
131 128 7.574347872247715E-2
131 129 1.4107520041970806E-1
131 130 4.407017241110534E-1
131 132 4.7374619334019286E-1
131 133 2.53727769930178E-1
131 134 1.6062141676602E-1
131 135 1.831563888873418E-2
132 124 3.6459993172868486E-2
132 125 3.898948317444208E-2
132 126 3.385068992833633E-2
132 127 4.145778602144756E-2
132 128 6.1090572126036295E-2
132 129 1.3216994101620416E-1
132 130 4.5914383307578027E-1
132 131 4.7374619334019286E-1
132 133 1.8807877672574624E-1
132 134 1.6634303397497413E-1
133 124 1.831563888873418E-2
133 125 1.831563888873418E-2
133 126 1.831563888873418E-2
133 127 1.831563888873418E-2
133 128 3.89391274303052E-2
133 129 6.83345071515495E-2
133 130 1.0779233778171045E-1
133 131 2.53727769930178E-1
133 132 1.8807877672574624E-1
133 134 5.785263781358907E-1
133 135 9.38261475765308E-2
133 136 5.301493785238384E-2
133 137 1.831563888873418E-2
134 128 2.0350785048768423E-2
134 129 3.8723480371098504E-2
134 130 8.301288004095858E-2
134 131 1.6062141676602E-1
134 132 1.6634303397497413E-1
134 133 5.785263781358907E-1
134 135 1.4387432667621944E-1
134 136 8.618180840525838E-2
134 137 2.6216780777899032E-2
134 138 2.0163058947364074E-2
134 200 1.831563888873418E-2
135 131 1.831563888873418E-2
135 133 9.38261475765308E-2
135 134 1.4387432667621944E-1
135 136 5.456074636687339E-1
135 137 1.7602809079532658E-1
135 138 1.0102953685031382E-1
135 139 5.525302013495481E-2
135 140 1.6839617882362167E-2
135 198 1.63758020277114E-2
135 199 2.025207735403504E-2
135 203 2.2446376214720655E-2
136 133 5.301493785238384E-2
136 134 8.618180840525838E-2
136 135 5.456074636687339E-1
136 137 3.482630766628332E-1
136 138 2.343345134501074E-1
136 139 1.1235409697957001E-1
136 140 3.930622777410676E-2
136 141 2.087982850009478E-2
136 202 1.831563888873418E-2
136 203 2.9329220287614147E-2
136 204 2.2639252175971517E-2
137 133 1.831563888873418E-2
137 134 2.6216780777899032E-2
137 135 1.7602809079532658E-1
137 136 3.482630766628332E-1
137 138 3.4854451929097807E-1
137 139 1.9911808137073028E-1
137 140 5.4708690178717795E-2
137 141 3.28210513376686E-2
137 142 2.894538686507047E-2
137 203 2.1294946707024958E-2
137 204 2.377567717324731E-2
138 134 2.0163058947364074E-2
138 135 1.0102953685031382E-1
138 136 2.343345134501074E-1
138 137 3.4854451929097807E-1
138 139 5.082150152787615E-1
138 140 1.8229948156847636E-1
138 141 8.344122571576366E-2
138 142 3.847271984215493E-2
138 143 1.831563888873418E-2
138 203 1.8770766547749368E-2
138 204 1.831563888873418E-2
138 205 1.5542723500047768E-2
139 135 5.525302013495481E-2
139 136 1.1235409697957001E-1
139 137 1.9911808137073028E-1
139 138 5.082150152787615E-1
139 140 2.5062763195766513E-1
139 141 1.5332834713626373E-1
139 142 6.506684300264398E-2
139 143 2.6005739564615576E-2
139 204 1.831563888873418E-2
139 205 1.808381801178406E-2
139 207 1.897514402318323E-2
140 135 1.6839617882362167E-2
140 136 3.930622777410676E-2
140 137 5.4708690178717795E-2
140 138 1.8229948156847636E-1
140 139 2.5062763195766513E-1
140 141 2.2109340550157244E-1
140 142 5.3000999439988095E-2
140 143 3.91105352608859E-2
140 144 2.8162152403463016E-2
140 145 1.7635295396278023E-2
140 147 1.831563888873418E-2
140 205 1.831563888873418E-2
140 206 1.995469717388655E-2
140 207 2.1956841223153816E-2
141 136 2.087982850009478E-2
141 137 3.28210513376686E-2
141 138 8.344122571576366E-2
141 139 1.5332834713626373E-1
141 140 2.2109340550157244E-1
141 142 2.2196641671543463E-1
141 143 1.3038938666814504E-1
141 144 4.606487685086082E-2
141 145 2.6116082514344222E-2
141 207 1.831563888873418E-2
141 208 1.358555336017933E-2
142 137 2.894538686507047E-2
142 138 3.847271984215493E-2
142 139 6.506684300264398E-2
142 140 5.3000999439988095E-2
142 141 2.2196641671543463E-1
142 143 3.537317388403075E-1
142 144 6.762986174553444E-2
142 145 4.026711297358053E-2
142 207 1.831563888873418E-2
142 221 1.742020143547027E-2
143 138 1.831563888873418E-2
143 139 2.6005739564615576E-2
143 140 3.91105352608859E-2
143 141 1.3038938666814504E-1
143 142 3.537317388403075E-1
143 144 2.6330104479214866E-1
143 145 1.3273721209823744E-1
143 146 4.226091977116238E-2
143 147 2.2791802591663322E-2
143 221 2.2402255733788744E-2
144 118 1.1515413036482895E-2
144 119 1.750046540082777E-2
144 140 2.8162152403463016E-2
144 141 4.606487685086082E-2
144 142 6.762986174553444E-2
144 143 2.6330104479214866E-1
144 145 3.8741182782053085E-1
144 146 1.2329659523760422E-1
144 147 5.480717093471203E-2
144 148 2.256392318845907E-2
144 149 1.831563888873418E-2
144 423 1.575530376743599E-2
145 140 1.7635295396278023E-2
145 141 2.6116082514344222E-2
145 142 4.026711297358053E-2
145 143 1.3273721209823744E-1
145 144 3.8741182782053085E-1
145 146 3.2364647061502894E-1
145 147 8.221179137325177E-2
145 148 2.7957175118100454E-2
145 149 1.831563888873418E-2
145 222 2.0990347451307678E-2
146 143 4.226091977116238E-2
146 144 1.2329659523760422E-1
146 145 3.2364647061502894E-1
146 147 1.9377688191573963E-1
146 148 5.771147789230693E-2
146 149 2.9733638905895938E-2
146 211 1.831563888873418E-2
146 223 2.135235557710887E-2
146 366 2.0961325748571347E-2
146 385 1.803027908652137E-2
147 140 1.831563888873418E-2
147 143 2.2791802591663322E-2
147 144 5.480717093471203E-2
147 145 8.221179137325177E-2
147 146 1.9377688191573963E-1
147 148 1.597809385411036E-1
147 149 6.115654069841014E-2
147 213 1.842154195269032E-2
147 366 2.074526167570657E-2
147 387 1.7450121550409956E-2
148 144 2.256392318845907E-2
148 145 2.7957175118100454E-2
148 146 5.771147789230693E-2
148 147 1.597809385411036E-1
148 149 3.1508560169704913E-1
148 213 2.421640817115068E-2
148 227 1.788687212068551E-2
148 367 2.680482034070268E-2
148 386 2.3352670179993706E-2
148 428 1.831563888873418E-2
149 144 1.831563888873418E-2
149 145 1.831563888873418E-2
149 146 2.9733638905895938E-2
149 147 6.115654069841014E-2
149 148 3.1508560169704913E-1
149 213 2.8629018318082296E-2
149 226 2.0847748690614232E-2
149 333 1.9590968269603704E-2
149 367 2.4998825726726827E-2
149 428 1.8415008165721527E-2
149 429 1.8850093753922343E-2
149 430 1.9188635301512363E-2
150 151 2.8279679802812907E-1
150 152 1.252641020868253E-1
150 153 4.794258439723506E-2
150 154 3.3215330236858506E-2
150 155 1.831563888873418E-2
150 235 1.265060848206859E-2
150 237 1.0656854551493188E-2
150 360 1.91706821022305E-2
150 375 2.74193226146645E-2
150 376 4.800845475059775E-2
150 390 2.0194740553216593E-2
150 391 1.619722215228005E-2
151 150 2.8279679802812907E-1
151 152 4.4873176509070545E-1
151 153 1.6465292690827743E-1
151 154 1.2234521489911851E-1
151 155 5.315631854817025E-2
151 156 2.282181570096556E-2
151 334 2.471551291730479E-2
151 375 1.831563888873418E-2
151 376 3.434524137178978E-2
151 377 1.8056173728268187E-2
152 150 1.252641020868253E-1
152 151 4.4873176509070545E-1
152 153 3.8320860169423165E-1
152 154 2.571635855661008E-1
152 155 1.1085392232039207E-1
152 156 4.452560776563934E-2
152 157 1.9091681823374104E-2
152 266 1.9386916260526833E-2
152 334 2.5094093320517364E-2
152 335 1.74325758658947E-2
152 376 1.831563888873418E-2
153 150 4.794258439723506E-2
153 151 1.6465292690827743E-1
153 152 3.8320860169423165E-1
153 154 4.98735555912462E-1
153 155 1.9558443116214652E-1
153 156 8.859685338757717E-2
153 157 3.859603753982102E-2
153 334 1.753342918443239E-2
153 335 2.3182232359036353E-2
153 336 1.831563888873418E-2
154 150 3.3215330236858506E-2
154 151 1.2234521489911851E-1
154 152 2.571635855661008E-1
154 153 4.98735555912462E-1
154 155 3.4236121525588437E-1
154 156 1.269236124998413E-1
154 157 4.556835678940423E-2
154 334 2.598394930733062E-2
154 335 2.0471293969060403E-2
154 336 1.831563888873418E-2
155 150 1.831563888873418E-2
155 151 5.315631854817025E-2
155 152 1.1085392232039207E-1
155 153 1.9558443116214652E-1
155 154 3.4236121525588437E-1
155 156 3.837037860264947E-1
155 157 1.292442929586962E-1
155 158 2.3903910562899755E-2
155 336 1.831563888873418E-2
155 337 2.1786017984254377E-2
155 339 1.652705273873776E-2
156 151 2.282181570096556E-2
156 152 4.452560776563934E-2
156 153 8.859685338757717E-2
156 154 1.269236124998413E-1
156 155 3.837037860264947E-1
156 157 4.544179995709933E-1
156 158 8.090354063178862E-2
156 159 5.36491361908906E-2
156 160 2.04743398436486E-2
156 337 2.3707051912645827E-2
156 339 1.9842500195999126E-2
157 152 1.9091681823374104E-2
157 153 3.859603753982102E-2
157 154 4.556835678940423E-2
157 155 1.292442929586962E-1
157 156 4.544179995709933E-1
157 158 2.1271278247091457E-1
157 159 1.488507143613531E-1
157 160 5.3528327514799925E-2
157 161 2.095080398407525E-2
157 337 1.7180457495806552E-2
157 339 1.831563888873418E-2
157 340 2.14517038302687E-2
158 155 2.3903910562899755E-2
158 156 8.090354063178862E-2
158 157 2.1271278247091457E-1
158 159 7.415365629573939E-1
158 160 3.0527319082073384E-1
158 161 6.885555878287475E-2
158 162 1.9399095221288187E-2
158 341 1.969612698502775E-2
158 343 1.831563888873418E-2
158 344 2.1701217286745955E-2
158 346 1.5088963244290493E-2
159 156 5.36491361908906E-2
159 157 1.488507143613531E-1
159 158 7.415365629573939E-1
159 160 3.4675176265512253E-1
159 161 6.816271441596504E-2
159 162 1.831563888873418E-2
159 341 2.1598431214828614E-2
159 343 2.2219251720931244E-2
159 344 2.891734502782907E-2
159 345 1.8314652542730597E-2
159 346 1.831563888873418E-2
160 156 2.04743398436486E-2
160 157 5.3528327514799925E-2
160 158 3.0527319082073384E-1
160 159 3.4675176265512253E-1
160 161 1.5331125211494445E-1
160 162 3.811946950493739E-2
160 163 1.831563888873418E-2
160 344 2.2184842798014845E-2
160 345 1.831563888873418E-2
160 346 2.1409599043878194E-2
160 347 1.9866555903808574E-2
161 157 2.095080398407525E-2
161 158 6.885555878287475E-2
161 159 6.816271441596504E-2
161 160 1.5331125211494445E-1
161 162 2.1790466696943822E-1
161 163 8.326154203085956E-2
161 164 3.1139357934404695E-2
161 165 4.465360779554929E-2
161 166 1.831563888873418E-2
161 345 1.3635794171721758E-2
161 347 1.8490814145250382E-2
162 158 1.9399095221288187E-2
162 159 1.831563888873418E-2
162 160 3.811946950493739E-2
162 161 2.1790466696943822E-1
162 163 3.6705771079234617E-1
162 164 1.5050695072814474E-1
162 165 1.4167601100301264E-1
162 166 6.80946824954699E-2
162 167 2.276221733416171E-2
162 347 1.4116390555855524E-2
162 350 2.1312873447920013E-2
163 160 1.831563888873418E-2
163 161 8.326154203085956E-2
163 162 3.6705771079234617E-1
163 164 3.198926174031405E-1
163 165 4.4683248042074586E-1
163 166 2.4617437899371328E-1
163 167 9.626248728612481E-2
163 168 4.9604879680799324E-2
163 169 1.4790580425088021E-2
163 282 1.432631898933302E-2
163 350 2.2654951354734405E-2
164 161 3.1139357934404695E-2
164 162 1.5050695072814474E-1
164 163 3.198926174031405E-1
164 165 5.113413585204997E-1
164 166 4.5965627226689565E-1
164 167 1.2990037767258872E-1
164 168 1.1171057327641845E-1
164 264 2.0244380830622802E-2
164 350 1.8718369970683147E-2
164 352 1.831563888873418E-2
164 354 1.3608785050640029E-2
164 404 1.831563888873418E-2
165 161 4.465360779554929E-2
165 162 1.4167601100301264E-1
165 163 4.4683248042074586E-1
165 164 5.113413585204997E-1
165 166 7.542889510066003E-1
165 167 3.2960940414901896E-1
165 168 1.6146667749264987E-1
165 169 4.7856479016687346E-2
165 170 1.7895483027554414E-2
165 264 1.831563888873418E-2
165 370 1.831563888873418E-2
166 161 1.831563888873418E-2
166 162 6.80946824954699E-2
166 163 2.4617437899371328E-1
166 164 4.5965627226689565E-1
166 165 7.542889510066003E-1
166 167 4.799895932508913E-1
166 168 2.937578024484327E-1
166 169 5.5170291706177946E-2
166 170 1.8801171621337275E-2
166 264 2.1390537175696334E-2
166 423 1.5591508271218045E-2
167 162 2.276221733416171E-2
167 163 9.626248728612481E-2
167 164 1.2990037767258872E-1
167 165 3.2960940414901896E-1
167 166 4.799895932508913E-1
167 168 5.353613493601506E-1
167 169 2.2072072568036724E-1
167 170 6.613725534103759E-2
167 171 2.625148419722769E-2
167 264 2.190252230633081E-2
167 384 1.831563888873418E-2
167 423 1.6173873944851907E-2
168 120 1.831563888873418E-2
168 163 4.9604879680799324E-2
168 164 1.1171057327641845E-1
168 165 1.6146667749264987E-1
168 166 2.937578024484327E-1
168 167 5.353613493601506E-1
168 169 2.720336037552887E-1
168 170 1.0672113909256944E-1
168 171 3.704650694194082E-2
168 172 1.789937414054227E-2
168 264 2.655363514629802E-2
168 423 1.7682098962011707E-2
168 425 1.831563888873418E-2
169 163 1.4790580425088021E-2
169 165 4.7856479016687346E-2
169 166 5.5170291706177946E-2
169 167 2.2072072568036724E-1
169 168 2.720336037552887E-1
169 170 4.4095748399162293E-1
169 171 1.0602408711915315E-1
169 172 4.003043172607949E-2
169 366 2.1764973867889656E-2
169 384 2.3291793468299304E-2
169 385 1.6783978452477834E-2
169 425 1.831563888873418E-2
170 165 1.7895483027554414E-2
170 166 1.8801171621337275E-2
170 167 6.613725534103759E-2
170 168 1.0672113909256944E-1
170 169 4.4095748399162293E-1
170 171 3.5198031258113766E-1
170 172 1.0347267666017412E-1
170 264 1.8997383171350787E-2
170 366 3.0804976460184406E-2
170 385 3.0394011216350873E-2
170 426 1.8917746092951628E-2
171 121 1.8274119328379544E-2
171 122 1.8076753369034845E-2
171 167 2.625148419722769E-2
171 168 3.704650694194082E-2
171 169 1.0602408711915315E-1
171 170 3.5198031258113766E-1
171 172 3.3576336647285104E-1
171 366 2.915148811355823E-2
171 367 1.8145303487071624E-2
171 385 3.417110608067563E-2
171 386 3.48022325309279E-2
171 428 1.831563888873418E-2
172 168 1.789937414054227E-2
172 169 4.003043172607949E-2
172 170 1.0347267666017412E-1
172 171 3.3576336647285104E-1
172 367 2.7592288885320358E-2
172 386 3.302020675061022E-2
172 427 1.831563888873418E-2
172 428 3.195598807725654E-2
172 429 2.3336308490082686E-2
172 569 2.6135935455484212E-2
173 102 1.6125094542265937E-2
173 174 8.395071817340012E-1
173 175 1.7689430452196822E-1
173 185 2.0201798172941703E-2
173 186 1.6144712695739066E-1
173 187 2.1642414217454126E-1
173 188 3.697317660704773E-1
173 189 1.4682302958651391E-1
173 190 8.621575943680676E-2
173 191 1.441436708136202E-1
173 232 1.5350707407350369E-2
173 236 1.9635703497988044E-2
173 239 8.949816639307268E-3
174 101 1.8156215982747234E-2
174 103 1.8104053226338825E-2
174 173 8.395071817340012E-1
174 175 1.565280150289836E-1
174 186 1.328797768158298E-1
174 187 2.093857654241417E-1
174 188 3.404842600753995E-1
174 189 1.516028949416283E-1
174 190 8.066739429860972E-2
174 191 1.1699159595912567E-1
174 232 1.7381377094872554E-2
174 233 1.831563888873418E-2
174 236 1.831563888873418E-2
175 106 1.81246100253643E-2
175 173 1.7689430452196822E-1
175 174 1.565280150289836E-1
175 185 5.761262459175041E-2
175 186 2.0434167767684924E-1
175 187 3.896109116682419E-2
175 188 6.788808894845855E-2
175 189 1.831563888873418E-2
175 190 3.867405126620643E-2
175 191 2.1358390078914888E-1
175 334 1.4418184262781672E-2
176 111 1.8154862564198872E-2
176 177 6.893763130096499E-2
176 183 3.324004887784489E-2
176 184 2.551387510711335E-1
176 185 8.889518086507442E-2
176 231 1.831563888873418E-2
176 249 1.831563888873418E-2
176 345 2.1650982127503667E-2
176 551 4.202627234930059E-2
176 553 2.238012623544189E-2
176 554 1.7628619014488846E-2
176 556 2.4144085532618566E-2
177 114 1.1913021957013686E-2
177 176 6.893763130096499E-2
177 178 1.1265651160514861E-1
177 179 2.1394377527578445E-2
177 182 1.831563888873418E-2
177 183 1.8267024009334665E-1
177 184 5.651806608856546E-2
177 219 2.0603202572483017E-2
177 220 1.9213619457157775E-2
177 230 1.9091311230941623E-2
177 556 1.67816380891686E-2
178 177 1.1265651160514861E-1
178 179 1.0449089898275032E-1
178 180 1.8006776478243457E-2
178 181 3.4827778486339105E-2
178 182 2.261896621992453E-1
178 183 3.065223374800781E-1
178 221 3.336328691826765E-2
178 222 1.831563888873418E-2
178 228 1.9070597061875597E-2
178 230 2.0669234909648313E-2
178 560 1.592471205127725E-2
179 177 2.1394377527578445E-2
179 178 1.0449089898275032E-1
179 180 3.121843550209693E-2
179 181 2.5649468658472974E-1
179 182 2.320021695962719E-1
179 183 6.465408588514324E-2
179 221 2.8899141774963E-2
179 222 4.4230018848420295E-2
179 228 4.894645311596954E-2
179 229 2.8024247049713576E-2
179 560 1.831563888873418E-2
180 178 1.8006776478243457E-2
180 179 3.121843550209693E-2
180 181 9.731508263552112E-2
180 182 3.534850997104324E-2
180 213 2.596337168601351E-2
180 223 1.831563888873418E-2
180 224 3.0929504671363583E-2
180 225 2.9249793993467464E-2
180 227 2.1445888884292812E-2
180 569 2.623368606189243E-2
181 178 3.4827778486339105E-2
181 179 2.5649468658472974E-1
181 180 9.731508263552112E-2
181 182 1.3770674551169776E-1
181 183 2.7927186416005934E-2
181 222 2.7377824282320593E-2
181 228 3.69223572854969E-2
181 560 1.831563888873418E-2
181 570 2.3299364337671567E-2
181 572 1.6888951891273502E-2
181 575 1.831563888873418E-2
182 177 1.831563888873418E-2
182 178 2.261896621992453E-1
182 179 2.320021695962719E-1
182 180 3.534850997104324E-2
182 181 1.3770674551169776E-1
182 183 1.2118288936537845E-1
182 221 2.470155612570768E-2
182 222 2.2692405052924698E-2
182 228 3.283435729591485E-2
182 229 1.831563888873418E-2
182 230 1.6780090516241835E-2
182 560 2.2962399682196544E-2
183 176 3.324004887784489E-2
183 177 1.8267024009334665E-1
183 178 3.065223374800781E-1
183 179 6.465408588514324E-2
183 181 2.7927186416005934E-2
183 182 1.2118288936537845E-1
183 184 1.9894498867969193E-2
183 230 1.7901469135091618E-2
183 556 2.060746961501107E-2
183 559 2.6258962603801565E-2
183 560 3.745227991433696E-2
184 176 2.551387510711335E-1
184 177 5.651806608856546E-2
184 183 1.9894498867969193E-2
184 185 8.592946175042394E-2
184 551 3.8556147653209555E-2
184 552 2.4138196440082374E-2
184 553 2.5579331667044493E-2
184 554 2.236196720876683E-2
184 555 1.85740522832219E-2
184 556 1.831563888873418E-2
185 173 2.0201798172941703E-2
185 175 5.761262459175041E-2
185 176 8.889518086507442E-2
185 184 8.592946175042394E-2
185 186 6.905233434579672E-2
185 188 1.9360955703174147E-2
185 191 7.244733873002973E-2
185 549 1.831563888873418E-2
185 550 1.8151018814624744E-2
185 551 2.4774497729900796E-2
186 100 2.2792330415374762E-2
186 173 1.6144712695739066E-1
186 174 1.328797768158298E-1
186 175 2.0434167767684924E-1
186 185 6.905233434579672E-2
186 187 1.8696025870718552E-1
186 188 2.733970204006521E-1
186 189 8.9250541843445E-2
186 190 2.894875020705654E-1
186 191 5.12661404222101E-1
186 216 2.7439616791076443E-3
187 100 2.2874337586668132E-2
187 101 2.04416559479954E-2
187 173 2.1642414217454126E-1
187 174 2.093857654241417E-1
187 175 3.896109116682419E-2
187 186 1.8696025870718552E-1
187 188 4.67556020356151E-1
187 189 3.5063245769069923E-1
187 190 2.4787964639465393E-1
187 191 1.1068318105689208E-1
187 214 1.831563888873418E-2
187 216 1.444166185071074E-2
187 542 1.831563888873418E-2
188 100 3.0101402997223938E-2
188 101 2.162921681405903E-2
188 173 3.697317660704773E-1
188 174 3.404842600753995E-1
188 175 6.788808894845855E-2
188 185 1.9360955703174147E-2
188 186 2.733970204006521E-1
188 187 4.67556020356151E-1
188 189 3.595127268900588E-1
188 190 2.3206316066142432E-1
188 191 2.1362781154847066E-1
188 214 1.7201317158140515E-2
188 216 1.831563888873418E-2
189 100 3.897259656232681E-2
189 101 2.869086207472911E-2
189 173 1.4682302958651391E-1
189 174 1.516028949416283E-1
189 175 1.831563888873418E-2
189 186 8.9250541843445E-2
189 187 3.5063245769069923E-1
189 188 3.595127268900588E-1
189 190 1.0159179597776763E-1
189 191 5.80512876351162E-2
189 214 2.15226871986513E-2
189 215 1.2463961922588081E-2
189 216 1.831563888873418E-2
189 300 2.0898081030461146E-2
189 542 1.5004576993691607E-2
190 100 3.0126719304620964E-2
190 173 8.621575943680676E-2
190 174 8.066739429860972E-2
190 175 3.867405126620643E-2
190 186 2.894875020705654E-1
190 187 2.4787964639465393E-1
190 188 2.3206316066142432E-1
190 189 1.0159179597776763E-1
190 191 1.7416704436316285E-1
190 214 1.831563888873418E-2
190 216 1.5500582799078792E-2
191 100 2.3749390780075146E-2
191 102 1.8825219552422473E-2
191 104 1.82995395930521E-2
191 173 1.441436708136202E-1
191 174 1.1699159595912567E-1
191 175 2.1358390078914888E-1
191 185 7.244733873002973E-2
191 186 5.12661404222101E-1
191 187 1.1068318105689208E-1
191 188 2.1362781154847066E-1
191 189 5.80512876351162E-2
191 190 1.7416704436316285E-1
191 216 2.0383690740419613E-3
192 124 1.075648158010091E-2
192 125 1.266196854249172E-2
192 126 9.049509827773722E-3
192 127 1.0283707646719395E-2
192 193 7.076267783495884E-1
192 194 2.5174860649136244E-1
192 195 5.0323869033833846E-2
192 196 5.454814720480201E-2
192 197 3.129181727479474E-2
192 198 3.338596294166977E-2
192 199 2.5142350876740865E-2
192 200 1.831563888873418E-2
192 214 5.5376276312715814E-2
192 215 4.811149989331541E-2
192 216 4.4502301789403106E-2
192 217 1.3943934829654676E-2
192 233 1.8657211760874252E-2
193 192 7.076267783495884E-1
193 194 3.4556206529265177E-1
193 195 5.8631056201138454E-2
193 196 6.255109348902899E-2
193 197 3.559366847778318E-2
193 198 3.90229204943051E-2
193 199 2.9611310724933008E-2
193 200 2.228861012201926E-2
193 214 4.426232344255724E-2
193 215 4.06420905993145E-2
193 216 3.755316243064412E-2
193 217 1.4096989955198659E-2
194 192 2.5174860649136244E-1
194 193 3.4556206529265177E-1
194 195 1.7342950126819415E-1
194 196 1.7251017672703484E-1
194 197 9.660238551803951E-2
194 198 1.0174243582843677E-1
194 199 6.711438431404301E-2
194 200 5.880154546728397E-2
194 201 1.831563888873418E-2
194 214 3.0091799165108124E-2
194 215 2.8475684451981276E-2
194 216 2.858872782042279E-2
195 192 5.0323869033833846E-2
195 193 5.8631056201138454E-2
195 194 1.7342950126819415E-1
195 196 2.5609727316350406E-1
195 197 3.437370875778088E-1
195 198 1.8431828594013744E-1
195 199 3.8627661973260466E-2
195 200 9.868931443739892E-2
195 201 4.123995706461988E-2
195 202 1.1709217382925489E-2
195 215 1.831563888873418E-2
195 216 1.534785242890798E-2
195 233 1.831563888873418E-2
196 192 5.454814720480201E-2
196 193 6.255109348902899E-2
196 194 1.7251017672703484E-1
196 195 2.5609727316350406E-1
196 197 2.2301509205461992E-1
196 198 1.3496866866114982E-1
196 199 2.830356982838073E-2
196 200 1.2616256598482053E-1
196 201 7.962548904534109E-2
196 202 2.5201889228521984E-2
196 203 9.467133718463529E-3
196 214 1.831563888873418E-2
196 215 2.5261456020058262E-2
196 216 1.831563888873418E-2
196 217 2.7636870620272713E-2
196 233 3.0820591034212544E-2
197 192 3.129181727479474E-2
197 193 3.559366847778318E-2
197 194 9.660238551803951E-2
197 195 3.437370875778088E-1
197 196 2.2301509205461992E-1
197 198 6.973113992028873E-1
197 199 1.7080369904232093E-1
197 200 4.475588932870006E-1
197 201 1.6749306914730128E-1
197 202 5.339825295088243E-2
197 203 2.1163660097853997E-2
197 217 1.8625899620385435E-2
197 232 2.1005771411462894E-2
197 233 2.0057928236303806E-2
198 135 1.63758020277114E-2
198 192 3.338596294166977E-2
198 193 3.90229204943051E-2
198 194 1.0174243582843677E-1
198 195 1.8431828594013744E-1
198 196 1.3496866866114982E-1
198 197 6.973113992028873E-1
198 199 2.901386262262519E-1
198 200 4.643331574415579E-1
198 201 1.9179346153799048E-1
198 202 5.7848238879562676E-2
198 203 3.134203606812715E-2
198 204 1.831563888873418E-2
198 217 1.9775341488768174E-2
198 232 2.16569474770603E-2
198 233 1.6686175249683223E-2
199 135 2.025207735403504E-2
199 192 2.5142350876740865E-2
199 193 2.9611310724933008E-2
199 194 6.711438431404301E-2
199 195 3.8627661973260466E-2
199 196 2.830356982838073E-2
199 197 1.7080369904232093E-1
199 198 2.901386262262519E-1
199 200 1.9711570031992862E-1
199 201 1.3203248831103537E-1
199 202 6.0505370375354986E-2
199 203 5.009197993762621E-2
199 204 2.7266567538009677E-2
199 205 1.831563888873418E-2
199 231 1.1719507603753149E-2
199 232 2.3417979525959576E-2
200 134 1.831563888873418E-2
200 192 1.831563888873418E-2
200 193 2.228861012201926E-2
200 194 5.880154546728397E-2
200 195 9.868931443739892E-2
200 196 1.2616256598482053E-1
200 197 4.475588932870006E-1
200 198 4.643331574415579E-1
200 199 1.9711570031992862E-1
200 201 3.761878893158538E-1
200 202 1.1748613721622138E-1
200 203 4.721670977999861E-2
200 204 2.509307090948177E-2
200 205 2.3881774037360123E-2
200 206 1.5112978230456486E-2
200 217 2.092536670235341E-2
200 232 2.0606476791915206E-2
201 194 1.831563888873418E-2
201 195 4.123995706461988E-2
201 196 7.962548904534109E-2
201 197 1.6749306914730128E-1
201 198 1.9179346153799048E-1
201 199 1.3203248831103537E-1
201 200 3.761878893158538E-1
201 202 4.443741334368295E-1
201 203 5.9089493248983355E-2
201 204 3.485730049814336E-2
201 205 4.529259096423782E-2
201 206 2.987009453619508E-2
201 217 1.7145428264535717E-2
201 218 1.6911196423789226E-2
201 232 1.831563888873418E-2
202 136 1.831563888873418E-2
202 195 1.1709217382925489E-2
202 196 2.5201889228521984E-2
202 197 5.339825295088243E-2
202 198 5.7848238879562676E-2
202 199 6.0505370375354986E-2
202 200 1.1748613721622138E-1
202 201 4.443741334368295E-1
202 203 1.297128979436439E-1
202 204 6.149919765137926E-2
202 205 7.908652372385624E-2
202 206 5.183959780838412E-2
202 207 1.5819559573719524E-2
202 218 1.99461998888868E-2
202 232 1.8000994453843067E-2
203 135 2.2446376214720655E-2
203 136 2.9329220287614147E-2
203 137 2.1294946707024958E-2
203 138 1.8770766547749368E-2
203 196 9.467133718463529E-3
203 197 2.1163660097853997E-2
203 198 3.134203606812715E-2
203 199 5.009197993762621E-2
203 200 4.721670977999861E-2
203 201 5.9089493248983355E-2
203 202 1.297128979436439E-1
203 204 2.9928217492163395E-1
203 205 1.493141765367897E-1
203 206 8.078140978498495E-2
203 207 3.5603539408273856E-2
203 208 1.831563888873418E-2
203 218 2.5503239682524922E-2
203 231 1.9625316191253996E-2
204 136 2.2639252175971517E-2
204 137 2.377567717324731E-2
204 138 1.831563888873418E-2
204 139 1.831563888873418E-2
204 198 1.831563888873418E-2
204 199 2.7266567538009677E-2
204 200 2.509307090948177E-2
204 201 3.485730049814336E-2
204 202 6.149919765137926E-2
204 203 2.9928217492163395E-1
204 205 3.213330151150172E-1
204 206 1.5111009707617787E-1
204 207 6.757597062750972E-2
204 208 3.201608367958019E-2
204 218 3.799196206463835E-2
204 231 3.523179262523396E-2
205 138 1.5542723500047768E-2
205 139 1.808381801178406E-2
205 140 1.831563888873418E-2
205 199 1.831563888873418E-2
205 200 2.3881774037360123E-2
205 201 4.529259096423782E-2
205 202 7.908652372385624E-2
205 203 1.493141765367897E-1
205 204 3.213330151150172E-1
205 206 6.036967125592605E-1
205 207 1.5024667750804677E-1
205 208 9.198005631760134E-2
205 209 2.307882758063326E-2
205 218 1.831563888873418E-2
205 219 1.831563888873418E-2
205 220 1.556254839025082E-2
205 231 1.831563888873418E-2
206 140 1.995469717388655E-2
206 200 1.5112978230456486E-2
206 201 2.987009453619508E-2
206 202 5.183959780838412E-2
206 203 8.078140978498495E-2
206 204 1.5111009707617787E-1
206 205 6.036967125592605E-1
206 207 1.938836930411025E-1
206 208 1.5751835691352006E-1
206 209 3.206714026742822E-2
206 219 2.468587289091172E-2
206 220 1.831563888873418E-2
207 139 1.897514402318323E-2
207 140 2.1956841223153816E-2
207 141 1.831563888873418E-2
207 142 1.831563888873418E-2
207 202 1.5819559573719524E-2
207 203 3.5603539408273856E-2
207 204 6.757597062750972E-2
207 205 1.5024667750804677E-1
207 206 1.938836930411025E-1
207 208 3.552980539905233E-1
207 209 6.565123965060381E-2
207 219 2.7466772278317366E-2
207 220 2.5545837833347525E-2
207 221 1.831563888873418E-2
207 230 1.9474030392775614E-2
208 141 1.358555336017933E-2
208 203 1.831563888873418E-2
208 204 3.201608367958019E-2
208 205 9.198005631760134E-2
208 206 1.5751835691352006E-1
208 207 3.552980539905233E-1
208 209 1.269840780111648E-1
208 210 1.831563888873418E-2
208 219 3.831720924706143E-2
208 220 3.9997814283013064E-2
208 221 1.9186914600309645E-2
208 229 1.788283946935442E-2
208 230 3.406217099981601E-2
209 205 2.307882758063326E-2
209 206 3.206714026742822E-2
209 207 6.565123965060381E-2
209 208 1.269840780111648E-1
209 210 7.673128240099839E-2
209 211 2.231964095996231E-2
209 220 1.831563888873418E-2
209 221 2.534411052095069E-2
209 228 1.8687070972138422E-2
209 229 2.1364125672192605E-2
209 230 1.743549137832568E-2
210 208 1.831563888873418E-2
210 209 7.673128240099839E-2
210 211 1.9759631055267346E-1
210 212 6.130756874717071E-2
210 213 1.3084641802196817E-2
210 221 2.6685609896195537E-2
210 222 5.608806209127315E-2
210 223 3.0801709292727252E-2
210 224 1.831563888873418E-2
210 228 5.7282901080552895E-2
210 229 3.454161659011898E-2
211 146 1.831563888873418E-2
211 209 2.231964095996231E-2
211 210 1.9759631055267346E-1
211 212 2.132463175499233E-1
211 213 3.5865374806141395E-2
211 222 3.762428262630935E-2
211 223 6.499278450864752E-2
211 224 4.4416225162556465E-2
211 225 2.5282497200486857E-2
211 226 1.9883023247483596E-2
211 227 2.492225492851722E-2
211 228 4.15878074317963E-2
211 229 1.911488405178096E-2
212 210 6.130756874717071E-2
212 211 2.132463175499233E-1
212 213 5.499671132590161E-2
212 222 1.831563888873418E-2
212 223 7.714456087102016E-2
212 224 8.232435656078432E-2
212 225 5.3145675608021345E-2
212 226 2.2980770821976353E-2
212 227 4.818128823009643E-2
212 228 2.2936123882547038E-2
212 229 1.279710511896652E-2
213 147 1.842154195269032E-2
213 148 2.421640817115068E-2
213 149 2.8629018318082296E-2
213 180 2.596337168601351E-2
213 210 1.3084641802196817E-2
213 211 3.5865374806141395E-2
213 212 5.499671132590161E-2
213 223 2.1338408074686257E-2
213 224 2.7454231544350713E-2
213 225 5.490854688446044E-2
213 226 5.250862854418217E-2
213 227 8.281161062224963E-2
214 187 1.831563888873418E-2
214 188 1.7201317158140515E-2
214 189 2.15226871986513E-2
214 190 1.831563888873418E-2
214 192 5.5376276312715814E-2
214 193 4.426232344255724E-2
214 194 3.0091799165108124E-2
214 196 1.831563888873418E-2
214 215 4.627046466715323E-1
214 216 4.021822787019312E-1
214 217 2.5736241704980043E-2
214 233 1.1451898304280704E-1
215 189 1.2463961922588081E-2
215 192 4.811149989331541E-2
215 193 4.06420905993145E-2
215 194 2.8475684451981276E-2
215 195 1.831563888873418E-2
215 196 2.5261456020058262E-2
215 214 4.627046466715323E-1
215 216 2.831623144130577E-1
215 217 4.222775850396819E-2
215 232 1.574923458426696E-2
215 233 2.4252235136906683E-1
216 186 2.7439616791076443E-3
216 187 1.444166185071074E-2
216 188 1.831563888873418E-2
216 189 1.831563888873418E-2
216 190 1.5500582799078792E-2
216 191 2.0383690740419613E-3
216 192 4.4502301789403106E-2
216 193 3.755316243064412E-2
216 194 2.858872782042279E-2
216 195 1.534785242890798E-2
216 196 1.831563888873418E-2
216 214 4.021822787019312E-1
216 215 2.831623144130577E-1
216 217 6.650945340691958E-2
216 232 1.9134747542568532E-2
216 233 1.815546833264245E-1
217 192 1.3943934829654676E-2
217 193 1.4096989955198659E-2
217 196 2.7636870620272713E-2
217 197 1.8625899620385435E-2
217 198 1.9775341488768174E-2
217 200 2.092536670235341E-2
217 201 1.7145428264535717E-2
217 214 2.5736241704980043E-2
217 215 4.222775850396819E-2
217 216 6.650945340691958E-2
217 218 8.761314391626832E-2
217 231 3.416508069579558E-2
217 232 1.0852876912613768E-1
217 233 1.393752139305327E-1
218 201 1.6911196423789226E-2
218 202 1.99461998888868E-2
218 203 2.5503239682524922E-2
218 204 3.799196206463835E-2
218 205 1.831563888873418E-2
218 217 8.761314391626832E-2
218 219 4.23454789280613E-2
218 220 2.4690111110408097E-2
218 230 1.831563888873418E-2
218 231 3.1406751761920887E-1
218 232 9.712014255410753E-2
219 177 2.0603202572483017E-2
219 205 1.831563888873418E-2
219 206 2.468587289091172E-2
219 207 2.7466772278317366E-2
219 208 3.831720924706143E-2
219 218 4.23454789280613E-2
219 220 5.543302684702973E-1
219 221 8.50648489961631E-2
219 222 1.7613167575183816E-2
219 228 1.740274750227748E-2
219 229 4.502225484577889E-2
219 230 2.014093083240634E-1
219 231 3.2878208838750846E-2
220 177 1.9213619457157775E-2
220 205 1.556254839025082E-2
220 206 1.831563888873418E-2
220 207 2.5545837833347525E-2
220 208 3.9997814283013064E-2
220 209 1.831563888873418E-2
220 218 2.4690111110408097E-2
220 219 5.543302684702973E-1
220 221 1.4127587368056888E-1
220 222 2.5567757723843277E-2
220 228 2.6263975267893654E-2
220 229 5.9518957130173314E-2
220 230 2.737432564900358E-1
220 231 2.2011914406525848E-2
221 142 1.742020143547027E-2
221 143 2.2402255733788744E-2
221 178 3.336328691826765E-2
221 179 2.8899141774963E-2
221 182 2.470155612570768E-2
221 207 1.831563888873418E-2
221 208 1.9186914600309645E-2
221 209 2.534411052095069E-2
221 210 2.6685609896195537E-2
221 219 8.50648489961631E-2
221 220 1.4127587368056888E-1
221 222 1.7311009783081632E-1
221 223 1.6286800974978376E-2
221 224 1.31333991233756E-2
221 228 1.76180695607537E-1
221 229 2.776255964323696E-1
221 230 1.7424040010350417E-1
222 145 2.0990347451307678E-2
222 178 1.831563888873418E-2
222 179 4.4230018848420295E-2
222 181 2.7377824282320593E-2
222 182 2.2692405052924698E-2
222 210 5.608806209127315E-2
222 211 3.762428262630935E-2
222 212 1.831563888873418E-2
222 219 1.7613167575183816E-2
222 220 2.5567757723843277E-2
222 221 1.7311009783081632E-1
222 223 9.201746540348232E-2
222 224 5.417471155547092E-2
222 225 2.071559094533695E-2
222 228 5.052307384088641E-1
222 229 1.191509616904043E-1
222 230 3.9501576897852914E-2
223 146 2.135235557710887E-2
223 180 1.831563888873418E-2
223 210 3.0801709292727252E-2
223 211 6.499278450864752E-2
223 212 7.714456087102016E-2
223 213 2.1338408074686257E-2
223 221 1.6286800974978376E-2
223 222 9.201746540348232E-2
223 224 4.5371875695637787E-1
223 225 1.2276411413914276E-1
223 226 1.831563888873418E-2
223 227 6.720951016875648E-2
223 228 8.394442954969197E-2
223 229 2.8345432163033726E-2
224 180 3.0929504671363583E-2
224 210 1.831563888873418E-2
224 211 4.4416225162556465E-2
224 212 8.232435656078432E-2
224 213 2.7454231544350713E-2
224 221 1.31333991233756E-2
224 222 5.417471155547092E-2
224 223 4.5371875695637787E-1
224 225 2.644933695890597E-1
224 226 2.164887441870593E-2
224 227 1.1860685068034177E-1
224 228 5.983305655361219E-2
224 229 2.4913016822125444E-2
224 387 1.6117635757764783E-2
225 180 2.9249793993467464E-2
225 211 2.5282497200486857E-2
225 212 5.3145675608021345E-2
225 213 5.490854688446044E-2
225 222 2.071559094533695E-2
225 223 1.2276411413914276E-1
225 224 2.644933695890597E-1
225 226 4.9859631174667844E-2
225 227 4.4721803691976647E-1
225 228 2.5766045449650186E-2
225 229 1.5343445838014523E-2
226 149 2.0847748690614232E-2
226 211 1.9883023247483596E-2
226 212 2.2980770821976353E-2
226 213 5.250862854418217E-2
226 223 1.831563888873418E-2
226 224 2.164887441870593E-2
226 225 4.9859631174667844E-2
226 227 1.2149938639149067E-1
226 228 2.1086000432380174E-2
226 230 1.676735072811942E-2
227 148 1.788687212068551E-2
227 180 2.1445888884292812E-2
227 211 2.492225492851722E-2
227 212 4.818128823009643E-2
227 213 8.281161062224963E-2
227 223 6.720951016875648E-2
227 224 1.1860685068034177E-1
227 225 4.4721803691976647E-1
227 226 1.2149938639149067E-1
227 228 2.278680154184231E-2
227 229 1.7014994171635132E-2
227 230 1.831563888873418E-2
228 178 1.9070597061875597E-2
228 179 4.894645311596954E-2
228 181 3.69223572854969E-2
228 182 3.283435729591485E-2
228 209 1.8687070972138422E-2
228 210 5.7282901080552895E-2
228 211 4.15878074317963E-2
228 212 2.2936123882547038E-2
228 219 1.740274750227748E-2
228 220 2.6263975267893654E-2
228 221 1.76180695607537E-1
228 222 5.052307384088641E-1
228 223 8.394442954969197E-2
228 224 5.983305655361219E-2
228 225 2.5766045449650186E-2
228 226 2.1086000432380174E-2
228 227 2.278680154184231E-2
228 229 2.1169870423856632E-1
228 230 7.693989724913924E-2
229 179 2.8024247049713576E-2
229 182 1.831563888873418E-2
229 208 1.788283946935442E-2
229 209 2.1364125672192605E-2
229 210 3.454161659011898E-2
229 211 1.911488405178096E-2
229 212 1.279710511896652E-2
229 219 4.502225484577889E-2
229 220 5.9518957130173314E-2
229 221 2.776255964323696E-1
229 222 1.191509616904043E-1
229 223 2.8345432163033726E-2
229 224 2.4913016822125444E-2
229 225 1.5343445838014523E-2
229 227 1.7014994171635132E-2
229 228 2.1169870423856632E-1
229 230 1.6438398992620323E-1
230 177 1.9091311230941623E-2
230 178 2.0669234909648313E-2
230 182 1.6780090516241835E-2
230 183 1.7901469135091618E-2
230 207 1.9474030392775614E-2
230 208 3.406217099981601E-2
230 209 1.743549137832568E-2
230 218 1.831563888873418E-2
230 219 2.014093083240634E-1
230 220 2.737432564900358E-1
230 221 1.7424040010350417E-1
230 222 3.9501576897852914E-2
230 226 1.676735072811942E-2
230 227 1.831563888873418E-2
230 228 7.693989724913924E-2
230 229 1.6438398992620323E-1
230 231 3.379329657905523E-2
231 176 1.831563888873418E-2
231 199 1.1719507603753149E-2
231 203 1.9625316191253996E-2
231 204 3.523179262523396E-2
231 205 1.831563888873418E-2
231 217 3.416508069579558E-2
231 218 3.1406751761920887E-1
231 219 3.2878208838750846E-2
231 220 2.2011914406525848E-2
231 230 3.379329657905523E-2
231 232 1.3136950022374783E-1
232 173 1.5350707407350369E-2
232 174 1.7381377094872554E-2
232 197 2.1005771411462894E-2
232 198 2.16569474770603E-2
232 199 2.3417979525959576E-2
232 200 2.0606476791915206E-2
232 201 1.831563888873418E-2
232 202 1.8000994453843067E-2
232 215 1.574923458426696E-2
232 216 1.9134747542568532E-2
232 217 1.0852876912613768E-1
232 218 9.712014255410753E-2
232 231 1.3136950022374783E-1
232 233 4.3424209882194115E-2
233 174 1.831563888873418E-2
233 192 1.8657211760874252E-2
233 195 1.831563888873418E-2
233 196 3.0820591034212544E-2
233 197 2.0057928236303806E-2
233 198 1.6686175249683223E-2
233 214 1.1451898304280704E-1
233 215 2.4252235136906683E-1
233 216 1.815546833264245E-1
233 217 1.393752139305327E-1
233 232 4.3424209882194115E-2
234 39 1.8868526098499924E-2
234 40 2.250853216964857E-2
234 101 1.9503016687817825E-2
234 235 3.89829853559821E-1
234 236 1.2902107914700867E-1
234 237 1.1628998249312787E-1
234 238 9.9215370698645E-2
234 239 9.306391276584194E-2
234 240 3.6294907544011754E-2
234 241 1.8133318205093757E-2
234 435 1.831563888873418E-2
235 39 2.120182086434882E-2
235 40 2.271870079315494E-2
235 74 2.46062020296441E-2
235 101 1.831563888873418E-2
235 150 1.265060848206859E-2
235 234 3.89829853559821E-1
235 236 1.0738516370972036E-1
235 237 1.680288361479465E-1
235 238 1.2567698307994243E-1
235 239 7.838795401601503E-2
235 240 5.0830608405253226E-2
235 241 2.3492874684083703E-2
236 101 1.8516822118480387E-2
236 173 1.9635703497988044E-2
236 174 1.831563888873418E-2
236 234 1.2902107914700867E-1
236 235 1.0738516370972036E-1
236 237 4.7580971470524247E-1
236 238 4.313781838341331E-1
236 239 3.4925761300269953E-1
236 240 6.086952190117786E-2
236 375 1.7790084470990748E-2
236 376 1.841811821250772E-2
237 150 1.0656854551493188E-2
237 234 1.1628998249312787E-1
237 235 1.680288361479465E-1
237 236 4.7580971470524247E-1
237 238 7.16996280645004E-1
237 239 3.123173394211155E-1
237 240 1.0476879897550209E-1
237 241 2.5398910592742935E-2
237 242 1.831563888873418E-2
237 243 1.9638431137778363E-2
238 102 1.831563888873418E-2
238 234 9.9215370698645E-2
238 235 1.2567698307994243E-1
238 236 4.313781838341331E-1
238 237 7.16996280645004E-1
238 239 4.3716329294940365E-1
238 240 1.1773383672575524E-1
238 241 2.692004702786019E-2
238 242 1.831563888873418E-2
238 243 2.08989909174885E-2
238 375 9.498831822913377E-3
239 102 2.0048156720462278E-2
239 103 2.497360338180723E-2
239 173 8.949816639307268E-3
239 234 9.306391276584194E-2
239 235 7.838795401601503E-2
239 236 3.4925761300269953E-1
239 237 3.123173394211155E-1
239 238 4.3716329294940365E-1
239 240 1.2770846517831694E-1
239 241 3.299447716929361E-2
239 242 2.2648789641552813E-2
239 243 1.9199466122082988E-2
240 103 1.831563888873418E-2
240 234 3.6294907544011754E-2
240 235 5.0830608405253226E-2
240 236 6.086952190117786E-2
240 237 1.0476879897550209E-1
240 238 1.1773383672575524E-1
240 239 1.2770846517831694E-1
240 241 3.939460263339014E-1
240 242 2.2311903700370214E-1
240 243 1.1901326405877526E-1
240 244 6.848488565230025E-2
240 245 2.9851484207225595E-2
240 246 1.831563888873418E-2
240 266 1.831563888873418E-2
241 234 1.8133318205093757E-2
241 235 2.3492874684083703E-2
241 237 2.5398910592742935E-2
241 238 2.692004702786019E-2
241 239 3.299447716929361E-2
241 240 3.939460263339014E-1
241 242 3.20260985744137E-1
241 243 8.531470935620696E-2
241 244 1.4849371949979717E-1
241 245 2.0767198326539577E-2
241 246 1.5810021488760113E-2
241 334 1.831563888873418E-2
242 107 1.8641559616526984E-2
242 237 1.831563888873418E-2
242 238 1.831563888873418E-2
242 239 2.2648789641552813E-2
242 240 2.2311903700370214E-1
242 241 3.20260985744137E-1
242 243 3.106613772147403E-1
242 244 3.486009363684034E-1
242 245 7.002758663384549E-2
242 246 3.870862746201042E-2
242 247 2.3550320229602146E-2
242 334 1.9257885896818785E-2
243 104 1.831563888873418E-2
243 105 2.097602357120637E-2
243 106 1.831563888873418E-2
243 107 2.1199677855429477E-2
243 237 1.9638431137778363E-2
243 238 2.08989909174885E-2
243 239 1.9199466122082988E-2
243 240 1.1901326405877526E-1
243 241 8.531470935620696E-2
243 242 3.106613772147403E-1
243 244 4.2198249280363975E-1
243 245 3.080244941140401E-1
243 246 9.02794130848053E-2
243 247 8.034959036544932E-2
243 248 1.9568374572747353E-2
243 249 2.2433806139978626E-2
243 266 2.4997713847275706E-2
243 267 2.6621540902111412E-2
243 268 1.831563888873418E-2
244 240 6.848488565230025E-2
244 241 1.4849371949979717E-1
244 242 3.486009363684034E-1
244 243 4.2198249280363975E-1
244 245 1.5593603684995022E-1
244 246 7.177041805716701E-2
244 247 4.793268605051125E-2
244 248 1.831563888873418E-2
244 337 2.1842764702783783E-2
244 339 1.831563888873418E-2
245 105 1.831563888873418E-2
245 240 2.9851484207225595E-2
245 241 2.0767198326539577E-2
245 242 7.002758663384549E-2
245 243 3.080244941140401E-1
245 244 1.5593603684995022E-1
245 246 1.7055819690244722E-1
245 247 2.1191185073296195E-1
245 248 4.682081269984861E-2
245 249 4.948234755650803E-2
245 266 2.229281379777595E-2
245 267 2.6378374964357056E-2
245 268 2.2410436984032035E-2
245 269 1.8017823794678672E-2
245 339 1.2848702712018377E-2
246 240 1.831563888873418E-2
246 241 1.5810021488760113E-2
246 242 3.870862746201042E-2
246 243 9.02794130848053E-2
246 244 7.177041805716701E-2
246 245 1.7055819690244722E-1
246 247 3.766962287450817E-1
246 248 1.0823374847675335E-1
246 249 6.85761313439894E-2
246 250 2.692188907985891E-2
246 251 3.0011783619914228E-2
246 252 2.1697965912908245E-2
247 109 1.4158759575745103E-2
247 242 2.3550320229602146E-2
247 243 8.034959036544932E-2
247 244 4.793268605051125E-2
247 245 2.1191185073296195E-1
247 246 3.766962287450817E-1
247 248 3.060677887539809E-1
247 249 1.491429927333485E-1
247 250 3.5453319186369715E-2
247 251 1.831563888873418E-2
247 252 3.4273322502648605E-2
247 267 1.817241356940337E-2
247 268 1.568582314552644E-2
247 339 1.653067755197642E-2
248 111 1.831563888873418E-2
248 112 1.831563888873418E-2
248 243 1.9568374572747353E-2
248 244 1.831563888873418E-2
248 245 4.682081269984861E-2
248 246 1.0823374847675335E-1
248 247 3.060677887539809E-1
248 249 2.7979806366717647E-1
248 250 1.5342433992751278E-1
248 251 3.664932264297512E-2
248 252 9.245461250570497E-2
248 339 9.358268673481268E-3
249 176 1.831563888873418E-2
249 243 2.2433806139978626E-2
249 245 4.948234755650803E-2
249 246 6.85761313439894E-2
249 247 1.491429927333485E-1
249 248 2.7979806366717647E-1
249 250 1.2656684822155143E-1
249 251 9.3529819964195E-2
249 252 1.4712736174721536E-1
249 348 1.693678103043494E-2
250 246 2.692188907985891E-2
250 247 3.5453319186369715E-2
250 248 1.5342433992751278E-1
250 249 1.2656684822155143E-1
250 251 8.254648527028535E-2
250 252 1.401497684598717E-1
250 253 2.838187778437359E-2
250 339 1.831563888873418E-2
250 342 2.1160038013733732E-2
250 345 2.927677420081167E-2
250 347 1.7797257008939957E-2
251 246 3.0011783619914228E-2
251 247 1.831563888873418E-2
251 248 3.664932264297512E-2
251 249 9.3529819964195E-2
251 250 8.254648527028535E-2
251 252 1.8438662381320162E-1
251 253 5.307220168827511E-2
251 254 1.5274978628986328E-2
251 342 2.0623182230978785E-2
251 348 3.1093817045447482E-2
251 349 1.358758360370019E-2
252 246 2.1697965912908245E-2
252 247 3.4273322502648605E-2
252 248 9.245461250570497E-2
252 249 1.4712736174721536E-1
252 250 1.401497684598717E-1
252 251 1.8438662381320162E-1
252 253 4.814620177708332E-2
252 342 1.7185663430156428E-2
252 345 1.831563888873418E-2
252 348 2.8880791866834572E-2
253 250 2.838187778437359E-2
253 251 5.307220168827511E-2
253 252 4.814620177708332E-2
253 254 2.2136744978752945E-1
253 255 1.1192235853319699E-1
253 256 3.939613645869749E-2
253 257 5.998888507140711E-2
253 258 2.9077627661167237E-2
253 262 1.723912759209359E-2
253 265 1.8038893761838575E-2
253 351 1.831563888873418E-2
254 251 1.5274978628986328E-2
254 253 2.2136744978752945E-1
254 255 4.51031195287517E-1
254 256 1.0530243386441598E-1
254 257 1.4798767658850642E-1
254 258 6.172136168133325E-2
254 261 2.270887717673333E-2
254 262 1.831563888873418E-2
254 263 2.4612152121034285E-2
254 265 2.4822592982675563E-2
255 253 1.1192235853319699E-1
255 254 4.51031195287517E-1
255 256 2.3406482496105524E-1
255 257 4.190323320130963E-1
255 258 1.4531842208565288E-1
255 259 2.9845049752591453E-2
255 260 2.0846404435045977E-2
255 261 2.2221286756497264E-2
255 262 1.8314209261583655E-2
255 263 2.086485727705748E-2
255 265 2.7771930035521412E-2
256 253 3.939613645869749E-2
256 254 1.0530243386441598E-1
256 255 2.3406482496105524E-1
256 257 3.2127291020761956E-1
256 258 1.2095497713958961E-1
256 260 2.56438544579558E-2
256 351 1.831563888873418E-2
256 353 1.8099016899146465E-2
256 354 2.1364698066603023E-2
256 355 2.012920896296483E-2
257 253 5.998888507140711E-2
257 254 1.4798767658850642E-1
257 255 4.190323320130963E-1
257 256 3.2127291020761956E-1
257 258 3.735502636419199E-1
257 259 8.613716445781201E-2
257 260 5.8100435454198504E-2
257 261 2.077380419076749E-2
257 262 2.202835046882919E-2
257 265 1.931000172550184E-2
257 354 1.809551787638244E-2
258 253 2.9077627661167237E-2
258 254 6.172136168133325E-2
258 255 1.4531842208565288E-1
258 256 1.2095497713958961E-1
258 257 3.735502636419199E-1
258 259 2.4175063536602612E-1
258 260 1.1542755678348265E-1
258 261 4.016905868637248E-2
258 262 3.6470146072961125E-2
258 263 1.6494249506840253E-2
258 355 1.831563888873418E-2
259 255 2.9845049752591453E-2
259 257 8.613716445781201E-2
259 258 2.4175063536602612E-1
259 260 1.370388517336097E-1
259 261 3.2310094219315674E-2
259 262 3.241798040464217E-2
259 337 1.850987072178422E-2
259 339 1.8101364578767973E-2
259 340 1.831563888873418E-2
259 355 3.03104060196005E-2
260 121 2.2625033659213735E-2
260 122 1.916148202433291E-2
260 123 2.052970497007141E-2
260 255 2.0846404435045977E-2
260 256 2.56438544579558E-2
260 257 5.8100435454198504E-2
260 258 1.1542755678348265E-1
260 259 1.370388517336097E-1
260 261 1.0725748024927009E-1
260 262 1.1552927529837227E-1
260 263 1.9048396795619846E-2
260 355 2.706815542427828E-2
260 356 2.6817123842136345E-2
260 357 1.7943528073116784E-2
261 123 1.7636723726092967E-2
261 254 2.270887717673333E-2
261 255 2.2221286756497264E-2
261 257 2.077380419076749E-2
261 258 4.016905868637248E-2
261 259 3.2310094219315674E-2
261 260 1.0725748024927009E-1
261 262 5.057646842224227E-1
261 263 1.3688197883656048E-1
261 265 5.176013300007547E-2
261 357 2.052170581753343E-2
261 358 3.281437848247725E-2
261 359 1.831563888873418E-2
262 123 2.5094036163889027E-2
262 253 1.723912759209359E-2
262 254 1.831563888873418E-2
262 255 1.8314209261583655E-2
262 257 2.202835046882919E-2
262 258 3.6470146072961125E-2
262 259 3.241798040464217E-2
262 260 1.1552927529837227E-1
262 261 5.057646842224227E-1
262 263 1.6240620252177362E-1
262 265 4.9066977996701254E-2
262 357 1.831563888873418E-2
262 358 3.2169097338010544E-2
262 359 2.0068110318854717E-2
263 123 2.0790254850758368E-2
263 254 2.4612152121034285E-2
263 255 2.086485727705748E-2
263 258 1.6494249506840253E-2
263 260 1.9048396795619846E-2
263 261 1.3688197883656048E-1
263 262 1.6240620252177362E-1
263 265 1.5470088173118957E-1
263 357 2.1916341150388284E-2
263 358 3.069120575400109E-2
263 359 4.017408008049847E-2
264 164 2.0244380830622802E-2
264 165 1.831563888873418E-2
264 166 2.1390537175696334E-2
264 167 2.190252230633081E-2
264 168 2.655363514629802E-2
264 170 1.8997383171350787E-2
264 352 1.8905080782621944E-2
264 353 1.8141612590861403E-2
264 354 2.480724583852432E-2
264 355 2.5452462030800427E-2
265 253 1.8038893761838575E-2
265 254 2.4822592982675563E-2
265 255 2.7771930035521412E-2
265 257 1.931000172550184E-2
265 261 5.176013300007547E-2
265 262 4.9066977996701254E-2
265 263 1.5470088173118957E-1
265 299 1.831563888873418E-2
265 357 1.831563888873418E-2
265 358 2.4640467753048314E-2
265 359 3.4004882754552775E-2
266 104 2.8680167949150442E-2
266 105 2.01734983119125E-2
266 152 1.9386916260526833E-2
266 240 1.831563888873418E-2
266 243 2.4997713847275706E-2
266 245 2.229281379777595E-2
266 267 4.700842423914556E-1
266 268 4.003861583450064E-1
266 269 2.1455460258216696E-1
266 270 2.8692343099386116E-2
266 271 1.8259579934654692E-2
266 334 1.9073482472847233E-2
267 104 2.471758485903788E-2
267 243 2.6621540902111412E-2
267 245 2.6378374964357056E-2
267 247 1.817241356940337E-2
267 266 4.700842423914556E-1
267 268 5.779872679324013E-1
267 269 4.4603415544096636E-1
267 270 7.709931600179741E-2
267 271 4.1664289346178565E-2
267 272 1.9362136067211395E-2
267 334 1.831563888873418E-2
268 104 2.008186698081429E-2
268 243 1.831563888873418E-2
268 245 2.2410436984032035E-2
268 247 1.568582314552644E-2
268 266 4.003861583450064E-1
268 267 5.779872679324013E-1
268 269 6.302389523402734E-1
268 270 9.254664914945714E-2
268 271 5.9371909491782025E-2
268 272 3.532613264705783E-2
268 273 1.9298324553021714E-2
269 245 1.8017823794678672E-2
269 266 2.1455460258216696E-1
269 267 4.4603415544096636E-1
269 268 6.302389523402734E-1
269 270 2.70476342623954E-1
269 271 1.7083789147593872E-1
269 272 8.47705446330686E-2
269 273 5.3289501691326464E-2
269 274 3.855462284192071E-2
269 275 1.831563888873418E-2
270 266 2.8692343099386116E-2
270 267 7.709931600179741E-2
270 268 9.254664914945714E-2
270 269 2.70476342623954E-1
270 271 4.385791158126682E-1
270 272 1.328778271047501E-1
270 273 1.080943372379661E-1
270 274 1.0229412438814858E-1
270 275 3.9153543393555645E-2
270 276 1.831563888873418E-2
270 277 1.2324456713010674E-2
271 266 1.8259579934654692E-2
271 267 4.1664289346178565E-2
271 268 5.9371909491782025E-2
271 269 1.7083789147593872E-1
271 270 4.385791158126682E-1
271 272 3.676116570787015E-1
271 273 2.6885923222968156E-1
271 274 2.4078170218442754E-1
271 275 9.239728075299639E-2
271 276 5.131097751275384E-2
271 277 2.7529389271546828E-2
271 278 1.8168208755788638E-2
272 267 1.9362136067211395E-2
272 268 3.532613264705783E-2
272 269 8.47705446330686E-2
272 270 1.328778271047501E-1
272 271 3.676116570787015E-1
272 273 5.035876957888302E-1
272 274 3.8187348446023683E-1
272 275 1.9243238009093816E-1
272 276 1.028287635773521E-1
272 277 5.7162656442985536E-2
272 278 3.0710222489107136E-2
272 279 1.2866880381023823E-2
273 268 1.9298324553021714E-2
273 269 5.3289501691326464E-2
273 270 1.080943372379661E-1
273 271 2.6885923222968156E-1
273 272 5.035876957888302E-1
273 274 6.92868834372381E-1
273 275 3.345107789635461E-1
273 276 1.8245261499015925E-1
273 277 1.3639893279310103E-1
273 278 6.617921317703195E-2
273 279 1.831563888873418E-2
274 269 3.855462284192071E-2
274 270 1.0229412438814858E-1
274 271 2.4078170218442754E-1
274 272 3.8187348446023683E-1
274 273 6.92868834372381E-1
274 275 4.8582912860744415E-1
274 276 2.5879957731037856E-1
274 277 1.6137618135015525E-1
274 278 1.0570816781683702E-1
274 279 3.8006790736655804E-2
274 280 2.3617642981284062E-2
274 281 1.386386354318792E-2
275 269 1.831563888873418E-2
275 270 3.9153543393555645E-2
275 271 9.239728075299639E-2
275 272 1.9243238009093816E-1
275 273 3.345107789635461E-1
275 274 4.8582912860744415E-1
275 276 6.427914722521533E-1
275 277 3.8402466688042325E-1
275 278 2.8954138873074814E-1
275 279 5.090427087160497E-2
275 280 2.5296066617693604E-2
275 281 1.831563888873418E-2
276 270 1.831563888873418E-2
276 271 5.131097751275384E-2
276 272 1.028287635773521E-1
276 273 1.8245261499015925E-1
276 274 2.5879957731037856E-1
276 275 6.427914722521533E-1
276 277 6.396959917708427E-1
276 278 5.112353109513673E-1
276 279 6.336258866995127E-2
276 280 2.6895406470175923E-2
276 281 2.4370375493138852E-2
277 270 1.2324456713010674E-2
277 271 2.7529389271546828E-2
277 272 5.7162656442985536E-2
277 273 1.3639893279310103E-1
277 274 1.6137618135015525E-1
277 275 3.8402466688042325E-1
277 276 6.396959917708427E-1
277 278 4.283340457515179E-1
277 279 4.2837067692938276E-2
277 280 1.831563888873418E-2
277 281 2.6036746589314673E-2
278 271 1.8168208755788638E-2
278 272 3.0710222489107136E-2
278 273 6.617921317703195E-2
278 274 1.0570816781683702E-1
278 275 2.8954138873074814E-1
278 276 5.112353109513673E-1
278 277 4.283340457515179E-1
278 279 1.689509757355419E-1
278 280 6.758672961219273E-2
278 281 6.696333920782915E-2
279 272 1.2866880381023823E-2
279 273 1.831563888873418E-2
279 274 3.8006790736655804E-2
279 275 5.090427087160497E-2
279 276 6.336258866995127E-2
279 277 4.2837067692938276E-2
279 278 1.689509757355419E-1
279 280 4.818263905026258E-1
279 281 1.5697934654000362E-1
279 282 7.147698748336705E-2
279 283 1.831563888873418E-2
280 274 2.3617642981284062E-2
280 275 2.5296066617693604E-2
280 276 2.6895406470175923E-2
280 277 1.831563888873418E-2
280 278 6.758672961219273E-2
280 279 4.818263905026258E-1
280 281 1.686076962225801E-1
280 282 1.6177159156705495E-1
280 283 5.307838865368166E-2
280 284 1.6795664398412284E-2
281 274 1.386386354318792E-2
281 275 1.831563888873418E-2
281 276 2.4370375493138852E-2
281 277 2.6036746589314673E-2
281 278 6.696333920782915E-2
281 279 1.5697934654000362E-1
281 280 1.686076962225801E-1
281 282 3.1048635978981337E-1
281 283 5.2900107943328376E-2
281 284 3.0898613417637336E-2
281 285 1.831563888873418E-2
282 163 1.432631898933302E-2
282 279 7.147698748336705E-2
282 280 1.6177159156705495E-1
282 281 3.1048635978981337E-1
282 283 1.658107020113332E-1
282 284 8.825984593316394E-2
282 285 1.2180185721961805E-1
282 286 4.898064177178517E-2
282 287 1.9498148201121904E-2
282 288 1.831563888873418E-2
283 279 1.831563888873418E-2
283 280 5.307838865368166E-2
283 281 5.2900107943328376E-2
283 282 1.658107020113332E-1
283 284 4.5732757498883203E-1
283 285 2.3044637068506307E-1
283 286 1.1195506449084316E-1
283 287 4.185723166936192E-2
283 288 2.7680647847175895E-2
283 289 1.2314951805216785E-2
284 280 1.6795664398412284E-2
284 281 3.0898613417637336E-2
284 282 8.825984593316394E-2
284 283 4.5732757498883203E-1
284 285 3.0865537583255737E-1
284 286 3.266371236796662E-1
284 287 1.8251933720212798E-1
284 288 6.755158748899742E-2
284 289 4.1554667751471125E-2
284 290 1.831563888873418E-2
285 281 1.831563888873418E-2
285 282 1.2180185721961805E-1
285 283 2.3044637068506307E-1
285 284 3.0865537583255737E-1
285 286 3.426486652842149E-1
285 287 9.477515239101167E-2
285 288 2.1271811254700995E-1
285 289 6.330729172222443E-2
285 290 3.665420517962935E-2
285 291 1.5980350994987375E-2
286 282 4.898064177178517E-2
286 283 1.1195506449084316E-1
286 284 3.266371236796662E-1
286 285 3.426486652842149E-1
286 287 4.371241196027728E-1
286 288 2.818756633459937E-1
286 289 1.3443090903004476E-1
286 290 4.011658080329487E-2
286 291 1.831563888873418E-2
286 292 9.651205304487525E-3
287 282 1.9498148201121904E-2
287 283 4.185723166936192E-2
287 284 1.8251933720212798E-1
287 285 9.477515239101167E-2
287 286 4.371241196027728E-1
287 288 1.762983964519681E-1
287 289 2.893415886144035E-1
287 290 8.811444578199207E-2
287 291 5.92505649902853E-2
287 292 1.831563888873418E-2
287 293 1.5716843193318255E-2
287 294 7.494907517570355E-3
288 282 1.831563888873418E-2
288 283 2.7680647847175895E-2
288 284 6.755158748899742E-2
288 285 2.1271811254700995E-1
288 286 2.818756633459937E-1
288 287 1.762983964519681E-1
288 289 2.0697694625118923E-1
288 290 1.0238375318232944E-1
288 291 3.956074033560907E-2
288 292 1.831563888873418E-2
289 283 1.2314951805216785E-2
289 284 4.1554667751471125E-2
289 285 6.330729172222443E-2
289 286 1.3443090903004476E-1
289 287 2.893415886144035E-1
289 288 2.0697694625118923E-1
289 290 4.4240120456200077E-1
289 291 2.500957259522902E-1
289 292 9.672276546742187E-2
289 293 8.167920326362507E-2
289 294 1.870835328658633E-2
289 295 1.831563888873418E-2
289 296 8.307283743176571E-3
290 284 1.831563888873418E-2
290 285 3.665420517962935E-2
290 286 4.011658080329487E-2
290 287 8.811444578199207E-2
290 288 1.0238375318232944E-1
290 289 4.4240120456200077E-1
290 291 4.836220444318514E-1
290 292 2.5730983322324685E-1
290 293 2.4260934736287262E-1
290 294 5.903779948477453E-2
290 295 5.922803621003376E-2
290 296 2.3051828200569176E-2
290 297 1.831563888873418E-2
291 285 1.5980350994987375E-2
291 286 1.831563888873418E-2
291 287 5.92505649902853E-2
291 288 3.956074033560907E-2
291 289 2.500957259522902E-1
291 290 4.836220444318514E-1
291 292 4.8123113734020767E-1
291 293 4.3997908891025345E-1
291 294 1.9994134290155458E-1
291 295 1.1077563698666634E-1
291 296 5.261284234101693E-2
291 297 3.89938180464433E-2
291 298 2.21597133102654E-2
292 37 1.831563888873418E-2
292 123 1.831563888873418E-2
292 286 9.651205304487525E-3
292 287 1.831563888873418E-2
292 288 1.831563888873418E-2
292 289 9.672276546742187E-2
292 290 2.5730983322324685E-1
292 291 4.8123113734020767E-1
292 293 7.52490006377029E-1
292 294 6.04590193475325E-1
292 295 2.847644680371373E-1
292 296 1.487715011495911E-1
292 297 8.238764507327917E-2
292 298 4.0726318441251054E-2
292 299 1.7465223538160903E-2
293 287 1.5716843193318255E-2
293 289 8.167920326362507E-2
293 290 2.4260934736287262E-1
293 291 4.3997908891025345E-1
293 292 7.52490006377029E-1
293 294 6.216536707279569E-1
293 295 4.166579669010564E-1
293 296 1.9117623966601033E-1
293 297 8.864094737862283E-2
293 298 4.3820631858237716E-2
293 299 1.8691230589709184E-2
294 37 1.9589604725374597E-2
294 123 1.8638623316807587E-2
294 287 7.494907517570355E-3
294 289 1.870835328658633E-2
294 290 5.903779948477453E-2
294 291 1.9994134290155458E-1
294 292 6.04590193475325E-1
294 293 6.216536707279569E-1
294 295 4.940698099575871E-1
294 296 3.4188540561782577E-1
294 297 1.7501794593981104E-1
294 298 8.149941977638407E-2
294 299 2.6740415679595467E-2
295 289 1.831563888873418E-2
295 290 5.922803621003376E-2
295 291 1.1077563698666634E-1
295 292 2.847644680371373E-1
295 293 4.166579669010564E-1
295 294 4.940698099575871E-1
295 296 6.423263469969716E-1
295 297 2.4804108057076155E-1
295 298 1.1493990893133361E-1
295 299 4.0132927604465E-2
296 289 8.307283743176571E-3
296 290 2.3051828200569176E-2
296 291 5.261284234101693E-2
296 292 1.487715011495911E-1
296 293 1.9117623966601033E-1
296 294 3.4188540561782577E-1
296 295 6.423263469969716E-1
296 297 5.529469716303326E-1
296 298 2.5825399655039755E-1
296 299 7.1730456947894E-2
297 290 1.831563888873418E-2
297 291 3.89938180464433E-2
297 292 8.238764507327917E-2
297 293 8.864094737862283E-2
297 294 1.7501794593981104E-1
297 295 2.4804108057076155E-1
297 296 5.529469716303326E-1
297 298 6.577227875457624E-1
297 299 1.5978904153486406E-1
297 430 1.5506173489752533E-2
298 291 2.21597133102654E-2
298 292 4.0726318441251054E-2
298 293 4.3820631858237716E-2
298 294 8.149941977638407E-2
298 295 1.1493990893133361E-1
298 296 2.5825399655039755E-1
298 297 6.577227875457624E-1
298 299 3.089021536537167E-1
298 430 1.831563888873418E-2
298 431 1.6849861791626803E-2
299 265 1.831563888873418E-2
299 292 1.7465223538160903E-2
299 293 1.8691230589709184E-2
299 294 2.6740415679595467E-2
299 295 4.0132927604465E-2
299 296 7.1730456947894E-2
299 297 1.5978904153486406E-1
299 298 3.089021536537167E-1
299 359 1.945721147356022E-2
299 431 2.1218050011569553E-2
300 100 1.725253019893342E-2
300 189 2.0898081030461146E-2
300 301 4.6449954950308E-1
300 302 5.4187113266830574E-2
300 303 8.616533425394785E-2
300 304 9.823950391894337E-2
300 306 2.4648509326154977E-2
300 307 2.279666946224394E-2
300 543 1.8286054020009254E-2
300 544 1.831563888873418E-2
300 545 1.8366217311238643E-2
301 100 1.831563888873418E-2
301 300 4.6449954950308E-1
301 302 1.2910390605790908E-1
301 303 2.422905470140787E-1
301 304 2.033716688989528E-1
301 305 2.6329043929362847E-2
301 306 4.019682521425702E-2
301 307 3.563748298268426E-2
301 544 1.831563888873418E-2
301 545 1.8594565267560093E-2
301 547 1.6416609787968984E-2
302 300 5.4187113266830574E-2
302 301 1.2910390605790908E-1
302 303 2.3979635235554872E-1
302 304 7.864774889316253E-2
302 305 2.1606231977955237E-1
302 306 8.744941224321434E-2
302 543 1.5855769297186482E-2
302 545 2.0199915763289007E-2
302 546 1.9714243087991377E-2
302 547 1.831563888873418E-2
303 300 8.616533425394785E-2
303 301 2.422905470140787E-1
303 302 2.3979635235554872E-1
303 304 2.880581919790968E-1
303 305 1.2456759418471469E-1
303 306 1.806570441317114E-1
303 307 3.98452783900293E-2
303 544 1.5488495483407737E-2
303 545 1.831563888873418E-2
303 547 2.0308076482653602E-2
304 300 9.823950391894337E-2
304 301 2.033716688989528E-1
304 302 7.864774889316253E-2
304 303 2.880581919790968E-1
304 305 9.012585107630237E-2
304 306 1.5796840181024946E-1
304 307 9.999026686234E-2
304 309 2.4734618170356014E-2
304 545 1.616444408731176E-2
304 547 1.831563888873418E-2
305 301 2.6329043929362847E-2
305 302 2.1606231977955237E-1
305 303 1.2456759418471469E-1
305 304 9.012585107630237E-2
305 306 2.583586006197359E-1
305 307 2.8842665601680518E-2
305 543 1.2526265402515401E-2
305 545 1.831563888873418E-2
305 546 2.1438072793342425E-2
305 547 2.0508881189946364E-2
306 300 2.4648509326154977E-2
306 301 4.019682521425702E-2
306 302 8.744941224321434E-2
306 303 1.806570441317114E-1
306 304 1.5796840181024946E-1
306 305 2.583586006197359E-1
306 307 1.0958787232577062E-1
306 309 2.0913201527517408E-2
306 545 1.831563888873418E-2
306 546 1.5952317584191366E-2
306 547 2.215795812097398E-2
307 300 2.279666946224394E-2
307 301 3.563748298268426E-2
307 303 3.98452783900293E-2
307 304 9.999026686234E-2
307 305 2.8842665601680518E-2
307 306 1.0958787232577062E-1
307 308 1.1415087438291335E-1
307 309 2.2035792248379873E-1
307 310 1.1565612951609255E-1
307 311 6.079406312619745E-2
307 312 3.3442681468040476E-2
307 549 1.3706275269300346E-2
308 307 1.1415087438291335E-1
308 309 5.683148223216142E-1
308 310 6.329808988636173E-1
308 311 5.778625806176434E-1
308 312 1.1382475695444022E-1
308 313 1.9697497997621903E-2
308 314 1.7883120221152883E-2
308 315 1.7342842528619618E-2
308 549 1.6241184894350485E-2
308 550 2.1100956879989086E-2
308 551 2.3978935982365415E-2
308 552 1.831563888873418E-2
309 304 2.4734618170356014E-2
309 306 2.0913201527517408E-2
309 307 2.2035792248379873E-1
309 308 5.683148223216142E-1
309 310 7.031417569997109E-1
309 311 4.5671672825211784E-1
309 312 1.1000716271704375E-1
309 313 1.831563888873418E-2
309 314 1.831563888873418E-2
309 549 1.9044563868366865E-2
309 550 2.034990178576595E-2
309 552 1.7510079733204245E-2
310 307 1.1565612951609255E-1
310 308 6.329808988636173E-1
310 309 7.031417569997109E-1
310 311 7.443638692029866E-1
310 312 1.5866312584265263E-1
310 313 2.889801821099531E-2
310 314 2.1930896163838393E-2
310 315 2.0341713229421778E-2
310 549 1.8009738248310585E-2
310 550 2.2283034357727168E-2
310 551 1.831563888873418E-2
310 552 2.1810737639270533E-2
311 307 6.079406312619745E-2
311 308 5.778625806176434E-1
311 309 4.5671672825211784E-1
311 310 7.443638692029866E-1
311 312 2.2782473382161264E-1
311 313 3.651410248256934E-2
311 314 2.6201136172240302E-2
311 315 2.358353511644736E-2
311 316 3.95479158761216E-3
311 550 1.831563888873418E-2
311 551 1.9544583865414647E-2
311 552 1.9397026349711567E-2
311 553 1.5080134407289085E-2
312 307 3.3442681468040476E-2
312 308 1.1382475695444022E-1
312 309 1.1000716271704375E-1
312 310 1.5866312584265263E-1
312 311 2.2782473382161264E-1
312 313 2.2567699358358728E-1
312 314 1.8732276854103708E-1
312 315 1.1479311977990261E-1
312 316 1.831563888873418E-2
312 317 1.831563888873418E-2
312 552 1.831563888873418E-2
312 553 1.6886882208291504E-2
313 308 1.9697497997621903E-2
313 309 1.831563888873418E-2
313 310 2.889801821099531E-2
313 311 3.651410248256934E-2
313 312 2.2567699358358728E-1
313 314 3.571720941841373E-1
313 315 4.560750303328705E-1
313 316 1.0440611005532975E-1
313 317 8.307099470937979E-2
313 318 1.7889084250613772E-2
313 553 9.550126729718807E-3
314 308 1.7883120221152883E-2
314 309 1.831563888873418E-2
314 310 2.1930896163838393E-2
314 311 2.6201136172240302E-2
314 312 1.8732276854103708E-1
314 313 3.571720941841373E-1
314 315 2.744500487466992E-1
314 316 1.0953030616726989E-1
314 317 8.012284680253445E-2
314 318 2.4250667957149023E-2
315 308 1.7342842528619618E-2
315 310 2.0341713229421778E-2
315 311 2.358353511644736E-2
315 312 1.1479311977990261E-1
315 313 4.560750303328705E-1
315 314 2.744500487466992E-1
315 316 2.2644352045597635E-1
315 317 1.5851422961387512E-1
315 318 2.3550999234924413E-2
315 319 1.831563888873418E-2
316 311 3.95479158761216E-3
316 312 1.831563888873418E-2
316 313 1.0440611005532975E-1
316 314 1.0953030616726989E-1
316 315 2.2644352045597635E-1
316 317 2.0528836354294872E-1
316 318 1.2232500782059166E-1
316 319 4.6802378525989674E-2
316 320 3.673057805761974E-2
316 321 2.1140696405364923E-2
317 312 1.831563888873418E-2
317 313 8.307099470937979E-2
317 314 8.012284680253445E-2
317 315 1.5851422961387512E-1
317 316 2.0528836354294872E-1
317 318 1.6969807294474232E-1
317 319 7.593417358346582E-2
317 320 6.020210230679009E-2
317 321 3.048249450283455E-2
317 322 1.5494415086390722E-2
318 313 1.7889084250613772E-2
318 314 2.4250667957149023E-2
318 315 2.3550999234924413E-2
318 316 1.2232500782059166E-1
318 317 1.6969807294474232E-1
318 319 7.858272155146218E-2
318 320 9.935948858436236E-2
318 321 1.6088800251835764E-1
318 324 2.8125118908383265E-2
318 326 1.831563888873418E-2
319 315 1.831563888873418E-2
319 316 4.6802378525989674E-2
319 317 7.593417358346582E-2
319 318 7.858272155146218E-2
319 320 7.050967626097935E-1
319 321 9.15090332015877E-2
319 322 3.701160494438367E-2
319 323 4.507882981513408E-2
319 324 2.2051264571419496E-2
319 326 1.831563888873418E-2
320 316 3.673057805761974E-2
320 317 6.020210230679009E-2
320 318 9.935948858436236E-2
320 319 7.050967626097935E-1
320 321 1.5579924385820373E-1
320 322 2.9990827317112837E-2
320 323 3.613733665208345E-2
320 324 2.2418197581538832E-2
320 325 1.831563888873418E-2
320 326 1.831563888873418E-2
320 327 1.0673996853767371E-2
321 316 2.1140696405364923E-2
321 317 3.048249450283455E-2
321 318 1.6088800251835764E-1
321 319 9.15090332015877E-2
321 320 1.5579924385820373E-1
321 322 4.4915303089087324E-2
321 323 2.3409327425851417E-2
321 324 1.2406427093800688E-1
321 325 1.7095578926997704E-2
321 326 6.214410064194714E-2
321 327 1.831563888873418E-2
321 328 4.718411048863504E-3
321 331 1.831563888873418E-2
322 317 1.5494415086390722E-2
322 319 3.701160494438367E-2
322 320 2.9990827317112837E-2
322 321 4.4915303089087324E-2
322 323 3.937059327012326E-1
322 324 7.010731346077556E-2
322 325 3.3886920788969166E-1
322 326 6.856031641688021E-2
322 327 2.28430332200437E-1
322 328 6.161868185948871E-2
322 329 2.8613904514426317E-2
322 330 1.8600046682195514E-2
322 331 1.1902986567358149E-2
323 319 4.507882981513408E-2
323 320 3.613733665208345E-2
323 321 2.3409327425851417E-2
323 322 3.937059327012326E-1
323 324 3.2015596231868344E-2
323 325 3.573977322842101E-1
323 326 5.7660026592779634E-2
323 327 1.1608464064829849E-1
323 328 8.012050075067531E-2
323 329 4.303549743583658E-2
323 330 1.831563888873418E-2
324 119 1.831563888873418E-2
324 318 2.8125118908383265E-2
324 319 2.2051264571419496E-2
324 320 2.2418197581538832E-2
324 321 1.2406427093800688E-1
324 322 7.010731346077556E-2
324 323 3.2015596231868344E-2
324 325 7.766688718670917E-2
324 326 5.050056457735339E-1
324 327 1.169317963476975E-1
324 328 3.173367694801585E-2
324 329 1.831563888873418E-2
324 330 3.063598639254642E-2
324 331 4.612164802883473E-2
324 332 1.831563888873418E-2
325 320 1.831563888873418E-2
325 321 1.7095578926997704E-2
325 322 3.3886920788969166E-1
325 323 3.573977322842101E-1
325 324 7.766688718670917E-2
325 326 1.1308384661654443E-1
325 327 4.117445042468507E-1
325 328 3.3719390408646643E-1
325 329 1.1462652564751685E-1
325 330 9.038537550353375E-2
325 331 2.5116357181566972E-2
325 332 2.1720643658004288E-2
326 119 1.9160304749792675E-2
326 318 1.831563888873418E-2
326 319 1.831563888873418E-2
326 320 1.831563888873418E-2
326 321 6.214410064194714E-2
326 322 6.856031641688021E-2
326 323 5.7660026592779634E-2
326 324 5.050056457735339E-1
326 325 1.1308384661654443E-1
326 327 1.449385228097787E-1
326 328 6.943122990552852E-2
326 329 3.39989292574938E-2
326 330 5.147295572262237E-2
326 331 5.882442577795061E-2
326 332 2.5010141284823467E-2
327 320 1.0673996853767371E-2
327 321 1.831563888873418E-2
327 322 2.28430332200437E-1
327 323 1.1608464064829849E-1
327 324 1.169317963476975E-1
327 325 4.117445042468507E-1
327 326 1.449385228097787E-1
327 328 2.483124767311917E-1
327 329 6.465404082821252E-2
327 330 1.0341722887226966E-1
327 331 3.130915419309265E-2
327 332 1.9274282958213165E-2
328 321 4.718411048863504E-3
328 322 6.161868185948871E-2
328 323 8.012050075067531E-2
328 324 3.173367694801585E-2
328 325 3.3719390408646643E-1
328 326 6.943122990552852E-2
328 327 2.483124767311917E-1
328 329 3.5730824104814446E-1
328 330 3.682740728493252E-1
328 331 7.644719702098542E-2
328 332 5.02463175150065E-2
329 322 2.8613904514426317E-2
329 323 4.303549743583658E-2
329 324 1.831563888873418E-2
329 325 1.1462652564751685E-1
329 326 3.39989292574938E-2
329 327 6.465404082821252E-2
329 328 3.5730824104814446E-1
329 330 3.8358372436890215E-1
329 331 1.0482534690610225E-1
329 332 9.88621841760314E-2
329 333 1.831563888873418E-2
330 322 1.8600046682195514E-2
330 323 1.831563888873418E-2
330 324 3.063598639254642E-2
330 325 9.038537550353375E-2
330 326 5.147295572262237E-2
330 327 1.0341722887226966E-1
330 328 3.682740728493252E-1
330 329 3.8358372436890215E-1
330 331 1.7275812345003055E-1
330 332 9.47387088255291E-2
331 121 1.831563888873418E-2
331 321 1.831563888873418E-2
331 322 1.1902986567358149E-2
331 324 4.612164802883473E-2
331 325 2.5116357181566972E-2
331 326 5.882442577795061E-2
331 327 3.130915419309265E-2
331 328 7.644719702098542E-2
331 329 1.0482534690610225E-1
331 330 1.7275812345003055E-1
331 332 8.45913198861566E-2
331 333 1.9540502317357714E-2
332 122 1.831563888873418E-2
332 324 1.831563888873418E-2
332 325 2.1720643658004288E-2
332 326 2.5010141284823467E-2
332 327 1.9274282958213165E-2
332 328 5.02463175150065E-2
332 329 9.88621841760314E-2
332 330 9.47387088255291E-2
332 331 8.45913198861566E-2
332 333 8.59311031613466E-2
332 569 1.4347145935707817E-2
333 123 2.2385427864248908E-2
333 149 1.9590968269603704E-2
333 329 1.831563888873418E-2
333 331 1.9540502317357714E-2
333 332 8.59311031613466E-2
333 356 1.864766257254234E-2
333 358 1.835591278756266E-2
333 359 1.7818026393547674E-2
333 538 1.8966032902180182E-2
333 540 1.8990035771705164E-2
334 151 2.471551291730479E-2
334 152 2.5094093320517364E-2
334 153 1.753342918443239E-2
334 154 2.598394930733062E-2
334 175 1.4418184262781672E-2
334 241 1.831563888873418E-2
334 242 1.9257885896818785E-2
334 266 1.9073482472847233E-2
334 267 1.831563888873418E-2
334 335 2.451348789716032E-1
334 336 1.132919679172222E-1
334 337 6.727055727023049E-2
334 338 4.347893073818067E-2
334 339 4.057788450944878E-2
334 340 2.364023671349754E-2
334 341 1.831563888873418E-2
334 342 2.2210588865779413E-2
335 152 1.74325758658947E-2
335 153 2.3182232359036353E-2
335 154 2.0471293969060403E-2
335 334 2.451348789716032E-1
335 336 3.3093547331631773E-1
335 337 9.941338211759167E-2
335 338 1.3746038023532758E-1
335 339 4.075073023330056E-2
335 340 3.976238820976764E-2
335 341 3.008827218559402E-2
335 342 1.4577329654551368E-2
335 343 1.993899796501298E-2
335 353 1.831563888873418E-2
335 354 1.831563888873418E-2
336 153 1.831563888873418E-2
336 154 1.831563888873418E-2
336 155 1.831563888873418E-2
336 334 1.132919679172222E-1
336 335 3.3093547331631773E-1
336 337 2.7005493343516873E-1
336 338 4.403508532358432E-1
336 339 8.308462562179378E-2
336 340 7.7834134494606E-2
336 341 4.19739432028149E-2
336 342 1.1855593653190796E-2
336 343 2.45950360267964E-2
336 344 1.831563888873418E-2
337 155 2.1786017984254377E-2
337 156 2.3707051912645827E-2
337 157 1.7180457495806552E-2
337 244 2.1842764702783783E-2
337 259 1.850987072178422E-2
337 334 6.727055727023049E-2
337 335 9.941338211759167E-2
337 336 2.7005493343516873E-1
337 338 3.891836118743998E-1
337 339 4.603674411631554E-1
337 340 2.255564097779364E-1
337 341 6.0415365583453326E-2
337 342 1.831563888873418E-2
337 343 2.709414497556952E-2
337 344 2.1034207922528754E-2
337 345 1.831563888873418E-2
338 334 4.347893073818067E-2
338 335 1.3746038023532758E-1
338 336 4.403508532358432E-1
338 337 3.891836118743998E-1
338 339 1.3662035695335345E-1
338 340 1.483621506141259E-1
338 341 7.555419847701597E-2
338 343 4.6322430266126924E-2
338 344 4.259333252783247E-2
338 345 1.831563888873418E-2
338 346 1.690058646008763E-2
339 155 1.652705273873776E-2
339 156 1.9842500195999126E-2
339 157 1.831563888873418E-2
339 244 1.831563888873418E-2
339 245 1.2848702712018377E-2
339 247 1.653067755197642E-2
339 248 9.358268673481268E-3
339 250 1.831563888873418E-2
339 259 1.8101364578767973E-2
339 334 4.057788450944878E-2
339 335 4.075073023330056E-2
339 336 8.308462562179378E-2
339 337 4.603674411631554E-1
339 338 1.3662035695335345E-1
339 340 3.711485829218394E-1
339 341 5.362140659818831E-2
339 342 1.831563888873418E-2
339 343 2.7907724309872147E-2
339 344 2.440525007885047E-2
339 345 4.44380524622518E-2
339 346 6.08833177089858E-3
340 157 2.14517038302687E-2
340 259 1.831563888873418E-2
340 334 2.364023671349754E-2
340 335 3.976238820976764E-2
340 336 7.7834134494606E-2
340 337 2.255564097779364E-1
340 338 1.483621506141259E-1
340 339 3.711485829218394E-1
340 341 2.051390559910489E-1
340 342 4.450985740192036E-2
340 343 1.357427805862831E-1
340 344 1.2033601233153954E-1
340 345 1.2455741975639853E-1
340 346 3.11972464906187E-2
340 347 1.5914900701757908E-2
341 158 1.969612698502775E-2
341 159 2.1598431214828614E-2
341 334 1.831563888873418E-2
341 335 3.008827218559402E-2
341 336 4.19739432028149E-2
341 337 6.0415365583453326E-2
341 338 7.555419847701597E-2
341 339 5.362140659818831E-2
341 340 2.051390559910489E-1
341 342 1.6411482232878505E-1
341 343 5.020692832968977E-1
341 344 3.172347647625024E-1
341 345 1.4455696811096935E-1
341 346 1.6398332418405778E-1
341 347 7.679349148889955E-2
341 348 1.831563888873418E-2
341 349 1.831563888873418E-2
342 250 2.1160038013733732E-2
342 251 2.0623182230978785E-2
342 252 1.7185663430156428E-2
342 334 2.2210588865779413E-2
342 335 1.4577329654551368E-2
342 336 1.1855593653190796E-2
342 337 1.831563888873418E-2
342 339 1.831563888873418E-2
342 340 4.450985740192036E-2
342 341 1.6411482232878505E-1
342 343 2.0695203907492898E-1
342 344 6.889619379785768E-2
342 345 9.444272249866845E-2
342 346 1.5652525226503453E-1
342 347 1.2254278505088992E-1
342 348 7.112211126673845E-2
342 349 3.816284796163742E-2
342 350 1.831563888873418E-2
342 351 1.831563888873418E-2
343 158 1.831563888873418E-2
343 159 2.2219251720931244E-2
343 335 1.993899796501298E-2
343 336 2.45950360267964E-2
343 337 2.709414497556952E-2
343 338 4.6322430266126924E-2
343 339 2.7907724309872147E-2
343 340 1.357427805862831E-1
343 341 5.020692832968977E-1
343 342 2.0695203907492898E-1
343 344 4.811882045594878E-1
343 345 2.206013627861461E-1
343 346 3.2552862125420967E-1
343 347 2.4446523595882882E-1
343 348 2.200153176183129E-2
343 349 3.3543303543227126E-2
343 350 2.565603682407986E-2
344 158 2.1701217286745955E-2
344 159 2.891734502782907E-2
344 160 2.2184842798014845E-2
344 336 1.831563888873418E-2
344 337 2.1034207922528754E-2
344 338 4.259333252783247E-2
344 339 2.440525007885047E-2
344 340 1.2033601233153954E-1
344 341 3.172347647625024E-1
344 342 6.889619379785768E-2
344 343 4.811882045594878E-1
344 345 3.663329253320981E-1
344 346 3.1011384915992957E-1
344 347 2.1109671730532403E-1
344 348 1.3394168571319056E-2
344 349 1.987554574190263E-2
344 350 1.9702514839048467E-2
345 159 1.8314652542730597E-2
345 160 1.831563888873418E-2
345 161 1.3635794171721758E-2
345 176 2.1650982127503667E-2
345 250 2.927677420081167E-2
345 252 1.831563888873418E-2
345 337 1.831563888873418E-2
345 338 1.831563888873418E-2
345 339 4.44380524622518E-2
345 340 1.2455741975639853E-1
345 341 1.4455696811096935E-1
345 342 9.444272249866845E-2
345 343 2.206013627861461E-1
345 344 3.663329253320981E-1
345 346 2.0345629196741913E-1
345 347 2.0192032385850428E-1
345 348 1.929633617245269E-2
345 349 1.3927514544467303E-2
345 350 1.4747483097996747E-2
346 158 1.5088963244290493E-2
346 159 1.831563888873418E-2
346 160 2.1409599043878194E-2
346 338 1.690058646008763E-2
346 339 6.08833177089858E-3
346 340 3.11972464906187E-2
346 341 1.6398332418405778E-1
346 342 1.5652525226503453E-1
346 343 3.2552862125420967E-1
346 344 3.1011384915992957E-1
346 345 2.0345629196741913E-1
346 347 6.000697203983278E-1
346 348 5.733332513354741E-2
346 349 8.528307573238936E-2
346 350 4.7171464433582645E-2
346 351 1.693385067595287E-2
346 352 1.6940010851455668E-2
347 160 1.9866555903808574E-2
347 161 1.8490814145250382E-2
347 162 1.4116390555855524E-2
347 250 1.7797257008939957E-2
347 340 1.5914900701757908E-2
347 341 7.679349148889955E-2
347 342 1.2254278505088992E-1
347 343 2.4446523595882882E-1
347 344 2.1109671730532403E-1
347 345 2.0192032385850428E-1
347 346 6.000697203983278E-1
347 348 7.333085112346094E-2
347 349 1.3024975256422142E-1
347 350 8.718405014419514E-2
347 351 2.1615855439198535E-2
347 352 2.4766436164139875E-2
347 353 1.3726263870413908E-2
348 249 1.693678103043494E-2
348 251 3.1093817045447482E-2
348 252 2.8880791866834572E-2
348 341 1.831563888873418E-2
348 342 7.112211126673845E-2
348 343 2.200153176183129E-2
348 344 1.3394168571319056E-2
348 345 1.929633617245269E-2
348 346 5.733332513354741E-2
348 347 7.333085112346094E-2
348 349 3.455986815104758E-1
348 350 1.291376177390578E-1
348 351 7.606912783997684E-2
348 352 5.044737178238459E-2
348 353 2.775930742510059E-2
348 354 1.8056195975409955E-2
349 251 1.358758360370019E-2
349 341 1.831563888873418E-2
349 342 3.816284796163742E-2
349 343 3.3543303543227126E-2
349 344 1.987554574190263E-2
349 345 1.3927514544467303E-2
349 346 8.528307573238936E-2
349 347 1.3024975256422142E-1
349 348 3.455986815104758E-1
349 350 3.796064935041327E-1
349 351 8.973611437053186E-2
349 352 9.100196937128235E-2
349 353 4.229837125161713E-2
349 354 2.875700761594085E-2
349 355 1.831563888873418E-2
350 162 2.1312873447920013E-2
350 163 2.2654951354734405E-2
350 164 1.8718369970683147E-2
350 342 1.831563888873418E-2
350 343 2.565603682407986E-2
350 344 1.9702514839048467E-2
350 345 1.4747483097996747E-2
350 346 4.7171464433582645E-2
350 347 8.718405014419514E-2
350 348 1.291376177390578E-1
350 349 3.796064935041327E-1
350 351 8.427502171670308E-2
350 352 1.5750335495365736E-1
350 353 4.411809042877821E-2
350 354 4.841202173159687E-2
350 355 2.2104786095327532E-2
351 253 1.831563888873418E-2
351 256 1.831563888873418E-2
351 342 1.831563888873418E-2
351 346 1.693385067595287E-2
351 347 2.1615855439198535E-2
351 348 7.606912783997684E-2
351 349 8.973611437053186E-2
351 350 8.427502171670308E-2
351 352 3.505803367291056E-1
351 353 3.4870260044915313E-1
351 354 1.3412234384034946E-1
351 355 6.511790074126023E-2
351 356 1.9122688110862648E-2
352 164 1.831563888873418E-2
352 264 1.8905080782621944E-2
352 346 1.6940010851455668E-2
352 347 2.4766436164139875E-2
352 348 5.044737178238459E-2
352 349 9.100196937128235E-2
352 350 1.5750335495365736E-1
352 351 3.505803367291056E-1
352 353 2.466428498945012E-1
352 354 3.3833394704205455E-1
352 355 1.07219642893384E-1
352 356 2.303003132420977E-2
352 357 1.7988941538773038E-2
353 256 1.8099016899146465E-2
353 264 1.8141612590861403E-2
353 335 1.831563888873418E-2
353 347 1.3726263870413908E-2
353 348 2.775930742510059E-2
353 349 4.229837125161713E-2
353 350 4.411809042877821E-2
353 351 3.4870260044915313E-1
353 352 2.466428498945012E-1
353 354 2.2213192327860704E-1
353 355 1.6272116737027276E-1
353 356 3.775559567996089E-2
354 164 1.3608785050640029E-2
354 256 2.1364698066603023E-2
354 257 1.809551787638244E-2
354 264 2.480724583852432E-2
354 335 1.831563888873418E-2
354 348 1.8056195975409955E-2
354 349 2.875700761594085E-2
354 350 4.841202173159687E-2
354 351 1.3412234384034946E-1
354 352 3.3833394704205455E-1
354 353 2.2213192327860704E-1
354 355 3.99695685464858E-1
354 356 6.281719052003759E-2
354 357 3.396983274728774E-2
354 358 1.853031282025851E-2
355 256 2.012920896296483E-2
355 258 1.831563888873418E-2
355 259 3.03104060196005E-2
355 260 2.706815542427828E-2
355 264 2.5452462030800427E-2
355 349 1.831563888873418E-2
355 350 2.2104786095327532E-2
355 351 6.511790074126023E-2
355 352 1.07219642893384E-1
355 353 1.6272116737027276E-1
355 354 3.99695685464858E-1
355 356 1.882294070122571E-1
355 357 5.3897538132555586E-2
355 358 3.3946044830698824E-2
355 359 1.7730178910230873E-2
356 260 2.6817123842136345E-2
356 333 1.864766257254234E-2
356 351 1.9122688110862648E-2
356 352 2.303003132420977E-2
356 353 3.775559567996089E-2
356 354 6.281719052003759E-2
356 355 1.882294070122571E-1
356 357 2.049070344076796E-1
356 358 1.5413016577467706E-1
356 359 4.426667308534231E-2
356 537 1.74631309962571E-2
357 260 1.7943528073116784E-2
357 261 2.052170581753343E-2
357 262 1.831563888873418E-2
357 263 2.1916341150388284E-2
357 265 1.831563888873418E-2
357 352 1.7988941538773038E-2
357 354 3.396983274728774E-2
357 355 5.3897538132555586E-2
357 356 2.049070344076796E-1
357 358 4.479741261805355E-1
357 359 1.6206509981089545E-1
357 539 2.5134113424665504E-2
358 261 3.281437848247725E-2
358 262 3.2169097338010544E-2
358 263 3.069120575400109E-2
358 265 2.4640467753048314E-2
358 333 1.835591278756266E-2
358 354 1.853031282025851E-2
358 355 3.3946044830698824E-2
358 356 1.5413016577467706E-1
358 357 4.479741261805355E-1
358 359 2.0027505286570416E-1
358 539 1.831563888873418E-2
358 540 1.831563888873418E-2
358 541 1.831563888873418E-2
359 261 1.831563888873418E-2
359 262 2.0068110318854717E-2
359 263 4.017408008049847E-2
359 265 3.4004882754552775E-2
359 299 1.945721147356022E-2
359 333 1.7818026393547674E-2
359 355 1.7730178910230873E-2
359 356 4.426667308534231E-2
359 357 1.6206509981089545E-1
359 358 2.0027505286570416E-1
359 539 1.9572805639076832E-2
359 541 2.2213053589994897E-2
360 150 1.91706821022305E-2
360 361 6.259486742121705E-2
360 373 1.831563888873418E-2
360 374 3.0098899702227166E-1
360 375 3.531708807917004E-1
360 376 4.008005567426489E-1
360 377 2.797327743643076E-1
360 378 1.1264307295303698E-1
360 391 1.699945779908455E-2
360 409 3.2280887997039806E-2
360 410 2.2917212426248196E-2
360 411 1.7805090393510643E-2
361 360 6.259486742121705E-2
361 362 3.890870946693772E-2
361 373 8.548218778128097E-2
361 374 7.24154988577065E-2
361 375 3.666101680711258E-2
361 376 3.39071588033662E-2
361 377 1.69717110002925E-1
361 378 2.88550738229741E-1
361 379 2.3640739685688664E-1
361 380 7.319924240983586E-2
361 394 2.1457867410702075E-2
361 409 1.829595922664894E-2
361 410 1.5031858789290283E-2
361 411 2.2528442097043928E-2
361 412 3.731393378796998E-2
361 413 2.3742061821130676E-2
362 361 3.890870946693772E-2
362 363 3.666086040560952E-1
362 364 2.7654813844345524E-2
362 373 1.1642906291764281E-1
362 378 3.0381975361529513E-2
362 379 1.3773700156472876E-1
362 380 2.987537102942881E-1
362 381 1.0609880627634616E-1
362 382 3.015401530308867E-2
362 395 1.938388968224657E-2
362 413 1.8132672700421692E-2
362 414 1.831563888873418E-2
363 362 3.666086040560952E-1
363 364 1.2473004279085687E-1
363 373 4.218025543696709E-2
363 379 5.0761177868775306E-2
363 380 1.7373195287217505E-1
363 381 3.061604414646967E-1
363 382 9.43094414592936E-2
363 395 1.831563888873418E-2
363 414 1.831563888873418E-2
363 415 1.8163702907104066E-2
363 416 2.052673149778375E-2
364 362 2.7654813844345524E-2
364 363 1.2473004279085687E-1
364 365 3.169136094997192E-2
364 372 4.01072626167156E-2
364 380 1.831563888873418E-2
364 381 2.1277574203962074E-1
364 382 3.6891570579996E-1
364 383 3.437140385962501E-2
364 417 1.9921786202465E-2
364 418 3.349002764446486E-2
364 419 1.8455232988520358E-2
365 364 3.169136094997192E-2
365 372 6.487896402693773E-2
365 382 3.6898477322908046E-2
365 383 4.701496300444894E-1
365 384 5.4986526951340944E-2
365 398 1.9847091408048523E-2
365 399 2.277359203643021E-2
365 419 1.821510445474002E-2
365 420 1.831563888873418E-2
365 421 3.9394153552205935E-2
365 422 2.73725891994732E-2
366 146 2.0961325748571347E-2
366 147 2.074526167570657E-2
366 169 2.1764973867889656E-2
366 170 3.0804976460184406E-2
366 171 2.915148811355823E-2
366 367 2.3393414262573548E-2
366 368 1.831563888873418E-2
366 371 6.262274460863919E-2
366 384 7.71756037826413E-2
366 385 3.349724928549248E-1
366 386 4.417044127642978E-2
366 387 1.831563888873418E-2
366 388 1.831563888873418E-2
366 401 2.494120181349224E-2
366 402 1.831563888873418E-2
366 425 1.831563888873418E-2
366 426 4.238655082232835E-2
366 427 2.579535085812544E-2
366 428 2.7074299721835275E-2
366 429 1.6883145463261202E-2
367 148 2.680482034070268E-2
367 149 2.4998825726726827E-2
367 171 1.8145303487071624E-2
367 172 2.7592288885320358E-2
367 366 2.3393414262573548E-2
367 371 8.030370071856043E-2
367 385 1.8509279940360716E-2
367 386 1.842325181495989E-1
367 403 2.886140439058687E-2
367 427 1.7842255103330026E-2
367 428 1.8649343506621244E-2
367 429 3.700756473036014E-2
367 430 4.643900713842176E-2
367 431 4.479847340541209E-2
367 458 1.3632112833555534E-2
367 459 2.1040460158676322E-2
367 460 1.8322547473833436E-2
368 366 1.831563888873418E-2
368 369 2.2381343173941032E-1
368 370 2.3462077864156633E-1
368 387 2.3716482060543795E-1
368 388 3.877107841241631E-1
368 389 4.065196418116377E-1
368 425 1.820944505932218E-2
368 432 1.0590210489286389E-1
368 433 6.107385784516718E-2
368 434 6.358695483504068E-2
369 368 2.2381343173941032E-1
369 370 6.991505443833247E-1
369 384 1.758660067890281E-2
369 387 6.072649068504477E-2
369 388 2.033253897178679E-1
369 389 3.75394418346633E-1
369 404 2.7040880131930962E-2
369 405 2.4241932220616994E-2
369 406 2.279059567791468E-2
369 407 2.0106308062247995E-2
369 408 1.831563888873418E-2
369 423 1.895964215158746E-2
369 432 4.3909870225268106E-2
369 433 3.3974771289587063E-2
369 434 3.949363128053593E-2
370 120 1.745571061354448E-2
370 165 1.831563888873418E-2
370 368 2.3462077864156633E-1
370 369 6.991505443833247E-1
370 384 1.4275528830585606E-2
370 387 6.414325473300488E-2
370 388 1.8348654101745285E-1
370 389 3.497789306347183E-1
370 404 2.557198986013209E-2
370 405 2.4224463452187983E-2
370 406 2.71797434330677E-2
370 407 2.2674667198541325E-2
370 408 2.326776689999656E-2
370 423 1.831563888873418E-2
370 432 5.6915788980450424E-2
370 433 4.1332980633479566E-2
370 434 4.7314114120308184E-2
371 63 2.198533691311235E-2
371 98 1.6138279833089228E-2
371 366 6.262274460863919E-2
371 367 8.030370071856043E-2
371 384 1.831563888873418E-2
371 385 4.0318574286981976E-2
371 386 8.381279260548327E-2
371 401 3.139475106954188E-2
371 402 4.372333005315654E-2
371 427 2.6980111740507816E-2
371 428 2.022891547339738E-2
371 429 2.077049608368727E-2
371 430 1.831563888873418E-2
371 431 2.1985602822902302E-2
372 364 4.01072626167156E-2
372 365 6.487896402693773E-2
372 382 7.523488386349425E-2
372 383 1.1439317420744143E-1
372 397 3.671777279256218E-2
372 398 1.831563888873418E-2
372 420 3.493926088327436E-2
372 449 1.792337767399518E-2
372 450 2.3062275462620768E-2
372 451 2.108441645121232E-2
373 360 1.831563888873418E-2
373 361 8.548218778128097E-2
373 362 1.1642906291764281E-1
373 363 4.218025543696709E-2
373 374 2.6024058728641573E-2
373 377 3.236100710610131E-2
373 378 5.812789051060767E-2
373 379 1.4452606998103598E-1
373 380 1.0193214719639236E-1
373 381 1.934097197892896E-2
373 394 2.9920858996255115E-2
373 395 2.185030998662954E-2
373 412 3.7070862366314246E-2
373 413 6.05728711532864E-2
373 414 2.1731527017002258E-2
374 360 3.0098899702227166E-1
374 361 7.24154988577065E-2
374 373 2.6024058728641573E-2
374 375 2.5710468713922874E-1
374 376 1.542192737918806E-1
374 377 2.859525228096412E-1
374 378 1.1627095327797701E-1
374 379 2.8880711675193228E-2
374 392 1.831563888873418E-2
374 393 2.176812830330983E-2
374 409 4.353516377631603E-2
374 410 3.503845759387589E-2
374 411 3.2696314914073175E-2
374 412 1.860931747117169E-2
375 39 1.831563888873418E-2
375 40 1.831563888873418E-2
375 41 1.2390947686059507E-2
375 42 1.4426008862266623E-2
375 44 7.198603713031797E-3
375 150 2.74193226146645E-2
375 151 1.831563888873418E-2
375 236 1.7790084470990748E-2
375 238 9.498831822913377E-3
375 360 3.531708807917004E-1
375 361 3.666101680711258E-2
375 374 2.5710468713922874E-1
375 376 5.711237932155051E-1
375 377 2.103862824034268E-1
375 378 6.0252954577784276E-2
375 390 2.2345363672027586E-2
375 391 3.901300627717645E-2
375 392 2.6758810882401653E-2
375 393 2.3709603947637662E-2
375 409 2.167955581058454E-2
375 410 2.6314292859376785E-2
375 411 1.8466235781030738E-2
375 435 1.831563888873418E-2
376 150 4.800845475059775E-2
376 151 3.434524137178978E-2
376 152 1.831563888873418E-2
376 236 1.841811821250772E-2
376 360 4.008005567426489E-1
376 361 3.39071588033662E-2
376 374 1.542192737918806E-1
376 375 5.711237932155051E-1
376 377 1.8128976815521025E-1
376 378 3.87642023993037E-2
376 390 2.920098179450683E-2
376 391 5.066355648859418E-2
376 392 2.9935927277352736E-2
376 393 1.8519421361920568E-2
376 409 2.771114876173261E-2
376 410 3.2821991554829684E-2
376 411 1.9402675309383388E-2
376 435 2.0951814657313356E-2
376 436 1.3257851713090317E-2
377 151 1.8056173728268187E-2
377 360 2.797327743643076E-1
377 361 1.69717110002925E-1
377 373 3.236100710610131E-2
377 374 2.859525228096412E-1
377 375 2.103862824034268E-1
377 376 1.8128976815521025E-1
377 378 3.6634654658760474E-1
377 379 7.266231888838426E-2
377 380 1.831563888873418E-2
377 393 1.972668802310841E-2
377 410 1.915554666950716E-2
377 411 1.831563888873418E-2
378 360 1.1264307295303698E-1
378 361 2.88550738229741E-1
378 362 3.0381975361529513E-2
378 373 5.812789051060767E-2
378 374 1.1627095327797701E-1
378 375 6.0252954577784276E-2
378 376 3.87642023993037E-2
378 377 3.6634654658760474E-1
378 379 2.350526944625741E-1
378 380 5.605317644318021E-2
378 411 1.5949327608526555E-2
378 412 1.831563888873418E-2
379 361 2.3640739685688664E-1
379 362 1.3773700156472876E-1
379 363 5.0761177868775306E-2
379 373 1.4452606998103598E-1
379 374 2.8880711675193228E-2
379 377 7.266231888838426E-2
379 378 2.350526944625741E-1
379 380 3.1277965766415383E-1
379 381 2.5740040205979968E-2
379 412 1.7698868060773566E-2
379 413 2.65499228690756E-2
380 361 7.319924240983586E-2
380 362 2.987537102942881E-1
380 363 1.7373195287217505E-1
380 364 1.831563888873418E-2
380 373 1.0193214719639236E-1
380 377 1.831563888873418E-2
380 378 5.605317644318021E-2
380 379 3.1277965766415383E-1
380 381 9.866620658100757E-2
380 382 1.734409099770525E-2
380 413 2.5188716526943107E-2
380 414 1.8109004916919375E-2
381 362 1.0609880627634616E-1
381 363 3.061604414646967E-1
381 364 2.1277574203962074E-1
381 373 1.934097197892896E-2
381 379 2.5740040205979968E-2
381 380 9.866620658100757E-2
381 382 7.82839946606829E-2
381 415 1.4980897924838902E-2
381 416 1.831563888873418E-2
381 417 2.05027165254457E-2
381 418 1.783516535801879E-2
382 362 3.015401530308867E-2
382 363 9.43094414592936E-2
382 364 3.6891570579996E-1
382 365 3.6898477322908046E-2
382 372 7.523488386349425E-2
382 380 1.734409099770525E-2
382 381 7.82839946606829E-2
382 383 5.565877614413951E-2
382 397 1.4080969016063503E-2
382 416 1.831563888873418E-2
382 417 2.3017488046880006E-2
382 418 2.3931339315649714E-2
383 364 3.437140385962501E-2
383 365 4.701496300444894E-1
383 372 1.1439317420744143E-1
383 382 5.565877614413951E-2
383 384 5.4595486880154837E-2
383 398 1.831563888873418E-2
383 420 2.6664826117962673E-2
383 421 3.360511509147737E-2
383 422 1.9611301035110086E-2
383 423 1.831563888873418E-2
384 167 1.831563888873418E-2
384 169 2.3291793468299304E-2
384 365 5.4986526951340944E-2
384 366 7.71756037826413E-2
384 369 1.758660067890281E-2
384 370 1.4275528830585606E-2
384 371 1.831563888873418E-2
384 383 5.4595486880154837E-2
384 385 5.4514884817098125E-2
384 399 1.831563888873418E-2
384 400 3.355343001482719E-2
384 401 1.558379474756011E-2
384 423 2.555436538879694E-2
384 424 5.232516900273416E-2
384 425 4.74378541296517E-2
384 426 2.510392842515361E-2
385 146 1.803027908652137E-2
385 169 1.6783978452477834E-2
385 170 3.0394011216350873E-2
385 171 3.417110608067563E-2
385 366 3.349724928549248E-1
385 367 1.8509279940360716E-2
385 371 4.0318574286981976E-2
385 384 5.4514884817098125E-2
385 386 5.740059671746298E-2
385 401 3.048890047085268E-2
385 402 2.91928638557903E-2
385 426 3.970646175734262E-2
385 427 3.108986610620216E-2
385 428 2.5352241183843903E-2
385 429 1.902987604044629E-2
385 488 1.361241370430213E-2
386 148 2.3352670179993706E-2
386 171 3.48022325309279E-2
386 172 3.302020675061022E-2
386 366 4.417044127642978E-2
386 367 1.842325181495989E-1
386 371 8.381279260548327E-2
386 385 5.740059671746298E-2
386 402 2.6274842785035515E-2
386 403 4.0141430666614464E-2
386 427 3.2083920420486585E-2
386 428 2.771236475034899E-2
386 429 2.869348512219075E-2
386 430 3.475643812669365E-2
386 431 2.8387485691291688E-2
386 457 1.8331136959436254E-2
387 147 1.7450121550409956E-2
387 224 1.6117635757764783E-2
387 366 1.831563888873418E-2
387 368 2.3716482060543795E-1
387 369 6.072649068504477E-2
387 370 6.414325473300488E-2
387 388 2.4201944844552042E-1
387 389 1.3934725303002884E-1
387 407 1.749209233692281E-2
387 408 1.7535826283082347E-2
387 432 6.757239667373874E-2
387 433 3.265369082747637E-2
387 434 3.5004825233458714E-2
388 366 1.831563888873418E-2
388 368 3.877107841241631E-1
388 369 2.033253897178679E-1
388 370 1.8348654101745285E-1
388 387 2.4201944844552042E-1
388 389 6.094392944479978E-1
388 404 2.6275941297912754E-2
388 405 2.086947068815653E-2
388 432 7.98622502380503E-2
388 433 2.9814056001605818E-2
388 434 4.61716545178117E-2
389 120 2.113899029348296E-2
389 368 4.065196418116377E-1
389 369 3.75394418346633E-1
389 370 3.497789306347183E-1
389 387 1.3934725303002884E-1
389 388 6.094392944479978E-1
389 404 2.8212018761628408E-2
389 405 2.4655029614267972E-2
389 406 1.8142971603482837E-2
389 407 1.831563888873418E-2
389 423 1.831563888873418E-2
389 432 7.975153685893499E-2
389 433 3.5365989285714966E-2
389 434 6.0524798497695646E-2
390 150 2.0194740553216593E-2
390 375 2.2345363672027586E-2
390 376 2.920098179450683E-2
390 391 4.624874908749993E-1
390 392 3.438400994530629E-1
390 393 2.9691764722829618E-2
390 435 3.252157362359583E-2
390 436 3.999667826213951E-2
390 437 3.367489593453292E-2
390 438 2.6575319255366065E-2
390 439 1.5528439112280131E-2
391 150 1.619722215228005E-2
391 360 1.699945779908455E-2
391 375 3.901300627717645E-2
391 376 5.066355648859418E-2
391 390 4.624874908749993E-1
391 392 2.0355235452340062E-1
391 393 3.3181402149213356E-2
391 435 3.2729257633186896E-2
391 436 2.7269441837234523E-2
391 437 2.4758872510032847E-2
391 438 1.9468424057542594E-2
392 374 1.831563888873418E-2
392 375 2.6758810882401653E-2
392 376 2.9935927277352736E-2
392 390 3.438400994530629E-1
392 391 2.0355235452340062E-1
392 393 1.4496076095081592E-1
392 394 4.594282577390066E-2
392 410 1.906472590283411E-2
392 435 1.822101938560032E-2
392 436 2.280139443728947E-2
392 437 1.831563888873418E-2
392 438 1.831563888873418E-2
392 439 2.120851098632543E-2
392 440 2.2467607612087034E-2
392 441 1.6778781735955095E-2
393 374 2.176812830330983E-2
393 375 2.3709603947637662E-2
393 376 1.8519421361920568E-2
393 377 1.972668802310841E-2
393 390 2.9691764722829618E-2
393 391 3.3181402149213356E-2
393 392 1.4496076095081592E-1
393 394 1.6836699585656567E-1
393 409 1.831563888873418E-2
393 411 1.793736770231468E-2
394 361 2.1457867410702075E-2
394 373 2.9920858996255115E-2
394 392 4.594282577390066E-2
394 393 1.6836699585656567E-1
394 395 6.648285979598835E-2
394 411 1.8291638277629363E-2
394 412 2.49522963256336E-2
394 443 2.3881042278666737E-2
394 444 3.773032713382098E-2
394 445 2.1985315560091936E-2
395 362 1.938388968224657E-2
395 363 1.831563888873418E-2
395 373 2.185030998662954E-2
395 394 6.648285979598835E-2
395 396 1.2107685150294532E-1
395 414 3.8995186103123726E-2
395 415 3.383337832568497E-2
395 416 2.4589603695963025E-2
395 446 1.9239682744278987E-2
395 447 1.6744528444321116E-2
396 395 1.2107685150294532E-1
396 397 7.993578178117407E-2
396 415 1.831563888873418E-2
396 416 4.594033971501516E-2
396 417 2.962434751801184E-2
396 446 1.8682547841506657E-2
396 447 4.427826409042058E-2
396 448 6.086993650559984E-2
396 449 3.863957826146379E-2
396 469 1.711612463169593E-2
397 372 3.671777279256218E-2
397 382 1.4080969016063503E-2
397 396 7.993578178117407E-2
397 398 5.6507060655172275E-2
397 420 4.064211965335592E-2
397 448 2.021528277162548E-2
397 449 3.8087305590917185E-2
397 450 4.307101620180932E-2
397 451 3.978310431255756E-2
397 452 1.831563888873418E-2
398 365 1.9847091408048523E-2
398 372 1.831563888873418E-2
398 383 1.831563888873418E-2
398 397 5.6507060655172275E-2
398 399 1.496504954267732E-1
398 400 4.003422364229964E-2
398 420 2.0406420333767453E-2
398 421 3.612129710767928E-2
398 422 1.831563888873418E-2
398 449 1.831563888873418E-2
398 450 4.89928124412699E-2
398 451 4.124678444812381E-2
398 452 5.5196200915992415E-2
398 453 3.163971227576211E-2
399 365 2.277359203643021E-2
399 384 1.831563888873418E-2
399 398 1.496504954267732E-1
399 400 2.0739885910706946E-1
399 401 3.232523546279973E-2
399 421 4.298983902873136E-2
399 422 2.203898930915591E-2
399 424 2.9137433404888134E-2
399 425 1.4876428023713008E-2
399 453 1.877360334521961E-2
400 384 3.355343001482719E-2
400 398 4.003422364229964E-2
400 399 2.0739885910706946E-1
400 401 1.867604016334432E-1
400 402 6.461294849618238E-2
400 423 1.6865790280878708E-2
400 424 5.6951750512368615E-2
400 425 4.258043401007061E-2
400 426 2.3423180388516714E-2
400 454 2.9391847000853816E-2
401 366 2.494120181349224E-2
401 371 3.139475106954188E-2
401 384 1.558379474756011E-2
401 385 3.048890047085268E-2
401 399 3.232523546279973E-2
401 400 1.867604016334432E-1
401 402 3.9475814932914E-1
401 424 1.831563888873418E-2
401 425 2.0938222745838002E-2
401 426 3.700447163487453E-2
401 427 2.230107135782708E-2
401 455 2.2612839019189673E-2
401 456 2.359812153689885E-2
402 366 1.831563888873418E-2
402 371 4.372333005315654E-2
402 385 2.91928638557903E-2
402 386 2.6274842785035515E-2
402 400 6.461294849618238E-2
402 401 3.9475814932914E-1
402 403 3.4552645286837026E-2
402 426 1.757667448752927E-2
402 427 3.251969064195651E-2
402 428 1.9265253128192803E-2
402 430 2.0643983735736622E-2
402 431 1.831563888873418E-2
402 455 2.1086657303202257E-2
402 456 2.5540794777478733E-2
402 457 1.9558503597013468E-2
403 367 2.886140439058687E-2
403 386 4.0141430666614464E-2
403 402 3.4552645286837026E-2
403 427 1.831563888873418E-2
403 429 3.192876983093051E-2
403 430 2.1299380069353127E-2
403 431 2.5864243469953533E-2
403 458 2.168343867316356E-2
403 460 1.830485158557399E-2
403 491 2.0855194582876643E-2
403 493 2.3430750610685135E-2
404 164 1.831563888873418E-2
404 369 2.7040880131930962E-2
404 370 2.557198986013209E-2
404 388 2.6275941297912754E-2
404 389 2.8212018761628408E-2
404 405 4.6549083667303065E-1
404 406 8.431882017345793E-2
404 407 7.543150898029494E-2
404 408 3.056776914909051E-2
404 432 1.8209880317935606E-2
405 369 2.4241932220616994E-2
405 370 2.4224463452187983E-2
405 388 2.086947068815653E-2
405 389 2.4655029614267972E-2
405 404 4.6549083667303065E-1
405 406 2.0577187730332328E-1
405 407 1.584788721794874E-1
405 408 5.9420632565977384E-2
405 432 1.8089046849013846E-2
405 434 1.831563888873418E-2
406 369 2.279059567791468E-2
406 370 2.71797434330677E-2
406 389 1.8142971603482837E-2
406 404 8.431882017345793E-2
406 405 2.0577187730332328E-1
406 407 5.549068544082172E-1
406 408 4.1012825800227587E-1
406 432 2.950407547761537E-2
406 433 1.831563888873418E-2
406 434 3.899279867190914E-2
407 369 2.0106308062247995E-2
407 370 2.2674667198541325E-2
407 387 1.749209233692281E-2
407 389 1.831563888873418E-2
407 404 7.543150898029494E-2
407 405 1.584788721794874E-1
407 406 5.549068544082172E-1
407 408 5.090841012560873E-1
407 432 2.6447364034314934E-2
407 434 2.1630951816209155E-2
408 369 1.831563888873418E-2
408 370 2.326776689999656E-2
408 387 1.7535826283082347E-2
408 404 3.056776914909051E-2
408 405 5.9420632565977384E-2
408 406 4.1012825800227587E-1
408 407 5.090841012560873E-1
408 432 3.0765265858431954E-2
408 433 2.3985265843229017E-2
408 434 3.22927350459683E-2
409 360 3.2280887997039806E-2
409 361 1.829595922664894E-2
409 374 4.353516377631603E-2
409 375 2.167955581058454E-2
409 376 2.771114876173261E-2
409 393 1.831563888873418E-2
409 410 4.264765877537899E-1
409 411 4.508369920220861E-1
409 412 1.0907275478598862E-1
409 461 2.8963299182453613E-2
409 462 1.7900037789038453E-2
409 463 2.0063056789333365E-2
409 494 1.831563888873418E-2
410 360 2.2917212426248196E-2
410 361 1.5031858789290283E-2
410 374 3.503845759387589E-2
410 375 2.6314292859376785E-2
410 376 3.2821991554829684E-2
410 377 1.915554666950716E-2
410 392 1.906472590283411E-2
410 409 4.264765877537899E-1
410 411 5.386114385302108E-1
410 412 5.646825583543963E-2
410 440 1.605085627283323E-2
410 441 1.988963431157708E-2
410 442 1.375152915474318E-2
410 461 2.7320370821880643E-2
410 462 2.4202162921572037E-2
411 46 8.283339793907166E-3
411 360 1.7805090393510643E-2
411 361 2.2528442097043928E-2
411 374 3.2696314914073175E-2
411 375 1.8466235781030738E-2
411 376 1.9402675309383388E-2
411 377 1.831563888873418E-2
411 378 1.5949327608526555E-2
411 393 1.793736770231468E-2
411 394 1.8291638277629363E-2
411 409 4.508369920220861E-1
411 410 5.386114385302108E-1
411 412 1.3778615175336378E-1
411 413 3.0267142931317534E-2
411 461 2.500978788078549E-2
411 462 1.9184026448133447E-2
411 463 2.0550760521423295E-2
411 464 1.831563888873418E-2
412 361 3.731393378796998E-2
412 373 3.7070862366314246E-2
412 374 1.860931747117169E-2
412 378 1.831563888873418E-2
412 379 1.7698868060773566E-2
412 394 2.49522963256336E-2
412 409 1.0907275478598862E-1
412 410 5.646825583543963E-2
412 411 1.3778615175336378E-1
412 413 1.9672898754670604E-1
412 414 4.67152689924433E-2
412 444 1.831563888873418E-2
412 464 1.799391353713554E-2
412 501 1.6870245579033005E-2
413 48 2.183832221782815E-2
413 361 2.3742061821130676E-2
413 362 1.8132672700421692E-2
413 373 6.05728711532864E-2
413 379 2.65499228690756E-2
413 380 2.5188716526943107E-2
413 411 3.0267142931317534E-2
413 412 1.9672898754670604E-1
413 414 1.8627803235383872E-1
413 415 4.1901802464820975E-2
413 503 1.831563888873418E-2
414 48 1.831563888873418E-2
414 50 1.5241955286588085E-2
414 85 1.7168621933012135E-2
414 362 1.831563888873418E-2
414 363 1.831563888873418E-2
414 373 2.1731527017002258E-2
414 380 1.8109004916919375E-2
414 395 3.8995186103123726E-2
414 412 4.67152689924433E-2
414 413 1.8627803235383872E-1
414 415 3.031339957623096E-1
414 416 5.580698818612346E-2
414 417 1.8926453862489322E-2
414 446 2.0663808787291647E-2
414 465 1.8915321789939425E-2
414 466 2.230711747938346E-2
414 467 2.5353748244361055E-2
414 468 1.2441229584854344E-2
415 50 1.831563888873418E-2
415 51 1.831563888873418E-2
415 68 1.831563888873418E-2
415 363 1.8163702907104066E-2
415 381 1.4980897924838902E-2
415 395 3.383337832568497E-2
415 396 1.831563888873418E-2
415 413 4.1901802464820975E-2
415 414 3.031339957623096E-1
415 416 1.7664917802738733E-1
415 417 6.708553151745275E-2
415 446 4.0484112056482016E-2
415 447 2.1209675732850087E-2
415 466 1.831563888873418E-2
415 467 2.289131944975034E-2
415 468 2.0614091418755275E-2
415 469 2.0768428352709558E-2
416 363 2.052673149778375E-2
416 381 1.831563888873418E-2
416 382 1.831563888873418E-2
416 395 2.4589603695963025E-2
416 396 4.594033971501516E-2
416 414 5.580698818612346E-2
416 415 1.7664917802738733E-1
416 417 4.0113435052600444E-1
416 418 7.462229326159081E-2
416 419 2.8271142331968858E-2
416 447 3.0674466948174234E-2
416 448 4.010209561172737E-2
416 467 1.831563888873418E-2
416 468 1.2670950750368925E-2
416 469 2.624595269314183E-2
417 54 1.831563888873418E-2
417 89 1.831563888873418E-2
417 364 1.9921786202465E-2
417 381 2.05027165254457E-2
417 382 2.3017488046880006E-2
417 396 2.962434751801184E-2
417 414 1.8926453862489322E-2
417 415 6.708553151745275E-2
417 416 4.0113435052600444E-1
417 418 2.5527596365643057E-1
417 419 1.096983369695294E-1
417 447 1.8893449016760794E-2
417 448 4.1466508886314125E-2
417 449 1.8397899374919546E-2
417 469 1.8961575860499794E-2
418 56 1.831563888873418E-2
418 90 1.8634597692137326E-2
418 364 3.349002764446486E-2
418 381 1.783516535801879E-2
418 382 2.3931339315649714E-2
418 416 7.462229326159081E-2
418 417 2.5527596365643057E-1
418 419 4.439205264011537E-1
418 420 1.831563888873418E-2
418 421 4.0423060275699876E-2
418 448 1.978142768944183E-2
418 449 3.0898228208213214E-2
419 56 2.018278700655306E-2
419 90 2.0759261041028876E-2
419 91 1.8195985000492333E-2
419 364 1.8455232988520358E-2
419 365 1.821510445474002E-2
419 416 2.8271142331968858E-2
419 417 1.096983369695294E-1
419 418 4.439205264011537E-1
419 420 3.595503824942654E-2
419 421 1.2168921174921359E-1
419 422 4.8737200668354956E-2
419 449 2.60023815708056E-2
419 450 1.831563888873418E-2
420 365 1.831563888873418E-2
420 372 3.493926088327436E-2
420 383 2.6664826117962673E-2
420 397 4.064211965335592E-2
420 398 2.0406420333767453E-2
420 418 1.831563888873418E-2
420 419 3.595503824942654E-2
420 421 8.847526569200853E-2
420 422 3.581279212821817E-2
420 423 1.0787181881015498E-1
420 424 1.8950661479021195E-2
420 450 1.831563888873418E-2
420 451 1.9226587215014038E-2
420 452 1.6988597053865902E-2
421 92 1.897084301495105E-2
421 365 3.9394153552205935E-2
421 383 3.360511509147737E-2
421 398 3.612129710767928E-2
421 399 4.298983902873136E-2
421 418 4.0423060275699876E-2
421 419 1.2168921174921359E-1
421 420 8.847526569200853E-2
421 422 3.234789180296944E-1
421 423 8.987740930455465E-2
421 424 6.0910072751753794E-2
421 425 3.4852670655202894E-2
421 452 2.7614897227979055E-2
422 58 1.831563888873418E-2
422 71 1.831563888873418E-2
422 92 1.4223309341354493E-2
422 93 1.7088043871038225E-2
422 365 2.73725891994732E-2
422 383 1.9611301035110086E-2
422 398 1.831563888873418E-2
422 399 2.203898930915591E-2
422 419 4.8737200668354956E-2
422 420 3.581279212821817E-2
422 421 3.234789180296944E-1
422 423 1.0426073665542082E-1
422 424 6.89908946823135E-2
422 425 5.667111217903522E-2
422 452 1.831563888873418E-2
423 94 1.7167221294732637E-2
423 144 1.575530376743599E-2
423 166 1.5591508271218045E-2
423 167 1.6173873944851907E-2
423 168 1.7682098962011707E-2
423 369 1.895964215158746E-2
423 370 1.831563888873418E-2
423 383 1.831563888873418E-2
423 384 2.555436538879694E-2
423 389 1.831563888873418E-2
423 400 1.6865790280878708E-2
423 420 1.0787181881015498E-1
423 421 8.987740930455465E-2
423 422 1.0426073665542082E-1
423 424 1.8395101472558162E-1
423 425 1.1057356281652855E-1
423 426 5.216009351212318E-2
423 453 1.6726888548524374E-2
423 482 1.8982693853841052E-2
423 483 1.8048940296849718E-2
424 94 1.831563888873418E-2
424 384 5.232516900273416E-2
424 399 2.9137433404888134E-2
424 400 5.6951750512368615E-2
424 401 1.831563888873418E-2
424 420 1.8950661479021195E-2
424 421 6.0910072751753794E-2
424 422 6.89908946823135E-2
424 423 1.8395101472558162E-1
424 425 4.464743137897016E-1
424 426 1.2622718922142445E-1
424 454 1.7909064802054474E-2
425 61 1.831563888873418E-2
425 62 1.6603338151285448E-2
425 73 1.6603338151285448E-2
425 95 1.7471334762028536E-2
425 168 1.831563888873418E-2
425 169 1.831563888873418E-2
425 366 1.831563888873418E-2
425 368 1.820944505932218E-2
425 384 4.74378541296517E-2
425 399 1.4876428023713008E-2
425 400 4.258043401007061E-2
425 401 2.0938222745838002E-2
425 421 3.4852670655202894E-2
425 422 5.667111217903522E-2
425 423 1.1057356281652855E-1
425 424 4.464743137897016E-1
425 426 2.291934404296771E-1
425 428 1.6751512121058337E-2
426 170 1.8917746092951628E-2
426 366 4.238655082232835E-2
426 384 2.510392842515361E-2
426 385 3.970646175734262E-2
426 400 2.3423180388516714E-2
426 401 3.700447163487453E-2
426 402 1.757667448752927E-2
426 423 5.216009351212318E-2
426 424 1.2622718922142445E-1
426 425 2.291934404296771E-1
426 427 3.2713043235304454E-2
426 428 4.000021207039538E-2
426 430 1.824037351360529E-2
427 172 1.831563888873418E-2
427 366 2.579535085812544E-2
427 367 1.7842255103330026E-2
427 371 2.6980111740507816E-2
427 385 3.108986610620216E-2
427 386 3.2083920420486585E-2
427 401 2.230107135782708E-2
427 402 3.251969064195651E-2
427 403 1.831563888873418E-2
427 426 3.2713043235304454E-2
427 428 3.111408953825007E-1
427 429 1.1318025651363448E-1
427 430 6.764390737923628E-2
427 431 4.526439267865885E-2
427 490 1.1418634682883923E-2
428 63 1.9864382482257782E-2
428 99 1.831563888873418E-2
428 122 1.8847484719068032E-2
428 148 1.831563888873418E-2
428 149 1.8415008165721527E-2
428 171 1.831563888873418E-2
428 172 3.195598807725654E-2
428 366 2.7074299721835275E-2
428 367 1.8649343506621244E-2
428 371 2.022891547339738E-2
428 385 2.5352241183843903E-2
428 386 2.771236475034899E-2
428 402 1.9265253128192803E-2
428 425 1.6751512121058337E-2
428 426 4.000021207039538E-2
428 427 3.111408953825007E-1
428 429 1.6856417895428677E-1
428 430 8.181325080853265E-2
428 431 4.4111455268807005E-2
429 63 1.5010011713951062E-2
429 99 2.173304181262577E-2
429 149 1.8850093753922343E-2
429 172 2.3336308490082686E-2
429 366 1.6883145463261202E-2
429 367 3.700756473036014E-2
429 371 2.077049608368727E-2
429 385 1.902987604044629E-2
429 386 2.869348512219075E-2
429 403 3.192876983093051E-2
429 427 1.1318025651363448E-1
429 428 1.6856417895428677E-1
429 430 2.532749376456743E-1
429 431 1.1599855050157161E-1
430 99 2.3064220834179795E-2
430 149 1.9188635301512363E-2
430 297 1.5506173489752533E-2
430 298 1.831563888873418E-2
430 367 4.643900713842176E-2
430 371 1.831563888873418E-2
430 386 3.475643812669365E-2
430 402 2.0643983735736622E-2
430 403 2.1299380069353127E-2
430 426 1.824037351360529E-2
430 427 6.764390737923628E-2
430 428 8.181325080853265E-2
430 429 2.532749376456743E-1
430 431 2.3700516558246376E-1
430 493 2.1283623212270435E-2
431 99 1.88282814627773E-2
431 298 1.6849861791626803E-2
431 299 2.1218050011569553E-2
431 367 4.479847340541209E-2
431 371 2.1985602822902302E-2
431 386 2.8387485691291688E-2
431 402 1.831563888873418E-2
431 403 2.5864243469953533E-2
431 427 4.526439267865885E-2
431 428 4.4111455268807005E-2
431 429 1.1599855050157161E-1
431 430 2.3700516558246376E-1
431 459 1.831563888873418E-2
431 460 1.833433846911889E-2
431 493 1.5457686042224202E-2
432 368 1.0590210489286389E-1
432 369 4.3909870225268106E-2
432 370 5.6915788980450424E-2
432 387 6.757239667373874E-2
432 388 7.98622502380503E-2
432 389 7.975153685893499E-2
432 404 1.8209880317935606E-2
432 405 1.8089046849013846E-2
432 406 2.950407547761537E-2
432 407 2.6447364034314934E-2
432 408 3.0765265858431954E-2
432 433 1.82224740659434E-1
432 434 2.140787393457501E-1
433 368 6.107385784516718E-2
433 369 3.3974771289587063E-2
433 370 4.1332980633479566E-2
433 387 3.265369082747637E-2
433 388 2.9814056001605818E-2
433 389 3.5365989285714966E-2
433 406 1.831563888873418E-2
433 408 2.3985265843229017E-2
433 432 1.82224740659434E-1
433 434 3.192832755205299E-1
434 368 6.358695483504068E-2
434 369 3.949363128053593E-2
434 370 4.7314114120308184E-2
434 387 3.5004825233458714E-2
434 388 4.61716545178117E-2
434 389 6.0524798497695646E-2
434 405 1.831563888873418E-2
434 406 3.899279867190914E-2
434 407 2.1630951816209155E-2
434 408 3.22927350459683E-2
434 432 2.140787393457501E-1
434 433 3.192832755205299E-1
435 234 1.831563888873418E-2
435 375 1.831563888873418E-2
435 376 2.0951814657313356E-2
435 390 3.252157362359583E-2
435 391 3.2729257633186896E-2
435 392 1.822101938560032E-2
435 436 5.482160583881384E-1
435 437 2.1905236908308118E-1
435 438 1.0710951492843825E-1
435 439 4.310778485098532E-2
435 440 1.9092923133674278E-2
436 376 1.3257851713090317E-2
436 390 3.999667826213951E-2
436 391 2.7269441837234523E-2
436 392 2.280139443728947E-2
436 435 5.482160583881384E-1
436 437 3.362582922840479E-1
436 438 2.017356059266462E-1
436 439 8.145626429240668E-2
436 440 3.681047996669113E-2
436 441 1.831563888873418E-2
437 390 3.367489593453292E-2
437 391 2.4758872510032847E-2
437 392 1.831563888873418E-2
437 435 2.1905236908308118E-1
437 436 3.362582922840479E-1
437 438 5.267265432248771E-1
437 439 1.9306837296273544E-1
437 440 9.38625249517692E-2
437 441 3.652732484849125E-2
437 442 2.4311490028159497E-2
438 390 2.6575319255366065E-2
438 391 1.9468424057542594E-2
438 392 1.831563888873418E-2
438 435 1.0710951492843825E-1
438 436 2.017356059266462E-1
438 437 5.267265432248771E-1
438 439 3.631684594930169E-1
438 440 1.853098115073325E-1
438 441 6.482938389449225E-2
438 442 4.220978765926004E-2
438 443 1.6843019069525646E-2
439 390 1.5528439112280131E-2
439 392 2.120851098632543E-2
439 435 4.310778485098532E-2
439 436 8.145626429240668E-2
439 437 1.9306837296273544E-1
439 438 3.631684594930169E-1
439 440 4.8045361419332216E-1
439 441 1.7496316018381616E-1
439 442 1.053886073267707E-1
439 443 3.669872188982844E-2
440 392 2.2467607612087034E-2
440 410 1.605085627283323E-2
440 435 1.9092923133674278E-2
440 436 3.681047996669113E-2
440 437 9.38625249517692E-2
440 438 1.853098115073325E-1
440 439 4.8045361419332216E-1
440 441 3.4006104001721726E-1
440 442 1.898169729011077E-1
440 443 6.733576333679504E-2
441 392 1.6778781735955095E-2
441 410 1.988963431157708E-2
441 436 1.831563888873418E-2
441 437 3.652732484849125E-2
441 438 6.482938389449225E-2
441 439 1.7496316018381616E-1
441 440 3.4006104001721726E-1
441 442 4.624356987037615E-1
441 443 1.9782218778558586E-1
441 444 2.4727566913398495E-2
441 445 2.248774586832273E-2
441 461 1.831563888873418E-2
441 462 2.3621121799266787E-2
442 410 1.375152915474318E-2
442 437 2.4311490028159497E-2
442 438 4.220978765926004E-2
442 439 1.053886073267707E-1
442 440 1.898169729011077E-1
442 441 4.624356987037615E-1
442 443 3.412789282850688E-1
442 444 2.5433861111128168E-2
442 445 3.1635141512195826E-2
442 462 1.831563888873418E-2
443 394 2.3881042278666737E-2
443 438 1.6843019069525646E-2
443 439 3.669872188982844E-2
443 440 6.733576333679504E-2
443 441 1.9782218778558586E-1
443 442 3.412789282850688E-1
443 444 8.122667304023108E-2
443 445 1.1216240096353995E-1
443 462 2.013255051127499E-2
443 463 1.831563888873418E-2
444 394 3.773032713382098E-2
444 412 1.831563888873418E-2
444 441 2.4727566913398495E-2
444 442 2.5433861111128168E-2
444 443 8.122667304023108E-2
444 445 2.5241525269238585E-1
444 446 6.0575492459422536E-2
444 464 2.5021665258042468E-2
444 465 2.6895074527837917E-2
444 466 1.816939041979272E-2
445 394 2.1985315560091936E-2
445 441 2.248774586832273E-2
445 442 3.1635141512195826E-2
445 443 1.1216240096353995E-1
445 444 2.5241525269238585E-1
445 446 1.549515133541435E-1
445 447 2.3155309454444294E-2
445 464 1.7718312002931707E-2
445 465 2.2472226144327395E-2
445 466 1.831563888873418E-2
446 395 1.9239682744278987E-2
446 396 1.8682547841506657E-2
446 414 2.0663808787291647E-2
446 415 4.0484112056482016E-2
446 444 6.0575492459422536E-2
446 445 1.549515133541435E-1
446 447 2.555334846580012E-1
446 448 9.047663702546303E-2
446 466 1.841751117634547E-2
446 468 2.407914590621688E-2
446 469 1.831563888873418E-2
447 395 1.6744528444321116E-2
447 396 4.427826409042058E-2
447 415 2.1209675732850087E-2
447 416 3.0674466948174234E-2
447 417 1.8893449016760794E-2
447 445 2.3155309454444294E-2
447 446 2.555334846580012E-1
447 448 3.9899817736844534E-1
447 449 5.994739754334444E-2
447 450 1.6719918035724635E-2
447 468 1.5051716050465043E-2
447 469 2.3406001124896395E-2
448 396 6.086993650559984E-2
448 397 2.021528277162548E-2
448 416 4.010209561172737E-2
448 417 4.1466508886314125E-2
448 418 1.978142768944183E-2
448 446 9.047663702546303E-2
448 447 3.9899817736844534E-1
448 449 1.67694787516294E-1
448 450 4.008054833755179E-2
448 451 2.621810730252176E-2
448 452 1.8568245574043442E-2
448 470 1.7559552838494905E-2
448 472 1.831563888873418E-2
449 372 1.792337767399518E-2
449 396 3.863957826146379E-2
449 397 3.8087305590917185E-2
449 398 1.831563888873418E-2
449 417 1.8397899374919546E-2
449 418 3.0898228208213214E-2
449 419 2.60023815708056E-2
449 447 5.994739754334444E-2
449 448 1.67694787516294E-1
449 450 3.526786235724066E-1
449 451 1.8295448129099504E-1
449 452 1.014066459650929E-1
449 453 2.790944605658275E-2
450 372 2.3062275462620768E-2
450 397 4.307101620180932E-2
450 398 4.89928124412699E-2
450 419 1.831563888873418E-2
450 420 1.831563888873418E-2
450 447 1.6719918035724635E-2
450 448 4.008054833755179E-2
450 449 3.526786235724066E-1
450 451 4.6470782390672255E-1
450 452 2.56854382212885E-1
450 453 7.563020079911498E-2
450 454 1.9301194187397074E-2
451 372 2.108441645121232E-2
451 397 3.978310431255756E-2
451 398 4.124678444812381E-2
451 420 1.9226587215014038E-2
451 448 2.621810730252176E-2
451 449 1.8295448129099504E-1
451 450 4.6470782390672255E-1
451 452 3.705174067555781E-1
451 453 1.4416246199449695E-1
451 454 2.83901846872757E-2
452 397 1.831563888873418E-2
452 398 5.5196200915992415E-2
452 420 1.6988597053865902E-2
452 421 2.7614897227979055E-2
452 422 1.831563888873418E-2
452 448 1.8568245574043442E-2
452 449 1.014066459650929E-1
452 450 2.56854382212885E-1
452 451 3.705174067555781E-1
452 453 3.231362562715862E-1
452 454 5.50132104416001E-2
452 455 2.231236485022156E-2
452 456 1.692233167920596E-2
453 398 3.163971227576211E-2
453 399 1.877360334521961E-2
453 423 1.6726888548524374E-2
453 449 2.790944605658275E-2
453 450 7.563020079911498E-2
453 451 1.4416246199449695E-1
453 452 3.231362562715862E-1
453 454 1.545738887132386E-1
453 455 4.6644460032793614E-2
453 456 3.4091961487866494E-2
453 457 1.831563888873418E-2
454 400 2.9391847000853816E-2
454 424 1.7909064802054474E-2
454 450 1.9301194187397074E-2
454 451 2.83901846872757E-2
454 452 5.50132104416001E-2
454 453 1.545738887132386E-1
454 455 2.4707934028507614E-1
454 456 1.6533125581916197E-1
454 457 5.550319954980044E-2
454 459 2.10071633820176E-2
454 460 1.831563888873418E-2
454 486 1.831563888873418E-2
455 401 2.2612839019189673E-2
455 402 2.1086657303202257E-2
455 452 2.231236485022156E-2
455 453 4.6644460032793614E-2
455 454 2.4707934028507614E-1
455 456 7.17770539081267E-1
455 457 1.4546683231267402E-1
455 458 1.831563888873418E-2
455 459 3.219630242237331E-2
455 460 2.9446827595512877E-2
455 487 2.162227455494905E-2
455 488 1.831563888873418E-2
456 401 2.359812153689885E-2
456 402 2.5540794777478733E-2
456 452 1.692233167920596E-2
456 453 3.4091961487866494E-2
456 454 1.6533125581916197E-1
456 455 7.17770539081267E-1
456 457 2.1445757338904897E-1
456 458 2.3402388488603536E-2
456 459 3.6087900803242465E-2
456 460 3.0887203175474554E-2
456 487 1.872339835053905E-2
456 488 1.831563888873418E-2
457 386 1.8331136959436254E-2
457 402 1.9558503597013468E-2
457 453 1.831563888873418E-2
457 454 5.550319954980044E-2
457 455 1.4546683231267402E-1
457 456 2.1445757338904897E-1
457 458 4.406522669400463E-2
457 459 4.582217829491454E-2
457 460 2.9968100845758433E-2
457 488 2.378856910893217E-2
457 489 1.8867553117805767E-2
457 490 1.669712399237376E-2
458 367 1.3632112833555534E-2
458 403 2.168343867316356E-2
458 455 1.831563888873418E-2
458 456 2.3402388488603536E-2
458 457 4.406522669400463E-2
458 459 1.4409531896350047E-1
458 460 9.952775241892056E-2
458 491 1.91067580239389E-2
458 492 1.9121927230562E-2
458 493 2.6384645572367155E-2
459 367 2.1040460158676322E-2
459 431 1.831563888873418E-2
459 454 2.10071633820176E-2
459 455 3.219630242237331E-2
459 456 3.6087900803242465E-2
459 457 4.582217829491454E-2
459 458 1.4409531896350047E-1
459 460 1.4708350815248553E-1
459 492 1.7028970265630185E-2
459 493 2.0794878641660727E-2
460 367 1.8322547473833436E-2
460 403 1.830485158557399E-2
460 431 1.833433846911889E-2
460 454 1.831563888873418E-2
460 455 2.9446827595512877E-2
460 456 3.0887203175474554E-2
460 457 2.9968100845758433E-2
460 458 9.952775241892056E-2
460 459 1.4708350815248553E-1
460 493 1.937909251522054E-2
461 409 2.8963299182453613E-2
461 410 2.7320370821880643E-2
461 411 2.500978788078549E-2
461 441 1.831563888873418E-2
461 462 5.544337596827642E-1
461 463 3.365487571004291E-1
461 464 1.4066064653631172E-1
461 465 4.4116408417048045E-2
461 466 1.826359648290846E-2
461 496 1.8589895879378676E-2
461 497 1.831563888873418E-2
462 409 1.7900037789038453E-2
462 410 2.4202162921572037E-2
462 411 1.9184026448133447E-2
462 441 2.3621121799266787E-2
462 442 1.831563888873418E-2
462 443 2.013255051127499E-2
462 461 5.544337596827642E-1
462 463 4.372558593641431E-1
462 464 2.3892946543148927E-1
462 465 6.0928872203776484E-2
462 466 2.3290557840681847E-2
462 496 2.0364580778971013E-2
462 499 1.831563888873418E-2
462 500 1.831563888873418E-2
463 409 2.0063056789333365E-2
463 411 2.0550760521423295E-2
463 443 1.831563888873418E-2
463 461 3.365487571004291E-1
463 462 4.372558593641431E-1
463 464 3.589600575750797E-1
463 465 1.2542866540618888E-1
463 466 5.654345133249221E-2
463 468 1.831563888873418E-2
463 500 1.8121889035894376E-2
463 502 1.9503905789628916E-2
464 411 1.831563888873418E-2
464 412 1.799391353713554E-2
464 444 2.5021665258042468E-2
464 445 1.7718312002931707E-2
464 461 1.4066064653631172E-1
464 462 2.3892946543148927E-1
464 463 3.589600575750797E-1
464 465 4.2894860100401855E-1
464 466 1.693302268294076E-1
464 467 3.872375968723009E-2
464 468 6.117647461037623E-2
464 469 2.2054146063154687E-2
465 414 1.8915321789939425E-2
465 444 2.6895074527837917E-2
465 445 2.2472226144327395E-2
465 461 4.4116408417048045E-2
465 462 6.0928872203776484E-2
465 463 1.2542866540618888E-1
465 464 4.2894860100401855E-1
465 466 4.463607491956545E-1
465 467 1.195771910788903E-1
465 468 1.69317499970701E-1
465 469 6.721202554678246E-2
465 470 1.6975019140119514E-2
466 414 2.230711747938346E-2
466 415 1.831563888873418E-2
466 444 1.816939041979272E-2
466 445 1.831563888873418E-2
466 446 1.841751117634547E-2
466 461 1.826359648290846E-2
466 462 2.3290557840681847E-2
466 463 5.654345133249221E-2
466 464 1.693302268294076E-1
466 465 4.463607491956545E-1
466 467 2.848256263602832E-1
466 468 4.407110245380468E-1
466 469 1.749878380348427E-1
466 470 4.735136547953863E-2
466 471 1.9765462926522422E-2
466 472 1.6666004857677993E-2
467 85 1.831563888873418E-2
467 86 1.831563888873418E-2
467 87 1.831563888873418E-2
467 414 2.5353748244361055E-2
467 415 2.289131944975034E-2
467 416 1.831563888873418E-2
467 464 3.872375968723009E-2
467 465 1.195771910788903E-1
467 466 2.848256263602832E-1
467 468 3.58819799254036E-1
467 469 3.120823469639369E-1
467 470 6.887810498364846E-2
467 472 1.831563888873418E-2
467 473 1.584677444594772E-2
468 86 1.827189030666986E-2
468 87 1.7284683271526532E-2
468 88 2.038615286086018E-2
468 414 1.2441229584854344E-2
468 415 2.0614091418755275E-2
468 416 1.2670950750368925E-2
468 446 2.407914590621688E-2
468 447 1.5051716050465043E-2
468 463 1.831563888873418E-2
468 464 6.117647461037623E-2
468 465 1.69317499970701E-1
468 466 4.407110245380468E-1
468 467 3.58819799254036E-1
468 469 4.4865192408592847E-1
468 470 9.237216503978131E-2
468 471 6.712660839838276E-2
468 472 4.201599660933531E-2
468 473 1.831563888873418E-2
469 87 2.5332370757772463E-2
469 88 2.5049912032818086E-2
469 89 2.2014391037809864E-2
469 396 1.711612463169593E-2
469 415 2.0768428352709558E-2
469 416 2.624595269314183E-2
469 417 1.8961575860499794E-2
469 446 1.831563888873418E-2
469 447 2.3406001124896395E-2
469 464 2.2054146063154687E-2
469 465 6.721202554678246E-2
469 466 1.749878380348427E-1
469 467 3.120823469639369E-1
469 468 4.4865192408592847E-1
469 470 1.495807518907958E-1
469 471 5.3280192424217505E-2
469 472 9.077914010698238E-2
469 473 6.270130845406675E-2
470 88 1.7507770115791507E-2
470 448 1.7559552838494905E-2
470 465 1.6975019140119514E-2
470 466 4.735136547953863E-2
470 467 6.887810498364846E-2
470 468 9.237216503978131E-2
470 469 1.495807518907958E-1
470 471 2.760256003539747E-1
470 472 2.926361670772522E-1
470 473 1.3992908329674383E-1
470 474 7.215598640143074E-2
470 475 4.0646510542186744E-2
470 476 2.689102431763215E-2
471 466 1.9765462926522422E-2
471 468 6.712660839838276E-2
471 469 5.3280192424217505E-2
471 470 2.760256003539747E-1
471 472 4.976180424826917E-1
471 473 8.626905272258906E-2
471 474 1.0635244762645854E-1
471 475 1.4562774006939416E-1
471 476 5.94047718990925E-2
471 478 1.8212941002703365E-2
472 448 1.831563888873418E-2
472 466 1.6666004857677993E-2
472 467 1.831563888873418E-2
472 468 4.201599660933531E-2
472 469 9.077914010698238E-2
472 470 2.926361670772522E-1
472 471 4.976180424826917E-1
472 473 1.8672549489174564E-1
472 474 1.1581536805184409E-1
472 475 2.0445859354420645E-1
472 476 8.526215480826452E-2
472 477 1.4913394910156889E-2
472 478 1.831563888873418E-2
473 89 1.5724389515900935E-2
473 91 1.831563888873418E-2
473 467 1.584677444594772E-2
473 468 1.831563888873418E-2
473 469 6.270130845406675E-2
473 470 1.3992908329674383E-1
473 471 8.626905272258906E-2
473 472 1.8672549489174564E-1
473 474 3.16868351314116E-1
473 475 2.140945234844689E-1
473 476 2.808571036378363E-1
473 477 8.054644542380232E-2
473 478 5.7296327780653966E-2
473 479 1.831563888873418E-2
473 480 1.1819437735397172E-2
474 470 7.215598640143074E-2
474 471 1.0635244762645854E-1
474 472 1.1581536805184409E-1
474 473 3.16868351314116E-1
474 475 2.873074708814822E-1
474 476 3.884969569298363E-1
474 477 8.388926294836618E-2
474 478 5.676099827511952E-2
474 479 3.925886821405396E-2
474 480 1.831563888873418E-2
475 470 4.0646510542186744E-2
475 471 1.4562774006939416E-1
475 472 2.0445859354420645E-1
475 473 2.140945234844689E-1
475 474 2.873074708814822E-1
475 476 4.247960173315366E-1
475 477 5.108797336807253E-2
475 478 7.43342495882105E-2
475 479 4.7239178022337194E-2
475 480 2.2135371225702884E-2
475 481 1.620077450107405E-2
476 470 2.689102431763215E-2
476 471 5.94047718990925E-2
476 472 8.526215480826452E-2
476 473 2.808571036378363E-1
476 474 3.884969569298363E-1
476 475 4.247960173315366E-1
476 477 2.3839804528350073E-1
476 478 3.13399465541745E-1
476 479 1.293672826334988E-1
476 480 7.555930308721291E-2
476 481 3.5891243745785915E-2
476 482 4.456034656546514E-3
477 472 1.4913394910156889E-2
477 473 8.054644542380232E-2
477 474 8.388926294836618E-2
477 475 5.108797336807253E-2
477 476 2.3839804528350073E-1
477 478 5.420618306896153E-1
477 479 3.5296738428380153E-1
477 480 2.6477704307878297E-1
477 481 1.0991511537490499E-1
477 482 2.003497904399513E-2
477 483 1.3150899681505238E-2
478 471 1.8212941002703365E-2
478 472 1.831563888873418E-2
478 473 5.7296327780653966E-2
478 474 5.676099827511952E-2
478 475 7.43342495882105E-2
478 476 3.13399465541745E-1
478 477 5.420618306896153E-1
478 479 5.810297103656905E-1
478 480 3.8655987032239414E-1
478 481 1.8814484295983985E-1
478 482 2.9171603587422313E-2
478 483 2.0765233336694968E-2
479 473 1.831563888873418E-2
479 474 3.925886821405396E-2
479 475 4.7239178022337194E-2
479 476 1.293672826334988E-1
479 477 3.5296738428380153E-1
479 478 5.810297103656905E-1
479 480 4.629925294736872E-1
479 481 3.126260551795643E-1
479 482 5.9800648296350914E-2
479 483 3.645390889075958E-2
479 484 1.3896510573529206E-2
479 485 1.831563888873418E-2
480 473 1.1819437735397172E-2
480 474 1.831563888873418E-2
480 475 2.2135371225702884E-2
480 476 7.555930308721291E-2
480 477 2.6477704307878297E-1
480 478 3.8655987032239414E-1
480 479 4.629925294736872E-1
480 481 4.52428398611612E-1
480 482 1.247768840320301E-1
480 483 7.634436804404279E-2
480 484 2.3332254975633168E-2
480 485 3.016405803394589E-2
480 486 1.015194159547739E-2
481 475 1.620077450107405E-2
481 476 3.5891243745785915E-2
481 477 1.0991511537490499E-1
481 478 1.8814484295983985E-1
481 479 3.126260551795643E-1
481 480 4.52428398611612E-1
481 482 3.9905090871836324E-1
481 483 1.940874588686923E-1
481 484 4.1903976194632195E-2
481 485 6.362555845509602E-2
481 486 2.1106078548605543E-2
482 423 1.8982693853841052E-2
482 476 4.456034656546514E-3
482 477 2.003497904399513E-2
482 478 2.9171603587422313E-2
482 479 5.9800648296350914E-2
482 480 1.247768840320301E-1
482 481 3.9905090871836324E-1
482 483 5.042993978762098E-1
482 484 1.38703136588819E-1
482 485 1.5556499941933205E-1
482 486 6.352138496107E-2
482 487 3.0625476841435278E-2
483 423 1.8048940296849718E-2
483 477 1.3150899681505238E-2
483 478 2.0765233336694968E-2
483 479 3.645390889075958E-2
483 480 7.634436804404279E-2
483 481 1.940874588686923E-1
483 482 5.042993978762098E-1
483 484 2.617515218674929E-1
483 485 4.1785993541405475E-1
483 486 1.347026752414374E-1
483 487 5.697937124623667E-2
483 488 1.1260058004358881E-2
483 489 7.785972079533305E-3
483 492 1.2195725915192303E-2
484 479 1.3896510573529206E-2
484 480 2.3332254975633168E-2
484 481 4.1903976194632195E-2
484 482 1.38703136588819E-1
484 483 2.617515218674929E-1
484 485 4.7162239912026116E-1
484 486 4.0875477608887595E-1
484 487 1.3992424471020798E-1
484 488 3.324048477245328E-2
484 489 2.485922318127022E-2
484 490 1.8751565119504585E-2
484 491 2.9601794758297863E-2
484 492 2.4147940960663167E-2
484 493 1.831563888873418E-2
485 479 1.831563888873418E-2
485 480 3.016405803394589E-2
485 481 6.362555845509602E-2
485 482 1.5556499941933205E-1
485 483 4.1785993541405475E-1
485 484 4.7162239912026116E-1
485 486 4.805064584919082E-1
485 487 1.7227839192614922E-1
485 488 2.8872408521124594E-2
485 489 1.831563888873418E-2
485 490 1.831563888873418E-2
485 491 1.831563888873418E-2
485 492 1.831563888873418E-2
486 454 1.831563888873418E-2
486 480 1.015194159547739E-2
486 481 2.1106078548605543E-2
486 482 6.352138496107E-2
486 483 1.347026752414374E-1
486 484 4.0875477608887595E-1
486 485 4.805064584919082E-1
486 487 4.4159293610943157E-1
486 488 8.682920249815673E-2
486 489 5.2940852663910846E-2
486 490 3.623682973878701E-2
486 491 3.210328386243043E-2
486 492 2.996030238600532E-2
486 493 2.1225526393927267E-2
487 455 2.162227455494905E-2
487 456 1.872339835053905E-2
487 482 3.0625476841435278E-2
487 483 5.697937124623667E-2
487 484 1.3992424471020798E-1
487 485 1.7227839192614922E-1
487 486 4.4159293610943157E-1
487 488 3.422341380728907E-1
487 489 1.524866062296469E-1
487 490 8.75552165509298E-2
487 491 4.038056274719236E-2
487 492 3.938479101851755E-2
487 493 2.9460927927273256E-2
488 385 1.361241370430213E-2
488 455 1.831563888873418E-2
488 456 1.831563888873418E-2
488 457 2.378856910893217E-2
488 483 1.1260058004358881E-2
488 484 3.324048477245328E-2
488 485 2.8872408521124594E-2
488 486 8.682920249815673E-2
488 487 3.422341380728907E-1
488 489 4.924375525578207E-1
488 490 2.3857885221739522E-1
488 491 8.318149271516584E-2
488 492 7.537634277634385E-2
488 493 6.118951665598259E-2
489 457 1.8867553117805767E-2
489 483 7.785972079533305E-3
489 484 2.485922318127022E-2
489 485 1.831563888873418E-2
489 486 5.2940852663910846E-2
489 487 1.524866062296469E-1
489 488 4.924375525578207E-1
489 490 5.138698374031745E-1
489 491 2.061849786219418E-1
489 492 1.816794697700359E-1
489 493 1.3357283782680868E-1
490 427 1.1418634682883923E-2
490 457 1.669712399237376E-2
490 484 1.8751565119504585E-2
490 485 1.831563888873418E-2
490 486 3.623682973878701E-2
490 487 8.75552165509298E-2
490 488 2.3857885221739522E-1
490 489 5.138698374031745E-1
490 491 2.552919367712755E-1
490 492 2.6493459785535184E-1
490 493 1.3523304959282917E-1
491 403 2.0855194582876643E-2
491 458 1.91067580239389E-2
491 484 2.9601794758297863E-2
491 485 1.831563888873418E-2
491 486 3.210328386243043E-2
491 487 4.038056274719236E-2
491 488 8.318149271516584E-2
491 489 2.061849786219418E-1
491 490 2.552919367712755E-1
491 492 7.270685603119E-1
491 493 4.690712314403702E-1
492 458 1.9121927230562E-2
492 459 1.7028970265630185E-2
492 483 1.2195725915192303E-2
492 484 2.4147940960663167E-2
492 485 1.831563888873418E-2
492 486 2.996030238600532E-2
492 487 3.938479101851755E-2
492 488 7.537634277634385E-2
492 489 1.816794697700359E-1
492 490 2.6493459785535184E-1
492 491 7.270685603119E-1
492 493 4.4948384142506126E-1
493 403 2.3430750610685135E-2
493 430 2.1283623212270435E-2
493 431 1.5457686042224202E-2
493 458 2.6384645572367155E-2
493 459 2.0794878641660727E-2
493 460 1.937909251522054E-2
493 484 1.831563888873418E-2
493 486 2.1225526393927267E-2
493 487 2.9460927927273256E-2
493 488 6.118951665598259E-2
493 489 1.3357283782680868E-1
493 490 1.3523304959282917E-1
493 491 4.690712314403702E-1
493 492 4.4948384142506126E-1
494 103 1.8564729664081667E-2
494 409 1.831563888873418E-2
494 495 6.01797960364306E-1
494 496 2.3470651997012268E-1
494 497 5.328129741673244E-1
494 498 3.3157400560847744E-1
494 499 1.2742970764736786E-1
494 500 1.6648168726270912E-1
494 501 2.8057709160808025E-1
494 502 1.4685152802985912E-1
494 503 2.190946242070802E-2
494 504 1.0619196151406194E-2
495 103 2.0132087994705748E-2
495 494 6.01797960364306E-1
495 496 4.7284191701054856E-1
495 497 7.298786336227588E-1
495 498 5.450113723771781E-1
495 499 2.230590822209161E-1
495 500 3.4756600869020626E-1
495 501 2.341269820019196E-1
495 502 1.7159513752503996E-1
495 503 1.831563888873418E-2
495 504 1.5740055812582723E-2
496 461 1.8589895879378676E-2
496 462 2.0364580778971013E-2
496 494 2.3470651997012268E-1
496 495 4.7284191701054856E-1
496 497 5.253676783637949E-1
496 498 6.701647741980069E-1
496 499 4.6661043148886266E-1
496 500 5.809309432828661E-1
496 501 1.4968566346129963E-1
496 502 1.6304120580740358E-1
496 504 1.831563888873418E-2
497 461 1.831563888873418E-2
497 494 5.328129741673244E-1
497 495 7.298786336227588E-1
497 496 5.253676783637949E-1
497 498 6.769644621559877E-1
497 499 2.823210931626304E-1
497 500 3.330973934008759E-1
497 501 2.766563729129978E-1
497 502 2.0029145221170225E-1
497 503 1.831563888873418E-2
497 504 1.5085523716023034E-2
498 494 3.3157400560847744E-1
498 495 5.450113723771781E-1
498 496 6.701647741980069E-1
498 497 6.769644621559877E-1
498 499 4.9586546481948685E-1
498 500 4.415110112804959E-1
498 501 2.1320724482316106E-1
498 502 1.5407772328105454E-1
498 503 1.7181378444414513E-2
498 504 1.831563888873418E-2
499 462 1.831563888873418E-2
499 494 1.2742970764736786E-1
499 495 2.230590822209161E-1
499 496 4.6661043148886266E-1
499 497 2.823210931626304E-1
499 498 4.9586546481948685E-1
499 500 4.020157348365008E-1
499 501 1.0674985425564915E-1
499 502 1.0226573370371309E-1
499 504 1.8222952080019575E-2
500 107 1.831563888873418E-2
500 462 1.831563888873418E-2
500 463 1.8121889035894376E-2
500 494 1.6648168726270912E-1
500 495 3.4756600869020626E-1
500 496 5.809309432828661E-1
500 497 3.330973934008759E-1
500 498 4.415110112804959E-1
500 499 4.020157348365008E-1
500 501 1.4053228648733102E-1
500 502 2.055428492165005E-1
500 503 1.2298745462864696E-2
500 504 1.831563888873418E-2
501 412 1.6870245579033005E-2
501 494 2.8057709160808025E-1
501 495 2.341269820019196E-1
501 496 1.4968566346129963E-1
501 497 2.766563729129978E-1
501 498 2.1320724482316106E-1
501 499 1.0674985425564915E-1
501 500 1.4053228648733102E-1
501 502 3.34366647771158E-1
501 503 1.19640179987039E-1
501 504 5.432645251361727E-2
501 505 1.831563888873418E-2
501 506 1.3643442933408762E-2
502 463 1.9503905789628916E-2
502 494 1.4685152802985912E-1
502 495 1.7159513752503996E-1
502 496 1.6304120580740358E-1
502 497 2.0029145221170225E-1
502 498 1.5407772328105454E-1
502 499 1.0226573370371309E-1
502 500 2.055428492165005E-1
502 501 3.34366647771158E-1
502 503 9.705997023355924E-2
502 504 5.5026085182323714E-2
502 505 1.1944997793001465E-2
502 507 1.7268959016655504E-2
503 413 1.831563888873418E-2
503 494 2.190946242070802E-2
503 495 1.831563888873418E-2
503 497 1.831563888873418E-2
503 498 1.7181378444414513E-2
503 500 1.2298745462864696E-2
503 501 1.19640179987039E-1
503 502 9.705997023355924E-2
503 504 3.437588129991926E-1
503 505 9.276739682295179E-2
503 506 6.685299376820002E-2
503 507 6.0953498660506616E-2
503 508 4.1182736157964216E-2
503 510 1.324510980208154E-2
504 107 1.811434323206606E-2
504 494 1.0619196151406194E-2
504 495 1.5740055812582723E-2
504 496 1.831563888873418E-2
504 497 1.5085523716023034E-2
504 498 1.831563888873418E-2
504 499 1.8222952080019575E-2
504 500 1.831563888873418E-2
504 501 5.432645251361727E-2
504 502 5.5026085182323714E-2
504 503 3.437588129991926E-1
504 505 2.1560663967732946E-1
504 506 1.474076095463142E-1
504 507 2.254726646495614E-1
504 508 1.2582994985650098E-1
504 509 3.335439339035089E-2
504 510 1.831563888873418E-2
505 501 1.831563888873418E-2
505 502 1.1944997793001465E-2
505 503 9.276739682295179E-2
505 504 2.1560663967732946E-1
505 506 5.562114534044993E-1
505 507 3.197365556407348E-1
505 508 2.749914611263172E-1
505 509 1.436072360202646E-1
505 510 1.0469355972128495E-1
505 511 4.1286715511853936E-2
506 501 1.3643442933408762E-2
506 503 6.685299376820002E-2
506 504 1.474076095463142E-1
506 505 5.562114534044993E-1
506 507 2.2464723685199217E-1
506 508 2.1061226949390088E-1
506 509 2.192342825825364E-1
506 510 1.2687187972192357E-1
506 511 8.021587539867334E-2
506 512 1.831563888873418E-2
507 502 1.7268959016655504E-2
507 503 6.0953498660506616E-2
507 504 2.254726646495614E-1
507 505 3.197365556407348E-1
507 506 2.2464723685199217E-1
507 508 5.327932869950115E-1
507 509 2.243683071708974E-1
507 510 8.800411665500331E-2
507 511 1.831563888873418E-2
507 512 2.1014231033425996E-2
508 503 4.1182736157964216E-2
508 504 1.2582994985650098E-1
508 505 2.749914611263172E-1
508 506 2.1061226949390088E-1
508 507 5.327932869950115E-1
508 509 2.328111995660731E-1
508 510 1.542511157838055E-1
508 511 1.831563888873418E-2
508 512 3.788431637511308E-2
508 513 1.954851082648107E-2
509 107 1.8637794906505765E-2
509 504 3.335439339035089E-2
509 505 1.436072360202646E-1
509 506 2.192342825825364E-1
509 507 2.243683071708974E-1
509 508 2.328111995660731E-1
509 510 9.692582305582413E-2
509 511 6.57479287873591E-2
509 512 2.42649540440614E-2
509 513 3.0808256771044523E-2
509 514 1.5874115668313662E-2
510 503 1.324510980208154E-2
510 504 1.831563888873418E-2
510 505 1.0469355972128495E-1
510 506 1.2687187972192357E-1
510 507 8.800411665500331E-2
510 508 1.542511157838055E-1
510 509 9.692582305582413E-2
510 511 1.605586401641257E-1
510 512 1.020569735238086E-1
510 513 2.9559550046907353E-2
510 514 8.803235479859864E-2
510 515 8.67322119455036E-3
511 112 1.797374227050083E-2
511 505 4.1286715511853936E-2
511 506 8.021587539867334E-2
511 507 1.831563888873418E-2
511 508 1.831563888873418E-2
511 509 6.57479287873591E-2
511 510 1.605586401641257E-1
511 512 2.9164449875424464E-2
511 513 4.5640803128085716E-2
511 514 1.0007383677018217E-1
511 515 3.161472153490942E-2
511 516 1.831563888873418E-2
512 506 1.831563888873418E-2
512 507 2.1014231033425996E-2
512 508 3.788431637511308E-2
512 509 2.42649540440614E-2
512 510 1.020569735238086E-1
512 511 2.9164449875424464E-2
512 513 1.7660562219939818E-1
512 514 1.3129523271475688E-1
512 515 8.405627159283893E-2
512 516 7.148624087165871E-2
512 517 2.800776776284144E-2
512 518 1.831563888873418E-2
513 508 1.954851082648107E-2
513 509 3.0808256771044523E-2
513 510 2.9559550046907353E-2
513 511 4.5640803128085716E-2
513 512 1.7660562219939818E-1
513 514 1.7146253678882245E-1
513 515 8.469631000014513E-2
513 516 2.0168522391046537E-1
513 517 7.021584801368569E-2
513 518 5.4977396327904306E-2
513 519 1.379883081058029E-2
514 509 1.5874115668313662E-2
514 510 8.803235479859864E-2
514 511 1.0007383677018217E-1
514 512 1.3129523271475688E-1
514 513 1.7146253678882245E-1
514 515 4.169454272588615E-1
514 516 1.7362484275675932E-1
514 517 1.06025138787247E-1
514 518 5.325609840917622E-2
514 519 1.831563888873418E-2
514 520 1.5498607525372231E-2
514 521 1.831563888873418E-2
515 510 8.67322119455036E-3
515 511 3.161472153490942E-2
515 512 8.405627159283893E-2
515 513 8.469631000014513E-2
515 514 4.169454272588615E-1
515 516 2.841691471673025E-1
515 517 2.599001297476056E-1
515 518 1.3285872180005123E-1
515 519 7.620435418114618E-2
515 520 3.0372048553623333E-2
515 521 3.869671505169562E-2
515 522 1.7658478219131434E-2
515 523 1.831563888873418E-2
516 511 1.831563888873418E-2
516 512 7.148624087165871E-2
516 513 2.0168522391046537E-1
516 514 1.7362484275675932E-1
516 515 2.841691471673025E-1
516 517 5.988931710984225E-1
516 518 4.4951730757705677E-1
516 519 1.2993471264419112E-1
516 520 5.912556189440432E-2
516 521 1.3156691950105553E-2
517 512 2.800776776284144E-2
517 513 7.021584801368569E-2
517 514 1.06025138787247E-1
517 515 2.599001297476056E-1
517 516 5.988931710984225E-1
517 518 5.89300904716224E-1
517 519 2.643870764287205E-1
517 520 1.0213471499932171E-1
517 521 3.542005287543332E-2
517 522 2.517309764705879E-2
517 523 2.2867791002741507E-2
517 524 1.987612646998326E-2
518 512 1.831563888873418E-2
518 513 5.4977396327904306E-2
518 514 5.325609840917622E-2
518 515 1.3285872180005123E-1
518 516 4.4951730757705677E-1
518 517 5.89300904716224E-1
518 519 3.106820979252054E-1
518 520 1.2897535105444802E-1
518 521 2.1416269444327937E-2
518 522 1.831563888873418E-2
518 523 1.6622873687642613E-2
518 524 1.7484414461317984E-2
519 513 1.379883081058029E-2
519 514 1.831563888873418E-2
519 515 7.620435418114618E-2
519 516 1.2993471264419112E-1
519 517 2.643870764287205E-1
519 518 3.106820979252054E-1
519 520 4.1136992303736203E-1
519 521 1.2172954850027994E-1
519 522 1.009007569959766E-1
519 523 6.70112729368612E-2
519 524 5.85798586257536E-2
519 525 2.0081538195041056E-2
520 514 1.5498607525372231E-2
520 515 3.0372048553623333E-2
520 516 5.912556189440432E-2
520 517 1.0213471499932171E-1
520 518 1.2897535105444802E-1
520 519 4.1136992303736203E-1
520 521 2.469271332480456E-1
520 522 2.3279522030526437E-1
520 523 1.255231891843307E-1
520 524 1.0532106240251664E-1
520 525 2.3830293632897195E-2
520 526 1.5100248377289018E-2
521 514 1.831563888873418E-2
521 515 3.869671505169562E-2
521 516 1.3156691950105553E-2
521 517 3.542005287543332E-2
521 518 2.1416269444327937E-2
521 519 1.2172954850027994E-1
521 520 2.469271332480456E-1
521 522 2.417124815600371E-1
521 523 4.160723602003813E-1
521 524 1.0494504614068487E-1
521 525 2.170314994156132E-2
521 526 2.053574742274534E-2
522 515 1.7658478219131434E-2
522 517 2.517309764705879E-2
522 518 1.831563888873418E-2
522 519 1.009007569959766E-1
522 520 2.3279522030526437E-1
522 521 2.417124815600371E-1
522 523 3.6100290657076595E-1
522 524 4.348738597647632E-1
522 525 1.0077199746113658E-1
522 526 5.0950907242793456E-2
522 527 8.531857749744541E-3
523 515 1.831563888873418E-2
523 517 2.2867791002741507E-2
523 518 1.6622873687642613E-2
523 519 6.70112729368612E-2
523 520 1.255231891843307E-1
523 521 4.160723602003813E-1
523 522 3.6100290657076595E-1
523 524 2.6338599969144216E-1
523 525 9.254610937123466E-2
523 526 6.544264843257933E-2
523 527 1.9540448942043567E-2
524 517 1.987612646998326E-2
524 518 1.7484414461317984E-2
524 519 5.85798586257536E-2
524 520 1.0532106240251664E-1
524 521 1.0494504614068487E-1
524 522 4.348738597647632E-1
524 523 2.6338599969144216E-1
524 525 4.0062474796516384E-1
524 526 1.548592968368485E-1
524 527 2.0387512307755613E-2
524 528 1.831563888873418E-2
525 519 2.0081538195041056E-2
525 520 2.3830293632897195E-2
525 521 2.170314994156132E-2
525 522 1.0077199746113658E-1
525 523 9.254610937123466E-2
525 524 4.0062474796516384E-1
525 526 3.1957975856656873E-1
525 527 3.904306452558684E-2
525 528 4.821828206645143E-2
525 529 1.831563888873418E-2
526 520 1.5100248377289018E-2
526 521 2.053574742274534E-2
526 522 5.0950907242793456E-2
526 523 6.544264843257933E-2
526 524 1.548592968368485E-1
526 525 3.1957975856656873E-1
526 527 1.5953163263809636E-1
526 528 9.102843038153605E-2
526 529 4.9113077690651034E-2
526 530 1.831563888873418E-2
527 522 8.531857749744541E-3
527 523 1.9540448942043567E-2
527 524 2.0387512307755613E-2
527 525 3.904306452558684E-2
527 526 1.5953163263809636E-1
527 528 1.6914651381994292E-1
527 529 9.745744421791355E-2
527 530 8.401849883450743E-2
527 531 3.7095716285807406E-2
527 532 1.831563888873418E-2
528 524 1.831563888873418E-2
528 525 4.821828206645143E-2
528 526 9.102843038153605E-2
528 527 1.6914651381994292E-1
528 529 3.049784955000222E-1
528 530 1.0770490236149911E-1
528 531 6.543534617266213E-2
528 532 3.165517437976328E-2
528 533 2.816437635743807E-2
528 535 1.163492719039821E-2
529 525 1.831563888873418E-2
529 526 4.9113077690651034E-2
529 527 9.745744421791355E-2
529 528 3.049784955000222E-1
529 530 2.5461611481037977E-1
529 531 8.015713673181873E-2
529 532 6.01866819503534E-2
529 533 5.432912426869953E-2
529 534 2.039151017393482E-2
529 535 1.5114357402545936E-2
530 526 1.831563888873418E-2
530 527 8.401849883450743E-2
530 528 1.0770490236149911E-1
530 529 2.5461611481037977E-1
530 531 3.3760220122639756E-1
530 532 2.065193740267408E-1
530 533 9.583365872271067E-2
530 534 3.7156620896436676E-2
530 535 4.081503178842434E-2
530 536 1.8436271340360598E-2
530 537 1.831563888873418E-2
531 527 3.7095716285807406E-2
531 528 6.543534617266213E-2
531 529 8.015713673181873E-2
531 530 3.3760220122639756E-1
531 532 1.997677643485049E-1
531 533 9.297831274827381E-2
531 534 1.831563888873418E-2
531 535 5.3452496009494546E-2
531 536 2.3600934174134214E-2
531 537 1.8435326201884046E-2
531 538 8.62312039107137E-3
531 539 1.4352744349423933E-2
532 527 1.831563888873418E-2
532 528 3.165517437976328E-2
532 529 6.01866819503534E-2
532 530 2.065193740267408E-1
532 531 1.997677643485049E-1
532 533 3.392461626481371E-1
532 534 1.3031905381616202E-1
532 535 1.5469255697067388E-1
532 536 5.27570453205151E-2
532 537 6.894605863800841E-2
532 538 2.7329466626430834E-2
532 539 2.7773287687162907E-2
532 540 2.6904847720927237E-2
532 541 1.8819084124315252E-2
533 528 2.816437635743807E-2
533 529 5.432912426869953E-2
533 530 9.583365872271067E-2
533 531 9.297831274827381E-2
533 532 3.392461626481371E-1
533 534 1.7343199566232492E-1
533 535 1.2439234815258693E-1
533 536 3.063492275155607E-2
533 537 5.8817664260636636E-2
533 538 1.859870457539188E-2
533 539 1.831563888873418E-2
533 540 1.7630357084231652E-2
534 529 2.039151017393482E-2
534 530 3.7156620896436676E-2
534 531 1.831563888873418E-2
534 532 1.3031905381616202E-1
534 533 1.7343199566232492E-1
534 535 2.3402252435582058E-1
534 536 7.254871132045537E-2
534 537 1.26301390393036E-1
534 538 3.251194465050028E-2
534 539 3.348843259741306E-2
534 540 3.714794419355397E-2
534 541 2.8875416160398067E-2
535 528 1.163492719039821E-2
535 529 1.5114357402545936E-2
535 530 4.081503178842434E-2
535 531 5.3452496009494546E-2
535 532 1.5469255697067388E-1
535 533 1.2439234815258693E-1
535 534 2.3402252435582058E-1
535 536 3.846962270760301E-1
535 537 2.0296045903605328E-1
535 538 6.601275233950879E-2
535 539 5.540204859887053E-2
535 540 4.3495187958956724E-2
535 541 2.9755020389260266E-2
536 530 1.8436271340360598E-2
536 531 2.3600934174134214E-2
536 532 5.27570453205151E-2
536 533 3.063492275155607E-2
536 534 7.254871132045537E-2
536 535 3.846962270760301E-1
536 537 2.683313730228007E-1
536 538 9.509726758322835E-2
536 539 7.445415016931356E-2
536 540 5.786391521592672E-2
536 541 3.690853389137747E-2
537 356 1.74631309962571E-2
537 530 1.831563888873418E-2
537 531 1.8435326201884046E-2
537 532 6.894605863800841E-2
537 533 5.8817664260636636E-2
537 534 1.26301390393036E-1
537 535 2.0296045903605328E-1
537 536 2.683313730228007E-1
537 538 2.688537554927031E-1
537 539 8.074882927349754E-2
537 540 6.781590208539437E-2
537 541 4.334462731606149E-2
538 333 1.8966032902180182E-2
538 531 8.62312039107137E-3
538 532 2.7329466626430834E-2
538 533 1.859870457539188E-2
538 534 3.251194465050028E-2
538 535 6.601275233950879E-2
538 536 9.509726758322835E-2
538 537 2.688537554927031E-1
538 539 1.9978904694278374E-1
538 540 1.2154213553936877E-1
538 541 6.84199388277381E-2
539 123 2.0144100494397264E-2
539 357 2.5134113424665504E-2
539 358 1.831563888873418E-2
539 359 1.9572805639076832E-2
539 531 1.4352744349423933E-2
539 532 2.7773287687162907E-2
539 533 1.831563888873418E-2
539 534 3.348843259741306E-2
539 535 5.540204859887053E-2
539 536 7.445415016931356E-2
539 537 8.074882927349754E-2
539 538 1.9978904694278374E-1
539 540 3.308229261505693E-1
539 541 2.0115236974004502E-1
540 123 1.8325352865053025E-2
540 333 1.8990035771705164E-2
540 358 1.831563888873418E-2
540 532 2.6904847720927237E-2
540 533 1.7630357084231652E-2
540 534 3.714794419355397E-2
540 535 4.3495187958956724E-2
540 536 5.786391521592672E-2
540 537 6.781590208539437E-2
540 538 1.2154213553936877E-1
540 539 3.308229261505693E-1
540 541 4.680047331570847E-1
541 358 1.831563888873418E-2
541 359 2.2213053589994897E-2
541 532 1.8819084124315252E-2
541 534 2.8875416160398067E-2
541 535 2.9755020389260266E-2
541 536 3.690853389137747E-2
541 537 4.334462731606149E-2
541 538 6.84199388277381E-2
541 539 2.0115236974004502E-1
541 540 4.680047331570847E-1
542 187 1.831563888873418E-2
542 189 1.5004576993691607E-2
542 543 3.248611447766594E-1
542 544 2.125142997601276E-1
542 545 2.3182014621927843E-1
542 546 1.9729841109166726E-1
542 547 1.0905190652947655E-1
542 548 6.36719078414767E-2
542 549 4.104780613946363E-2
542 550 2.4565412781064326E-2
543 300 1.8286054020009254E-2
543 302 1.5855769297186482E-2
543 305 1.2526265402515401E-2
543 542 3.248611447766594E-1
543 544 7.1720997273816E-1
543 545 5.499757173630729E-1
543 546 2.772103046120124E-1
543 547 2.4047462289201135E-1
543 548 1.3216672233622972E-1
543 549 9.011922069252591E-2
543 550 4.791005539597608E-2
543 552 1.831563888873418E-2
543 553 1.1575130759972496E-2
544 300 1.831563888873418E-2
544 301 1.831563888873418E-2
544 303 1.5488495483407737E-2
544 542 2.125142997601276E-1
544 543 7.1720997273816E-1
544 545 6.33853442353983E-1
544 546 2.818163562651457E-1
544 547 3.0052082833947147E-1
544 548 1.7624669334191423E-1
544 549 1.2104963832728124E-1
544 550 6.0537645633287666E-2
544 552 1.831563888873418E-2
544 553 1.0492508551901467E-2
545 300 1.8366217311238643E-2
545 301 1.8594565267560093E-2
545 302 2.0199915763289007E-2
545 303 1.831563888873418E-2
545 304 1.616444408731176E-2
545 305 1.831563888873418E-2
545 306 1.831563888873418E-2
545 542 2.3182014621927843E-1
545 543 5.499757173630729E-1
545 544 6.33853442353983E-1
545 546 4.079891701693644E-1
545 547 4.3097800699573585E-1
545 548 2.2141061769277254E-1
545 549 1.5133228452943778E-1
545 550 6.927773867195518E-2
545 552 1.831563888873418E-2
545 553 9.70347390744986E-3
546 302 1.9714243087991377E-2
546 305 2.1438072793342425E-2
546 306 1.5952317584191366E-2
546 542 1.9729841109166726E-1
546 543 2.772103046120124E-1
546 544 2.818163562651457E-1
546 545 4.079891701693644E-1
546 547 5.575996052432379E-1
546 548 3.018319438905643E-1
546 549 1.4049306782683232E-1
546 550 5.74294294358556E-2
546 552 1.831563888873418E-2
546 553 9.802496464622978E-3
547 301 1.6416609787968984E-2
547 302 1.831563888873418E-2
547 303 2.0308076482653602E-2
547 304 1.831563888873418E-2
547 305 2.0508881189946364E-2
547 306 2.215795812097398E-2
547 542 1.0905190652947655E-1
547 543 2.4047462289201135E-1
547 544 3.0052082833947147E-1
547 545 4.3097800699573585E-1
547 546 5.575996052432379E-1
547 548 5.361043630359452E-1
547 549 3.146534991107911E-1
547 550 1.301938203618096E-1
547 552 2.7916674250462473E-2
547 553 1.2388569417141306E-2
548 542 6.36719078414767E-2
548 543 1.3216672233622972E-1
548 544 1.7624669334191423E-1
548 545 2.2141061769277254E-1
548 546 3.018319438905643E-1
548 547 5.361043630359452E-1
548 549 4.267815060225294E-1
548 550 1.8081176751610545E-1
548 551 1.831563888873418E-2
548 552 4.131219724470471E-2
548 553 1.831563888873418E-2
549 185 1.831563888873418E-2
549 307 1.3706275269300346E-2
549 308 1.6241184894350485E-2
549 309 1.9044563868366865E-2
549 310 1.8009738248310585E-2
549 542 4.104780613946363E-2
549 543 9.011922069252591E-2
549 544 1.2104963832728124E-1
549 545 1.5133228452943778E-1
549 546 1.4049306782683232E-1
549 547 3.146534991107911E-1
549 548 4.267815060225294E-1
549 550 4.641327756411076E-1
549 551 3.706622189828633E-2
549 552 6.061429075476007E-2
549 553 1.831563888873418E-2
550 185 1.8151018814624744E-2
550 308 2.1100956879989086E-2
550 309 2.034990178576595E-2
550 310 2.2283034357727168E-2
550 311 1.831563888873418E-2
550 542 2.4565412781064326E-2
550 543 4.791005539597608E-2
550 544 6.0537645633287666E-2
550 545 6.927773867195518E-2
550 546 5.74294294358556E-2
550 547 1.301938203618096E-1
550 548 1.8081176751610545E-1
550 549 4.641327756411076E-1
550 551 1.0166893283686436E-1
550 552 1.2165081175574609E-1
550 553 5.3281791643855256E-2
550 554 3.005308282683473E-2
551 176 4.202627234930059E-2
551 184 3.8556147653209555E-2
551 185 2.4774497729900796E-2
551 308 2.3978935982365415E-2
551 310 1.831563888873418E-2
551 311 1.9544583865414647E-2
551 548 1.831563888873418E-2
551 549 3.706622189828633E-2
551 550 1.0166893283686436E-1
551 552 7.575919504952172E-2
551 553 1.1287201728346061E-1
551 554 6.98499562517585E-2
551 555 5.6498643343265514E-2
551 556 3.253983612278374E-2
551 557 2.0847516471024424E-2
551 558 1.1406669959492263E-2
552 184 2.4138196440082374E-2
552 308 1.831563888873418E-2
552 309 1.7510079733204245E-2
552 310 2.1810737639270533E-2
552 311 1.9397026349711567E-2
552 312 1.831563888873418E-2
552 543 1.831563888873418E-2
552 544 1.831563888873418E-2
552 545 1.831563888873418E-2
552 546 1.831563888873418E-2
552 547 2.7916674250462473E-2
552 548 4.131219724470471E-2
552 549 6.061429075476007E-2
552 550 1.2165081175574609E-1
552 551 7.575919504952172E-2
552 553 4.057109790894106E-1
552 554 2.736496999558502E-1
552 555 9.211064501247485E-2
552 556 1.9852886351585323E-2
552 557 1.831563888873418E-2
553 176 2.238012623544189E-2
553 184 2.5579331667044493E-2
553 311 1.5080134407289085E-2
553 312 1.6886882208291504E-2
553 313 9.550126729718807E-3
553 543 1.1575130759972496E-2
553 544 1.0492508551901467E-2
553 545 9.70347390744986E-3
553 546 9.802496464622978E-3
553 547 1.2388569417141306E-2
553 548 1.831563888873418E-2
553 549 1.831563888873418E-2
553 550 5.3281791643855256E-2
553 551 1.1287201728346061E-1
553 552 4.057109790894106E-1
553 554 5.503321569161354E-1
553 555 2.571482293389488E-1
553 556 6.098200854190225E-2
553 557 5.588306237884699E-2
553 558 3.0352459562724268E-2
553 559 1.1104736092777314E-2
554 176 1.7628619014488846E-2
554 184 2.236196720876683E-2
554 550 3.005308282683473E-2
554 551 6.98499562517585E-2
554 552 2.736496999558502E-1
554 553 5.503321569161354E-1
554 555 5.371330664448195E-1
554 556 1.27053595398702E-1
554 557 1.3832227822836546E-1
554 558 7.887819989975106E-2
554 559 1.831563888873418E-2
554 561 1.3670322882517334E-2
555 184 1.85740522832219E-2
555 551 5.6498643343265514E-2
555 552 9.211064501247485E-2
555 553 2.571482293389488E-1
555 554 5.371330664448195E-1
555 556 2.4264243628583046E-1
555 557 2.736821603890499E-1
555 558 1.555152560735319E-1
555 559 5.433666393483321E-2
555 560 2.2493237964685962E-2
555 561 1.831563888873418E-2
555 562 7.381872803999489E-3
556 176 2.4144085532618566E-2
556 177 1.67816380891686E-2
556 183 2.060746961501107E-2
556 184 1.831563888873418E-2
556 551 3.253983612278374E-2
556 552 1.9852886351585323E-2
556 553 6.098200854190225E-2
556 554 1.27053595398702E-1
556 555 2.4264243628583046E-1
556 557 3.5259484175572786E-1
556 558 1.6292480758368771E-1
556 559 1.9178579341525778E-1
556 560 7.657643202608734E-2
556 561 2.7281909237252246E-2
556 562 1.831563888873418E-2
557 551 2.0847516471024424E-2
557 552 1.831563888873418E-2
557 553 5.588306237884699E-2
557 554 1.3832227822836546E-1
557 555 2.736821603890499E-1
557 556 3.5259484175572786E-1
557 558 4.9713997905250273E-1
557 559 2.3350977206762139E-1
557 560 9.288651868933384E-2
557 561 9.04806615095117E-2
557 562 3.7601464508480814E-2
557 563 1.5199679259638327E-2
558 551 1.1406669959492263E-2
558 553 3.0352459562724268E-2
558 554 7.887819989975106E-2
558 555 1.555152560735319E-1
558 556 1.6292480758368771E-1
558 557 4.9713997905250273E-1
558 559 1.9847071451925546E-1
558 560 5.179226195177521E-2
558 561 2.3001776835982432E-1
558 562 8.421411308852068E-2
558 563 3.353844123263265E-2
558 564 2.676635595819522E-2
558 565 6.7255157128856425E-3
559 183 2.6258962603801565E-2
559 553 1.1104736092777314E-2
559 554 1.831563888873418E-2
559 555 5.433666393483321E-2
559 556 1.9178579341525778E-1
559 557 2.3350977206762139E-1
559 558 1.9847071451925546E-1
559 560 3.383306759629573E-1
559 561 1.831048939167766E-1
559 562 1.6018926230988578E-1
559 563 3.470733862599442E-2
559 569 1.3491261892369107E-2
559 570 1.5082328939531202E-2
559 571 8.994983675140693E-3
559 573 6.0331351566657605E-3
559 574 6.680600102350038E-3
560 178 1.592471205127725E-2
560 179 1.831563888873418E-2
560 181 1.831563888873418E-2
560 182 2.2962399682196544E-2
560 183 3.745227991433696E-2
560 555 2.2493237964685962E-2
560 556 7.657643202608734E-2
560 557 9.288651868933384E-2
560 558 5.179226195177521E-2
560 559 3.383306759629573E-1
560 561 8.120402778870636E-2
560 562 1.0086754835566158E-1
560 563 3.79920970721172E-2
560 569 1.859640288965244E-2
560 570 1.8542972789857653E-2
560 571 1.2968277336215151E-2
560 572 1.4540027983862282E-2
560 575 2.239136096090377E-2
561 554 1.3670322882517334E-2
561 555 1.831563888873418E-2
561 556 2.7281909237252246E-2
561 557 9.04806615095117E-2
561 558 2.3001776835982432E-1
561 559 1.831048939167766E-1
561 560 8.120402778870636E-2
561 562 3.8915897772080354E-1
561 563 1.534524700392438E-1
561 564 7.793351103713854E-2
561 565 2.3147307197195793E-2
561 570 1.831563888873418E-2
561 571 1.831563888873418E-2
561 572 2.4448133169613008E-2
561 573 1.831563888873418E-2
561 574 1.831563888873418E-2
562 555 7.381872803999489E-3
562 556 1.831563888873418E-2
562 557 3.7601464508480814E-2
562 558 8.421411308852068E-2
562 559 1.6018926230988578E-1
562 560 1.0086754835566158E-1
562 561 3.8915897772080354E-1
562 563 2.1311644687152534E-1
562 564 6.180059695253739E-2
562 565 2.5086638606633925E-2
562 570 2.898073154935804E-2
562 571 3.905960879000391E-2
562 572 4.626659986910075E-2
562 573 3.1358534422298884E-2
562 574 2.7444543869240993E-2
563 557 1.5199679259638327E-2
563 558 3.353844123263265E-2
563 559 3.470733862599442E-2
563 560 3.79920970721172E-2
563 561 1.534524700392438E-1
563 562 2.1311644687152534E-1
563 564 3.468791585195094E-1
563 565 1.8306601077958717E-1
563 570 3.4017149848252166E-2
563 571 5.673853825960041E-2
563 572 4.251869734868485E-2
563 573 4.201947844100558E-2
563 574 3.659614547605975E-2
563 575 1.7301369493792736E-2
564 558 2.676635595819522E-2
564 561 7.793351103713854E-2
564 562 6.180059695253739E-2
564 563 3.468791585195094E-1
564 565 4.5296031060593384E-1
564 566 1.831563888873418E-2
564 567 1.5027807276268599E-2
564 568 1.4388880162252968E-2
564 570 1.745865232501057E-2
564 571 5.431979715118067E-2
564 572 1.831563888873418E-2
564 573 3.478431202164582E-2
564 574 2.8661951612883665E-2
565 558 6.7255157128856425E-3
565 561 2.3147307197195793E-2
565 562 2.5086638606633925E-2
565 563 1.8306601077958717E-1
565 564 4.5296031060593384E-1
565 566 2.096872209910542E-2
565 567 1.831563888873418E-2
565 568 1.831563888873418E-2
565 570 3.688847571386087E-2
565 571 6.632847582218394E-2
565 572 4.420632920003112E-2
565 573 5.0458885295634644E-2
565 574 5.0578815237874705E-2
565 575 2.430857913867502E-2
566 564 1.831563888873418E-2
566 565 2.096872209910542E-2
566 567 4.690538371960099E-1
566 568 3.712198708316202E-1
566 569 4.226596790048347E-2
566 570 1.7039926236573442E-2
566 571 2.3903748629142293E-2
566 572 2.112638257077132E-2
566 573 3.0343515563492546E-2
566 574 3.401486276284905E-2
567 564 1.5027807276268599E-2
567 565 1.831563888873418E-2
567 566 4.690538371960099E-1
567 568 6.853895705626349E-1
567 569 4.10402985683371E-2
567 570 1.9890291491705965E-2
567 571 2.3644035597425304E-2
567 572 2.4719049691060507E-2
567 573 2.918091525193193E-2
567 574 3.193274909772396E-2
568 564 1.4388880162252968E-2
568 565 1.831563888873418E-2
568 566 3.712198708316202E-1
568 567 6.853895705626349E-1
568 569 2.8800124241414947E-2
568 570 1.8745948319655592E-2
568 571 2.33115095609256E-2
568 572 2.3844676454534086E-2
568 573 2.8498920108559075E-2
568 574 3.0455247888965115E-2
569 172 2.6135935455484212E-2
569 180 2.623368606189243E-2
569 332 1.4347145935707817E-2
569 559 1.3491261892369107E-2
569 560 1.859640288965244E-2
569 566 4.226596790048347E-2
569 567 4.10402985683371E-2
569 568 2.8800124241414947E-2
569 570 4.4952792999274474E-2
569 571 1.831563888873418E-2
569 572 2.730058726138613E-2
569 573 2.4876643369961766E-2
569 574 3.325203711283682E-2
569 575 3.6883429445936644E-2
570 181 2.3299364337671567E-2
570 559 1.5082328939531202E-2
570 560 1.8542972789857653E-2
570 561 1.831563888873418E-2
570 562 2.898073154935804E-2
570 563 3.4017149848252166E-2
570 564 1.745865232501057E-2
570 565 3.688847571386087E-2
570 566 1.7039926236573442E-2
570 567 1.9890291491705965E-2
570 568 1.8745948319655592E-2
570 569 4.4952792999274474E-2
570 571 3.4893880467207555E-1
570 572 5.832946314932322E-1
570 573 3.0728753593745495E-1
570 574 3.5650544014914537E-1
570 575 3.396730782639575E-2
571 559 8.994983675140693E-3
571 560 1.2968277336215151E-2
571 561 1.831563888873418E-2
571 562 3.905960879000391E-2
571 563 5.673853825960041E-2
571 564 5.431979715118067E-2
571 565 6.632847582218394E-2
571 566 2.3903748629142293E-2
571 567 2.3644035597425304E-2
571 568 2.33115095609256E-2
571 569 1.831563888873418E-2
571 570 3.4893880467207555E-1
571 572 5.305828752738553E-1
571 573 5.902295816749558E-1
571 574 4.6089330451664007E-1
571 575 2.455467271001934E-2
572 181 1.6888951891273502E-2
572 560 1.4540027983862282E-2
572 561 2.4448133169613008E-2
572 562 4.626659986910075E-2
572 563 4.251869734868485E-2
572 564 1.831563888873418E-2
572 565 4.420632920003112E-2
572 566 2.112638257077132E-2
572 567 2.4719049691060507E-2
572 568 2.3844676454534086E-2
572 569 2.730058726138613E-2
572 570 5.832946314932322E-1
572 571 5.305828752738553E-1
572 573 5.430043156071102E-1
572 574 5.835308918652111E-1
572 575 3.1059803170851254E-2
573 559 6.0331351566657605E-3
573 561 1.831563888873418E-2
573 562 3.1358534422298884E-2
573 563 4.201947844100558E-2
573 564 3.478431202164582E-2
573 565 5.0458885295634644E-2
573 566 3.0343515563492546E-2
573 567 2.918091525193193E-2
573 568 2.8498920108559075E-2
573 569 2.4876643369961766E-2
573 570 3.0728753593745495E-1
573 571 5.902295816749558E-1
573 572 5.430043156071102E-1
573 574 7.164397250670755E-1
573 575 2.5394169226837515E-2
574 559 6.680600102350038E-3
574 561 1.831563888873418E-2
574 562 2.7444543869240993E-2
574 563 3.659614547605975E-2
574 564 2.8661951612883665E-2
574 565 5.0578815237874705E-2
574 566 3.401486276284905E-2
574 567 3.193274909772396E-2
574 568 3.0455247888965115E-2
574 569 3.325203711283682E-2
574 570 3.5650544014914537E-1
574 571 4.6089330451664007E-1
574 572 5.835308918652111E-1
574 573 7.164397250670755E-1
574 575 2.954209641592571E-2
575 181 1.831563888873418E-2
575 560 2.239136096090377E-2
575 563 1.7301369493792736E-2
575 565 2.430857913867502E-2
575 569 3.6883429445936644E-2
575 570 3.396730782639575E-2
575 571 2.455467271001934E-2
575 572 3.1059803170851254E-2
575 573 2.5394169226837515E-2
575 574 2.954209641592571E-2
