%%MatrixMarket matrix coordinate real general
%
332 332 4252
1 2 4.36E-2
1 4 7.67E-2
1 8 1.026E-1
2 1 4.36E-2
2 4 5.15E-2
2 8 8.66E-2
3 5 2.69E-2
3 8 8.43E-2
4 1 7.67E-2
4 2 5.15E-2
4 8 3.65E-2
4 26 9.15E-2
4 47 2.109E-1
5 3 2.69E-2
5 8 8.49E-2
6 7 1.97E-2
6 8 6.83E-2
6 13 1.43E-2
7 6 1.97E-2
7 8 4.88E-2
7 13 1.4E-2
8 1 1.026E-1
8 2 8.66E-2
8 3 8.43E-2
8 4 3.65E-2
8 5 8.49E-2
8 6 6.83E-2
8 7 4.88E-2
8 13 6.04E-2
8 16 2.39E-2
8 23 4.78E-2
8 24 4.14E-2
8 26 8.3E-2
8 27 3.51E-2
8 28 1.099E-1
8 30 5.96E-2
8 34 7.74E-2
8 35 8.63E-2
8 36 1.093E-1
8 37 1.999E-1
8 38 1.622E-1
8 47 1.926E-1
8 65 2.04E-1
8 67 3.284E-1
8 112 3.847E-1
8 118 3.655E-1
8 144 2.746E-1
8 201 2.654E-1
8 248 3.059E-1
8 313 3.829E-1
9 10 3E-3
9 11 2.2E-3
9 12 3.7E-3
9 13 5.3E-3
10 9 3E-3
10 11 1.1E-3
10 12 1E-3
10 13 2.3E-3
11 9 2.2E-3
11 10 1.1E-3
11 13 3.3E-3
12 9 3.7E-3
12 10 1E-3
12 13 2E-3
13 6 1.43E-2
13 7 1.4E-2
13 8 6.04E-2
13 9 5.3E-3
13 10 2.3E-3
13 11 3.3E-3
13 12 2E-3
13 14 9E-4
13 15 1.1E-3
13 17 6E-3
13 18 5.5E-3
13 19 9.5E-3
13 20 1.12E-2
13 21 9.8E-3
14 13 9E-4
15 13 1.1E-3
16 8 2.39E-2
16 22 3.11E-2
17 13 6E-3
17 19 3.8E-3
17 20 5.3E-3
18 13 5.5E-3
19 13 9.5E-3
19 17 3.8E-3
19 20 1.8E-3
20 13 1.12E-2
20 17 5.3E-3
20 19 1.8E-3
21 13 9.8E-3
22 16 3.11E-2
22 26 2.81E-2
23 8 4.78E-2
23 24 1E-2
24 8 4.14E-2
24 23 1E-2
25 26 5.7E-3
26 4 9.15E-2
26 8 8.3E-2
26 22 2.81E-2
26 25 5.7E-3
26 29 1.31E-2
26 31 1.7E-2
26 33 3.22E-2
26 47 1.216E-1
27 8 3.51E-2
28 8 1.099E-1
28 35 4.25E-2
29 26 1.31E-2
29 31 1.25E-2
29 33 2.47E-2
29 47 1.134E-1
30 8 5.96E-2
30 34 1.84E-2
31 26 1.7E-2
31 29 1.25E-2
31 32 4.3E-3
32 31 4.3E-3
32 33 1.13E-2
33 26 3.22E-2
33 29 2.47E-2
33 32 1.13E-2
33 47 8.95E-2
34 8 7.74E-2
34 30 1.84E-2
35 8 8.63E-2
35 28 4.25E-2
35 36 2.32E-2
36 8 1.093E-1
36 35 2.32E-2
36 38 5.49E-2
37 8 1.999E-1
37 38 4.78E-2
38 8 1.622E-1
38 36 5.49E-2
38 37 4.78E-2
39 47 1.3E-2
39 65 3.06E-2
39 142 8.35E-2
40 45 1.8E-2
40 46 1.67E-2
40 50 1.33E-2
40 55 2E-2
40 61 2.42E-2
40 62 3.77E-2
40 144 7.28E-2
41 53 1.45E-2
41 67 5.22E-2
41 166 8.31E-2
42 47 8.9E-3
43 67 3.64E-2
44 67 3.56E-2
45 40 1.8E-2
45 46 3.14E-2
45 47 2.44E-2
45 50 1.87E-2
45 54 8.6E-3
45 55 2.99E-2
45 58 1.22E-2
45 59 1.52E-2
45 61 3.02E-2
45 62 4.9E-2
45 63 3.7E-2
45 65 3.23E-2
45 67 1.266E-1
45 83 3.93E-2
45 118 1.602E-1
45 142 6.55E-2
45 144 7.12E-2
45 166 9.88E-2
45 201 9.86E-2
46 40 1.67E-2
46 45 3.14E-2
46 50 1.49E-2
46 55 9E-3
46 62 2.15E-2
46 63 1.63E-2
46 67 9.58E-2
46 144 6.41E-2
47 4 2.109E-1
47 8 1.926E-1
47 26 1.216E-1
47 29 1.134E-1
47 33 8.95E-2
47 39 1.3E-2
47 42 8.9E-3
47 45 2.44E-2
47 48 1.07E-2
47 49 1.54E-2
47 54 2.73E-2
47 56 1.22E-2
47 58 2.88E-2
47 59 1.97E-2
47 60 2.42E-2
47 65 1.78E-2
47 67 1.502E-1
47 74 3.1E-2
47 75 3.2E-2
47 83 4.83E-2
47 86 5.55E-2
47 94 1.804E-1
47 109 2.658E-1
47 112 2.046E-1
47 118 1.828E-1
47 123 1.841E-1
47 131 2.139E-1
47 142 7.14E-2
47 144 8.25E-2
47 147 2.535E-1
47 150 2.555E-1
47 152 2.244E-1
47 166 1.15E-1
47 169 7.7E-2
47 172 1.606E-1
47 176 2.078E-1
47 177 2.424E-1
47 182 1.826E-1
47 183 8.36E-2
47 197 9.29E-2
47 201 9.38E-2
47 203 9.63E-2
47 219 1.144E-1
47 230 2.408E-1
47 232 2.028E-1
47 245 1.281E-1
47 246 1.301E-1
47 248 1.305E-1
47 253 1.334E-1
47 255 2.336E-1
47 258 1.437E-1
47 261 1.894E-1
47 263 1.429E-1
47 293 2.16E-1
47 311 2.976E-1
47 313 3.086E-1
47 316 3.074E-1
48 47 1.07E-2
48 49 4.8E-3
48 65 2.12E-2
49 47 1.54E-2
49 48 4.8E-3
49 56 8.7E-3
49 60 1.19E-2
50 40 1.33E-2
50 45 1.87E-2
50 46 1.49E-2
50 55 1.12E-2
50 61 1.23E-2
50 62 3.02E-2
50 63 1.85E-2
50 67 1.082E-1
50 144 5.96E-2
50 166 8.28E-2
51 67 2.67E-2
51 82 3.19E-2
51 118 6.55E-2
51 166 7.96E-2
52 67 1.94E-2
53 41 1.45E-2
53 67 4.24E-2
53 82 3.67E-2
53 144 8.09E-2
53 166 7.01E-2
54 45 8.6E-3
54 47 2.73E-2
54 58 3.6E-3
54 59 1.13E-2
54 60 8.7E-3
54 65 3.01E-2
54 83 3.07E-2
55 40 2E-2
55 45 2.99E-2
55 46 9E-3
55 50 1.12E-2
55 61 6.7E-3
55 62 1.91E-2
55 63 8.9E-3
55 144 5.56E-2
56 47 1.22E-2
56 49 8.7E-3
56 58 1.8E-2
56 59 7.8E-3
56 60 1.24E-2
56 65 1.41E-2
57 69 1.98E-2
57 70 1.99E-2
57 71 1.97E-2
57 118 4.35E-2
58 45 1.22E-2
58 47 2.88E-2
58 54 3.6E-3
58 56 1.8E-2
58 59 1.07E-2
58 60 6.9E-3
58 65 2.94E-2
58 83 2.71E-2
59 45 1.52E-2
59 47 1.97E-2
59 54 1.13E-2
59 56 7.8E-3
59 58 1.07E-2
59 60 4.6E-3
59 64 5.7E-3
59 65 1.89E-2
59 83 2.97E-2
59 144 6.38E-2
60 47 2.42E-2
60 49 1.19E-2
60 54 8.7E-3
60 56 1.24E-2
60 58 6.9E-3
60 59 4.6E-3
60 64 4.8E-3
60 65 2.25E-2
61 40 2.42E-2
61 45 3.02E-2
61 50 1.23E-2
61 55 6.7E-3
61 62 2.01E-2
61 63 7E-3
62 40 3.77E-2
62 45 4.9E-2
62 46 2.15E-2
62 50 3.02E-2
62 55 1.91E-2
62 61 2.01E-2
62 63 1.33E-2
62 67 7.86E-2
62 144 5.11E-2
62 166 6.05E-2
63 45 3.7E-2
63 46 1.63E-2
63 50 1.85E-2
63 55 8.9E-3
63 61 7E-3
63 62 1.33E-2
63 67 9.18E-2
63 144 4.79E-2
63 166 6.56E-2
64 59 5.7E-3
64 60 4.8E-3
64 65 1.91E-2
65 8 2.04E-1
65 39 3.06E-2
65 45 3.23E-2
65 47 1.78E-2
65 48 2.12E-2
65 54 3.01E-2
65 56 1.41E-2
65 58 2.94E-2
65 59 1.89E-2
65 60 2.25E-2
65 64 1.91E-2
65 66 6.8E-3
65 67 1.498E-1
65 74 1.47E-2
65 75 1.43E-2
65 83 3.78E-2
65 87 2.23E-2
65 108 3.07E-2
65 112 2.025E-1
65 116 3.31E-2
65 118 1.8E-1
65 142 5.72E-2
65 144 7.09E-2
65 151 4.85E-2
65 166 1.059E-1
65 169 6E-2
65 176 2.031E-1
65 183 6.6E-2
65 197 7.52E-2
65 201 7.61E-2
65 203 7.87E-2
65 219 9.84E-2
65 245 1.109E-1
65 246 1.131E-1
65 248 1.133E-1
65 253 1.163E-1
65 255 2.254E-1
65 258 1.28E-1
65 261 1.779E-1
65 263 1.259E-1
65 293 2.037E-1
66 65 6.8E-3
66 87 1.56E-2
66 116 2.71E-2
66 151 4.22E-2
67 8 3.284E-1
67 41 5.22E-2
67 43 3.64E-2
67 44 3.56E-2
67 45 1.266E-1
67 46 9.58E-2
67 47 1.502E-1
67 50 1.082E-1
67 51 2.67E-2
67 52 1.94E-2
67 53 4.24E-2
67 62 7.86E-2
67 63 9.18E-2
67 65 1.498E-1
67 71 2.62E-2
67 76 5.08E-2
67 78 1E-2
67 79 1.38E-2
67 82 2.19E-2
67 90 2.58E-2
67 94 3.27E-2
67 95 7.6E-2
67 99 4.35E-2
67 109 1.156E-1
67 111 4.65E-2
67 112 5.63E-2
67 118 3.88E-2
67 119 1.082E-1
67 120 2.97E-2
67 123 4.06E-2
67 128 3.21E-2
67 131 6.67E-2
67 133 3.68E-2
67 136 1.058E-1
67 144 1.033E-1
67 146 1.061E-1
67 147 1.05E-1
67 150 1.069E-1
67 152 7.83E-2
67 153 8.29E-2
67 159 7.03E-2
67 161 6.61E-2
67 162 1.033E-1
67 166 7.7E-2
67 167 6.07E-2
67 172 5.4E-2
67 174 1.004E-1
67 176 7.08E-2
67 177 9.83E-2
67 179 1.005E-1
67 182 6.04E-2
67 183 1.562E-1
67 189 7.45E-2
67 197 1.629E-1
67 201 1.639E-1
67 203 1.63E-1
67 217 9E-2
67 219 1.399E-1
67 230 1.115E-1
67 232 9.54E-2
67 233 1.163E-1
67 246 1.617E-1
67 248 1.655E-1
67 253 1.651E-1
67 255 1.163E-1
67 258 1.454E-1
67 261 1.162E-1
67 263 1.685E-1
67 274 1.518E-1
67 292 1.431E-1
67 293 1.428E-1
67 296 1.46E-1
67 299 1.685E-1
67 301 1.705E-1
67 307 1.847E-1
67 310 1.917E-1
67 311 1.939E-1
67 313 3.992E-1
68 80 1.34E-2
68 96 2.23E-2
68 109 2.59E-2
68 118 1.008E-1
68 125 3.23E-2
68 147 4.78E-2
69 57 1.98E-2
69 71 8.4E-3
69 73 7.7E-3
69 118 2.83E-2
70 57 1.99E-2
70 112 2.67E-2
70 118 2.89E-2
71 57 1.97E-2
71 67 2.62E-2
71 69 8.4E-3
71 73 3E-3
71 77 5.3E-3
71 90 1.43E-2
71 111 2.52E-2
71 112 3.26E-2
71 118 2.4E-2
72 96 1.71E-2
72 118 7.88E-2
72 146 3.55E-2
72 147 3.65E-2
72 152 5.23E-2
72 162 4.52E-2
72 177 5.72E-2
73 69 7.7E-3
73 71 3E-3
73 77 2.6E-3
73 90 1.15E-2
73 94 1.29E-2
73 118 2.2E-2
74 47 3.1E-2
74 65 1.47E-2
74 75 1.06E-2
74 116 2.03E-2
74 201 6.37E-2
75 47 3.2E-2
75 65 1.43E-2
75 74 1.06E-2
75 87 8.5E-3
75 108 1.68E-2
75 116 2.02E-2
75 151 3.48E-2
75 166 1.021E-1
75 201 6.22E-2
76 67 5.08E-2
76 82 3.25E-2
76 98 2.04E-2
76 118 7.97E-2
76 142 7.17E-2
76 144 5.51E-2
77 71 5.3E-3
77 73 2.6E-3
77 94 1.04E-2
77 118 1.95E-2
78 67 1E-2
78 79 6.3E-3
78 118 2.98E-2
79 67 1.38E-2
79 78 6.3E-3
79 118 2.5E-2
80 68 1.34E-2
80 101 1.98E-2
80 109 1.28E-2
80 118 9.1E-2
80 146 3.29E-2
80 147 3.44E-2
80 152 5.88E-2
80 162 4.4E-2
80 176 8.53E-2
80 177 5.79E-2
81 85 6.9E-3
81 118 1.173E-1
81 144 2.77E-2
81 166 4.72E-2
81 261 1.239E-1
82 51 3.19E-2
82 53 3.67E-2
82 67 2.19E-2
82 76 3.25E-2
82 106 1.13E-2
82 118 4.75E-2
82 130 3.76E-2
82 140 2.61E-2
82 144 8.21E-2
82 166 5.51E-2
82 182 5.64E-2
83 45 3.93E-2
83 47 4.83E-2
83 54 3.07E-2
83 58 2.71E-2
83 59 2.97E-2
83 65 3.78E-2
83 85 2.11E-2
83 86 9.8E-3
83 97 1.95E-2
83 104 1.36E-2
83 118 1.45E-1
83 144 3.43E-2
83 166 6.81E-2
83 201 6.49E-2
83 248 9.27E-2
84 112 1.31E-2
84 118 2.45E-2
85 81 6.9E-3
85 83 2.11E-2
85 97 6.4E-3
85 144 2.61E-2
85 261 1.272E-1
86 47 5.55E-2
86 83 9.8E-3
86 144 2.86E-2
87 65 2.23E-2
87 66 1.56E-2
87 75 8.5E-3
88 118 1.42E-2
89 174 3.86E-2
90 67 2.58E-2
90 71 1.43E-2
90 73 1.15E-2
90 94 7.5E-3
90 112 3.17E-2
90 118 1.33E-2
90 152 5.28E-2
90 166 8.55E-2
90 182 4.22E-2
91 92 8E-3
91 95 5.7E-3
91 109 3.48E-2
91 112 3.02E-2
91 118 5.32E-2
91 119 2.78E-2
91 146 2.96E-2
91 147 2.93E-2
91 150 3.09E-2
91 152 2.83E-2
91 162 3.34E-2
91 174 3.8E-2
91 176 5.27E-2
91 177 3.99E-2
91 179 4.08E-2
91 221 6.94E-2
91 230 7.73E-2
91 255 9.68E-2
92 91 8E-3
92 95 1.35E-2
92 109 2.7E-2
92 112 3.79E-2
92 118 6.11E-2
92 119 2.07E-2
92 143 2.69E-2
92 146 2.5E-2
92 147 2.51E-2
92 150 2.64E-2
92 152 3.26E-2
92 162 3.12E-2
92 174 3.77E-2
92 176 5.84E-2
92 179 4.09E-2
92 182 8.37E-2
92 221 7.04E-2
92 230 7.93E-2
92 255 9.98E-2
92 299 1.427E-1
93 100 4.7E-3
93 118 2.32E-2
93 152 2.97E-2
93 161 2.94E-2
94 47 1.804E-1
94 67 3.27E-2
94 73 1.29E-2
94 77 1.04E-2
94 90 7.5E-3
94 99 1.21E-2
94 109 8.63E-2
94 112 2.42E-2
94 118 9.3E-3
94 131 3.41E-2
94 146 7.45E-2
94 147 7.33E-2
94 152 4.56E-2
94 159 3.8E-2
94 162 7.09E-2
94 166 9.17E-2
94 172 4.92E-2
94 176 4.08E-2
94 179 6.77E-2
94 182 4.2E-2
94 201 1.827E-1
94 217 6.55E-2
94 219 1.535E-1
94 230 8.19E-2
94 232 7.62E-2
94 248 1.776E-1
94 255 9.06E-2
94 258 1.528E-1
94 261 1.068E-1
94 263 1.782E-1
94 299 1.427E-1
94 301 1.457E-1
94 310 1.661E-1
94 311 1.684E-1
95 67 7.6E-2
95 91 5.7E-3
95 92 1.35E-2
95 101 2.52E-2
95 109 3.98E-2
95 112 2.45E-2
95 118 4.76E-2
95 119 3.23E-2
95 131 2.16E-2
95 146 3.23E-2
95 147 3.17E-2
95 150 3.35E-2
95 152 2.46E-2
95 162 3.43E-2
95 174 3.75E-2
95 176 4.79E-2
95 177 3.87E-2
95 179 3.99E-2
95 221 6.75E-2
95 230 7.47E-2
95 255 9.34E-2
95 299 1.392E-1
96 68 2.23E-2
96 72 1.71E-2
96 118 8.44E-2
96 147 2.55E-2
96 152 5.05E-2
96 162 3.51E-2
96 177 4.89E-2
97 83 1.95E-2
97 85 6.4E-3
97 104 1.05E-2
98 76 2.04E-2
98 144 3.47E-2
99 67 4.35E-2
99 94 1.21E-2
99 112 1.28E-2
99 118 1.49E-2
99 147 6.16E-2
99 152 3.54E-2
99 161 2.93E-2
99 167 3.05E-2
99 176 3.7E-2
100 93 4.7E-3
100 111 7.1E-3
100 112 8.3E-3
100 118 1.86E-2
100 137 1.75E-2
100 152 3.12E-2
100 161 2.76E-2
101 80 1.98E-2
101 95 2.52E-2
101 112 4.89E-2
101 118 7.22E-2
101 129 1.2E-2
101 146 1.89E-2
101 152 3.92E-2
101 162 2.85E-2
101 174 3.72E-2
101 176 6.57E-2
101 179 4.07E-2
101 221 7.04E-2
101 230 8.07E-2
101 255 1.024E-1
102 107 8.7E-3
102 118 2.36E-2
102 120 7.3E-3
102 182 3.78E-2
103 115 3.8E-3
103 152 2.71E-2
104 83 1.36E-2
104 97 1.05E-2
104 144 2.06E-2
105 123 2.48E-2
105 167 3.06E-2
105 182 5.12E-2
106 82 1.13E-2
106 118 4.34E-2
106 120 2.43E-2
106 140 1.5E-2
106 166 5E-2
106 182 4.65E-2
107 102 8.7E-3
107 118 1.49E-2
108 65 3.07E-2
108 75 1.68E-2
108 116 6.2E-3
108 201 4.55E-2
109 47 2.658E-1
109 67 1.156E-1
109 68 2.59E-2
109 80 1.28E-2
109 91 3.48E-2
109 92 2.7E-2
109 94 8.63E-2
109 95 3.98E-2
109 112 6.29E-2
109 118 8.62E-2
109 119 9.5E-3
109 131 5.6E-2
109 144 2.092E-1
109 146 2.11E-2
109 147 2.27E-2
109 150 2.18E-2
109 152 5.03E-2
109 159 6.47E-2
109 161 7.13E-2
109 162 3.21E-2
109 166 1.744E-1
109 167 8.19E-2
109 170 3.32E-2
109 174 4.2E-2
109 176 7.65E-2
109 177 4.64E-2
109 179 4.55E-2
109 182 1.045E-1
109 201 2.655E-1
109 202 5.65E-2
109 203 2.638E-1
109 212 5.86E-2
109 217 9.97E-2
109 219 2.328E-1
109 221 7.36E-2
109 230 8.51E-2
109 232 1.193E-1
109 248 2.545E-1
109 255 1.078E-1
109 258 2.256E-1
109 261 1.605E-1
109 273 1.108E-1
109 293 1.714E-1
109 299 1.431E-1
109 301 1.495E-1
109 306 1.568E-1
109 307 1.608E-1
109 310 1.625E-1
109 311 1.652E-1
109 321 2.3E-1
110 152 4.58E-2
110 162 2.86E-2
111 67 4.65E-2
111 71 2.52E-2
111 100 7.1E-3
111 112 1.12E-2
111 118 1.23E-2
111 152 3.18E-2
111 161 2.33E-2
112 8 3.847E-1
112 47 2.046E-1
112 65 2.025E-1
112 67 5.63E-2
112 70 2.67E-2
112 71 3.26E-2
112 84 1.31E-2
112 90 3.17E-2
112 91 3.02E-2
112 92 3.79E-2
112 94 2.42E-2
112 95 2.45E-2
112 99 1.28E-2
112 100 8.3E-3
112 101 4.89E-2
112 109 6.29E-2
112 111 1.12E-2
112 118 2.33E-2
112 119 5.44E-2
112 123 2.28E-2
112 125 6.09E-2
112 126 1.59E-2
112 131 1.08E-2
112 136 5.03E-2
112 137 1.51E-2
112 144 1.464E-1
112 146 5.02E-2
112 147 4.9E-2
112 149 4.3E-2
112 150 5.1E-2
112 152 2.29E-2
112 157 3.87E-2
112 159 2.13E-2
112 161 2.25E-2
112 162 4.7E-2
112 166 1.121E-1
112 167 2.82E-2
112 170 5.19E-2
112 172 6.43E-2
112 174 4.48E-2
112 176 3.1E-2
112 177 4.34E-2
112 179 4.54E-2
112 182 4.87E-2
112 189 4.05E-2
112 201 2.035E-1
112 202 5.45E-2
112 203 2.019E-1
112 212 6.26E-2
112 217 6.06E-2
112 219 1.723E-1
112 221 6.49E-2
112 230 6.8E-2
112 232 7.64E-2
112 248 1.952E-1
112 253 1.938E-1
112 255 8.21E-2
112 258 1.684E-1
112 261 1.131E-1
112 263 1.947E-1
112 292 1.22E-1
112 293 1.319E-1
112 296 1.346E-1
112 299 1.321E-1
112 301 1.362E-1
112 305 1.417E-1
112 306 1.493E-1
112 307 1.5E-1
112 310 1.552E-1
112 311 1.577E-1
113 152 2.71E-2
113 174 2.92E-2
114 118 6.5E-3
115 103 3.8E-3
115 152 2.33E-2
116 65 3.31E-2
116 66 2.71E-2
116 74 2.03E-2
116 75 2.02E-2
116 108 6.2E-3
116 151 1.59E-2
117 152 1.52E-2
118 8 3.655E-1
118 45 1.602E-1
118 47 1.828E-1
118 51 6.55E-2
118 57 4.35E-2
118 65 1.8E-1
118 67 3.88E-2
118 68 1.008E-1
118 69 2.83E-2
118 70 2.89E-2
118 71 2.4E-2
118 72 7.88E-2
118 73 2.2E-2
118 76 7.97E-2
118 77 1.95E-2
118 78 2.98E-2
118 79 2.5E-2
118 80 9.1E-2
118 81 1.173E-1
118 82 4.75E-2
118 83 1.45E-1
118 84 2.45E-2
118 88 1.42E-2
118 90 1.33E-2
118 91 5.32E-2
118 92 6.11E-2
118 93 2.32E-2
118 94 9.3E-3
118 95 4.76E-2
118 96 8.44E-2
118 99 1.49E-2
118 100 1.86E-2
118 101 7.22E-2
118 102 2.36E-2
118 106 4.34E-2
118 107 1.49E-2
118 109 8.62E-2
118 111 1.23E-2
118 112 2.33E-2
118 114 6.5E-3
118 119 7.75E-2
118 120 1.94E-2
118 125 8.39E-2
118 126 8.5E-3
118 127 2.12E-2
118 128 2.96E-2
118 129 7.04E-2
118 130 1.42E-2
118 131 3.13E-2
118 133 4.12E-2
118 134 7.68E-2
118 136 7.28E-2
118 137 1.68E-2
118 139 3.44E-2
118 140 4.64E-2
118 143 7.62E-2
118 144 1.231E-1
118 145 2E-2
118 146 7.24E-2
118 147 7.11E-2
118 148 1.55E-2
118 149 6.48E-2
118 150 7.3E-2
118 152 4.16E-2
118 153 9.94E-2
118 154 1.52E-2
118 155 1.57E-2
118 157 5.92E-2
118 158 1.86E-2
118 159 3.17E-2
118 161 2.73E-2
118 162 6.76E-2
118 163 2.23E-2
118 164 2.11E-2
118 166 8.9E-2
118 167 2.31E-2
118 168 9.93E-2
118 169 1.64E-1
118 172 4.31E-2
118 173 1.001E-1
118 174 6.32E-2
118 176 3.25E-2
118 177 6.06E-2
118 179 6.28E-2
118 181 9.07E-2
118 182 3.32E-2
118 183 1.744E-1
118 186 4.71E-2
118 189 3.79E-2
118 191 3.76E-2
118 192 4.12E-2
118 197 1.795E-1
118 198 6.37E-2
118 201 1.804E-1
118 202 6.88E-2
118 203 1.788E-1
118 204 6E-2
118 212 7.69E-2
118 216 6.86E-2
118 217 5.62E-2
118 218 6.93E-2
118 219 1.498E-1
118 221 7.45E-2
118 222 6.22E-2
118 225 8E-2
118 229 9.55E-2
118 230 7.37E-2
118 232 6.7E-2
118 233 1.161E-1
118 240 7.03E-2
118 246 1.691E-1
118 248 1.733E-1
118 249 8.42E-2
118 250 1.652E-1
118 253 1.72E-1
118 255 8.15E-2
118 256 8.06E-2
118 258 1.474E-1
118 260 9.55E-2
118 261 9.85E-2
118 263 1.733E-1
118 273 1.001E-1
118 274 1.504E-1
118 276 1.353E-1
118 284 1.142E-1
118 288 1.222E-1
118 292 1.151E-1
118 293 1.207E-1
118 296 1.237E-1
118 297 1.305E-1
118 299 1.337E-1
118 301 1.366E-1
118 305 1.419E-1
118 306 1.514E-1
118 307 1.508E-1
118 310 1.57E-1
118 311 1.594E-1
118 313 4.076E-1
118 321 2.51E-1
119 67 1.082E-1
119 91 2.78E-2
119 92 2.07E-2
119 95 3.23E-2
119 109 9.5E-3
119 112 5.44E-2
119 118 7.75E-2
119 131 4.7E-2
119 146 1.26E-2
119 147 1.41E-2
119 150 1.36E-2
119 152 4.08E-2
119 162 2.36E-2
119 174 3.33E-2
119 176 6.7E-2
119 177 3.75E-2
119 179 3.68E-2
119 182 9.5E-2
119 217 9.04E-2
119 221 6.57E-2
119 230 7.68E-2
119 255 9.92E-2
119 261 1.511E-1
119 299 1.363E-1
119 301 1.425E-1
119 306 1.505E-1
119 310 1.563E-1
119 311 1.59E-1
119 321 2.271E-1
120 67 2.97E-2
120 102 7.3E-3
120 106 2.43E-2
120 118 1.94E-2
120 130 7.3E-3
120 166 7E-2
120 182 3.07E-2
120 258 1.312E-1
121 142 6.29E-2
122 163 2.2E-2
123 47 1.841E-1
123 67 4.06E-2
123 105 2.48E-2
123 112 2.28E-2
123 131 3.02E-2
123 146 7.14E-2
123 147 7E-2
123 152 4.03E-2
123 159 3E-2
123 163 2.1E-2
123 166 8.94E-2
123 167 2.11E-2
123 172 4.27E-2
123 179 6.13E-2
123 182 3.19E-2
123 217 5.44E-2
123 219 1.499E-1
123 255 7.96E-2
123 261 9.73E-2
123 273 9.81E-2
123 296 1.222E-1
123 299 1.317E-1
123 301 1.347E-1
123 302 1.351E-1
123 307 1.489E-1
123 310 1.551E-1
124 138 7.6E-3
124 201 4.08E-2
125 68 3.23E-2
125 112 6.09E-2
125 118 8.39E-2
125 131 5.32E-2
125 147 1.71E-2
125 152 4.63E-2
125 162 2.63E-2
125 170 2.7E-2
125 174 3.62E-2
125 177 4.06E-2
125 179 3.96E-2
125 221 6.73E-2
125 230 7.89E-2
125 255 1.017E-1
125 299 1.366E-1
126 112 1.59E-2
126 118 8.5E-3
126 137 8.9E-3
126 152 3.31E-2
126 161 2.03E-2
126 176 2.68E-2
126 182 3.49E-2
126 217 5.33E-2
127 118 2.12E-2
127 137 9.2E-3
127 152 2.1E-2
127 255 7.6E-2
128 67 3.21E-2
128 118 2.96E-2
128 133 1.16E-2
128 142 1.129E-1
128 152 6.91E-2
128 166 5.96E-2
128 182 3.15E-2
128 258 1.214E-1
128 261 8.44E-2
129 101 1.2E-2
129 118 7.04E-2
129 152 3.27E-2
129 221 5.89E-2
129 255 9.17E-2
130 82 3.76E-2
130 118 1.42E-2
130 120 7.3E-3
130 145 7.1E-3
130 148 8.6E-3
130 160 1.48E-2
130 166 7.49E-2
130 182 2.58E-2
130 258 1.336E-1
131 47 2.139E-1
131 67 6.67E-2
131 94 3.41E-2
131 95 2.16E-2
131 109 5.6E-2
131 112 1.08E-2
131 118 3.13E-2
131 119 4.7E-2
131 123 3.02E-2
131 125 5.32E-2
131 146 4.12E-2
131 147 3.98E-2
131 150 4.18E-2
131 152 1.21E-2
131 153 1.295E-1
131 162 3.68E-2
131 166 1.183E-1
131 167 2.78E-2
131 170 4.15E-2
131 172 6.85E-2
131 174 3.4E-2
131 176 2.67E-2
131 177 3.25E-2
131 179 3.46E-2
131 182 5.02E-2
131 189 3.67E-2
131 201 2.095E-1
131 212 5.19E-2
131 217 5.62E-2
131 219 1.771E-1
131 221 5.52E-2
131 230 5.94E-2
131 248 1.993E-1
131 255 7.53E-2
131 258 1.715E-1
131 261 1.123E-1
131 292 1.172E-1
131 293 1.29E-1
131 299 1.24E-1
131 301 1.284E-1
131 305 1.339E-1
131 306 1.41E-1
131 307 1.421E-1
131 310 1.469E-1
131 311 1.494E-1
132 152 2.43E-2
132 174 2.12E-2
132 230 6.43E-2
132 255 8.58E-2
133 67 3.68E-2
133 118 4.12E-2
133 128 1.16E-2
133 140 6.2E-3
133 144 8.21E-2
133 152 8.02E-2
133 166 4.81E-2
133 172 2.01E-2
133 182 3.73E-2
133 219 1.101E-1
133 232 6.69E-2
133 255 9.36E-2
133 258 1.113E-1
133 261 8.06E-2
133 293 1.082E-1
134 118 7.68E-2
134 136 4.6E-3
135 139 5E-3
136 67 1.058E-1
136 112 5.03E-2
136 118 7.28E-2
136 134 4.6E-3
136 152 3.37E-2
137 100 1.75E-2
137 112 1.51E-2
137 118 1.68E-2
137 126 8.9E-3
137 127 9.2E-3
137 139 1.91E-2
137 152 2.57E-2
137 161 1.14E-2
137 176 1.87E-2
137 255 7.02E-2
138 124 7.6E-3
138 183 2.53E-2
138 201 3.33E-2
139 118 3.44E-2
139 135 5E-3
139 137 1.91E-2
139 161 1.71E-2
139 162 3.31E-2
139 167 2.72E-2
139 177 2.77E-2
139 230 5.46E-2
140 82 2.61E-2
140 106 1.5E-2
140 118 4.64E-2
140 133 6.2E-3
140 166 4.26E-2
140 182 3.82E-2
141 157 8.3E-3
141 177 1.83E-2
142 39 8.35E-2
142 45 6.55E-2
142 47 7.14E-2
142 65 5.72E-2
142 76 7.17E-2
142 121 6.29E-2
142 128 1.129E-1
142 144 1.94E-2
142 166 5.64E-2
142 172 1.083E-1
142 198 9.83E-2
142 216 1.105E-1
142 225 1.062E-1
142 229 8.95E-2
142 233 7.24E-2
142 261 1.219E-1
142 293 1.469E-1
143 92 2.69E-2
143 118 7.62E-2
143 147 5.5E-3
143 152 3.64E-2
143 162 1.4E-2
143 170 1.48E-2
143 174 2.39E-2
143 221 5.52E-2
143 230 6.66E-2
143 299 1.253E-1
143 306 1.394E-1
143 310 1.452E-1
143 311 1.479E-1
144 8 2.746E-1
144 40 7.28E-2
144 45 7.12E-2
144 46 6.41E-2
144 47 8.25E-2
144 50 5.96E-2
144 53 8.09E-2
144 55 5.56E-2
144 59 6.38E-2
144 62 5.11E-2
144 63 4.79E-2
144 65 7.09E-2
144 67 1.033E-1
144 76 5.51E-2
144 81 2.77E-2
144 82 8.21E-2
144 83 3.43E-2
144 85 2.61E-2
144 86 2.86E-2
144 98 3.47E-2
144 104 2.06E-2
144 109 2.092E-1
144 112 1.464E-1
144 118 1.231E-1
144 133 8.21E-2
144 142 1.94E-2
144 150 1.945E-1
144 162 1.873E-1
144 166 3.74E-2
144 168 2.8E-2
144 169 4.16E-2
144 172 8.9E-2
144 176 1.401E-1
144 177 1.767E-1
144 181 4.16E-2
144 182 1.118E-1
144 183 5.29E-2
144 197 5.99E-2
144 201 6.09E-2
144 203 6.03E-2
144 213 5.49E-2
144 216 9.29E-2
144 219 4.77E-2
144 225 8.95E-2
144 233 6.13E-2
144 245 7.08E-2
144 246 7.04E-2
144 248 7.31E-2
144 250 7.04E-2
144 253 7.42E-2
144 255 1.56E-1
144 258 7.02E-2
144 261 1.071E-1
144 263 8.13E-2
144 274 8.3E-2
144 292 1.512E-1
144 293 1.335E-1
144 297 1.276E-1
144 299 1.958E-1
145 118 2E-2
145 130 7.1E-3
145 148 7.4E-3
145 182 1.98E-2
146 67 1.061E-1
146 72 3.55E-2
146 80 3.29E-2
146 91 2.96E-2
146 92 2.5E-2
146 94 7.45E-2
146 95 3.23E-2
146 101 1.89E-2
146 109 2.11E-2
146 112 5.02E-2
146 118 7.24E-2
146 119 1.26E-2
146 123 7.14E-2
146 131 4.12E-2
146 147 1.7E-3
146 150 1.4E-3
146 152 3.25E-2
146 159 4.66E-2
146 161 5.33E-2
146 166 1.583E-1
146 167 6.41E-2
146 168 1.686E-1
146 172 1.071E-1
146 174 2.09E-2
146 176 5.74E-2
146 177 2.53E-2
146 179 2.44E-2
146 182 8.62E-2
146 189 6.54E-2
146 202 3.58E-2
146 212 3.9E-2
146 217 7.9E-2
146 218 5.43E-2
146 221 5.31E-2
146 230 6.42E-2
146 232 9.87E-2
146 237 7.04E-2
146 255 8.68E-2
146 260 8.15E-2
146 261 1.4E-1
146 284 1.06E-1
146 292 1.326E-1
146 293 1.503E-1
146 299 1.238E-1
146 301 1.3E-1
146 305 1.353E-1
146 306 1.383E-1
146 307 1.418E-1
146 310 1.441E-1
146 311 1.468E-1
147 47 2.535E-1
147 67 1.05E-1
147 68 4.78E-2
147 72 3.65E-2
147 80 3.44E-2
147 91 2.93E-2
147 92 2.51E-2
147 94 7.33E-2
147 95 3.17E-2
147 96 2.55E-2
147 99 6.16E-2
147 109 2.27E-2
147 112 4.9E-2
147 118 7.11E-2
147 119 1.41E-2
147 123 7E-2
147 125 1.71E-2
147 131 3.98E-2
147 143 5.5E-3
147 146 1.7E-3
147 150 2E-3
147 152 3.1E-2
147 153 1.684E-1
147 159 4.5E-2
147 161 5.17E-2
147 162 9.5E-3
147 166 1.567E-1
147 167 6.25E-2
147 172 1.055E-1
147 174 1.93E-2
147 176 5.58E-2
147 177 2.37E-2
147 179 2.29E-2
147 182 8.45E-2
147 201 2.472E-1
147 202 3.44E-2
147 212 3.78E-2
147 217 7.73E-2
147 218 5.28E-2
147 219 2.134E-1
147 221 5.17E-2
147 230 6.27E-2
147 232 9.7E-2
147 248 2.344E-1
147 249 7.36E-2
147 255 8.52E-2
147 258 2.049E-1
147 260 8.02E-2
147 261 1.383E-1
147 273 8.93E-2
147 284 1.047E-1
147 292 1.31E-1
147 293 1.487E-1
147 298 1.155E-1
147 299 1.226E-1
147 300 1.247E-1
147 301 1.288E-1
147 305 1.34E-1
147 306 1.372E-1
147 307 1.406E-1
147 310 1.43E-1
147 311 1.457E-1
147 320 2.151E-1
147 321 2.166E-1
147 322 2.187E-1
147 324 2.201E-1
147 325 2.247E-1
148 118 1.55E-2
148 130 8.6E-3
148 145 7.4E-3
148 158 9.4E-3
148 166 7.79E-2
148 182 1.86E-2
149 112 4.3E-2
149 118 6.48E-2
149 152 2.44E-2
149 157 8E-3
149 221 4.87E-2
149 230 5.9E-2
149 255 8.11E-2
150 47 2.555E-1
150 67 1.069E-1
150 91 3.09E-2
150 92 2.64E-2
150 95 3.35E-2
150 109 2.18E-2
150 112 5.1E-2
150 118 7.3E-2
150 119 1.36E-2
150 131 4.18E-2
150 144 1.945E-1
150 146 1.4E-3
150 147 2E-3
150 152 3.28E-2
150 159 4.68E-2
150 162 1.04E-2
150 166 1.586E-1
150 167 6.43E-2
150 174 2.03E-2
150 176 5.74E-2
150 177 2.47E-2
150 179 2.38E-2
150 182 8.63E-2
150 201 2.491E-1
150 202 3.49E-2
150 212 3.79E-2
150 219 2.151E-1
150 221 5.22E-2
150 230 6.34E-2
150 248 2.36E-1
150 255 8.6E-2
150 258 2.065E-1
150 261 1.396E-1
150 263 2.335E-1
150 292 1.318E-1
150 296 1.517E-1
150 299 1.227E-1
150 301 1.289E-1
150 306 1.371E-1
150 310 1.429E-1
150 311 1.456E-1
150 320 2.143E-1
150 321 2.158E-1
150 322 2.178E-1
150 324 2.193E-1
150 325 2.238E-1
151 65 4.85E-2
151 66 4.22E-2
151 75 3.48E-2
151 116 1.59E-2
151 201 2.76E-2
152 47 2.244E-1
152 67 7.83E-2
152 72 5.23E-2
152 80 5.88E-2
152 90 5.28E-2
152 91 2.83E-2
152 92 3.26E-2
152 93 2.97E-2
152 94 4.56E-2
152 95 2.46E-2
152 96 5.05E-2
152 99 3.54E-2
152 100 3.12E-2
152 101 3.92E-2
152 103 2.71E-2
152 109 5.03E-2
152 110 4.58E-2
152 111 3.18E-2
152 112 2.29E-2
152 113 2.71E-2
152 115 2.33E-2
152 117 1.52E-2
152 118 4.16E-2
152 119 4.08E-2
152 123 4.03E-2
152 125 4.63E-2
152 126 3.31E-2
152 127 2.1E-2
152 128 6.91E-2
152 129 3.27E-2
152 131 1.21E-2
152 132 2.43E-2
152 133 8.02E-2
152 136 3.37E-2
152 137 2.57E-2
152 143 3.64E-2
152 146 3.25E-2
152 147 3.1E-2
152 149 2.44E-2
152 150 3.28E-2
152 156 2.77E-2
152 157 1.78E-2
152 158 4.12E-2
152 159 1.44E-2
152 161 2.11E-2
152 162 2.61E-2
152 166 1.258E-1
152 167 3.18E-2
152 170 3.05E-2
152 172 7.47E-2
152 174 2.21E-2
152 176 2.65E-2
152 177 2.04E-2
152 179 2.25E-2
152 182 5.42E-2
152 183 2.114E-1
152 186 2.14E-2
152 187 2.35E-2
152 189 3.57E-2
152 191 4.39E-2
152 192 3.23E-2
152 198 9.17E-2
152 201 2.163E-1
152 202 3.21E-2
152 210 3.73E-2
152 212 4E-2
152 215 4E-2
152 217 5.31E-2
152 218 4.2E-2
152 219 1.828E-1
152 221 4.47E-2
152 222 4.86E-2
152 230 5.05E-2
152 232 7.19E-2
152 233 1.441E-1
152 248 2.042E-1
152 252 6.54E-2
152 255 6.88E-2
152 256 7.41E-2
152 258 1.754E-1
152 261 1.122E-1
152 263 2.023E-1
152 284 9.58E-2
152 288 1.319E-1
152 292 1.126E-1
152 293 1.265E-1
152 297 1.4E-1
152 299 1.153E-1
152 301 1.202E-1
152 305 1.257E-1
152 306 1.319E-1
152 307 1.335E-1
152 310 1.378E-1
152 311 1.404E-1
153 67 8.29E-2
153 118 9.94E-2
153 131 1.295E-1
153 147 1.684E-1
153 166 1.37E-2
153 203 8.06E-2
153 248 8.45E-2
153 261 8.92E-2
153 293 1.171E-1
154 118 1.52E-2
154 164 6.2E-3
154 171 1.28E-2
154 182 1.8E-2
155 118 1.57E-2
155 171 9.4E-3
156 152 2.77E-2
157 112 3.87E-2
157 118 5.92E-2
157 141 8.3E-3
157 149 8E-3
157 152 1.78E-2
157 177 1.25E-2
157 221 4.26E-2
157 230 5.21E-2
157 255 7.38E-2
158 118 1.86E-2
158 148 9.4E-3
158 152 4.12E-2
158 161 2.07E-2
158 171 7.4E-3
158 182 1.62E-2
159 67 7.03E-2
159 94 3.8E-2
159 109 6.47E-2
159 112 2.13E-2
159 118 3.17E-2
159 123 3E-2
159 146 4.66E-2
159 147 4.5E-2
159 150 4.68E-2
159 152 1.44E-2
159 161 6.8E-3
159 162 3.9E-2
159 166 1.12E-1
159 167 1.75E-2
159 174 3.27E-2
159 176 1.28E-2
159 179 3.17E-2
159 182 3.98E-2
159 217 4.17E-2
159 219 1.685E-1
159 230 4.68E-2
159 248 1.898E-1
159 255 6.12E-2
159 258 1.61E-1
159 261 9.9E-2
159 293 1.148E-1
159 299 1.108E-1
159 301 1.149E-1
160 130 1.48E-2
160 182 1.22E-2
161 67 6.61E-2
161 93 2.94E-2
161 99 2.93E-2
161 100 2.76E-2
161 109 7.13E-2
161 111 2.33E-2
161 112 2.25E-2
161 118 2.73E-2
161 126 2.03E-2
161 137 1.14E-2
161 139 1.71E-2
161 146 5.33E-2
161 147 5.17E-2
161 152 2.11E-2
161 158 2.07E-2
161 159 6.8E-3
161 162 4.57E-2
161 167 1.08E-2
161 174 3.9E-2
161 179 3.78E-2
161 182 3.32E-2
161 189 1.83E-2
161 191 2.45E-2
161 230 4.78E-2
161 248 1.832E-1
161 255 5.98E-2
161 261 9.36E-2
161 299 1.106E-1
161 301 1.143E-1
162 67 1.033E-1
162 72 4.52E-2
162 80 4.4E-2
162 91 3.34E-2
162 92 3.12E-2
162 94 7.09E-2
162 95 3.43E-2
162 96 3.51E-2
162 101 2.85E-2
162 109 3.21E-2
162 110 2.86E-2
162 112 4.7E-2
162 118 6.76E-2
162 119 2.36E-2
162 125 2.63E-2
162 131 3.68E-2
162 139 3.31E-2
162 143 1.4E-2
162 144 1.873E-1
162 147 9.5E-3
162 150 1.04E-2
162 152 2.61E-2
162 159 3.9E-2
162 161 4.57E-2
162 166 1.51E-1
162 167 5.63E-2
162 172 9.94E-2
162 174 9.9E-3
162 176 4.86E-2
162 177 1.44E-2
162 179 1.34E-2
162 182 7.77E-2
162 201 2.41E-1
162 202 2.5E-2
162 212 2.89E-2
162 217 6.84E-2
162 218 4.33E-2
162 219 2.065E-1
162 221 4.23E-2
162 230 5.32E-2
162 232 8.81E-2
162 237 5.93E-2
162 243 5.52E-2
162 248 2.27E-1
162 249 6.41E-2
162 252 6.21E-2
162 255 7.57E-2
162 258 1.971E-1
162 261 1.295E-1
162 273 8E-2
162 284 9.54E-2
162 288 1.465E-1
162 292 1.215E-1
162 293 1.393E-1
162 299 1.136E-1
162 301 1.196E-1
162 305 1.249E-1
162 306 1.284E-1
162 307 1.317E-1
162 310 1.342E-1
162 311 1.369E-1
162 321 2.101E-1
163 118 2.23E-2
163 122 2.2E-2
163 123 2.1E-2
163 182 1.1E-2
164 118 2.11E-2
164 154 6.2E-3
164 182 1.28E-2
165 201 2.1E-2
166 41 8.31E-2
166 45 9.88E-2
166 47 1.15E-1
166 50 8.28E-2
166 51 7.96E-2
166 53 7.01E-2
166 62 6.05E-2
166 63 6.56E-2
166 65 1.059E-1
166 67 7.7E-2
166 75 1.021E-1
166 81 4.72E-2
166 82 5.51E-2
166 83 6.81E-2
166 90 8.55E-2
166 94 9.17E-2
166 106 5E-2
166 109 1.744E-1
166 112 1.121E-1
166 118 8.9E-2
166 120 7E-2
166 123 8.94E-2
166 128 5.96E-2
166 130 7.49E-2
166 131 1.183E-1
166 133 4.81E-2
166 140 4.26E-2
166 142 5.64E-2
166 144 3.74E-2
166 146 1.583E-1
166 147 1.567E-1
166 148 7.79E-2
166 150 1.586E-1
166 152 1.258E-1
166 153 1.37E-2
166 159 1.12E-1
166 162 1.51E-1
166 167 9.47E-2
166 168 1.04E-2
166 169 7.58E-2
166 172 5.2E-2
166 173 1.14E-2
166 174 1.438E-1
166 175 1.95E-2
166 176 1.032E-1
166 177 1.399E-1
166 181 9.4E-3
166 182 7.46E-2
166 183 8.57E-2
166 184 1.58E-2
166 197 9.05E-2
166 198 4.31E-2
166 201 9.14E-2
166 203 8.98E-2
166 206 6.34E-2
166 213 8.08E-2
166 216 5.72E-2
166 217 9.91E-2
166 219 6.31E-2
166 225 5.6E-2
166 230 1.295E-1
166 232 8.83E-2
166 233 4.61E-2
166 242 9.17E-2
166 245 8.69E-2
166 246 8.47E-2
166 248 8.86E-2
166 250 8.21E-2
166 251 8.83E-2
166 253 8.81E-2
166 255 1.195E-1
166 258 7.06E-2
166 261 7.7E-2
166 263 9.19E-2
166 274 7.94E-2
166 276 7.66E-2
166 288 9.77E-2
166 292 1.196E-1
166 293 1.055E-1
166 296 1.085E-1
166 297 1.032E-1
166 299 1.618E-1
166 301 1.603E-1
166 311 1.832E-1
166 313 3.226E-1
167 67 6.07E-2
167 99 3.05E-2
167 105 3.06E-2
167 109 8.19E-2
167 112 2.82E-2
167 118 2.31E-2
167 123 2.11E-2
167 131 2.78E-2
167 139 2.72E-2
167 146 6.41E-2
167 147 6.25E-2
167 150 6.43E-2
167 152 3.18E-2
167 159 1.75E-2
167 161 1.08E-2
167 162 5.63E-2
167 166 9.47E-2
167 172 4.31E-2
167 174 4.93E-2
167 176 1.05E-2
167 179 4.78E-2
167 182 2.27E-2
167 189 1.5E-2
167 191 1.72E-2
167 201 1.848E-1
167 217 3.44E-2
167 219 1.51E-1
167 230 5.09E-2
167 232 4.84E-2
167 248 1.726E-1
167 255 5.88E-2
167 258 1.441E-1
167 261 8.51E-2
167 292 9.51E-2
167 293 1.038E-1
167 299 1.108E-1
167 301 1.138E-1
167 302 1.143E-1
167 307 1.28E-1
167 310 1.341E-1
167 311 1.365E-1
168 118 9.93E-2
168 144 2.8E-2
168 146 1.686E-1
168 166 1.04E-2
168 248 8E-2
168 258 6.47E-2
168 261 8.18E-2
169 47 7.7E-2
169 65 6E-2
169 118 1.64E-1
169 144 4.16E-2
169 166 7.58E-2
169 183 1.2E-2
169 197 2.11E-2
169 201 2.22E-2
169 203 2.32E-2
169 213 2.6E-2
169 219 4.02E-2
169 246 5.32E-2
169 248 5.36E-2
169 258 7.01E-2
169 261 1.319E-1
169 263 6.59E-2
170 109 3.32E-2
170 112 5.19E-2
170 125 2.7E-2
170 131 4.15E-2
170 143 1.48E-2
170 152 3.05E-2
171 154 1.28E-2
171 155 9.4E-3
171 158 7.4E-3
172 47 1.606E-1
172 67 5.4E-2
172 94 4.92E-2
172 112 6.43E-2
172 118 4.31E-2
172 123 4.27E-2
172 131 6.85E-2
172 133 2.01E-2
172 142 1.083E-1
172 144 8.9E-2
172 146 1.071E-1
172 147 1.055E-1
172 152 7.47E-2
172 162 9.94E-2
172 166 5.2E-2
172 167 4.31E-2
172 174 9.19E-2
172 176 5.13E-2
172 179 9.01E-2
172 182 2.28E-2
172 198 2.09E-2
172 201 1.417E-1
172 216 3.02E-2
172 217 5.09E-2
172 219 1.085E-1
172 225 4.01E-2
172 230 8.02E-2
172 232 4.72E-2
172 248 1.31E-1
172 255 7.52E-2
172 258 1.044E-1
172 261 6.23E-2
172 263 1.305E-1
172 293 8.91E-2
172 299 1.243E-1
173 118 1.001E-1
173 166 1.14E-2
173 248 7.74E-2
173 261 7.86E-2
174 67 1.004E-1
174 89 3.86E-2
174 91 3.8E-2
174 92 3.77E-2
174 95 3.75E-2
174 101 3.72E-2
174 109 4.2E-2
174 112 4.48E-2
174 113 2.92E-2
174 118 6.32E-2
174 119 3.33E-2
174 125 3.62E-2
174 131 3.4E-2
174 132 2.12E-2
174 143 2.39E-2
174 146 2.09E-2
174 147 1.93E-2
174 150 2.03E-2
174 152 2.21E-2
174 159 3.27E-2
174 161 3.9E-2
174 162 9.9E-3
174 166 1.438E-1
174 167 4.93E-2
174 172 9.19E-2
174 176 4.07E-2
174 177 4.6E-3
174 182 6.98E-2
174 201 2.332E-1
174 202 1.62E-2
174 204 2.43E-2
174 212 2.19E-2
174 217 5.87E-2
174 218 3.38E-2
174 219 1.982E-1
174 221 3.33E-2
174 230 4.36E-2
174 248 2.183E-1
174 255 6.59E-2
174 258 1.882E-1
174 261 1.198E-1
174 273 7.12E-2
174 284 8.67E-2
174 292 1.117E-1
174 293 1.294E-1
174 299 1.053E-1
174 301 1.111E-1
174 305 1.164E-1
174 306 1.206E-1
174 307 1.234E-1
174 310 1.264E-1
174 311 1.291E-1
174 321 2.054E-1
175 166 1.95E-2
176 47 2.078E-1
176 65 2.031E-1
176 67 7.08E-2
176 80 8.53E-2
176 91 5.27E-2
176 92 5.84E-2
176 94 4.08E-2
176 95 4.79E-2
176 99 3.7E-2
176 101 6.57E-2
176 109 7.65E-2
176 112 3.1E-2
176 118 3.25E-2
176 119 6.7E-2
176 126 2.68E-2
176 131 2.67E-2
176 137 1.87E-2
176 144 1.401E-1
176 146 5.74E-2
176 147 5.58E-2
176 150 5.74E-2
176 152 2.65E-2
176 159 1.28E-2
176 162 4.86E-2
176 166 1.032E-1
176 167 1.05E-2
176 172 5.13E-2
176 174 4.07E-2
176 179 3.88E-2
176 182 2.91E-2
176 189 1E-2
176 192 9.6E-3
176 201 1.925E-1
176 202 4.02E-2
176 212 4.78E-2
176 217 2.97E-2
176 218 3.71E-2
176 219 1.579E-1
176 221 4.26E-2
176 222 3.11E-2
176 230 4.12E-2
176 232 4.68E-2
176 233 1.182E-1
176 239 5.64E-2
176 248 1.786E-1
176 255 5.16E-2
176 256 5.35E-2
176 258 1.493E-1
176 261 8.62E-2
176 263 1.762E-1
176 271 7.01E-2
176 284 8.31E-2
176 292 9.11E-2
176 296 1.048E-1
176 299 1.028E-1
176 301 1.064E-1
176 305 1.118E-1
176 306 1.204E-1
176 307 1.204E-1
176 310 1.261E-1
176 311 1.285E-1
177 47 2.424E-1
177 67 9.83E-2
177 72 5.72E-2
177 80 5.79E-2
177 91 3.99E-2
177 95 3.87E-2
177 96 4.89E-2
177 109 4.64E-2
177 112 4.34E-2
177 118 6.06E-2
177 119 3.75E-2
177 125 4.06E-2
177 131 3.25E-2
177 139 2.77E-2
177 141 1.83E-2
177 144 1.767E-1
177 146 2.53E-2
177 147 2.37E-2
177 150 2.47E-2
177 152 2.04E-2
177 157 1.25E-2
177 162 1.44E-2
177 166 1.399E-1
177 174 4.6E-3
177 179 2.2E-3
177 182 6.57E-2
177 190 9.2E-3
177 201 2.29E-1
177 202 1.37E-2
177 204 2E-2
177 212 2.06E-2
177 218 3E-2
177 230 3.98E-2
177 240 6.27E-2
177 248 2.139E-1
177 255 6.18E-2
177 258 1.837E-1
177 260 5.92E-2
177 261 1.152E-1
177 263 2.108E-1
177 273 6.78E-2
177 292 1.075E-1
177 293 1.25E-1
177 299 1.023E-1
177 301 1.079E-1
177 310 1.238E-1
177 311 1.264E-1
177 321 2.044E-1
178 201 1.71E-2
179 67 1.005E-1
179 91 4.08E-2
179 92 4.09E-2
179 94 6.77E-2
179 95 3.99E-2
179 101 4.07E-2
179 109 4.55E-2
179 112 4.54E-2
179 118 6.28E-2
179 119 3.68E-2
179 123 6.13E-2
179 125 3.96E-2
179 131 3.46E-2
179 146 2.44E-2
179 147 2.29E-2
179 150 2.38E-2
179 152 2.25E-2
179 159 3.17E-2
179 161 3.78E-2
179 162 1.34E-2
179 167 4.78E-2
179 172 9.01E-2
179 176 3.88E-2
179 177 2.2E-3
179 182 6.78E-2
179 189 4.48E-2
179 217 5.56E-2
179 218 3.02E-2
179 221 2.99E-2
179 230 4.01E-2
179 232 7.53E-2
179 255 6.24E-2
179 260 5.89E-2
179 261 1.167E-1
179 292 1.082E-1
179 293 1.26E-1
179 299 1.019E-1
179 301 1.077E-1
179 306 1.173E-1
179 307 1.201E-1
179 310 1.232E-1
179 311 1.259E-1
180 182 9.5E-3
181 118 9.07E-2
181 144 4.16E-2
181 166 9.4E-3
181 182 7.3E-2
181 188 5E-3
181 219 5.93E-2
181 258 6.34E-2
181 261 6.87E-2
182 47 1.826E-1
182 67 6.04E-2
182 82 5.64E-2
182 90 4.22E-2
182 92 8.37E-2
182 94 4.2E-2
182 102 3.78E-2
182 105 5.12E-2
182 106 4.65E-2
182 109 1.045E-1
182 112 4.87E-2
182 118 3.32E-2
182 119 9.5E-2
182 120 3.07E-2
182 123 3.19E-2
182 126 3.49E-2
182 128 3.15E-2
182 130 2.58E-2
182 131 5.02E-2
182 133 3.73E-2
182 140 3.82E-2
182 144 1.118E-1
182 145 1.98E-2
182 146 8.62E-2
182 147 8.45E-2
182 148 1.86E-2
182 150 8.63E-2
182 152 5.42E-2
182 154 1.8E-2
182 158 1.62E-2
182 159 3.98E-2
182 160 1.22E-2
182 161 3.32E-2
182 162 7.77E-2
182 163 1.1E-2
182 164 1.28E-2
182 166 7.46E-2
182 167 2.27E-2
182 172 2.28E-2
182 174 6.98E-2
182 176 2.91E-2
182 177 6.57E-2
182 179 6.78E-2
182 180 9.5E-3
182 181 7.3E-2
182 189 2.41E-2
182 191 1.59E-2
182 192 3.01E-2
182 195 1.18E-2
182 196 1.33E-2
182 198 3.75E-2
182 201 1.634E-1
182 203 1.613E-1
182 206 2.11E-2
182 207 1.51E-2
182 209 2.61E-2
182 211 1.81E-2
182 212 7.43E-2
182 216 3.73E-2
182 217 3.13E-2
182 219 1.288E-1
182 220 3.27E-2
182 221 6.5E-2
182 222 4.29E-2
182 225 4.89E-2
182 226 3.85E-2
182 230 5.86E-2
182 232 3.55E-2
182 233 9.01E-2
182 239 3.96E-2
182 246 1.458E-1
182 248 1.5E-1
182 250 1.413E-1
182 253 1.483E-1
182 255 5.74E-2
182 256 5.29E-2
182 258 1.214E-1
182 261 6.55E-2
182 263 1.482E-1
182 274 1.225E-1
182 284 9.04E-2
182 292 8.37E-2
182 293 8.76E-2
182 296 9.05E-2
182 297 9.73E-2
182 299 1.088E-1
182 301 1.105E-1
182 305 1.155E-1
182 306 1.266E-1
182 307 1.246E-1
182 310 1.319E-1
182 311 1.34E-1
182 313 3.823E-1
182 321 2.303E-1
183 47 8.36E-2
183 65 6.6E-2
183 67 1.562E-1
183 118 1.744E-1
183 138 2.53E-2
183 144 5.29E-2
183 152 2.114E-1
183 166 8.57E-2
183 169 1.2E-2
183 197 9.9E-3
183 201 1.1E-2
183 203 1.29E-2
183 213 2.08E-2
183 219 4.12E-2
183 224 3.38E-2
183 245 4.61E-2
183 246 4.89E-2
183 248 4.83E-2
183 253 5.16E-2
183 258 7.01E-2
183 261 1.369E-1
183 263 6.13E-2
183 293 1.575E-1
184 166 1.58E-2
184 255 1.237E-1
184 261 7.38E-2
184 293 1.008E-1
185 201 8.8E-3
186 118 4.71E-2
186 152 2.14E-2
186 192 1.56E-2
186 230 3.04E-2
187 152 2.35E-2
188 181 5E-3
189 67 7.45E-2
189 112 4.05E-2
189 118 3.79E-2
189 131 3.67E-2
189 146 6.54E-2
189 152 3.57E-2
189 161 1.83E-2
189 167 1.5E-2
189 176 1E-2
189 179 4.48E-2
189 182 2.41E-2
189 192 5.9E-3
189 217 2.02E-2
189 230 3.74E-2
189 232 3.69E-2
189 255 4.38E-2
189 256 4.44E-2
189 261 7.65E-2
190 177 9.2E-3
190 202 8.3E-3
190 230 3.07E-2
191 118 3.76E-2
191 152 4.39E-2
191 161 2.45E-2
191 167 1.72E-2
191 182 1.59E-2
192 118 4.12E-2
192 152 3.23E-2
192 176 9.6E-3
192 182 3.01E-2
192 186 1.56E-2
192 189 5.9E-3
192 204 2.46E-2
192 217 2.11E-2
192 222 2.15E-2
192 255 4.2E-2
193 201 6.3E-3
194 221 2.07E-2
195 182 1.18E-2
195 207 5.8E-3
196 182 1.33E-2
197 47 9.29E-2
197 65 7.52E-2
197 67 1.629E-1
197 118 1.795E-1
197 144 5.99E-2
197 166 9.05E-2
197 169 2.11E-2
197 183 9.9E-3
197 201 1.1E-3
197 213 1.56E-2
197 219 3.92E-2
197 245 3.89E-2
197 246 4.22E-2
197 248 4.1E-2
197 250 4.72E-2
197 251 4.27E-2
197 253 4.45E-2
197 258 6.62E-2
197 261 1.363E-1
197 263 5.41E-2
198 118 6.37E-2
198 142 9.83E-2
198 152 9.17E-2
198 166 4.31E-2
198 172 2.09E-2
198 182 3.75E-2
198 206 2.1E-2
198 216 1.59E-2
198 219 9.15E-2
198 232 4.53E-2
198 258 8.45E-2
198 261 4.55E-2
199 201 7.2E-3
199 213 1.03E-2
200 213 9.3E-3
201 8 2.654E-1
201 45 9.86E-2
201 47 9.38E-2
201 65 7.61E-2
201 67 1.639E-1
201 74 6.37E-2
201 75 6.22E-2
201 83 6.49E-2
201 94 1.827E-1
201 108 4.55E-2
201 109 2.655E-1
201 112 2.035E-1
201 118 1.804E-1
201 124 4.08E-2
201 131 2.095E-1
201 138 3.33E-2
201 144 6.09E-2
201 147 2.472E-1
201 150 2.491E-1
201 151 2.76E-2
201 152 2.163E-1
201 162 2.41E-1
201 165 2.1E-2
201 166 9.14E-2
201 167 1.848E-1
201 169 2.22E-2
201 172 1.417E-1
201 174 2.332E-1
201 176 1.925E-1
201 177 2.29E-1
201 178 1.71E-2
201 182 1.634E-1
201 183 1.1E-2
201 185 8.8E-3
201 193 6.3E-3
201 197 1.1E-3
201 199 7.2E-3
201 203 3.3E-3
201 205 9.9E-3
201 213 1.57E-2
201 214 1.03E-2
201 217 1.823E-1
201 219 3.95E-2
201 224 2.68E-2
201 228 2.44E-2
201 230 2.122E-1
201 232 1.667E-1
201 233 8.39E-2
201 236 2.78E-2
201 242 3.31E-2
201 245 3.85E-2
201 246 4.19E-2
201 248 4.06E-2
201 250 4.7E-2
201 251 4.23E-2
201 253 4.41E-2
201 255 1.969E-1
201 258 6.62E-2
201 261 1.367E-1
201 263 5.36E-2
201 276 9.86E-2
201 292 1.79E-1
201 293 1.558E-1
201 299 2.268E-1
201 311 2.423E-1
201 313 2.389E-1
201 316 2.359E-1
201 318 2.421E-1
202 109 5.65E-2
202 112 5.45E-2
202 118 6.88E-2
202 146 3.58E-2
202 147 3.44E-2
202 150 3.49E-2
202 152 3.21E-2
202 162 2.5E-2
202 174 1.62E-2
202 176 4.02E-2
202 177 1.37E-2
202 190 8.3E-3
202 204 1.36E-2
202 212 8.2E-3
202 217 4.95E-2
202 221 1.73E-2
202 230 2.87E-2
202 255 5.17E-2
202 261 1.097E-1
203 47 9.63E-2
203 65 7.87E-2
203 67 1.63E-1
203 109 2.638E-1
203 112 2.019E-1
203 118 1.788E-1
203 144 6.03E-2
203 153 8.06E-2
203 166 8.98E-2
203 169 2.32E-2
203 182 1.613E-1
203 183 1.29E-2
203 201 3.3E-3
203 219 3.66E-2
203 245 3.53E-2
203 246 3.86E-2
203 248 3.73E-2
203 250 4.36E-2
203 251 3.9E-2
203 253 4.08E-2
203 258 6.29E-2
203 261 1.338E-1
203 263 5.04E-2
203 288 1.407E-1
203 293 1.527E-1
203 311 2.392E-1
204 118 6E-2
204 174 2.43E-2
204 177 2E-2
204 192 2.46E-2
204 202 1.36E-2
204 218 1.18E-2
204 230 2.08E-2
205 201 9.9E-3
205 213 6.4E-3
206 166 6.34E-2
206 182 2.11E-2
206 198 2.1E-2
206 209 5.8E-3
206 239 2.47E-2
206 261 4.56E-2
207 182 1.51E-2
207 195 5.8E-3
208 258 4.16E-2
209 182 2.61E-2
209 206 5.8E-3
210 152 3.73E-2
211 182 1.81E-2
212 109 5.86E-2
212 112 6.26E-2
212 118 7.69E-2
212 131 5.19E-2
212 146 3.9E-2
212 147 3.78E-2
212 150 3.79E-2
212 152 4E-2
212 162 2.89E-2
212 174 2.19E-2
212 176 4.78E-2
212 177 2.06E-2
212 182 7.43E-2
212 202 8.2E-3
212 217 5.39E-2
212 221 1.64E-2
212 230 2.9E-2
212 255 5.21E-2
212 261 1.128E-1
213 144 5.49E-2
213 166 8.08E-2
213 169 2.6E-2
213 183 2.08E-2
213 197 1.56E-2
213 199 1.03E-2
213 200 9.3E-3
213 201 1.57E-2
213 205 6.4E-3
213 245 2.55E-2
213 246 2.82E-2
213 248 2.79E-2
213 253 3.11E-2
213 261 1.213E-1
213 263 4.07E-2
214 201 1.03E-2
214 248 3.08E-2
215 152 4E-2
215 230 1.41E-2
215 255 2.89E-2
216 118 6.86E-2
216 142 1.105E-1
216 144 9.29E-2
216 166 5.72E-2
216 172 3.02E-2
216 182 3.73E-2
216 198 1.59E-2
216 225 1.16E-2
216 232 3.2E-2
216 239 2.34E-2
216 255 6.33E-2
216 258 8.62E-2
216 261 3.21E-2
216 262 3.24E-2
216 293 5.95E-2
216 296 6.27E-2
217 67 9E-2
217 94 6.55E-2
217 109 9.97E-2
217 112 6.06E-2
217 118 5.62E-2
217 119 9.04E-2
217 123 5.44E-2
217 126 5.33E-2
217 131 5.62E-2
217 146 7.9E-2
217 147 7.73E-2
217 152 5.31E-2
217 159 4.17E-2
217 162 6.84E-2
217 166 9.91E-2
217 167 3.44E-2
217 172 5.09E-2
217 174 5.87E-2
217 176 2.97E-2
217 179 5.56E-2
217 182 3.13E-2
217 189 2.02E-2
217 192 2.11E-2
217 201 1.823E-1
217 202 4.95E-2
217 212 5.39E-2
217 218 3.44E-2
217 219 1.45E-1
217 221 4.03E-2
217 222 1.4E-2
217 230 3.05E-2
217 232 1.97E-2
217 239 3.12E-2
217 240 1.42E-2
217 248 1.628E-1
217 255 2.63E-2
217 256 2.45E-2
217 258 1.315E-1
217 261 6.11E-2
217 263 1.586E-1
217 271 4.04E-2
217 281 5.25E-2
217 283 5.8E-2
217 284 5.95E-2
217 286 5.41E-2
217 292 6.14E-2
217 293 7.34E-2
217 296 7.58E-2
217 297 8.7E-2
217 299 7.84E-2
217 301 8.07E-2
217 306 9.63E-2
217 307 9.5E-2
217 310 1.017E-1
217 311 1.039E-1
217 321 1.991E-1
218 118 6.93E-2
218 146 5.43E-2
218 147 5.28E-2
218 152 4.2E-2
218 162 4.33E-2
218 174 3.38E-2
218 176 3.71E-2
218 177 3E-2
218 179 3.02E-2
218 204 1.18E-2
218 217 3.44E-2
218 221 6.2E-3
218 230 9.9E-3
218 235 1.18E-2
218 249 2.15E-2
218 255 3.27E-2
218 261 9.23E-2
218 299 7.35E-2
219 47 1.144E-1
219 65 9.84E-2
219 67 1.399E-1
219 94 1.535E-1
219 109 2.328E-1
219 112 1.723E-1
219 118 1.498E-1
219 123 1.499E-1
219 131 1.771E-1
219 133 1.101E-1
219 144 4.77E-2
219 147 2.134E-1
219 150 2.151E-1
219 152 1.828E-1
219 159 1.685E-1
219 162 2.065E-1
219 166 6.31E-2
219 167 1.51E-1
219 169 4.02E-2
219 172 1.085E-1
219 174 1.982E-1
219 176 1.579E-1
219 181 5.93E-2
219 182 1.288E-1
219 183 4.12E-2
219 197 3.92E-2
219 198 9.15E-2
219 201 3.95E-2
219 203 3.66E-2
219 217 1.45E-1
219 230 1.744E-1
219 232 1.286E-1
219 233 4.46E-2
219 245 2.43E-2
219 246 2.3E-2
219 248 2.63E-2
219 250 2.27E-2
219 253 2.68E-2
219 255 1.582E-1
219 258 2.99E-2
219 261 9.72E-2
219 263 3.36E-2
219 274 4.36E-2
219 276 6.06E-2
219 293 1.165E-1
219 297 1.056E-1
219 299 1.873E-1
219 301 1.834E-1
219 313 2.595E-1
220 182 3.27E-2
220 226 6.4E-3
220 261 3.31E-2
221 91 6.94E-2
221 92 7.04E-2
221 95 6.75E-2
221 101 7.04E-2
221 109 7.36E-2
221 112 6.49E-2
221 118 7.45E-2
221 119 6.57E-2
221 125 6.73E-2
221 129 5.89E-2
221 131 5.52E-2
221 143 5.52E-2
221 146 5.31E-2
221 147 5.17E-2
221 149 4.87E-2
221 150 5.22E-2
221 152 4.47E-2
221 157 4.26E-2
221 162 4.23E-2
221 174 3.33E-2
221 176 4.26E-2
221 179 2.99E-2
221 182 6.5E-2
221 194 2.07E-2
221 202 1.73E-2
221 212 1.64E-2
221 217 4.03E-2
221 218 6.2E-3
221 230 1.27E-2
221 237 1.97E-2
221 243 1.59E-2
221 249 2.19E-2
221 252 2.1E-2
221 255 3.57E-2
221 260 2.91E-2
221 261 9.72E-2
221 273 3.79E-2
221 284 5.35E-2
221 298 6.5E-2
221 299 7.22E-2
221 300 7.49E-2
221 301 7.79E-2
221 305 8.32E-2
221 306 8.8E-2
221 307 9.05E-2
221 310 9.4E-2
221 311 9.66E-2
221 321 1.789E-1
221 322 1.818E-1
221 325 1.877E-1
222 118 6.22E-2
222 152 4.86E-2
222 176 3.11E-2
222 182 4.29E-2
222 192 2.15E-2
222 217 1.4E-2
222 230 1.65E-2
222 232 3.14E-2
222 255 2.08E-2
222 261 7.2E-2
223 230 8.4E-3
223 255 1.96E-2
224 183 3.38E-2
224 201 2.68E-2
224 242 1.04E-2
224 261 1.148E-1
225 118 8E-2
225 142 1.062E-1
225 144 8.95E-2
225 166 5.6E-2
225 172 4.01E-2
225 182 4.89E-2
225 216 1.16E-2
225 232 3.89E-2
225 255 6.91E-2
225 258 7.57E-2
225 261 2.41E-2
225 262 2.46E-2
225 293 5.3E-2
225 296 5.62E-2
226 182 3.85E-2
226 220 6.4E-3
226 261 2.71E-2
227 230 1.7E-2
228 201 2.44E-2
228 236 3.3E-3
229 118 9.55E-2
229 142 8.95E-2
229 233 2.51E-2
229 254 1.48E-2
229 261 3.25E-2
229 262 3.35E-2
229 274 5.55E-2
230 47 2.408E-1
230 67 1.115E-1
230 91 7.73E-2
230 92 7.93E-2
230 94 8.19E-2
230 95 7.47E-2
230 101 8.07E-2
230 109 8.51E-2
230 112 6.8E-2
230 118 7.37E-2
230 119 7.68E-2
230 125 7.89E-2
230 131 5.94E-2
230 132 6.43E-2
230 139 5.46E-2
230 143 6.66E-2
230 146 6.42E-2
230 147 6.27E-2
230 149 5.9E-2
230 150 6.34E-2
230 152 5.05E-2
230 157 5.21E-2
230 159 4.68E-2
230 161 4.78E-2
230 162 5.32E-2
230 166 1.295E-1
230 167 5.09E-2
230 172 8.02E-2
230 174 4.36E-2
230 176 4.12E-2
230 177 3.98E-2
230 179 4.01E-2
230 182 5.86E-2
230 186 3.04E-2
230 189 3.74E-2
230 190 3.07E-2
230 201 2.122E-1
230 202 2.87E-2
230 204 2.08E-2
230 212 2.9E-2
230 215 1.41E-2
230 217 3.05E-2
230 218 9.9E-3
230 219 1.744E-1
230 221 1.27E-2
230 222 1.65E-2
230 223 8.4E-3
230 227 1.7E-2
230 232 4.6E-2
230 234 2.17E-2
230 235 1.08E-2
230 237 7.1E-3
230 238 1.74E-2
230 239 5.76E-2
230 240 3.01E-2
230 243 1.79E-2
230 248 1.911E-1
230 249 1.22E-2
230 252 1.79E-2
230 255 2.32E-2
230 256 3.35E-2
230 258 1.591E-1
230 259 1.84E-2
230 260 2.26E-2
230 261 8.49E-2
230 263 1.86E-1
230 272 3.93E-2
230 273 2.95E-2
230 281 5.69E-2
230 284 4.53E-2
230 286 5.53E-2
230 287 4.91E-2
230 288 9.74E-2
230 292 6.88E-2
230 293 8.87E-2
230 295 5.32E-2
230 297 1.044E-1
230 298 5.77E-2
230 299 6.48E-2
230 300 6.8E-2
230 301 6.97E-2
230 305 7.51E-2
230 306 8.16E-2
230 307 8.3E-2
230 310 8.75E-2
230 311 9.01E-2
230 321 1.774E-1
231 258 1.64E-2
232 47 2.028E-1
232 67 9.54E-2
232 94 7.62E-2
232 109 1.193E-1
232 112 7.64E-2
232 118 6.7E-2
232 133 6.69E-2
232 146 9.87E-2
232 147 9.7E-2
232 152 7.19E-2
232 162 8.81E-2
232 166 8.83E-2
232 167 4.84E-2
232 172 4.72E-2
232 176 4.68E-2
232 179 7.53E-2
232 182 3.55E-2
232 189 3.69E-2
232 198 4.53E-2
232 201 1.667E-1
232 216 3.2E-2
232 217 1.97E-2
232 219 1.286E-1
232 222 3.14E-2
232 225 3.89E-2
232 230 4.6E-2
232 239 1.18E-2
232 240 1.69E-2
232 248 1.451E-1
232 255 3.13E-2
232 256 2.18E-2
232 258 1.133E-1
232 261 4.14E-2
232 283 4.35E-2
232 285 4.7E-2
232 288 6E-2
232 292 4.83E-2
232 296 5.82E-2
232 297 6.81E-2
232 299 7.71E-2
232 301 7.75E-2
232 307 9.15E-2
232 310 9.94E-2
232 311 1.013E-1
233 67 1.163E-1
233 118 1.161E-1
233 142 7.24E-2
233 144 6.13E-2
233 152 1.441E-1
233 166 4.61E-2
233 176 1.182E-1
233 182 9.01E-2
233 201 8.39E-2
233 219 4.46E-2
233 229 2.51E-2
233 248 6.09E-2
233 254 2.77E-2
233 255 1.138E-1
233 258 3.15E-2
233 261 5.29E-2
233 262 5.39E-2
233 263 5.81E-2
233 274 3.55E-2
233 275 3.72E-2
233 276 3.09E-2
233 293 7.5E-2
233 296 7.73E-2
234 230 2.17E-2
234 255 1.39E-2
235 218 1.18E-2
235 230 1.08E-2
236 201 2.78E-2
236 228 3.3E-3
237 146 7.04E-2
237 162 5.93E-2
237 221 1.97E-2
237 230 7.1E-3
237 255 1.65E-2
238 230 1.74E-2
239 176 5.64E-2
239 182 3.96E-2
239 206 2.47E-2
239 216 2.34E-2
239 217 3.12E-2
239 230 5.76E-2
239 232 1.18E-2
239 255 4.1E-2
239 261 3.02E-2
239 262 2.97E-2
240 118 7.03E-2
240 177 6.27E-2
240 217 1.42E-2
240 230 3.01E-2
240 232 1.69E-2
240 255 1.52E-2
240 256 1.03E-2
240 261 5.49E-2
241 261 1.75E-2
242 166 9.17E-2
242 201 3.31E-2
242 224 1.04E-2
242 245 7.8E-3
242 248 8.7E-3
242 251 1.04E-2
242 261 1.17E-1
243 162 5.52E-2
243 221 1.59E-2
243 230 1.79E-2
244 248 4.8E-3
245 47 1.281E-1
245 65 1.109E-1
245 144 7.08E-2
245 166 8.69E-2
245 183 4.61E-2
245 197 3.89E-2
245 201 3.85E-2
245 203 3.53E-2
245 213 2.55E-2
245 219 2.43E-2
245 242 7.8E-3
245 246 4.1E-3
245 248 2.5E-3
245 253 5.6E-3
245 258 3.31E-2
245 261 1.093E-1
245 263 1.52E-2
246 47 1.301E-1
246 65 1.131E-1
246 67 1.617E-1
246 118 1.691E-1
246 144 7.04E-2
246 166 8.47E-2
246 169 5.32E-2
246 182 1.458E-1
246 183 4.89E-2
246 197 4.22E-2
246 201 4.19E-2
246 203 3.86E-2
246 213 2.82E-2
246 219 2.3E-2
246 245 4.1E-3
246 250 5.9E-3
246 253 3.9E-3
246 255 1.689E-1
246 258 2.9E-2
246 261 1.053E-1
246 263 1.28E-2
246 293 1.198E-1
246 313 2.387E-1
247 261 1.28E-2
248 8 3.059E-1
248 47 1.305E-1
248 65 1.133E-1
248 67 1.655E-1
248 83 9.27E-2
248 94 1.776E-1
248 109 2.545E-1
248 112 1.952E-1
248 118 1.733E-1
248 131 1.993E-1
248 144 7.31E-2
248 147 2.344E-1
248 150 2.36E-1
248 152 2.042E-1
248 153 8.45E-2
248 159 1.898E-1
248 161 1.832E-1
248 162 2.27E-1
248 166 8.86E-2
248 167 1.726E-1
248 168 8E-2
248 169 5.36E-2
248 172 1.31E-1
248 173 7.74E-2
248 174 2.183E-1
248 176 1.786E-1
248 177 2.139E-1
248 182 1.5E-1
248 183 4.83E-2
248 197 4.1E-2
248 201 4.06E-2
248 203 3.73E-2
248 213 2.79E-2
248 214 3.08E-2
248 217 1.628E-1
248 219 2.63E-2
248 230 1.911E-1
248 232 1.451E-1
248 233 6.09E-2
248 242 8.7E-3
248 244 4.8E-3
248 245 2.5E-3
248 250 9.7E-3
248 253 3.7E-3
248 255 1.73E-1
248 258 3.29E-2
248 261 1.093E-1
248 263 1.31E-2
248 274 4.18E-2
248 276 6.45E-2
248 292 1.482E-1
248 293 1.233E-1
248 299 1.961E-1
248 301 1.914E-1
248 311 2.091E-1
248 313 2.347E-1
248 316 2.303E-1
248 318 2.349E-1
248 331 5.326E-1
249 118 8.42E-2
249 147 7.36E-2
249 162 6.41E-2
249 218 2.15E-2
249 221 2.19E-2
249 230 1.22E-2
249 255 1.71E-2
249 259 7E-3
249 260 1.13E-2
250 118 1.652E-1
250 144 7.04E-2
250 166 8.21E-2
250 182 1.413E-1
250 197 4.72E-2
250 201 4.7E-2
250 203 4.36E-2
250 219 2.27E-2
250 246 5.9E-3
250 248 9.7E-3
250 258 2.32E-2
250 261 9.96E-2
250 263 1.09E-2
250 274 3.27E-2
251 166 8.83E-2
251 197 4.27E-2
251 201 4.23E-2
251 203 3.9E-2
251 242 1.04E-2
251 258 3.14E-2
251 261 1.079E-1
252 152 6.54E-2
252 162 6.21E-2
252 221 2.1E-2
252 230 1.79E-2
253 47 1.334E-1
253 65 1.163E-1
253 67 1.651E-1
253 112 1.938E-1
253 118 1.72E-1
253 144 7.42E-2
253 166 8.81E-2
253 182 1.483E-1
253 183 5.16E-2
253 197 4.45E-2
253 201 4.41E-2
253 203 4.08E-2
253 213 3.11E-2
253 219 2.68E-2
253 245 5.6E-3
253 246 3.9E-3
253 248 3.7E-3
253 255 1.703E-1
253 258 2.99E-2
253 261 1.064E-1
253 263 9.7E-3
253 293 1.2E-1
254 229 1.48E-2
254 233 2.77E-2
254 261 2.55E-2
254 262 2.65E-2
254 276 2.92E-2
254 288 3.84E-2
255 47 2.336E-1
255 65 2.254E-1
255 67 1.163E-1
255 91 9.68E-2
255 92 9.98E-2
255 94 9.06E-2
255 95 9.34E-2
255 101 1.024E-1
255 109 1.078E-1
255 112 8.21E-2
255 118 8.15E-2
255 119 9.92E-2
255 123 7.96E-2
255 125 1.017E-1
255 127 7.6E-2
255 129 9.17E-2
255 131 7.53E-2
255 132 8.58E-2
255 133 9.36E-2
255 137 7.02E-2
255 144 1.56E-1
255 146 8.68E-2
255 147 8.52E-2
255 149 8.11E-2
255 150 8.6E-2
255 152 6.88E-2
255 157 7.38E-2
255 159 6.12E-2
255 161 5.98E-2
255 162 7.57E-2
255 166 1.195E-1
255 167 5.88E-2
255 172 7.52E-2
255 174 6.59E-2
255 176 5.16E-2
255 177 6.18E-2
255 179 6.24E-2
255 182 5.74E-2
255 184 1.237E-1
255 189 4.38E-2
255 192 4.2E-2
255 201 1.969E-1
255 202 5.17E-2
255 212 5.21E-2
255 215 2.89E-2
255 216 6.33E-2
255 217 2.63E-2
255 218 3.27E-2
255 219 1.582E-1
255 221 3.57E-2
255 222 2.08E-2
255 223 1.96E-2
255 225 6.91E-2
255 230 2.32E-2
255 232 3.13E-2
255 233 1.138E-1
255 234 1.39E-2
255 237 1.65E-2
255 239 4.1E-2
255 240 1.52E-2
255 246 1.689E-1
255 248 1.73E-1
255 249 1.71E-2
255 253 1.703E-1
255 256 1.18E-2
255 258 1.405E-1
255 259 1.28E-2
255 260 2.34E-2
255 261 6.46E-2
255 263 1.67E-1
255 265 1.11E-2
255 266 4.03E-2
255 267 4.93E-2
255 271 3.15E-2
255 272 1.63E-2
255 273 2.19E-2
255 276 1.132E-1
255 281 3.42E-2
255 283 4.53E-2
255 284 3.32E-2
255 286 3.34E-2
255 287 3.1E-2
255 288 7.48E-2
255 289 3.34E-2
255 292 4.58E-2
255 293 6.57E-2
255 295 3.94E-2
255 296 6.72E-2
255 297 8.16E-2
255 298 4.6E-2
255 299 5.23E-2
255 300 5.64E-2
255 301 5.51E-2
255 305 6.05E-2
255 306 7.01E-2
255 307 6.92E-2
255 310 7.56E-2
255 311 7.79E-2
255 313 3.924E-1
255 321 1.729E-1
255 322 1.767E-1
256 118 8.06E-2
256 152 7.41E-2
256 176 5.35E-2
256 182 5.29E-2
256 189 4.44E-2
256 217 2.45E-2
256 230 3.35E-2
256 232 2.18E-2
256 240 1.03E-2
256 255 1.18E-2
256 261 5.28E-2
256 267 3.77E-2
256 271 2.08E-2
256 272 1.22E-2
256 292 3.85E-2
256 296 5.74E-2
256 299 5.63E-2
257 261 1.64E-2
258 47 1.437E-1
258 65 1.28E-1
258 67 1.454E-1
258 94 1.528E-1
258 109 2.256E-1
258 112 1.684E-1
258 118 1.474E-1
258 120 1.312E-1
258 128 1.214E-1
258 130 1.336E-1
258 131 1.715E-1
258 133 1.113E-1
258 144 7.02E-2
258 147 2.049E-1
258 150 2.065E-1
258 152 1.754E-1
258 159 1.61E-1
258 162 1.971E-1
258 166 7.06E-2
258 167 1.441E-1
258 168 6.47E-2
258 169 7.01E-2
258 172 1.044E-1
258 174 1.882E-1
258 176 1.493E-1
258 177 1.837E-1
258 181 6.34E-2
258 182 1.214E-1
258 183 7.01E-2
258 197 6.62E-2
258 198 8.45E-2
258 201 6.62E-2
258 203 6.29E-2
258 208 4.16E-2
258 216 8.62E-2
258 217 1.315E-1
258 219 2.99E-2
258 225 7.57E-2
258 230 1.591E-1
258 231 1.64E-2
258 232 1.133E-1
258 233 3.15E-2
258 245 3.31E-2
258 246 2.9E-2
258 248 3.29E-2
258 250 2.32E-2
258 251 3.14E-2
258 253 2.99E-2
258 255 1.405E-1
258 261 7.65E-2
258 263 2.71E-2
258 264 1.51E-2
258 274 1.37E-2
258 276 3.27E-2
258 288 7.88E-2
258 293 9.11E-2
258 296 9.26E-2
258 297 7.84E-2
258 299 1.635E-1
258 313 2.609E-1
259 230 1.84E-2
259 249 7E-3
259 255 1.28E-2
259 273 1.25E-2
260 118 9.55E-2
260 146 8.15E-2
260 147 8.02E-2
260 177 5.92E-2
260 179 5.89E-2
260 221 2.91E-2
260 230 2.26E-2
260 249 1.13E-2
260 255 2.34E-2
260 273 9.5E-3
260 284 2.45E-2
261 47 1.894E-1
261 65 1.779E-1
261 67 1.162E-1
261 81 1.239E-1
261 85 1.272E-1
261 94 1.068E-1
261 109 1.605E-1
261 112 1.131E-1
261 118 9.85E-2
261 119 1.511E-1
261 123 9.73E-2
261 128 8.44E-2
261 131 1.123E-1
261 133 8.06E-2
261 142 1.219E-1
261 144 1.071E-1
261 146 1.4E-1
261 147 1.383E-1
261 150 1.396E-1
261 152 1.122E-1
261 153 8.92E-2
261 159 9.9E-2
261 161 9.36E-2
261 162 1.295E-1
261 166 7.7E-2
261 167 8.51E-2
261 168 8.18E-2
261 169 1.319E-1
261 172 6.23E-2
261 173 7.86E-2
261 174 1.198E-1
261 176 8.62E-2
261 177 1.152E-1
261 179 1.167E-1
261 181 6.87E-2
261 182 6.55E-2
261 183 1.369E-1
261 184 7.38E-2
261 189 7.65E-2
261 197 1.363E-1
261 198 4.55E-2
261 201 1.367E-1
261 202 1.097E-1
261 203 1.338E-1
261 206 4.56E-2
261 212 1.128E-1
261 213 1.213E-1
261 216 3.21E-2
261 217 6.11E-2
261 218 9.23E-2
261 219 9.72E-2
261 220 3.31E-2
261 221 9.72E-2
261 222 7.2E-2
261 224 1.148E-1
261 225 2.41E-2
261 226 2.71E-2
261 229 3.25E-2
261 230 8.49E-2
261 232 4.14E-2
261 233 5.29E-2
261 239 3.02E-2
261 240 5.49E-2
261 241 1.75E-2
261 242 1.17E-1
261 245 1.093E-1
261 246 1.053E-1
261 247 1.28E-2
261 248 1.093E-1
261 250 9.96E-2
261 251 1.079E-1
261 253 1.064E-1
261 254 2.55E-2
261 255 6.46E-2
261 256 5.28E-2
261 257 1.64E-2
261 258 7.65E-2
261 263 1.026E-1
261 266 2.57E-2
261 267 1.69E-2
261 268 1.43E-2
261 269 1.27E-2
261 270 9.7E-3
261 271 3.58E-2
261 273 8.09E-2
261 274 7.12E-2
261 275 2.78E-2
261 276 4.87E-2
261 277 1.22E-2
261 278 2.8E-2
261 279 2.29E-2
261 280 1.76E-2
261 281 4.95E-2
261 282 2.23E-2
261 283 3.75E-2
261 284 8.15E-2
261 286 5.53E-2
261 288 2.5E-2
261 290 3.63E-2
261 291 3.28E-2
261 292 4.42E-2
261 293 2.91E-2
261 294 3.2E-2
261 296 3.23E-2
261 297 3.29E-2
261 299 9.07E-2
261 301 8.76E-2
261 303 4.9E-2
261 304 5.26E-2
261 305 9.05E-2
261 306 1.047E-1
261 307 9.87E-2
261 308 6.38E-2
261 309 6.45E-2
261 310 1.079E-1
261 311 1.09E-1
261 313 3.292E-1
261 321 2.098E-1
262 216 3.24E-2
262 225 2.46E-2
262 229 3.35E-2
262 233 5.39E-2
262 239 2.97E-2
262 254 2.65E-2
262 275 2.86E-2
262 276 4.95E-2
262 288 2.48E-2
262 292 4.33E-2
262 293 2.85E-2
262 296 3.16E-2
262 297 3.27E-2
263 47 1.429E-1
263 65 1.259E-1
263 67 1.685E-1
263 94 1.782E-1
263 112 1.947E-1
263 118 1.733E-1
263 144 8.13E-2
263 150 2.335E-1
263 152 2.023E-1
263 166 9.19E-2
263 169 6.59E-2
263 172 1.305E-1
263 176 1.762E-1
263 177 2.108E-1
263 182 1.482E-1
263 183 6.13E-2
263 197 5.41E-2
263 201 5.36E-2
263 203 5.04E-2
263 213 4.07E-2
263 217 1.586E-1
263 219 3.36E-2
263 230 1.86E-1
263 233 5.81E-2
263 245 1.52E-2
263 246 1.28E-2
263 248 1.31E-2
263 250 1.09E-2
263 253 9.7E-3
263 255 1.67E-1
263 258 2.71E-2
263 261 1.026E-1
263 276 5.57E-2
263 293 1.143E-1
263 311 1.993E-1
263 313 2.344E-1
264 258 1.51E-2
265 255 1.11E-2
266 255 4.03E-2
266 261 2.57E-2
266 267 9.1E-3
266 271 1.02E-2
266 272 2.89E-2
266 281 2.61E-2
266 286 3.15E-2
267 255 4.93E-2
267 256 3.77E-2
267 261 1.69E-2
267 266 9.1E-3
267 271 1.91E-2
267 281 3.3E-2
267 283 2.28E-2
268 261 1.43E-2
269 261 1.27E-2
269 270 3.5E-3
270 261 9.7E-3
270 269 3.5E-3
271 176 7.01E-2
271 217 4.04E-2
271 255 3.15E-2
271 256 2.08E-2
271 261 3.58E-2
271 266 1.02E-2
271 267 1.91E-2
271 281 1.8E-2
271 283 1.77E-2
272 230 3.93E-2
272 255 1.63E-2
272 256 1.22E-2
272 266 2.89E-2
272 283 2.95E-2
273 109 1.108E-1
273 118 1.001E-1
273 123 9.81E-2
273 147 8.93E-2
273 162 8E-2
273 174 7.12E-2
273 177 6.78E-2
273 221 3.79E-2
273 230 2.95E-2
273 255 2.19E-2
273 259 1.25E-2
273 260 9.5E-3
273 261 8.09E-2
273 284 1.58E-2
273 299 3.53E-2
273 322 1.556E-1
273 325 1.612E-1
274 67 1.518E-1
274 118 1.504E-1
274 144 8.3E-2
274 166 7.94E-2
274 182 1.225E-1
274 219 4.36E-2
274 229 5.55E-2
274 233 3.55E-2
274 248 4.18E-2
274 250 3.27E-2
274 258 1.37E-2
274 261 7.12E-2
274 293 8.2E-2
275 233 3.72E-2
275 261 2.78E-2
275 262 2.86E-2
275 276 2.13E-2
275 288 2.78E-2
275 296 4.15E-2
276 118 1.353E-1
276 166 7.66E-2
276 201 9.86E-2
276 219 6.06E-2
276 233 3.09E-2
276 248 6.45E-2
276 254 2.92E-2
276 255 1.132E-1
276 258 3.27E-2
276 261 4.87E-2
276 262 4.95E-2
276 263 5.57E-2
276 275 2.13E-2
276 288 4.65E-2
276 293 5.88E-2
276 296 6.01E-2
276 297 4.58E-2
277 261 1.22E-2
278 261 2.8E-2
279 261 2.29E-2
280 261 1.76E-2
281 217 5.25E-2
281 230 5.69E-2
281 255 3.42E-2
281 261 4.95E-2
281 266 2.61E-2
281 267 3.3E-2
281 271 1.8E-2
281 283 1.49E-2
281 286 5.8E-3
281 293 3.68E-2
282 261 2.23E-2
283 217 5.8E-2
283 232 4.35E-2
283 255 4.53E-2
283 261 3.75E-2
283 267 2.28E-2
283 271 1.77E-2
283 272 2.95E-2
283 281 1.49E-2
283 293 2.2E-2
284 118 1.142E-1
284 146 1.06E-1
284 147 1.047E-1
284 152 9.58E-2
284 162 9.54E-2
284 174 8.67E-2
284 176 8.31E-2
284 182 9.04E-2
284 217 5.95E-2
284 221 5.35E-2
284 230 4.53E-2
284 255 3.32E-2
284 260 2.45E-2
284 261 8.15E-2
284 273 1.58E-2
284 286 2.8E-2
284 293 6.98E-2
284 298 1.3E-2
284 299 1.98E-2
284 300 2.35E-2
284 306 3.73E-2
284 311 4.55E-2
285 232 4.7E-2
286 217 5.41E-2
286 230 5.53E-2
286 255 3.34E-2
286 261 5.53E-2
286 266 3.15E-2
286 281 5.8E-3
286 284 2.8E-2
286 293 4.19E-2
286 299 3.57E-2
286 301 3.37E-2
287 230 4.91E-2
287 255 3.1E-2
287 299 2.44E-2
287 301 2.5E-2
287 311 4.86E-2
288 118 1.222E-1
288 152 1.319E-1
288 162 1.465E-1
288 166 9.77E-2
288 203 1.407E-1
288 230 9.74E-2
288 232 6E-2
288 254 3.84E-2
288 255 7.48E-2
288 258 7.88E-2
288 261 2.5E-2
288 262 2.48E-2
288 275 2.78E-2
288 276 4.65E-2
288 293 1.24E-2
288 296 1.38E-2
288 297 8.3E-3
288 308 3.89E-2
289 255 3.34E-2
290 261 3.63E-2
290 293 1.72E-2
291 261 3.28E-2
292 67 1.431E-1
292 112 1.22E-1
292 118 1.151E-1
292 131 1.172E-1
292 144 1.512E-1
292 146 1.326E-1
292 147 1.31E-1
292 150 1.318E-1
292 152 1.126E-1
292 162 1.215E-1
292 166 1.196E-1
292 167 9.51E-2
292 174 1.117E-1
292 176 9.11E-2
292 177 1.075E-1
292 179 1.082E-1
292 182 8.37E-2
292 201 1.79E-1
292 217 6.14E-2
292 230 6.88E-2
292 232 4.83E-2
292 248 1.482E-1
292 255 4.58E-2
292 256 3.85E-2
292 261 4.42E-2
292 262 4.33E-2
292 293 2.59E-2
292 296 2.58E-2
292 297 4.2E-2
292 299 4.8E-2
292 301 4.39E-2
292 310 6.37E-2
292 311 6.47E-2
293 47 2.16E-1
293 65 2.037E-1
293 67 1.428E-1
293 109 1.714E-1
293 112 1.319E-1
293 118 1.207E-1
293 131 1.29E-1
293 133 1.082E-1
293 142 1.469E-1
293 144 1.335E-1
293 146 1.503E-1
293 147 1.487E-1
293 152 1.265E-1
293 153 1.171E-1
293 159 1.148E-1
293 162 1.393E-1
293 166 1.055E-1
293 167 1.038E-1
293 172 8.91E-2
293 174 1.294E-1
293 177 1.25E-1
293 179 1.26E-1
293 182 8.76E-2
293 183 1.575E-1
293 184 1.008E-1
293 201 1.558E-1
293 203 1.527E-1
293 216 5.95E-2
293 217 7.34E-2
293 219 1.165E-1
293 225 5.3E-2
293 230 8.87E-2
293 233 7.5E-2
293 246 1.198E-1
293 248 1.233E-1
293 253 1.2E-1
293 255 6.57E-2
293 258 9.11E-2
293 261 2.91E-2
293 262 2.85E-2
293 263 1.143E-1
293 274 8.2E-2
293 276 5.88E-2
293 281 3.68E-2
293 283 2.2E-2
293 284 6.98E-2
293 286 4.19E-2
293 288 1.24E-2
293 290 1.72E-2
293 292 2.59E-2
293 296 3.2E-3
293 297 1.65E-2
293 299 7.3E-2
293 301 6.81E-2
293 303 2.38E-2
293 305 6.96E-2
293 306 8.38E-2
293 307 7.66E-2
293 308 3.78E-2
293 309 3.93E-2
293 310 8.6E-2
293 311 8.65E-2
294 261 3.2E-2
295 230 5.32E-2
295 255 3.94E-2
296 67 1.46E-1
296 112 1.346E-1
296 118 1.237E-1
296 123 1.222E-1
296 150 1.517E-1
296 166 1.085E-1
296 176 1.048E-1
296 182 9.05E-2
296 216 6.27E-2
296 217 7.58E-2
296 225 5.62E-2
296 232 5.82E-2
296 233 7.73E-2
296 255 6.72E-2
296 256 5.74E-2
296 258 9.26E-2
296 261 3.23E-2
296 262 3.16E-2
296 275 4.15E-2
296 276 6.01E-2
296 288 1.38E-2
296 292 2.58E-2
296 293 3.2E-3
296 297 1.62E-2
296 303 2.12E-2
296 308 3.49E-2
296 311 8.48E-2
297 118 1.305E-1
297 144 1.276E-1
297 152 1.4E-1
297 166 1.032E-1
297 182 9.73E-2
297 217 8.7E-2
297 219 1.056E-1
297 230 1.044E-1
297 232 6.81E-2
297 255 8.16E-2
297 258 7.84E-2
297 261 3.29E-2
297 262 3.27E-2
297 276 4.58E-2
297 288 8.3E-3
297 292 4.2E-2
297 293 1.65E-2
297 296 1.62E-2
297 308 3.19E-2
298 147 1.155E-1
298 221 6.5E-2
298 230 5.77E-2
298 255 4.6E-2
298 284 1.3E-2
298 299 7.2E-3
298 300 1.05E-2
299 67 1.685E-1
299 92 1.427E-1
299 94 1.427E-1
299 95 1.392E-1
299 109 1.431E-1
299 112 1.321E-1
299 118 1.337E-1
299 119 1.363E-1
299 123 1.317E-1
299 125 1.366E-1
299 131 1.24E-1
299 143 1.253E-1
299 144 1.958E-1
299 146 1.238E-1
299 147 1.226E-1
299 150 1.227E-1
299 152 1.153E-1
299 159 1.108E-1
299 161 1.106E-1
299 162 1.136E-1
299 166 1.618E-1
299 167 1.108E-1
299 172 1.243E-1
299 174 1.053E-1
299 176 1.028E-1
299 177 1.023E-1
299 179 1.019E-1
299 182 1.088E-1
299 201 2.268E-1
299 217 7.84E-2
299 218 7.35E-2
299 219 1.873E-1
299 221 7.22E-2
299 230 6.48E-2
299 232 7.71E-2
299 248 1.961E-1
299 255 5.23E-2
299 256 5.63E-2
299 258 1.635E-1
299 261 9.07E-2
299 273 3.53E-2
299 284 1.98E-2
299 286 3.57E-2
299 287 2.44E-2
299 292 4.8E-2
299 293 7.3E-2
299 298 7.2E-3
299 301 7.6E-3
299 305 1.18E-2
299 306 1.78E-2
299 307 1.82E-2
299 310 2.34E-2
299 311 2.57E-2
299 321 1.232E-1
299 322 1.274E-1
299 325 1.326E-1
300 147 1.247E-1
300 221 7.49E-2
300 230 6.8E-2
300 255 5.64E-2
300 284 2.35E-2
300 298 1.05E-2
300 301 9.7E-3
300 307 1.6E-2
301 67 1.705E-1
301 94 1.457E-1
301 109 1.495E-1
301 112 1.362E-1
301 118 1.366E-1
301 119 1.425E-1
301 123 1.347E-1
301 131 1.284E-1
301 146 1.3E-1
301 147 1.288E-1
301 150 1.289E-1
301 152 1.202E-1
301 159 1.149E-1
301 161 1.143E-1
301 162 1.196E-1
301 166 1.603E-1
301 167 1.138E-1
301 174 1.111E-1
301 176 1.064E-1
301 177 1.079E-1
301 179 1.077E-1
301 182 1.105E-1
301 217 8.07E-2
301 219 1.834E-1
301 221 7.79E-2
301 230 6.97E-2
301 232 7.75E-2
301 248 1.914E-1
301 255 5.51E-2
301 261 8.76E-2
301 286 3.37E-2
301 287 2.5E-2
301 292 4.39E-2
301 293 6.81E-2
301 299 7.6E-3
301 300 9.7E-3
301 305 5.5E-3
301 306 1.75E-2
301 307 1.42E-2
301 310 2.19E-2
301 311 2.37E-2
301 321 1.24E-1
302 123 1.351E-1
302 167 1.143E-1
302 310 2.18E-2
303 261 4.9E-2
303 293 2.38E-2
303 296 2.12E-2
304 261 5.26E-2
305 112 1.417E-1
305 118 1.419E-1
305 131 1.339E-1
305 146 1.353E-1
305 147 1.34E-1
305 152 1.257E-1
305 162 1.249E-1
305 174 1.164E-1
305 176 1.118E-1
305 182 1.155E-1
305 221 8.32E-2
305 230 7.51E-2
305 255 6.05E-2
305 261 9.05E-2
305 293 6.96E-2
305 299 1.18E-2
305 301 5.5E-3
305 307 9.2E-3
305 311 1.92E-2
306 109 1.568E-1
306 112 1.493E-1
306 118 1.514E-1
306 119 1.505E-1
306 131 1.41E-1
306 143 1.394E-1
306 146 1.383E-1
306 147 1.372E-1
306 150 1.371E-1
306 152 1.319E-1
306 162 1.284E-1
306 174 1.206E-1
306 176 1.204E-1
306 179 1.173E-1
306 182 1.266E-1
306 217 9.63E-2
306 221 8.8E-2
306 230 8.16E-2
306 255 7.01E-2
306 261 1.047E-1
306 284 3.73E-2
306 293 8.38E-2
306 299 1.78E-2
306 301 1.75E-2
306 307 8.6E-3
306 310 5.9E-3
306 311 8.6E-3
307 67 1.847E-1
307 109 1.608E-1
307 112 1.5E-1
307 118 1.508E-1
307 123 1.489E-1
307 131 1.421E-1
307 146 1.418E-1
307 147 1.406E-1
307 152 1.335E-1
307 162 1.317E-1
307 167 1.28E-1
307 174 1.234E-1
307 176 1.204E-1
307 179 1.201E-1
307 182 1.246E-1
307 217 9.5E-2
307 221 9.05E-2
307 230 8.3E-2
307 232 9.15E-2
307 255 6.92E-2
307 261 9.87E-2
307 293 7.66E-2
307 299 1.82E-2
307 300 1.6E-2
307 301 1.42E-2
307 305 9.2E-3
307 306 8.6E-3
307 310 9.4E-3
307 311 1.03E-2
308 261 6.38E-2
308 288 3.89E-2
308 293 3.78E-2
308 296 3.49E-2
308 297 3.19E-2
309 261 6.45E-2
309 293 3.93E-2
310 67 1.917E-1
310 94 1.661E-1
310 109 1.625E-1
310 112 1.552E-1
310 118 1.57E-1
310 119 1.563E-1
310 123 1.551E-1
310 131 1.469E-1
310 143 1.452E-1
310 146 1.441E-1
310 147 1.43E-1
310 150 1.429E-1
310 152 1.378E-1
310 162 1.342E-1
310 167 1.341E-1
310 174 1.264E-1
310 176 1.261E-1
310 177 1.238E-1
310 179 1.232E-1
310 182 1.319E-1
310 217 1.017E-1
310 221 9.4E-2
310 230 8.75E-2
310 232 9.94E-2
310 255 7.56E-2
310 261 1.079E-1
310 292 6.37E-2
310 293 8.6E-2
310 299 2.34E-2
310 301 2.19E-2
310 302 2.18E-2
310 306 5.9E-3
310 307 9.4E-3
310 311 2.7E-3
311 47 2.976E-1
311 67 1.939E-1
311 94 1.684E-1
311 109 1.652E-1
311 112 1.577E-1
311 118 1.594E-1
311 119 1.59E-1
311 131 1.494E-1
311 143 1.479E-1
311 146 1.468E-1
311 147 1.457E-1
311 150 1.456E-1
311 152 1.404E-1
311 162 1.369E-1
311 166 1.832E-1
311 167 1.365E-1
311 174 1.291E-1
311 176 1.285E-1
311 177 1.264E-1
311 179 1.259E-1
311 182 1.34E-1
311 201 2.423E-1
311 203 2.392E-1
311 217 1.039E-1
311 221 9.66E-2
311 230 9.01E-2
311 232 1.013E-1
311 248 2.091E-1
311 255 7.79E-2
311 261 1.09E-1
311 263 1.993E-1
311 284 4.55E-2
311 287 4.86E-2
311 292 6.47E-2
311 293 8.65E-2
311 296 8.48E-2
311 299 2.57E-2
311 301 2.37E-2
311 305 1.92E-2
311 306 8.6E-3
311 307 1.03E-2
311 310 2.7E-3
311 320 9.68E-2
311 321 1.011E-1
311 322 1.057E-1
311 324 1.021E-1
311 325 1.105E-1
312 313 9.6E-3
312 316 1.8E-2
312 318 2.72E-2
313 8 3.829E-1
313 47 3.086E-1
313 67 3.992E-1
313 118 4.076E-1
313 166 3.226E-1
313 182 3.823E-1
313 201 2.389E-1
313 219 2.595E-1
313 246 2.387E-1
313 248 2.347E-1
313 255 3.924E-1
313 258 2.609E-1
313 261 3.292E-1
313 263 2.344E-1
313 312 9.6E-3
313 314 4.5E-3
313 315 7.2E-3
313 316 8.6E-3
313 317 7.1E-3
313 318 1.79E-2
313 319 2.12E-2
313 326 7.36E-2
313 329 3.011E-1
313 331 3.468E-1
314 313 4.5E-3
314 316 4.2E-3
314 317 3.6E-3
315 313 7.2E-3
315 316 1.3E-3
315 317 2.2E-3
316 47 3.074E-1
316 201 2.359E-1
316 248 2.303E-1
316 312 1.8E-2
316 313 8.6E-3
316 314 4.2E-3
316 315 1.3E-3
316 317 2.8E-3
316 318 1.13E-2
316 319 1.33E-2
317 313 7.1E-3
317 314 3.6E-3
317 315 2.2E-3
317 316 2.8E-3
318 201 2.421E-1
318 248 2.349E-1
318 312 2.72E-2
318 313 1.79E-2
318 316 1.13E-2
318 319 5.1E-3
319 313 2.12E-2
319 316 1.33E-2
319 318 5.1E-3
320 147 2.151E-1
320 150 2.143E-1
320 311 9.68E-2
320 324 5.4E-3
321 109 2.3E-1
321 118 2.51E-1
321 119 2.271E-1
321 147 2.166E-1
321 150 2.158E-1
321 162 2.101E-1
321 174 2.054E-1
321 177 2.044E-1
321 182 2.303E-1
321 217 1.991E-1
321 221 1.789E-1
321 230 1.774E-1
321 255 1.729E-1
321 261 2.098E-1
321 299 1.232E-1
321 301 1.24E-1
321 311 1.011E-1
321 322 5.4E-3
321 323 6.1E-3
321 324 5E-3
321 325 9.4E-3
322 147 2.187E-1
322 150 2.178E-1
322 221 1.818E-1
322 255 1.767E-1
322 273 1.556E-1
322 299 1.274E-1
322 311 1.057E-1
322 321 5.4E-3
322 325 6.1E-3
323 321 6.1E-3
324 147 2.201E-1
324 150 2.193E-1
324 311 1.021E-1
324 320 5.4E-3
324 321 5E-3
325 147 2.247E-1
325 150 2.238E-1
325 221 1.877E-1
325 273 1.612E-1
325 299 1.326E-1
325 311 1.105E-1
325 321 9.4E-3
325 322 6.1E-3
326 313 7.36E-2
327 328 9.3E-3
327 329 1.63E-2
327 330 9.35E-2
327 332 1.3E-3
328 327 9.3E-3
328 329 7E-3
329 313 3.011E-1
329 327 1.63E-2
329 328 7E-3
329 330 7.84E-2
330 327 9.35E-2
330 329 7.84E-2
331 248 5.326E-1
331 313 3.468E-1
332 327 1.3E-3
