%%MatrixMarket matrix coordinate real general
%
846 846 10894
1 94 2.0650825181712566E-2
1 116 6.54994007187868E-2
1 147 1.831563888873418E-2
1 188 1.4740700683704446E-2
1 207 2.3822069045322025E-2
1 488 1.2280680406079361E-1
1 496 1.9392727722463293E-2
1 541 1.9841094744370288E-2
1 669 1.4308327332702807E-2
1 681 1.831563888873418E-2
1 817 2.368633112846589E-2
1 843 4.242574108051138E-2
2 14 1.2522614564467174E-1
2 66 1.831563888873418E-2
2 75 1.762081997059561E-1
2 87 6.04944959545857E-1
2 127 9.415157571668822E-3
2 328 1.980523954342109E-1
2 433 1.831563888873418E-2
2 489 1.831563888873418E-2
2 519 1.831563888873418E-2
2 564 2.3036700366576644E-2
2 758 6.807979336287949E-2
2 774 2.5735366767733792E-2
2 801 1.206812402215675E-1
2 839 1.1891773728092643E-1
3 16 4.7824963698831324E-2
3 20 3.812001880802584E-2
3 25 7.753389509117511E-2
3 41 3.649720323162989E-2
3 59 2.4206949010405956E-2
3 181 1.831563888873418E-2
3 189 3.210102111655793E-2
3 229 1.0576079959230228E-1
3 338 1.831563888873418E-2
3 358 2.472596721533671E-2
3 366 1.831563888873418E-2
3 401 1.913134833526047E-2
3 449 5.3531719333395254E-2
3 567 5.378357294822505E-2
3 575 9.70112516264219E-2
3 651 1.3639258478011537E-1
3 702 2.1566447971785407E-1
3 798 1.6280835303651825E-1
4 24 1.1588226333233483E-2
4 33 3.39674372515326E-2
4 111 3.141435065589547E-2
4 123 1.345997672082705E-1
4 226 3.629014467260439E-1
4 273 2.427374242987287E-2
4 392 3.5296779428300645E-2
4 404 1.643357736654598E-1
4 423 1.831563888873418E-2
4 602 9.541546916400426E-2
4 659 4.304835994149683E-2
4 674 1.9435786069749023E-2
4 823 1.5174427396386175E-1
5 38 1.8198751520497863E-1
5 40 1.7206406832847524E-2
5 101 4.7819297603013317E-1
5 136 6.656435326444234E-2
5 292 1.3146300552691081E-1
5 389 1.3179373601466757E-1
5 419 1.9595926235178758E-2
5 524 1.9947083194195175E-1
5 545 3.485386927845985E-2
5 642 2.2264308620204697E-2
5 677 1.831563888873418E-2
5 707 2.634089048732664E-1
5 816 4.096755120379664E-2
6 55 1.8984668349486783E-1
6 86 2.595440365048199E-1
6 156 2.7777662732140256E-2
6 172 1.321058545827946E-2
6 275 2.9206782369141415E-1
6 322 2.2990583427564765E-1
6 382 2.8921032499139042E-2
6 397 8.033903354647824E-1
6 495 1.5631063462154007E-2
6 532 1.8731782899762014E-2
6 684 1.7455012216544893E-1
6 734 6.20841864087487E-1
6 836 1.634667765477434E-1
7 23 5.209196704292493E-2
7 54 2.0736453912830344E-2
7 149 1.4914670520316528E-1
7 302 1.911682303652312E-2
7 357 1.831563888873418E-2
7 359 1.754803228871254E-2
7 492 1.3230268814406346E-1
7 496 1.0807269905785996E-2
7 536 1.831563888873418E-2
7 541 1.2537780584094802E-2
7 573 2.517365704607104E-2
7 715 1.9589957542882763E-1
7 728 6.751730341531446E-2
7 838 6.110833333524235E-2
8 32 2.410732321953862E-2
8 138 2.9032267102660027E-2
8 235 8.971401452453712E-2
8 400 3.3591773164352905E-2
8 471 1.9673467595750646E-1
8 617 2.4067996989767217E-2
8 665 2.6417679074246797E-1
8 704 6.1224564259375336E-2
8 743 4.614086228199096E-2
8 747 1.831563888873418E-2
8 763 8.592870929996844E-2
8 792 2.212344183284572E-1
8 840 3.01888740917441E-1
9 12 2.0119243320643934E-1
9 264 2.7648754073977355E-1
9 269 1.977881022890899E-2
9 443 1.0323551391199406E-1
9 538 1.4044812290107702E-2
9 542 1.516071137964553E-1
9 570 1.831563888873418E-2
9 586 3.305418855258344E-2
9 661 8.226441931456152E-2
9 708 5.295075473766431E-1
10 57 2.0764407880844932E-1
10 133 1.831563888873418E-2
10 281 1.322542292688393E-1
10 318 5.452527577743517E-2
10 356 7.953208257280914E-2
10 387 3.3805407539158665E-2
10 425 2.862867290309194E-1
10 460 1.831563888873418E-2
10 654 1.831563888873418E-2
10 667 3.1398816024842124E-1
10 695 1.560919626086028E-1
10 761 1.831563888873418E-2
10 820 5.33000408273976E-2
11 56 1.1113943476125368E-1
11 212 1.8090909960062768E-2
11 228 6.963599441346177E-2
11 294 2.260749740328265E-2
11 304 1.386562298456747E-1
11 420 1.0905826308186949E-1
11 426 2.596845315217017E-2
11 430 5.1213535715673136E-2
11 436 1.4865350006826072E-1
11 515 3.50794406698467E-2
11 520 1.831563888873418E-2
11 570 1.757346743455137E-2
11 588 1.3191202772426292E-2
11 607 4.2183999622017965E-2
11 609 4.8676622693180016E-2
11 687 1.831563888873418E-2
11 726 6.948345122280151E-2
11 775 1.6431064390836916E-1
11 845 2.6437027604535406E-2
12 9 2.0119243320643934E-1
12 124 1.831563888873418E-2
12 264 1.7293965448812817E-1
12 443 5.0447162676927934E-2
12 542 2.2429779640630615E-2
12 586 2.4323506349105482E-2
12 708 1.937207894936897E-1
12 729 9.190209914059144E-2
12 841 2.4821411478746034E-2
12 846 1.2717940540939485E-2
13 21 2.1800628371418645E-2
13 40 2.5787798887118928E-2
13 81 8.202119373117486E-2
13 112 7.852615824342893E-2
13 255 1.567762103410224E-2
13 357 2.2211303216433175E-2
13 394 2.917884332320969E-1
13 451 8.412494066117486E-2
13 486 1.737120764360933E-2
13 572 7.471381963272616E-2
13 642 2.9981431663572308E-2
13 745 1.831563888873418E-2
14 2 1.2522614564467174E-1
14 75 2.597146628683077E-1
14 87 1.223069218622557E-1
14 115 4.7887460115701E-2
14 288 1.3294426324487557E-1
14 328 5.392548508193973E-2
14 365 1.888907656312973E-2
14 475 1.831563888873418E-2
14 489 1.40425375378529E-2
14 498 5.085067976071683E-2
14 519 3.0563749449551328E-2
14 546 2.49503729116237E-2
14 646 2.143015749831234E-2
14 657 1.667351971563601E-2
14 736 2.2004379847351346E-2
14 826 4.0692658754937355E-2
14 839 1.333153914149203E-1
15 120 3.697531325059784E-2
15 272 2.406771030026797E-1
15 355 1.1020821393182134E-1
15 395 9.185225061195387E-2
15 439 2.0448957451929545E-1
15 531 1.831563888873418E-2
15 556 1.4804052984224447E-1
15 596 1.0723747406441504E-1
15 639 4.6438561613566624E-2
15 804 1.451268547297495E-1
16 3 4.7824963698831324E-2
16 20 1.831563888873418E-2
16 25 6.912389988632119E-2
16 181 2.647254260079676E-2
16 366 1.2618087184796628E-1
16 567 8.375191535306725E-2
16 575 1.841090857768063E-2
16 578 1.6596692038200936E-1
16 651 4.7577487079399995E-2
16 712 1.6045999387144134E-2
17 42 4.8496225756501793E-1
17 88 9.79323582199938E-2
17 182 1.831563888873418E-2
17 184 3.0376951081603938E-2
17 231 4.021116498347331E-2
17 250 2.5044712077424015E-2
17 270 1.831563888873418E-2
17 375 5.69384454497498E-2
17 412 6.094816263245347E-2
17 499 1.250058072115998E-1
17 613 2.761617541500914E-2
17 615 5.1683493535060104E-2
17 656 1.831563888873418E-2
17 689 3.728273408212918E-2
17 752 9.740064021810378E-2
17 785 1.831563888873418E-2
17 846 1.831563888873418E-2
18 73 2.000930649426788E-2
18 186 5.224475049264714E-1
18 371 1.6833181102726213E-1
18 425 1.4274989897361727E-2
18 460 5.854435891136143E-2
18 597 1.831563888873418E-2
18 644 2.0398753047197526E-1
18 654 7.591190026147966E-2
18 695 1.5862600295681822E-1
18 710 2.0746517360871228E-2
18 827 2.171285611280841E-2
19 39 1.4042567649720186E-1
19 71 3.5276515662345354E-2
19 210 8.959228526512406E-2
19 301 1.530410366233591E-1
19 361 3.0129549568234257E-2
19 468 5.596687283447634E-2
19 481 8.648699752009945E-2
19 494 2.698875984312374E-2
19 500 2.142627610235312E-2
19 502 3.469828933849735E-2
19 510 4.6150949570426106E-2
19 550 7.083522711297105E-2
19 584 1.831563888873418E-2
19 620 1.3120953204594996E-1
19 741 2.210407016579333E-2
19 784 3.55522392221347E-2
19 799 3.4964131732108605E-1
19 811 2.790505654453611E-2
20 3 3.812001880802584E-2
20 16 1.831563888873418E-2
20 53 1.0048870723030634E-1
20 59 1.4083597515248103E-1
20 79 8.180113147689204E-2
20 181 2.0185237909068055E-2
20 189 8.896053633411266E-2
20 229 1.7749221688355406E-2
20 448 6.661588205729044E-2
20 476 9.332367836425293E-2
20 567 1.4982234031404534E-1
20 651 1.8993023947646362E-2
20 668 1.981202963223141E-2
20 798 1.831563888873418E-2
21 13 2.1800628371418645E-2
21 31 2.139008918966096E-2
21 81 1.209873885693162E-1
21 198 5.125437202247683E-2
21 217 7.275267126594442E-2
21 240 2.5575761724484954E-2
21 354 1.7438414878937505E-2
21 359 1.831563888873418E-2
21 364 1.921993554630564E-2
21 367 5.966763593377001E-2
21 383 1.8795497527742764E-2
21 388 1.9562195454953985E-2
21 394 1.6291893559676887E-1
21 486 1.831563888873418E-2
21 593 1.831563888873418E-2
21 807 3.176688817803448E-2
22 27 1.0205475183576153E-1
22 74 1.831563888873418E-2
22 90 2.9966752475954633E-1
22 182 2.890836841999451E-2
22 270 8.921851740926015E-2
22 319 3.307125148830101E-2
22 379 2.4618744790414965E-1
22 412 3.5673993347252395E-2
22 551 1.986645224553215E-2
22 618 1.831563888873418E-2
22 656 2.6104283030204775E-2
22 689 1.9031191231343556E-1
22 752 6.2491341194386464E-2
23 7 5.209196704292493E-2
23 54 1.937126680502878E-1
23 183 1.246367034851073E-2
23 276 3.871885565293232E-2
23 302 1.831563888873418E-2
23 348 4.246291859332002E-2
23 357 2.491298526413707E-1
23 572 2.3134659893915055E-2
23 715 8.232706568147433E-2
23 749 2.2866045688173492E-2
24 4 1.1588226333233483E-2
24 33 1.7611279768713378E-2
24 111 1.516274543251459E-1
24 123 1.2057371105723948E-2
24 155 1.2379928403382785E-1
24 226 3.5978897425059976E-2
24 287 1.461392880271872E-1
24 341 4.6892016865703684E-2
24 392 1.831563888873418E-2
24 408 9.17315512198565E-2
24 484 2.2595771309700105E-1
24 582 3.413500414730401E-2
24 589 1.2456229724397459E-1
24 674 1.997563477957866E-2
25 3 7.753389509117511E-2
25 16 6.912389988632119E-2
25 41 1.831563888873418E-2
25 181 3.281654631696606E-2
25 185 2.878818154286307E-2
25 229 2.353588060323271E-2
25 366 5.68514293934256E-2
25 455 2.5032902126699E-2
25 575 2.0457005194341318E-1
25 578 4.522589720271526E-2
25 651 2.2578300769962484E-1
25 702 1.5796041805032593E-2
25 798 3.4744431181005536E-2
26 125 2.9376534924966915E-2
26 160 1.4105450022654027E-2
26 178 3.2034402296590436E-2
26 206 4.4044735644915184E-1
26 209 1.6796005759884224E-2
26 219 3.869795572685832E-2
26 306 1.4188251747932312E-1
26 353 1.831563888873418E-2
26 409 3.045328310960783E-1
26 454 4.2869001104611906E-2
26 628 1.831563888873418E-2
26 749 1.831563888873418E-2
26 801 2.715214547786901E-2
27 22 1.0205475183576153E-1
27 60 5.3956607848297714E-2
27 74 4.0930642598596356E-2
27 90 3.273112576428451E-1
27 261 3.3130890299856613E-1
27 270 1.831563888873418E-2
27 298 1.22698900611229E-2
27 379 1.9945066516282073E-1
27 635 2.0061495276361817E-2
27 689 1.8539338584454723E-2
27 735 1.772757339469811E-2
27 796 2.021823515985596E-2
28 96 6.107502980004432E-2
28 301 5.257533949080968E-2
28 377 1.627996083690926E-2
28 380 3.422667249203396E-1
28 427 1.5634813819301863E-1
28 431 3.057778266058433E-2
28 482 2.885927806542902E-2
28 563 3.325637596459649E-2
28 576 1.831563888873418E-2
28 784 4.1571247903557595E-1
28 818 2.3875456533247588E-2
29 61 1.836221391487934E-2
29 105 2.4745369833534328E-1
29 505 1.7015156153811266E-2
29 662 1.542460307343231E-1
29 678 3.005392818956002E-2
29 713 4.1810692337960746E-2
29 724 1.4660696213035015E-1
29 744 9.990934406754076E-2
29 781 1.831563888873418E-2
29 794 2.1241649146285382E-1
30 48 2.8681150427648697E-2
30 51 3.7902914400958505E-2
30 67 2.196770588943552E-2
30 84 3.2700857365281534E-2
30 100 1.853899758720297E-2
30 119 2.210124776447552E-2
30 352 3.330452998473528E-2
30 504 9.995548890550252E-2
30 648 7.955950871822769E-2
30 652 2.5922450745501816E-2
30 686 3.5673993347252374E-2
30 786 2.223560144173465E-2
30 810 1.831563888873418E-2
31 21 2.139008918966096E-2
31 94 1.5297057539944295E-2
31 112 5.3293698981866686E-2
31 201 1.939800422908919E-1
31 255 2.504200966936794E-1
31 359 7.642628699076809E-2
31 364 1.831563888873418E-2
31 365 2.32586308129158E-2
31 367 1.831563888873418E-2
31 373 4.931515657795621E-2
31 394 2.6364142740526664E-2
31 478 1.7071382442304293E-2
31 509 1.6129743306668748E-2
31 573 4.179159851829585E-2
31 642 1.831563888873418E-2
31 658 3.377526302711527E-2
31 723 1.1301242498108856E-1
31 725 5.5267225067866604E-2
31 740 6.0556083020028885E-2
31 745 1.831563888873418E-2
31 807 1.0474628888221349E-1
31 843 2.5005005721851076E-2
32 8 2.410732321953862E-2
32 342 1.831563888873418E-2
32 385 1.8668417277874327E-2
32 417 4.868597795997509E-2
32 594 1.7853439407371087E-2
32 617 3.1670652084245204E-1
32 637 1.2129300084598249E-1
32 665 3.1127968280570625E-2
32 704 1.2028611073761777E-1
32 743 6.730023508171189E-2
32 840 4.5672359873462624E-2
33 4 3.39674372515326E-2
33 24 1.7611279768713378E-2
33 212 2.0005166658159865E-2
33 392 2.565876220021464E-2
33 404 1.8593933880770568E-2
33 414 1.8119401788016087E-2
33 423 3.57438919157807E-1
33 484 1.8955023798093936E-2
33 523 3.8971893791012124E-2
33 582 2.2836120487032856E-2
33 602 1.904091777059093E-2
33 616 1.831563888873418E-2
33 659 4.85816299585598E-2
33 674 6.1987537772631766E-2
33 770 1.723059489587248E-2
34 154 6.274069071674353E-2
34 189 2.904036076282276E-2
34 229 4.4613981988489614E-2
34 307 1.2685382869023168E-1
34 358 1.7802549966936015E-2
34 401 1.831563888873418E-2
34 432 1.685593009428155E-2
34 651 2.1583359049003645E-2
34 668 2.5353907592741125E-2
34 730 4.9403797994170495E-2
34 737 2.6583449497159455E-2
35 44 1.831563888873418E-2
35 163 2.9322159123893795E-2
35 330 4.7002072256318514E-2
35 452 4.06278139779721E-2
35 453 7.901223141658008E-2
35 512 1.831563888873418E-2
35 543 9.736219658579662E-2
35 604 6.0102976887317916E-2
35 614 1.7736537277902416E-2
35 647 7.692484504387793E-2
35 653 6.594560971049253E-2
35 685 2.6644638355802608E-2
35 721 1.8144465945268837E-2
36 112 1.831563888873418E-2
36 116 8.768869755360406E-2
36 188 2.1842462752515453E-2
36 201 1.6771901636000567E-2
36 373 7.125363568607304E-2
36 451 1.6012799223494373E-2
36 492 1.3954480015308607E-2
36 573 9.94424592960411E-2
36 669 1.1766452694646383E-1
36 723 8.935890843839345E-2
36 745 2.6030221706161205E-1
36 838 3.1064235259286872E-2
37 144 9.520659763043864E-2
37 233 2.6919050365464126E-1
37 266 2.4318073660234415E-2
37 267 1.3604757256108183E-1
37 305 2.212551919224659E-2
37 326 1.9101178402937447E-2
37 424 1.831563888873418E-2
37 559 1.5003450580769684E-2
37 569 2.331798835835158E-2
37 766 1.0798944536052585E-1
38 5 1.8198751520497863E-1
38 101 4.7477090032126495E-1
38 136 6.265973153613779E-1
38 292 2.427036316508115E-1
38 389 7.324441408261313E-1
38 451 1.831563888873418E-2
38 524 1.5999009875619008E-1
38 541 1.6761582357224934E-2
38 707 2.5536490093073905E-1
38 718 2.035326769826699E-2
39 19 1.4042567649720186E-1
39 71 1.0473703266591308E-1
39 210 7.462216292462683E-2
39 214 3.957934638313641E-2
39 361 1.4937237077157623E-2
39 494 2.559909607000479E-2
39 500 6.189909362285735E-2
39 502 9.64759486526891E-2
39 550 3.135355109768192E-2
39 561 3.6863018170710804E-2
39 620 1.4191480307670534E-1
39 719 1.423527100746962E-2
39 738 4.359802783327962E-2
39 799 1.831563888873418E-2
40 5 1.7206406832847524E-2
40 13 2.5787798887118928E-2
40 81 1.5177588022080005E-1
40 209 2.486566069400388E-2
40 276 1.8420599283620262E-2
40 306 1.5226569619912063E-2
40 357 2.0023913884469332E-2
40 394 2.0023913884469332E-2
40 419 5.172658362960486E-2
40 466 1.831563888873418E-2
40 486 4.77786462443687E-2
40 545 3.0466224554805993E-2
40 692 8.819963161589728E-2
41 3 3.649720323162989E-2
41 25 1.831563888873418E-2
41 117 6.640793917584557E-2
41 185 4.270844163675509E-2
41 307 1.831563888873418E-2
41 432 1.7015529293691872E-1
41 449 1.845598792787798E-2
41 575 1.645829158691446E-2
41 585 4.0480540121914876E-2
41 651 2.006566272007097E-2
41 702 2.6518537026446805E-2
41 730 1.6091269085120719E-1
41 737 8.048816528926495E-2
42 17 4.8496225756501793E-1
42 88 1.3356001111439853E-2
42 231 7.73657945986978E-2
42 232 1.4090889192120669E-2
42 375 8.048078311649785E-2
42 412 5.7540676844929264E-2
42 499 2.0216234615640233E-1
42 613 2.8181916144836557E-2
42 615 5.8360178581899486E-2
42 656 2.664909733635546E-2
42 689 2.8089247670362007E-2
42 752 1.0820970619642648E-1
43 46 1.4948600744941265E-1
43 122 4.936335120552021E-2
43 137 1.831563888873418E-2
43 236 2.463212721614086E-2
43 312 3.2238330179716584E-2
43 367 1.5405541604825119E-2
43 485 2.989776621300386E-2
43 574 3.0240430290903356E-2
43 612 1.7290970537538913E-1
43 709 4.3028614276995936E-1
43 760 2.8684399679987798E-2
43 814 1.6940488036070928E-2
43 830 3.1632119207399284E-1
44 35 1.831563888873418E-2
44 163 4.047134341482791E-2
44 237 5.801470166751842E-2
44 330 2.9748439504480462E-2
44 396 1.0790678525944136E-1
44 399 7.714322628860101E-2
44 452 5.537069200673864E-2
44 512 2.1929481249898485E-2
44 543 2.7779631376540728E-2
44 562 2.7899862731970076E-2
44 614 4.284605759053072E-2
44 647 3.296634164064374E-2
44 685 6.175419083857508E-2
44 721 2.5322642119768625E-2
44 753 1.831563888873418E-2
44 790 1.831563888873418E-2
44 813 3.4512963408476226E-2
45 53 1.831563888873418E-2
45 79 2.2904622359053422E-2
45 249 2.535704203585375E-2
45 347 6.103397177789042E-2
45 567 2.207808073276827E-2
45 584 3.0733900771835694E-2
45 668 1.8092620183065632E-2
45 706 5.4662082921253526E-2
45 720 2.6128811301735364E-2
45 722 1.831563888873418E-2
45 833 3.750399530901468E-2
46 43 1.4948600744941265E-1
46 122 8.415136633767448E-2
46 137 2.579799344481365E-2
46 312 3.448990496081312E-2
46 367 2.5110269540005198E-2
46 370 1.7988582677734195E-2
46 386 6.805594784244301E-2
46 442 2.5812310087049897E-2
46 485 2.274868183870944E-1
46 612 6.599132109263195E-2
46 683 3.363240664419336E-2
46 709 1.1215815518825129E-1
46 817 3.175153760239859E-2
46 830 7.618538478868095E-2
46 834 2.585999644478506E-2
47 103 1.831563888873418E-2
47 158 1.708928534296701E-1
47 164 1.267778650536389E-1
47 278 2.0287621425903082E-2
47 316 1.831563888873418E-2
47 317 1.735957442418846E-1
47 619 1.776066264948603E-2
47 631 2.7786534878745505E-2
47 636 1.2725803761999327E-1
47 747 4.714947765329887E-2
47 755 5.825509079619416E-2
47 829 1.4989650060967988E-1
48 30 2.8681150427648697E-2
48 67 2.457035388876746E-2
48 100 2.2502912882136988E-1
48 119 1.831563888873418E-2
48 142 2.6894883658328143E-2
48 334 1.5635800496169184E-2
48 480 1.9600437534020573E-2
48 511 5.419025209875129E-2
48 569 2.6293905962613662E-2
48 610 3.355748257555607E-2
48 786 1.3082453186177545E-1
48 815 3.6079375297621494E-2
49 126 1.7987851047902348E-2
49 175 5.460929170574903E-1
49 201 1.8151005045939424E-2
49 240 1.831563888873418E-2
49 253 4.765061944254831E-2
49 364 5.8228899414325054E-2
49 367 6.72206849967662E-2
49 386 1.7882153121729326E-2
49 388 4.171248758612646E-2
49 478 1.831563888873418E-2
49 612 4.2798957464860135E-2
49 760 7.627855581195842E-2
49 830 3.0643726673832514E-2
50 145 1.386181903418727E-1
50 207 2.133956786300976E-1
50 268 4.29463795158983E-2
50 363 2.4310438532265125E-2
50 372 3.1033032956450605E-2
50 411 5.891761774244691E-2
50 483 1.2702208773795335E-2
50 579 3.158814882703985E-1
50 664 2.5759481734391042E-2
50 700 1.831563888873418E-2
50 803 2.7394326342030685E-2
50 832 3.913110138509993E-2
51 30 3.7902914400958505E-2
51 246 3.971518444323319E-2
51 381 1.4299378253547412E-1
51 408 4.175316662235754E-2
51 504 1.9449187991492048E-2
51 547 1.576244441265747E-2
51 552 1.2429830804676802E-1
51 686 1.831563888873418E-2
51 810 4.7549906768730443E-1
51 821 7.144225903848214E-2
52 179 1.734712541986156E-1
52 190 6.355005120568262E-2
52 202 5.226902438463928E-2
52 241 3.7615663682525634E-2
52 257 3.929315686117208E-2
52 402 3.5376711796934225E-2
52 418 3.3828734359117776E-2
52 514 6.546525458455477E-2
52 675 4.205576863330039E-2
52 698 1.3780250590817028E-2
52 800 7.554818168183168E-2
52 831 1.831563888873418E-2
53 20 1.0048870723030634E-1
53 45 1.831563888873418E-2
53 79 1.727449447698641E-2
53 181 4.9787068367863924E-2
53 189 3.1814371728997E-2
53 249 1.7454947140051763E-1
53 448 1.210006589500786E-1
53 476 5.71203165087077E-2
53 567 1.3362436706350195E-1
53 722 2.02779978694963E-2
54 7 2.0736453912830344E-2
54 23 1.937126680502878E-1
54 149 1.960043753402059E-2
54 183 6.251093402733289E-2
54 213 3.7524597763161006E-2
54 258 2.682580974812175E-2
54 348 3.0651996769573964E-2
54 357 2.4695124949661734E-2
54 406 2.9545049450238482E-2
54 517 1.9664820753247877E-2
54 715 1.079431543337246E-2
55 6 1.8984668349486783E-1
55 86 1.316597391712495E-1
55 156 8.265618549549829E-2
55 275 8.269515309216116E-1
55 322 8.19447223858524E-2
55 382 3.178526697482712E-2
55 397 1.7070745373608112E-1
55 532 4.054655257568539E-2
55 684 3.534633556171795E-2
55 688 3.253308916792184E-2
55 734 2.081018946468671E-1
55 836 1.0415958880974621E-1
56 11 1.1113943476125368E-1
56 228 2.382717537194363E-1
56 304 2.54440854534273E-1
56 420 4.15101135341151E-2
56 436 6.124155645050696E-2
56 520 7.30828451555695E-2
56 570 6.630121522714438E-2
56 607 1.3190177854764526E-2
56 661 1.831563888873418E-2
56 775 5.706088840603356E-2
57 10 2.0764407880844932E-1
57 65 1.831563888873418E-2
57 110 4.08348962533286E-2
57 133 1.5733301727744127E-2
57 265 3.549562375305064E-2
57 281 2.7053558447230075E-1
57 318 1.807061729818712E-2
57 327 1.831563888873418E-2
57 356 3.0131507636158866E-1
57 360 6.807596596761062E-2
57 387 2.685378971090366E-1
57 425 7.618282089033282E-2
57 527 2.99991321417335E-2
57 599 2.882847247584091E-2
57 667 8.084674124141272E-2
57 695 1.831563888873418E-2
57 761 5.371964003100501E-2
57 820 2.248269593038509E-1
58 115 4.877219194790289E-2
58 222 4.085851156262801E-2
58 245 1.0678542861970249E-1
58 253 1.4774304423284984E-1
58 285 1.27518150518741E-1
58 288 5.897394536814528E-2
58 337 1.172096755132195E-1
58 388 1.8773506308341043E-2
58 415 5.272616845673912E-2
58 446 1.0196710447804304E-1
58 498 2.8318849321744555E-2
58 546 1.0170139230422684E-1
58 574 1.831563888873418E-2
58 694 2.087932940321377E-2
58 760 5.1202720334114576E-2
58 814 7.91361599964935E-2
58 830 1.902000134892689E-2
59 3 2.4206949010405956E-2
59 20 1.4083597515248103E-1
59 79 3.173931317594204E-2
59 189 2.8389015464631552E-2
59 229 1.921255638987808E-2
59 448 2.1267510218409995E-2
59 476 1.8908806935240056E-2
59 567 1.859366985380722E-2
59 668 2.8281898720393306E-1
59 730 2.0726288767996853E-2
59 798 3.638744966793813E-2
59 833 2.0073263292218226E-2
60 27 5.3956607848297714E-2
60 90 1.41620248741433E-2
60 139 4.766879629506207E-2
60 158 1.9320711391251622E-2
60 170 4.504266452224012E-2
60 251 3.3908323808801294E-2
60 261 6.90147619352815E-2
60 298 9.953857402045718E-2
60 317 1.408487293816821E-2
60 378 1.8946064398990565E-2
60 379 1.6761969828857016E-2
60 580 4.536208028509598E-2
60 592 3.1436439763600145E-2
60 595 3.421187469918239E-2
60 735 1.831563888873418E-2
60 788 1.4447855231504146E-2
60 796 1.831563888873418E-2
61 29 1.836221391487934E-2
61 70 2.7053120352464967E-2
61 76 3.3521352135015725E-2
61 309 9.924710804704037E-2
61 505 3.367092723101763E-2
61 662 3.490862951119502E-2
61 678 3.792435573224994E-2
61 690 3.4460834358933774E-2
61 693 8.955491863918189E-2
61 713 1.831563888873418E-2
61 724 2.2697761788297015E-2
61 744 3.3301576604553684E-2
61 762 1.3057045747308435E-1
61 781 2.507155091416066E-2
61 805 2.0220157647312678E-2
62 139 6.093460956098772E-2
62 261 2.4277055726660342E-2
62 298 5.9011949957322084E-2
62 368 5.416212834709336E-2
62 378 3.1208180023647007E-2
62 407 6.207225350486326E-2
62 503 1.5675464554330384E-1
62 516 1.831563888873418E-2
62 580 3.573079905714942E-2
62 592 5.629855024567449E-2
62 802 1.670773297919487E-2
63 121 1.4580145459581337E-2
63 134 1.7618237561127348E-1
63 246 1.0468396355281259E-1
63 251 9.060515510278597E-2
63 437 6.80574689318361E-2
63 535 2.920436735333471E-2
63 547 2.3458264723329234E-1
63 696 1.831563888873418E-2
63 780 1.61984151945152E-1
63 821 4.3210224681341225E-2
64 98 1.4049576084602058E-1
64 127 7.022857496426904E-2
64 128 2.467861544460709E-2
64 230 1.831563888873418E-2
64 282 1.3703403031684494E-1
64 313 1.8163957449616065E-2
64 340 3.807523271547835E-2
64 419 1.831563888873418E-2
64 466 5.8188074887775935E-2
64 545 1.831563888873418E-2
64 646 2.3310864050084788E-2
64 699 4.6530007214885094E-1
64 806 1.1700599039589432E-1
65 57 1.831563888873418E-2
65 110 2.0028422077492708E-1
65 151 1.735303725367593E-2
65 223 6.995822526996108E-2
65 356 2.0248003208243992E-2
65 360 5.770448914820617E-2
65 387 3.32902863231678E-2
65 444 1.841725104985089E-2
65 465 7.80068506230314E-2
65 479 1.9236200108806184E-1
65 527 4.215225629365993E-2
65 629 4.459222892165678E-2
65 783 3.418107369223571E-2
65 820 1.6915152611269323E-2
66 2 1.831563888873418E-2
66 97 4.356775394910276E-2
66 113 2.0783639489439842E-2
66 127 5.293050193270875E-2
66 155 3.608705605020381E-2
66 352 3.488598511391709E-2
66 408 3.1284063493955315E-2
66 438 2.9703704316682268E-2
66 504 6.156311885137037E-2
66 758 2.3106047238029944E-2
66 774 7.911192320329936E-2
66 801 2.3843020731786745E-2
67 30 2.196770588943552E-2
67 48 2.457035388876746E-2
67 100 6.347798368068013E-2
67 109 1.5092635232377838E-2
67 119 1.755005689238235E-1
67 200 2.5317986452094095E-2
67 413 2.448983350074951E-2
67 434 2.5473843641859194E-2
67 456 1.9123553571574824E-2
67 511 1.831563888873418E-2
67 591 4.950657858583237E-2
67 748 1.755005689238235E-1
67 786 7.605707859465063E-2
67 815 2.3017243037192692E-1
68 72 7.896427926901681E-2
68 146 1.824478544191306E-2
68 260 2.266164985211382E-1
68 345 4.517738106076757E-1
68 376 2.117042296480141E-2
68 390 2.0895077822144187E-1
68 501 1.9086642919435853E-1
68 537 1.831563888873418E-2
68 590 2.9840539663402604E-1
68 676 2.76350662933446E-1
68 711 9.763388999836682E-2
68 716 2.2579842975658716E-2
69 125 1.8801866603822173E-2
69 173 6.153777351501026E-2
69 178 5.044359168621207E-2
69 192 1.831563888873418E-2
69 254 1.831563888873418E-2
69 274 1.831563888873418E-2
69 349 1.831563888873418E-2
69 417 7.216349569756786E-2
69 450 3.1151042630484627E-2
69 458 9.460181636621626E-2
69 548 1.831563888873418E-2
69 627 1.2383627781396202E-1
69 628 8.59363415278145E-2
69 733 1.7248322935116667E-1
70 61 2.7053120352464967E-2
70 76 5.2433064310134794E-2
70 223 1.831563888873418E-2
70 297 2.2959946048172272E-1
70 505 4.1604116872556704E-2
70 660 1.9908457741256685E-2
70 678 2.522568895298053E-2
70 693 2.211052781342025E-2
70 757 1.4109202385341642E-2
70 769 1.7925700054742068E-2
70 773 1.831563888873418E-2
70 777 2.6907966467686097E-2
71 19 3.5276515662345354E-2
71 39 1.0473703266591308E-1
71 135 1.766579853656039E-2
71 210 5.126985507538431E-1
71 403 3.449518658786094E-2
71 468 6.0402626549037816E-2
71 494 1.1488754924884735E-2
71 500 3.0306652718636792E-2
71 550 1.831563888873418E-2
71 620 4.9982439511807736E-1
71 738 1.3201383710659936E-2
71 799 2.406755150473689E-2
72 68 7.896427926901681E-2
72 146 2.0949186345553546E-2
72 333 7.75380018806559E-2
72 345 2.6321662986266287E-1
72 487 8.063064508916297E-2
72 537 5.7503776290290944E-2
72 590 7.856109657808137E-2
72 676 4.594178194874357E-2
72 716 1.831563888873418E-2
72 822 1.807905698254218E-2
73 18 2.000930649426788E-2
73 89 3.277036877169135E-2
73 177 7.506988285491084E-2
73 186 5.6134762834133704E-2
73 262 3.776025681541369E-1
73 299 2.0928012097648238E-1
73 460 5.4298593443620646E-2
73 521 9.196859963937726E-2
73 553 1.1993499766050321E-1
73 597 9.388463970317573E-2
73 605 1.7605016408065036E-1
73 623 3.0736256177431243E-2
73 644 1.7141765773303088E-2
73 654 2.6540300991506182E-2
73 672 9.104994908895603E-2
73 710 3.414492524156042E-1
73 717 7.3165288700355E-2
73 751 3.307555082980967E-2
74 22 1.831563888873418E-2
74 27 4.0930642598596356E-2
74 90 6.37633108183803E-2
74 261 2.7380118139258114E-2
74 270 4.704263170119713E-2
74 319 2.8828472475840923E-2
74 379 2.1489170131551313E-2
74 412 4.491009019631672E-2
74 618 1.587846836214976E-1
74 689 1.1224114648498228E-2
75 2 1.762081997059561E-1
75 14 2.597146628683077E-1
75 87 2.3910736372502536E-1
75 115 1.3583667562789864E-2
75 328 5.717233138753155E-2
75 339 5.72831282331626E-2
75 657 2.244915320323227E-2
75 758 2.3771481325164805E-2
75 801 1.831563888873418E-2
75 839 1.0607498571566114E-1
76 61 3.3521352135015725E-2
76 70 5.2433064310134794E-2
76 93 4.3945193221770804E-2
76 131 1.4855778108684919E-2
76 297 1.5514197180672462E-1
76 309 6.1651782082854545E-2
76 314 1.971847506827625E-2
76 441 2.649536980788354E-1
76 505 2.1282808806892924E-2
76 641 1.831563888873418E-2
76 671 1.5329980438059046E-2
76 690 1.831563888873418E-2
76 693 2.16883988138327E-1
76 712 8.754290270816386E-3
76 757 1.831563888873418E-2
76 762 1.7444244379737853E-2
76 769 6.326984238302309E-2
76 781 1.7488735910225966E-2
76 805 2.0236342050716882E-1
77 92 1.8486010631422273E-1
77 248 2.4122627799649653E-2
77 262 3.0643726673832514E-2
77 300 6.928364273028505E-2
77 325 1.8069243900509017E-2
77 410 2.833110436734614E-2
77 553 1.0046273690613503E-1
77 597 1.831563888873418E-2
77 717 2.194067426131923E-2
77 751 7.479938151621052E-2
77 776 5.0448680866514405E-2
78 109 2.6283177451015226E-2
78 169 1.8151005045939424E-2
78 219 2.316212169124235E-2
78 230 2.690359448138405E-1
78 243 3.637877598635695E-2
78 334 1.8818554320862362E-2
78 352 5.576560830975907E-2
78 438 3.231207077113422E-2
78 456 1.831563888873418E-2
78 493 2.445156766151553E-2
78 663 2.5201517605696427E-2
78 806 3.4460352319276126E-2
79 20 8.180113147689204E-2
79 45 2.2904622359053422E-2
79 53 1.727449447698641E-2
79 59 3.173931317594204E-2
79 82 3.5620172529821936E-1
79 189 1.716873765738842E-2
79 204 2.961037462454212E-2
79 481 3.961143604512488E-2
79 567 1.831563888873418E-2
79 584 8.256030128711372E-2
79 706 5.601044487189591E-2
79 720 8.294252422306354E-2
79 833 8.527331039863165E-2
80 144 2.0500132208530288E-2
80 233 4.264140380267979E-2
80 283 1.7907508026287672E-2
80 326 3.7248602744665314E-2
80 424 1.472692171880402E-1
80 554 2.0500132208530288E-2
80 559 1.831563888873418E-2
80 569 2.874487539813988E-2
80 670 2.810434787636305E-2
80 679 1.0863970724955496E-1
81 13 8.202119373117486E-2
81 21 1.209873885693162E-1
81 40 1.5177588022080005E-1
81 209 2.4802234826674253E-2
81 217 1.831563888873418E-2
81 306 2.141806011200091E-2
81 354 8.455545833320348E-2
81 394 1.3763684869408097E-1
81 486 1.1960873419273406E-1
81 572 3.3056938027590355E-2
81 622 1.4480432552546493E-2
82 79 3.5620172529821936E-1
82 174 2.8076691411834123E-2
82 204 1.8829128302242926E-2
82 301 2.9851483636087056E-2
82 481 3.2583047746367326E-2
82 584 2.0083953795348816E-2
82 706 1.831563888873418E-2
82 720 2.971423567779043E-2
82 811 1.6473688892319774E-2
82 833 3.11155967295544E-2
83 170 2.728391129973068E-2
83 264 2.8782286310411343E-2
83 291 1.6719769374623134E-1
83 378 3.616864933167446E-2
83 436 1.805051970775922E-2
83 542 5.5204030085844166E-2
83 570 3.322863316952886E-2
83 661 2.3582128998424705E-2
83 726 4.501090222986649E-2
83 788 2.901929297132469E-1
84 30 3.2700857365281534E-2
84 113 1.084746321884343E-1
84 408 1.3201383710659959E-2
84 433 1.3355066817141664E-1
84 484 1.8975591759572315E-2
84 504 1.4983357684910684E-1
84 552 9.209305440304114E-2
84 564 1.831563888873418E-2
84 625 3.589821632821933E-2
84 648 4.2950034110688584E-1
85 102 3.189769766772719E-2
85 148 5.427167030184611E-2
85 179 2.344932069091888E-2
85 213 4.278724856473082E-2
85 292 1.8027209638810333E-2
85 406 1.0570677971180181E-1
85 418 1.512899479679358E-2
85 524 4.296087600601249E-2
85 545 1.9992286413948974E-2
85 549 4.588646518311249E-2
85 675 1.221428396198273E-1
85 707 1.959474281054104E-2
85 768 1.831563888873418E-2
85 800 2.4465030662532072E-1
86 6 2.595440365048199E-1
86 55 1.316597391712495E-1
86 156 4.770744079132263E-3
86 275 1.445910481605751E-1
86 322 6.04852095374479E-1
86 397 4.0235369295597456E-1
86 684 1.831563888873418E-2
86 688 6.52296686751614E-2
86 734 4.318741922629208E-1
86 836 7.858072183309368E-1
87 2 6.04944959545857E-1
87 14 1.223069218622557E-1
87 75 2.3910736372502536E-1
87 328 2.0790362910204097E-1
87 433 1.8772080075240748E-2
87 519 1.831563888873418E-2
87 564 2.4298678001807704E-2
87 657 1.5382572444694277E-2
87 758 6.1058774191800655E-2
87 774 1.963990187839322E-2
87 801 1.7706487422852424E-1
87 839 2.2229289974374367E-1
88 17 9.79323582199938E-2
88 42 1.3356001111439853E-2
88 104 1.831563888873418E-2
88 182 2.4940178844009793E-2
88 250 3.053389619520744E-2
88 270 1.6048332796880077E-1
88 375 1.756689471278398E-2
88 379 2.2733094288936412E-2
88 412 1.9229603319101077E-2
88 443 1.1632831708310297E-1
88 586 1.98801648231483E-2
88 689 3.022365343668883E-2
88 752 4.8168814073010824E-2
88 756 3.8295941766158595E-2
88 846 2.3402959615961116E-1
89 73 3.277036877169135E-2
89 187 1.8175533058545162E-1
89 262 6.758494869327207E-2
89 374 5.800738281659079E-2
89 601 1.831563888873418E-2
89 655 1.749961483879303E-2
89 682 2.8968247582827525E-2
89 717 2.0886908417685365E-2
89 767 2.459790914454628E-2
89 776 1.9743460115359136E-2
90 22 2.9966752475954633E-1
90 27 3.273112576428451E-1
90 60 1.41620248741433E-2
90 74 6.37633108183803E-2
90 182 8.690384337449227E-2
90 261 4.10957489695356E-2
90 270 1.2449564127834499E-1
90 379 5.288136838665659E-1
90 618 1.831563888873418E-2
90 689 8.290846187074032E-2
91 197 2.5993235114406262E-2
91 218 1.6599691724881066E-1
91 252 1.2968809886420793E-1
91 333 3.127873985291493E-2
91 380 1.8079691913540082E-2
91 459 1.7175736376943126E-1
91 472 1.5671065525001665E-1
91 487 2.3280721609132426E-2
91 518 6.441400230404404E-2
91 560 1.0188288035301418E-1
91 577 2.1819319602256887E-2
91 722 2.556153320650738E-2
91 787 3.9105541882875385E-2
91 822 1.831563888873418E-2
92 77 1.8486010631422273E-1
92 248 1.0057499868582588E-1
92 300 1.2590501560624544E-2
92 325 4.529979492192618E-2
92 410 5.390458551829282E-2
92 428 6.491784811149308E-2
92 721 6.4143874048589E-2
92 751 2.5857038988653235E-2
92 790 1.831563888873418E-2
92 842 5.488315952855771E-2
93 76 4.3945193221770804E-2
93 297 3.5709774681613494E-2
93 314 1.831563888873418E-2
93 366 5.657543202728615E-2
93 441 2.1831757476292907E-1
93 578 2.3746799560649634E-1
93 641 8.459574062440987E-2
93 712 2.4182308541450515E-1
93 757 4.897029675344078E-2
93 824 1.831563888873418E-2
94 1 2.0650825181712566E-2
94 31 1.5297057539944295E-2
94 112 3.000544054721497E-1
94 116 1.2907090623025674E-1
94 175 3.836293549078204E-2
94 201 1.3533528323661276E-1
94 255 1.3656559555843573E-1
94 367 1.831563888873418E-2
94 373 2.1929879457309894E-2
94 386 7.708286619130325E-2
94 509 3.4809688291289734E-2
94 669 3.170429383679647E-2
94 723 1.754618985471842E-2
94 817 1.4256526411450518E-1
94 843 8.286304968503094E-2
95 125 2.0961138715109787E-1
95 178 1.5998413778781452E-2
95 219 4.123755960167348E-2
95 271 6.550810553646531E-2
95 369 3.8422700618164046E-1
95 409 9.465771226571223E-2
95 458 1.831563888873418E-2
95 467 4.40333922754288E-2
95 627 4.565323719470268E-2
95 628 7.015804256332983E-2
95 692 1.988303222353613E-2
95 733 2.181735114270617E-2
96 28 6.107502980004432E-2
96 174 1.831563888873418E-2
96 244 4.3698793646333084E-2
96 279 4.023397551419404E-2
96 301 2.5598605764490218E-2
96 380 2.4297269423621842E-2
96 497 3.485628759931689E-2
96 576 8.685820992121808E-2
96 784 1.831563888873418E-2
96 811 3.5160707398491864E-2
97 66 4.356775394910276E-2
97 178 2.7914295099838077E-2
97 342 2.0425007711921066E-2
97 385 1.9140000960637248E-2
97 417 2.705014554583489E-2
97 450 1.7973300559311463E-2
97 548 1.8664497752958222E-2
97 564 5.524375370989507E-2
97 594 2.7220808360345725E-2
97 627 1.831563888873418E-2
97 801 4.254330824354312E-2
98 64 1.4049576084602058E-1
98 127 4.276650826045224E-2
98 128 2.6540300991506182E-2
98 198 1.1040068136254595E-2
98 230 1.7378587893548084E-2
98 282 3.3295208408305477E-1
98 306 1.772802256359386E-2
98 340 4.924883506150009E-2
98 365 1.695705528182665E-2
98 398 2.0101180301247447E-2
98 419 2.299113582130304E-2
98 466 1.831563888873418E-2
98 475 1.6389553790213604E-2
98 646 5.498511093634072E-2
98 657 1.0912468102322892E-1
98 677 7.753627824259345E-2
98 699 9.151024481051155E-2
98 774 2.9727133414263557E-2
98 806 2.7087154905978662E-2
99 130 3.227667920290709E-2
99 185 2.469119197866359E-2
99 289 2.699754783912832E-2
99 362 1.704071033454765E-2
99 462 5.723085816067523E-2
99 555 1.831563888873418E-2
99 634 2.9157971352179384E-2
99 727 5.381258684307401E-2
99 737 3.4539009041578216E-2
99 824 3.707389535426292E-2
100 30 1.853899758720297E-2
100 48 2.2502912882136988E-1
100 67 6.347798368068013E-2
100 119 5.834513439081647E-2
100 142 3.1220927161230917E-2
100 208 3.868371963985899E-2
100 243 2.0643766277258425E-2
100 323 2.264965589439303E-2
100 334 4.897754052297843E-2
100 480 4.41321218132065E-2
100 511 1.4218627518597654E-1
100 530 2.7078301448006867E-2
100 559 2.2794180883612368E-2
100 569 3.33732699603261E-2
100 581 2.0231843347804694E-2
100 591 2.136173917500704E-2
100 610 6.26217760065981E-2
100 686 2.5422233643710532E-2
100 786 2.7578447852381155E-1
100 791 1.2858612012470502E-2
100 815 8.208499862389876E-2
101 5 4.7819297603013317E-1
101 38 4.7477090032126495E-1
101 136 2.987934692774821E-1
101 292 3.4501686098336426E-1
101 389 2.873246422668734E-1
101 451 1.6669587799867252E-2
101 524 3.339203154557868E-1
101 545 2.4282970054670866E-2
101 642 1.831563888873418E-2
101 707 4.9408386341817123E-1
102 85 3.189769766772719E-2
102 129 2.0345766272782596E-2
102 140 2.399559379243195E-2
102 149 5.419025209875129E-2
102 296 2.5527877473115253E-2
102 329 5.839650093037567E-2
102 393 1.6790248592861906E-1
102 406 2.0665072042259598E-2
102 536 6.0840743786335756E-2
102 573 1.7694830244964616E-2
102 740 1.1926149239057376E-1
102 800 1.8849585253140483E-2
103 47 1.831563888873418E-2
103 138 4.154961741186899E-2
103 158 1.7460177091069513E-2
103 317 1.831563888873418E-2
103 400 3.0997722201763746E-2
103 461 9.050189396138242E-2
103 470 1.9213014057806614E-2
103 600 1.2064839186751325E-1
103 630 8.931859425509273E-2
103 755 1.8746923852686656E-1
103 782 2.5144675412117196E-2
104 88 1.831563888873418E-2
104 114 9.723390240536076E-2
104 220 2.452676034826798E-1
104 250 2.738697177659932E-2
104 263 3.131732516168223E-2
104 269 1.831563888873418E-2
104 443 1.2535498851868426E-2
104 551 2.05603037723656E-2
104 608 8.823552098924761E-2
104 756 1.343997896249355E-1
104 785 2.7769554260689614E-2
105 29 2.4745369833534328E-1
105 107 4.288929800266078E-2
105 405 3.427255452861707E-2
105 505 4.409595239195346E-2
105 678 9.370253292647801E-2
105 713 1.831563888873418E-2
105 724 1.7650446126149483E-2
105 744 5.0540964249536316E-2
105 781 3.937272028938695E-2
105 794 3.161795322464659E-1
106 218 1.831563888873418E-2
106 221 2.6250561184529043E-2
106 227 1.6213031740391112E-1
106 336 1.5437583225837007E-1
106 344 1.9878259041160303E-2
106 380 2.2763231559268307E-2
106 427 8.511362793798675E-2
106 431 2.2317480949631006E-2
106 469 8.688586458644183E-2
106 474 4.985448483470978E-2
106 491 2.4719007043156976E-2
106 502 2.64118256557341E-2
106 506 1.8333032540031516E-1
106 561 1.4401294818805657E-2
106 577 1.7368212102539568E-1
106 583 2.9557492301677372E-2
106 739 7.915456642990286E-2
106 741 2.6332456890423427E-2
106 784 1.831563888873418E-2
106 787 1.7679602347484433E-1
106 789 1.0723802284492613E-1
106 825 1.69177765225651E-1
107 105 4.288929800266078E-2
107 351 4.235466770057823E-2
107 405 1.0747049629474581E-1
107 440 4.8280985021114153E-1
107 643 2.1465305063523798E-2
107 662 2.283754553277308E-2
107 724 2.34123640498102E-2
107 727 3.539030504029883E-2
107 744 2.2250535092523442E-2
107 772 1.831563888873418E-2
107 794 2.3694437333427326E-2
108 113 2.174345605129157E-2
108 157 3.308822241802994E-2
108 159 9.487535923877112E-2
108 313 4.104717016682607E-2
108 340 1.831563888873418E-2
108 341 6.80199961585709E-2
108 402 3.349944474400374E-2
108 433 2.2572984781331133E-2
108 489 8.972305056844995E-2
108 508 1.5388028266362631E-2
108 589 2.4626831408106203E-2
108 650 2.244231663913119E-2
108 697 3.5036974831749376E-2
108 742 1.584125159332985E-2
109 67 1.5092635232377838E-2
109 78 2.6283177451015226E-2
109 119 4.51947570406207E-2
109 196 2.4518353159227027E-2
109 200 3.499743808460297E-2
109 230 4.394895302796201E-2
109 266 4.680672475374872E-2
109 277 1.982928222552243E-2
109 413 4.322679288047969E-1
109 434 5.9323944535715586E-2
109 438 2.643179141845202E-2
109 456 1.679359433501786E-1
109 467 3.826736270646591E-2
109 493 3.612555689170115E-2
109 591 2.475012520523659E-2
109 638 2.370817191173094E-2
109 758 1.831563888873418E-2
109 759 2.03851917000907E-1
109 774 1.4248251575760176E-2
110 57 4.08348962533286E-2
110 65 2.0028422077492708E-1
110 152 3.905445385910523E-2
110 223 2.550068279064452E-2
110 281 4.536553254929204E-2
110 356 1.831563888873418E-2
110 360 4.524023767210425E-2
110 387 1.383832477936751E-1
110 444 1.668006137215348E-2
110 465 2.449259480095698E-2
110 479 5.406357258369609E-2
110 527 3.6046703337920954E-2
110 599 3.130687597739271E-2
110 761 2.4034016981037073E-2
111 4 3.141435065589547E-2
111 24 1.516274543251459E-1
111 123 1.1105384413417141E-1
111 140 4.258783573642949E-2
111 155 2.6213979760529643E-1
111 192 6.354928548014228E-2
111 226 1.854247048742432E-1
111 273 1.5216373237420474E-2
111 287 1.4986217873442192E-1
111 341 7.117073845094449E-2
111 450 2.4785933319375113E-2
111 484 1.8207422726555837E-2
111 589 1.0454103979314842E-1
111 674 1.831563888873418E-2
111 742 3.750975967512043E-2
111 823 9.184614402347677E-2
112 13 7.852615824342893E-2
112 31 5.3293698981866686E-2
112 36 1.831563888873418E-2
112 94 3.000544054721497E-1
112 116 3.130367265444999E-2
112 175 2.7351128385264215E-2
112 188 1.9425347946439422E-2
112 201 1.939800422908919E-1
112 255 2.4151722590405972E-1
112 364 1.717574563035969E-2
112 367 4.219749575347876E-2
112 373 1.1844182901380365E-1
112 386 7.03767577750488E-2
112 394 7.863002253835485E-2
112 572 1.831563888873418E-2
112 669 4.382407230968196E-2
112 723 3.340192884217264E-2
112 745 3.293124639973676E-2
112 843 2.5005005721851076E-2
113 66 2.0783639489439842E-2
113 84 1.084746321884343E-1
113 108 2.174345605129157E-2
113 287 1.8989242991040354E-2
113 433 2.5236643354492817E-2
113 484 3.205889538830846E-2
113 489 1.4680738336989583E-2
113 504 6.691788963154863E-2
113 589 1.831563888873418E-2
113 648 1.1607730686779524E-1
114 104 9.723390240536076E-2
114 184 2.0141193696444078E-2
114 220 3.3504157582436966E-2
114 231 2.0141193696444078E-2
114 232 2.4510912887381473E-2
114 250 1.831563888873418E-2
114 375 4.1861167382002684E-2
114 499 2.0333470941868E-2
114 551 1.8490488535025367E-2
114 752 5.7005468565180455E-2
114 785 6.388991056299805E-2
115 14 4.7887460115701E-2
115 58 4.877219194790289E-2
115 75 1.3583667562789864E-2
115 222 2.94804643639728E-2
115 253 1.831563888873418E-2
115 285 1.831563888873418E-2
115 288 2.2213803123908832E-1
115 337 6.34077024836112E-2
115 415 2.8420608877958956E-2
115 498 1.4584611032511188E-1
115 546 4.077809354763647E-1
115 839 2.2743892148592005E-2
116 1 6.54994007187868E-2
116 36 8.768869755360406E-2
116 94 1.2907090623025674E-1
116 112 3.130367265444999E-2
116 147 4.069550372084832E-2
116 188 6.345952732950846E-2
116 201 1.359889486620643E-2
116 242 3.0508923317202962E-2
116 370 2.193175220534098E-2
116 373 2.153458055355597E-2
116 386 3.192673995410361E-2
116 488 1.7090984918337975E-2
116 509 1.1759976669275188E-1
116 526 1.7824797273389703E-2
116 666 3.52081083082101E-2
116 669 5.13828956470926E-2
116 681 2.592070579056346E-2
116 723 3.311644401624988E-2
116 745 1.5922851504511698E-2
116 817 1.0278735526318833E-1
116 834 1.831563888873418E-2
116 838 1.831563888873418E-2
116 843 3.969956318129317E-2
117 41 6.640793917584557E-2
117 130 1.168611391684016E-1
117 162 1.831563888873418E-2
117 185 3.533695959171959E-2
117 259 1.148310297319083E-1
117 289 1.0894986356330674E-1
117 432 1.2680619287939987E-1
117 455 1.831563888873418E-2
117 539 3.691954332362426E-2
117 585 1.594391187594396E-2
117 634 2.382236724238844E-2
117 673 1.2776295860985677E-2
117 737 2.5218554985966146E-2
117 772 1.9979600953452165E-2
118 146 1.6546644502722564E-2
118 284 2.616013691851838E-2
118 333 1.831563888873418E-2
118 384 4.484794046967463E-2
118 427 1.831563888873418E-2
118 472 4.583609914730072E-2
118 487 2.087238065656686E-2
118 518 1.2609659097093995E-1
118 537 3.1342041043968184E-2
118 571 7.820071765542543E-2
118 603 4.4065508528571225E-2
118 606 3.6150216815582115E-2
118 624 8.462773085640252E-2
118 714 2.9359747614582037E-2
118 716 2.9907436201118416E-2
118 818 3.345817374512775E-2
119 30 2.210124776447552E-2
119 48 1.831563888873418E-2
119 67 1.755005689238235E-1
119 100 5.834513439081647E-2
119 109 4.51947570406207E-2
119 142 3.18004174453798E-2
119 200 2.119932577696403E-2
119 243 4.93633512055203E-2
119 413 1.7515085559276593E-2
119 434 5.030299194439592E-2
119 438 1.831563888873418E-2
119 456 1.831563888873418E-2
119 493 1.7637360889116768E-2
119 511 1.831563888873418E-2
119 591 5.371097452470753E-2
119 638 3.486325606942548E-2
119 663 1.831563888873418E-2
119 748 7.860243493924032E-2
119 786 5.834513439081647E-2
119 815 9.854505942534658E-2
120 15 3.697531325059784E-2
120 272 3.0225618467875574E-2
120 355 1.0070242353474315E-1
120 395 1.831563888873418E-2
120 439 6.1372897616411175E-2
120 531 2.1415417179468027E-1
120 556 7.580018766414325E-2
120 566 1.4326940275442326E-1
120 639 1.5959197512511673E-2
120 703 4.814506754382511E-2
120 804 2.169046853513567E-2
121 63 1.4580145459581337E-2
121 290 1.802354982363362E-1
121 298 3.968810512443614E-2
121 343 3.8385194668763126E-2
121 368 4.0132163232279694E-2
121 381 1.7125555412170618E-2
121 516 1.831563888873418E-2
121 535 1.2209928872546609E-1
121 547 4.728163627921865E-2
121 635 1.4670486871837407E-1
121 780 1.4180166905191036E-2
121 802 9.993863939837302E-2
121 835 2.519335092851152E-1
122 43 4.936335120552021E-2
122 46 8.415136633767448E-2
122 126 2.725941644247541E-1
122 137 5.188476076892047E-2
122 222 1.831563888873418E-2
122 236 3.771897583943556E-2
122 312 3.75267817113482E-2
122 442 2.5563190600291613E-1
122 446 1.86532448801007E-2
122 478 9.910674385576852E-2
122 485 1.0365712861152786E-1
122 612 6.604226801565612E-2
122 658 3.7236506852391445E-2
122 683 9.90134083638263E-2
122 694 2.239031818245093E-2
122 709 2.1544376590801798E-1
122 817 3.0366240672777538E-2
122 830 2.1987284382209998E-1
123 4 1.345997672082705E-1
123 24 1.2057371105723948E-2
123 111 1.1105384413417141E-1
123 140 3.8610257937684675E-2
123 155 2.943933043331888E-2
123 226 1.1553380701788174E-1
123 329 1.3276293045149993E-2
123 341 1.831563888873418E-2
123 404 1.831563888873418E-2
123 674 4.1098616414892895E-2
123 768 1.8734264043572E-2
123 823 2.938402281219291E-1
124 12 1.831563888873418E-2
124 139 7.235723596055182E-2
124 184 2.7246318186248897E-2
124 220 1.2199779857723612E-2
124 250 2.2069107601833067E-2
124 443 8.237659689194218E-2
124 586 1.780334720164273E-2
124 689 2.2069107601833067E-2
124 708 3.783315659532239E-2
124 797 1.1209037112217712E-1
124 846 5.4045276463304426E-2
125 26 2.9376534924966915E-2
125 69 1.8801866603822173E-2
125 95 2.0961138715109787E-1
125 178 2.992896401160064E-2
125 206 2.8497689538606326E-2
125 219 1.7831553645890882E-2
125 369 8.063220505327594E-2
125 409 5.395295277159268E-2
125 458 9.553961643690859E-2
125 548 4.913908970014684E-2
125 594 3.027653772416597E-2
125 627 1.6688702995300904E-2
125 628 2.18964978290686E-2
125 733 5.190965387176826E-2
125 837 8.20849986238988E-2
126 49 1.7987851047902348E-2
126 122 2.725941644247541E-1
126 137 1.970715610027993E-2
126 364 2.0995360058623146E-2
126 442 8.613126189925135E-2
126 446 3.226442805168823E-2
126 478 5.1525674724157575E-2
126 485 4.0613233092936234E-2
126 658 2.073708811333532E-2
126 709 1.263562620061331E-1
126 830 8.681846697525356E-2
127 2 9.415157571668822E-3
127 64 7.022857496426904E-2
127 66 5.293050193270875E-2
127 98 4.276650826045224E-2
127 128 2.2289571321683042E-2
127 155 1.7043267862488387E-2
127 287 1.831563888873418E-2
127 313 5.889494590917182E-2
127 341 8.175731443469382E-2
127 467 1.831563888873418E-2
127 699 2.1524034317051768E-1
127 774 2.870783798457017E-1
127 801 2.9363584347699347E-2
128 64 2.467861544460709E-2
128 98 2.6540300991506182E-2
128 127 2.2289571321683042E-2
128 282 2.4146004356797854E-2
128 313 1.1040096948216349E-1
128 340 1.831563888873418E-2
128 650 1.3593251560464653E-2
128 657 2.0278748399151898E-2
128 699 2.6540300991506182E-2
128 795 2.4858750526883938E-2
129 102 2.0345766272782596E-2
129 149 1.8649780470976624E-2
129 393 8.368360773121772E-2
129 492 3.0134798194127992E-2
129 509 3.657329068181762E-2
129 536 4.8611431076175515E-1
129 573 3.0301981112939795E-2
129 723 1.831563888873418E-2
129 725 1.611006198689441E-1
129 740 2.0324136911176355E-1
129 843 1.630664521064873E-2
130 99 3.227667920290709E-2
130 117 1.168611391684016E-1
130 162 2.6049687402384926E-2
130 185 1.4980876145509645E-1
130 259 1.1861198874609317E-1
130 289 3.2054328346529903E-1
130 432 3.372721987857829E-2
130 455 8.093313996383444E-2
130 462 6.703387431685735E-2
130 539 1.9886497687382168E-2
130 585 7.993480782919508E-2
130 634 2.7855554429852502E-2
130 673 6.0843255890019154E-2
130 678 1.831563888873418E-2
130 737 1.831563888873418E-2
130 781 3.8088872151767705E-2
130 805 1.7525445364363856E-2
130 824 3.3681132354210865E-2
131 76 1.4855778108684919E-2
131 259 2.6737953111918306E-2
131 362 5.452527577743514E-2
131 441 1.831563888873418E-2
131 505 2.412472800231493E-2
131 673 8.349681479694576E-2
131 693 2.368570969279988E-2
131 713 1.1620104689741755E-1
131 769 1.7469390924378866E-1
131 777 1.831563888873418E-2
131 781 4.079215966614465E-2
132 148 1.831563888873418E-2
132 153 2.4467043499806235E-1
132 157 6.483617029046548E-2
132 159 5.707506326334635E-2
132 167 1.776483475720691E-2
132 179 2.291302468158584E-2
132 402 1.8429932677429924E-2
132 508 3.5605879437761234E-1
132 742 4.2682521061166635E-2
132 754 1.2382464234673259E-1
132 768 9.893640108857604E-3
133 10 1.831563888873418E-2
133 57 1.5733301727744127E-2
133 318 4.342247496843779E-2
133 356 2.3145441094447227E-2
133 387 2.335745892638825E-2
133 425 6.06623758427072E-2
133 623 6.747159177938007E-2
133 761 2.2181190183273726E-2
133 819 2.0309702835097698E-2
133 820 1.429459411945642E-1
134 63 1.7618237561127348E-1
134 170 4.652052268224045E-2
134 251 2.0334937797834218E-1
134 291 3.809753741166587E-2
134 316 1.6702623089935458E-2
134 421 2.845193654113026E-2
134 437 1.831563888873418E-2
134 522 2.5550625789046946E-2
134 619 7.528851667135399E-2
134 780 5.0752527769567526E-2
135 71 1.766579853656039E-2
135 165 3.520843401667849E-2
135 214 3.7499203627844424E-2
135 361 2.2378119785761593E-2
135 403 2.2663813400020105E-1
135 416 2.2378119785761593E-2
135 468 5.876820207464991E-2
135 510 3.520843401667849E-2
135 626 4.231720337848443E-2
135 649 1.831563888873418E-2
135 765 8.406285583693753E-2
135 793 1.831563888873418E-2
136 5 6.656435326444234E-2
136 38 6.265973153613779E-1
136 101 2.987934692774821E-1
136 292 3.006695068918229E-1
136 374 1.831563888873418E-2
136 389 4.379151899124334E-1
136 524 1.679921279626661E-1
136 541 1.6395864707348273E-2
136 707 1.503166269568469E-1
136 718 2.3428326123978795E-2
137 43 1.831563888873418E-2
137 46 2.579799344481365E-2
137 122 5.188476076892047E-2
137 126 1.970715610027993E-2
137 236 4.0762203978366225E-2
137 245 1.831563888873418E-2
137 442 1.0441162846818657E-1
137 446 1.626529696696014E-2
137 485 2.3813426280939234E-1
137 574 3.7944079658278375E-2
137 612 1.831563888873418E-2
137 683 1.9204990862075416E-1
137 709 3.202399410828981E-2
137 814 2.67957443999138E-2
137 830 2.3912992862805314E-2
138 8 2.9032267102660027E-2
138 103 4.154961741186899E-2
138 164 3.664123404814601E-2
138 235 6.077247915136819E-2
138 350 4.0251885753482125E-2
138 400 9.772305966500868E-1
138 461 1.831563888873418E-2
138 600 1.831563888873418E-2
138 630 1.7258545996599078E-1
138 631 1.831563888873418E-2
138 665 1.831563888873418E-2
138 687 1.9090205401633753E-2
138 747 1.5223149227758764E-1
138 755 3.049027525381782E-2
138 763 5.838606876780315E-2
138 782 7.069710536999577E-2
139 60 4.766879629506207E-2
139 62 6.093460956098772E-2
139 124 7.235723596055182E-2
139 261 1.722521338313373E-2
139 378 1.9375730226461187E-2
139 503 1.831563888873418E-2
139 534 7.21393214021631E-2
139 580 1.1616489018733585E-1
139 592 4.303334274243302E-2
139 729 1.831563888873418E-2
139 797 2.2473994922204477E-2
140 102 2.399559379243195E-2
140 111 4.258783573642949E-2
140 123 3.8610257937684675E-2
140 148 4.694288967532548E-2
140 183 1.936647124580785E-2
140 192 2.4330505617102927E-2
140 213 1.831563888873418E-2
140 273 3.0278233128898616E-2
140 296 3.4837922853904434E-2
140 313 1.831563888873418E-2
140 329 6.783294070605149E-2
140 340 6.873582214703552E-2
140 341 3.7707718658524E-2
140 393 3.930515475919425E-2
140 398 1.7180959943064296E-2
140 768 4.6563555265666697E-2
140 795 1.7905161980733414E-1
140 823 1.831563888873418E-2
141 167 4.637503910560705E-2
141 202 3.716294541357107E-1
141 241 3.0340165150324017E-1
141 257 7.21647741041668E-2
141 452 1.831563888873418E-2
141 453 2.6173651860666183E-2
141 514 4.054579536565661E-2
141 565 4.2072666624487984E-2
141 653 6.845753984716019E-2
141 831 1.2661766259893029E-2
142 48 2.6894883658328143E-2
142 100 3.1220927161230917E-2
142 119 3.18004174453798E-2
142 208 6.287122660066728E-2
142 243 1.4995262060176495E-1
142 323 6.287122660066728E-2
142 352 1.831563888873418E-2
142 480 3.722479744324837E-2
142 511 9.11670511531529E-2
142 530 2.7078301448006867E-2
142 686 2.5422233643710532E-2
142 786 1.546382645492548E-1
142 791 6.948345122280154E-2
143 154 3.883028042908895E-2
143 256 2.0703414359717447E-2
143 308 1.827333951058508E-2
143 416 9.589430625733422E-2
143 490 2.2455342687275864E-1
143 507 2.3846660210531562E-1
143 563 2.80275738230772E-2
143 626 1.831563888873418E-2
143 701 3.2347650996599676E-2
143 779 3.5977717469910755E-2
144 37 9.520659763043864E-2
144 80 2.0500132208530288E-2
144 208 2.1240365984422152E-2
144 233 4.0826723414688393E-1
144 267 5.688823834610157E-2
144 326 2.7058445682482175E-2
144 334 2.613592578010988E-2
144 391 3.8875666669237155E-2
144 424 1.831563888873418E-2
144 530 1.831563888873418E-2
144 554 1.3432508274173426E-2
144 559 5.816657252767601E-2
144 569 8.567939987365944E-2
144 591 1.2460580405770735E-2
144 670 1.4888423493711424E-2
144 679 1.9328234187633953E-2
144 748 1.3690893169243845E-1
144 766 9.071795328941251E-2
144 771 1.6929653924657704E-2
144 815 3.412319987521719E-2
145 50 1.386181903418727E-1
145 207 4.905813465725062E-2
145 268 1.6249482164131604E-1
145 286 9.343904940638366E-3
145 363 1.831563888873418E-2
145 372 3.920550716707616E-2
145 411 3.709076839424963E-2
145 463 1.7158389088884656E-2
145 483 6.37633108183803E-2
145 529 1.807931136455696E-2
145 579 1.3971401505709669E-1
145 601 1.831563888873418E-2
145 682 2.3064121414220602E-2
145 718 3.572306348167657E-2
145 803 2.1702517128062362E-1
145 832 5.979974234172909E-2
146 68 1.824478544191306E-2
146 72 2.0949186345553546E-2
146 118 1.6546644502722564E-2
146 221 2.5820408189550004E-2
146 321 1.4516750605765794E-1
146 336 4.984730679774647E-2
146 345 5.131509841993434E-2
146 390 1.4085262195103252E-2
146 487 2.1175779668973885E-2
146 501 1.831563888873418E-2
146 537 1.330635217282096E-1
146 606 9.858780182047715E-2
146 676 1.831563888873418E-2
146 716 2.3404567963274604E-2
146 731 2.2975351001108226E-2
146 844 1.523614842932695E-1
147 1 1.831563888873418E-2
147 116 4.069550372084832E-2
147 207 1.5047852950534887E-2
147 509 2.0456440176198604E-2
147 526 3.170180115440348E-2
147 666 1.5714867490722792E-1
147 681 2.1188982275303794E-1
147 725 2.2384514522994423E-2
147 834 2.3415664648178278E-2
147 838 3.4406889286841325E-2
148 85 5.427167030184611E-2
148 132 1.831563888873418E-2
148 140 4.694288967532548E-2
148 153 2.109279999048299E-2
148 179 4.221485249587674E-2
148 213 1.105447756773125E-1
148 273 1.831563888873418E-2
148 296 3.932728889552701E-2
148 329 1.0631685090429117E-1
148 341 1.0009152854574715E-2
148 393 1.831563888873418E-2
148 406 2.4228579677697804E-1
148 418 1.857885315333884E-2
148 508 2.4449488173971055E-2
148 650 4.505801914710506E-2
148 742 8.492813753963695E-2
148 754 1.142190561488994E-2
148 768 4.306096897124393E-1
148 795 1.1415332638504565E-1
148 800 1.1832426738414744E-2
149 7 1.4914670520316528E-1
149 54 1.960043753402059E-2
149 102 5.419025209875129E-2
149 129 1.8649780470976624E-2
149 348 2.943933043331888E-2
149 492 1.498223403140453E-1
149 536 4.8400332881288914E-2
149 715 1.2416853636414843E-2
149 728 2.213602344430457E-2
149 740 3.2370477022974686E-2
150 212 1.831563888873418E-2
150 304 2.3875730707728686E-2
150 392 1.81733822172441E-2
150 414 1.163900882896294E-1
150 520 2.003386106022358E-2
150 523 3.009002683325064E-1
150 602 2.4062623930975337E-2
150 607 1.1899724103011769E-1
150 616 3.1002599892108008E-2
150 659 3.512198907652615E-2
150 770 1.831563888873418E-2
151 65 1.735303725367593E-2
151 223 6.138420921762766E-2
151 265 2.380365308494355E-2
151 309 2.0118428811866415E-2
151 324 1.3111846683667928E-2
151 332 4.751409039847337E-2
151 360 8.743707463290668E-2
151 444 1.5188029873783773E-1
151 447 1.0644131771353084E-1
151 465 8.056684937852483E-2
151 479 4.12027729596854E-2
151 629 9.834648284576092E-2
151 660 1.1790619701064839E-1
151 690 5.7994615304913545E-2
152 110 3.905445385910523E-2
152 318 2.4632127216140873E-2
152 387 4.7583582166371624E-2
152 425 1.831563888873418E-2
152 479 3.717268468957344E-2
152 527 1.9179573144380166E-2
152 643 1.5032648684983324E-2
152 761 3.3899258434696426E-2
152 783 2.238919159317076E-2
152 819 6.233023599342444E-2
153 132 2.4467043499806235E-1
153 148 2.109279999048299E-2
153 167 1.4130102360826552E-1
153 179 9.735299671841366E-2
153 418 8.930602943501739E-2
153 508 8.224610749985346E-2
153 742 1.831563888873418E-2
153 754 2.3898068432998917E-1
153 768 1.6346761245912767E-2
153 831 1.44665176638995E-1
154 34 6.274069071674353E-2
154 143 3.883028042908895E-2
154 171 1.831563888873418E-2
154 234 2.4748911413433917E-2
154 307 9.289524837480058E-2
154 310 6.767878904939909E-2
154 422 2.5210084596675487E-2
154 429 9.289524837480058E-2
154 432 3.153080976286109E-2
154 490 2.2591222284372173E-2
154 507 4.0009053311708606E-2
154 528 1.7310681586434302E-2
154 533 2.5528961760335867E-1
154 730 3.505454236148546E-2
154 737 1.8567974381232984E-2
154 779 2.4556385178953952E-2
155 24 1.2379928403382785E-1
155 66 3.608705605020381E-2
155 111 2.6213979760529643E-1
155 123 2.943933043331888E-2
155 127 1.7043267862488387E-2
155 192 8.251274647879978E-2
155 226 5.1147091754775595E-2
155 287 2.4180882529625147E-1
155 341 9.42554752270754E-2
155 408 3.208412436050465E-2
155 450 1.2868082465409525E-1
155 484 5.7822901019177024E-2
155 589 1.1752126624430571E-1
155 795 1.8163957449616065E-2
155 801 4.313368021870151E-2
156 6 2.7777662732140256E-2
156 55 8.265618549549829E-2
156 86 4.770744079132263E-3
156 275 7.330521131609416E-2
156 322 1.831563888873418E-2
156 382 5.846977284954893E-1
156 397 2.689500946983767E-2
156 445 1.831563888873418E-2
156 532 2.038023305507856E-2
156 557 4.7753622164141786E-2
156 684 2.565630402725084E-1
156 688 2.8695553759937598E-2
156 734 2.7412097322725874E-2
156 836 9.935150551473256E-3
157 108 3.308822241802994E-2
157 132 6.483617029046548E-2
157 159 2.652157199135421E-2
157 341 3.2643096139737954E-2
157 433 1.831563888873418E-2
157 484 1.7116367829087806E-2
157 508 6.141705460568385E-2
157 589 3.823100848741636E-2
157 742 6.281921024527318E-2
157 754 3.910382507723792E-2
157 770 1.9320957613766298E-2
158 47 1.708928534296701E-1
158 60 1.9320711391251622E-2
158 103 1.7460177091069513E-2
158 170 1.831563888873418E-2
158 251 1.831563888873418E-2
158 316 3.630834695324417E-2
158 317 5.243002123050128E-1
158 534 4.191004935013521E-2
158 580 2.314191542366863E-2
158 598 7.973370607748263E-2
158 619 2.56929546823095E-2
158 636 2.2416237185148646E-1
158 829 2.569872578621206E-2
159 108 9.487535923877112E-2
159 132 5.707506326334635E-2
159 157 2.652157199135421E-2
159 313 3.547958514660407E-2
159 402 5.287150672935377E-2
159 433 5.64546882822601E-2
159 489 2.5497549427175387E-2
159 508 1.2674554684614245E-1
159 650 3.471248919206697E-2
159 657 2.9303314549270217E-2
160 26 1.4105450022654027E-2
160 193 4.2709608456930115E-1
160 258 5.97643710217888E-2
160 302 6.991772138370897E-2
160 306 1.7573010238491943E-1
160 348 1.831563888873418E-2
160 353 3.8700920569958275E-2
160 357 2.645176396290789E-2
160 409 1.8870616415041015E-2
160 454 2.6010532382765832E-2
160 572 4.5988446395061736E-2
160 645 4.9787068367863924E-2
161 261 3.5978897425059976E-2
161 290 1.831563888873418E-2
161 343 2.0770609451135835E-1
161 381 2.5495567996179348E-2
161 421 4.0994136236219864E-2
161 516 5.664667506505952E-2
161 595 2.0516520841381006E-2
161 635 3.402705697731654E-1
161 735 3.40490420655268E-2
161 796 1.6250430296583334E-2
161 802 8.474698518582055E-2
161 835 6.514951003004418E-2
162 117 1.831563888873418E-2
162 130 2.6049687402384926E-2
162 185 2.343734338452158E-2
162 259 1.2480827104528103E-2
162 401 2.751689800215017E-2
162 455 1.4184317003381341E-1
162 462 1.0827381064515743E-1
162 539 1.912139980602347E-2
162 634 4.349847694724642E-2
162 737 3.704955190939938E-2
163 35 2.9322159123893795E-2
163 44 4.047134341482791E-2
163 211 3.1196839264143877E-2
163 237 3.904122050845547E-2
163 248 1.6199706594837503E-2
163 399 1.783896339402694E-1
163 543 2.9149379120402896E-1
163 685 1.1142836047434868E-1
163 691 1.270404515151205E-1
163 753 4.807910529814626E-2
163 767 4.46020960442564E-2
163 813 3.677039276683226E-2
164 47 1.267778650536389E-1
164 138 3.664123404814601E-2
164 225 1.831563888873418E-2
164 278 1.4838556515937157E-2
164 350 1.3881956795591122E-2
164 400 3.370705372788825E-2
164 522 1.831563888873418E-2
164 558 2.7446802070491057E-2
164 631 3.161088955577354E-2
164 687 7.668513953625165E-2
164 747 5.1825571714539276E-2
164 755 5.526220093168626E-2
164 812 1.5710293359896366E-2
164 845 7.535334136437016E-2
165 135 3.520843401667849E-2
165 174 2.1393670019850906E-2
165 204 7.692417635604695E-2
165 301 3.765758895339097E-2
165 435 1.831563888873418E-2
165 468 2.1407932249908387E-2
165 507 1.831563888873418E-2
165 510 8.050141480613919E-2
165 611 6.800331957188323E-2
165 626 4.05719489967797E-2
165 649 2.2768182274662738E-1
165 705 1.831563888873418E-2
165 720 1.3237847401291788E-2
165 765 5.780772212827438E-2
165 808 2.5552556373164566E-2
165 811 1.1283618731705691E-1
166 416 2.4591052616404156E-2
166 491 2.8150486524837554E-2
166 494 3.9812665421619875E-2
166 500 1.831563888873418E-2
166 502 3.278849317491613E-2
166 513 4.1216849178684456E-2
166 563 3.8323252956994874E-2
166 583 4.008962198108932E-2
166 701 7.880901359422988E-2
166 738 2.2918491402444126E-2
166 825 1.82522630389674E-2
167 132 1.776483475720691E-2
167 141 4.637503910560705E-2
167 153 1.4130102360826552E-1
167 179 5.470214167007703E-2
167 202 5.639819829244705E-2
167 241 6.307954193118888E-2
167 257 1.2066914523272446E-1
167 402 1.831563888873418E-2
167 418 1.831563888873418E-2
167 514 2.132428435262677E-2
167 754 1.0654522344940459E-1
167 831 2.0716840927509056E-1
168 171 2.3334308787631702E-1
168 256 2.786550496507013E-2
168 308 3.325188561401125E-1
168 490 4.8697057587104006E-2
168 550 1.3988917162407561E-2
168 626 3.8356636359325014E-2
168 701 2.05580162059564E-2
168 741 2.41659564472722E-2
168 779 2.288943566717091E-1
168 833 1.831563888873418E-2
169 78 1.8151005045939424E-2
169 200 2.428210388017247E-2
169 209 1.8943543179455416E-2
169 219 1.2509877103814973E-1
169 271 1.8741711124944993E-1
169 277 6.460560583720687E-2
169 369 1.3841095422755775E-1
169 456 1.3222402925983243E-2
169 554 2.371676649996808E-2
169 633 2.1981117953008036E-1
169 663 1.8709508577841514E-2
169 670 2.072520898322335E-2
170 60 4.504266452224012E-2
170 83 2.728391129973068E-2
170 134 4.652052268224045E-2
170 158 1.831563888873418E-2
170 251 1.1536529934018952E-1
170 291 1.303234490467693E-1
170 378 6.381198692052271E-2
170 619 2.0378063636908247E-1
170 726 2.7181329312361117E-2
170 780 1.831563888873418E-2
170 788 2.4890159176787738E-1
171 154 1.831563888873418E-2
171 168 2.3334308787631702E-1
171 234 1.57912925832736E-2
171 308 1.933435591900332E-1
171 422 1.7561187796205208E-1
171 429 2.229022105449225E-2
171 490 1.7075336558242427E-1
171 626 4.1989290497744074E-2
171 632 6.135636993880878E-2
171 779 7.344618429076718E-1
172 6 1.321058545827946E-2
172 194 1.1397348177175216E-1
172 275 2.0297386239589058E-2
172 295 5.597805056319218E-1
172 346 1.831563888873418E-2
172 495 8.568497508776751E-1
172 532 5.765248460526072E-1
172 540 1.3556340839669537E-1
172 684 4.44556525825979E-2
172 732 1.4710995008958476E-2
172 778 7.10805028842898E-2
173 69 6.153777351501026E-2
173 178 3.3447791559377965E-2
173 254 1.0668035887798472E-1
173 274 3.7233717621836235E-2
173 331 2.108217848146833E-2
173 339 2.5785969741434336E-2
173 349 6.107696810531084E-2
173 417 2.1252067053391933E-2
173 454 2.5403649008307952E-2
173 458 2.7161684539917318E-2
173 548 1.7647260481020912E-2
173 628 1.831563888873418E-2
173 692 2.071633323705998E-2
174 82 2.8076691411834123E-2
174 96 1.831563888873418E-2
174 165 2.1393670019850906E-2
174 214 1.2000217651098827E-1
174 256 2.70233425470377E-2
174 301 5.504102980542036E-2
174 361 1.5816369727062723E-2
174 377 2.1954783709873263E-2
174 626 1.9624821982702677E-2
174 811 2.654509049430448E-2
175 49 5.460929170574903E-1
175 94 3.836293549078204E-2
175 112 2.7351128385264215E-2
175 201 3.438963734347271E-2
175 255 1.831563888873418E-2
175 364 4.0566232222236986E-2
175 367 3.0539883174961986E-2
175 386 2.5612605183952957E-2
175 388 1.8467006947162953E-2
175 612 2.7626704185401158E-2
175 658 1.831563888873418E-2
175 760 3.7264295865109265E-2
175 830 2.065703689024799E-2
176 190 6.902801032722015E-2
176 216 2.8035122251130796E-2
176 303 2.7580980578808065E-2
176 330 2.0016052243652046E-2
176 396 1.7693659138691198E-2
176 544 1.5653109220115105E-1
176 549 1.1643389802117703E-1
176 568 1.831563888873418E-2
176 614 6.538274342197946E-2
176 647 3.763196877884205E-2
176 680 4.564769760524835E-1
176 698 1.3292014177133788E-2
176 728 1.4960107243436934E-2
177 73 7.506988285491084E-2
177 262 4.863624022215843E-2
177 299 3.0482203883212523E-2
177 521 9.119442991068578E-2
177 553 3.1866135614933934E-2
177 597 2.6927880544722626E-2
177 605 1.653298170058956E-1
177 623 5.2296822127851306E-2
177 710 4.234802520802383E-2
177 751 1.4687373909056185E-2
178 26 3.2034402296590436E-2
178 69 5.044359168621207E-2
178 95 1.5998413778781452E-2
178 97 2.7914295099838077E-2
178 125 2.992896401160064E-2
178 173 3.3447791559377965E-2
178 183 2.1056836735451796E-2
178 254 4.4471656478453095E-2
178 274 2.8224424254790065E-2
178 331 2.5483482784168496E-2
178 349 5.088932055180885E-2
178 409 4.057468410752255E-2
178 417 3.004525586868828E-2
178 450 4.021780873277631E-2
178 454 1.3362220140517828E-1
178 458 1.1263814228269975E-1
178 548 9.29637309640595E-2
178 594 4.203366358908421E-2
178 627 1.569216792069491E-1
178 628 1.6666531913022023E-1
178 733 9.885360030260855E-2
179 52 1.734712541986156E-1
179 85 2.344932069091888E-2
179 132 2.291302468158584E-2
179 148 4.221485249587674E-2
179 153 9.735299671841366E-2
179 167 5.470214167007703E-2
179 241 1.3477828659081193E-2
179 257 1.7937620685895064E-2
179 280 2.2478843008117862E-2
179 296 2.6347980814448703E-2
179 402 2.1671100051280038E-2
179 406 7.1199969055739E-2
179 418 2.665388055898711E-1
179 514 2.9911696032368696E-2
179 675 2.7978358243487805E-2
179 754 2.1279736438377186E-2
179 768 1.7472308073940058E-2
179 800 1.5073139122982127E-1
179 831 1.3502416778013598E-1
180 225 4.748519607455097E-2
180 278 3.681775240084192E-2
180 437 1.6760046718204715E-2
180 457 8.18639241586691E-2
180 471 5.06787534302051E-2
180 558 1.831563888873418E-2
180 631 1.8533679648959172E-2
180 696 2.4621333120250482E-2
180 747 1.1952133893843245E-1
180 763 1.1332281163104496E-1
180 812 2.1353046707507487E-2
181 3 1.831563888873418E-2
181 16 2.647254260079676E-2
181 20 2.0185237909068055E-2
181 25 3.281654631696606E-2
181 53 4.9787068367863924E-2
181 189 9.488020463900186E-2
181 229 5.295473658538904E-2
181 476 4.804995795022594E-2
181 567 2.292101887523277E-2
181 575 2.5641288315716895E-2
181 651 9.630963474708953E-2
182 17 1.831563888873418E-2
182 22 2.890836841999451E-2
182 88 2.4940178844009793E-2
182 90 8.690384337449227E-2
182 270 7.649959757219102E-2
182 379 1.51193217219809E-1
182 412 2.8142629204697824E-2
182 443 1.2916582781984341E-2
182 689 1.2402795166236309E-1
182 729 2.2214333531887002E-2
182 752 1.4775792183139534E-2
182 846 5.682992134624326E-2
183 23 1.246367034851073E-2
183 54 6.251093402733289E-2
183 140 1.936647124580785E-2
183 178 2.1056836735451796E-2
183 254 1.6290798956984646E-2
183 274 3.077133980207815E-2
183 276 2.2389500002293818E-2
183 454 9.656707505986045E-2
183 517 7.32396916729097E-2
183 768 2.367406404092983E-2
183 795 1.831563888873418E-2
184 17 3.0376951081603938E-2
184 114 2.0141193696444078E-2
184 124 2.7246318186248897E-2
184 232 7.478543337020507E-2
184 250 3.870689089994768E-1
184 375 6.386472258349021E-2
184 412 1.831563888873418E-2
184 499 3.357614635848753E-2
184 586 3.94150893575804E-2
184 615 6.937530579527583E-2
184 752 1.7559489941425067E-2
184 785 1.485287489006372E-1
184 846 2.5393697086547276E-2
185 25 2.878818154286307E-2
185 41 4.270844163675509E-2
185 99 2.469119197866359E-2
185 117 3.533695959171959E-2
185 130 1.4980876145509645E-1
185 162 2.343734338452158E-2
185 259 7.885796533265496E-2
185 289 1.0793740454922951E-1
185 314 1.656656115154403E-2
185 366 3.0839331673370714E-2
185 401 1.6141500450062102E-2
185 455 1.2966763597643088E-1
185 462 7.085931663054641E-2
185 575 2.1190718907164948E-2
185 578 1.6736652381140804E-2
185 585 3.9101147407713074E-2
185 737 2.367216254439409E-2
185 824 5.488168526217753E-2
186 18 5.224475049264714E-1
186 73 5.6134762834133704E-2
186 262 1.831563888873418E-2
186 371 2.522297483522721E-2
186 425 1.7980606142575614E-2
186 460 1.6496362373132203E-2
186 605 1.8714408599702553E-2
186 644 8.878492014972592E-2
186 654 3.015096162759015E-2
186 695 7.158118084504211E-2
186 710 7.612453849872185E-2
187 89 1.8175533058545162E-1
187 248 3.805809500101801E-2
187 262 1.8166580598723395E-2
187 325 8.830431614214561E-2
187 410 1.8541522648161626E-2
187 428 3.535958053490679E-2
187 562 2.941992502377972E-2
187 655 2.4920856661102133E-2
187 682 2.1744458777038372E-2
187 691 1.831563888873418E-2
187 767 7.875852575224188E-2
187 813 1.6402579832847115E-2
187 842 2.9541442089271713E-2
188 1 1.4740700683704446E-2
188 36 2.1842462752515453E-2
188 112 1.9425347946439422E-2
188 116 6.345952732950846E-2
188 242 2.850382307266302E-1
188 359 2.0533156981431842E-2
188 370 3.816769637486558E-2
188 488 7.159871152115578E-2
188 492 3.227611609556767E-2
188 496 7.712569074823471E-2
188 526 1.5555109988528099E-1
188 681 1.668870299530089E-2
188 834 4.666893136747465E-2
188 838 3.222740716806254E-1
189 3 3.210102111655793E-2
189 20 8.896053633411266E-2
189 34 2.904036076282276E-2
189 53 3.1814371728997E-2
189 59 2.8389015464631552E-2
189 79 1.716873765738842E-2
189 181 9.488020463900186E-2
189 229 1.249559405025019E-1
189 249 2.8346463182788172E-2
189 476 3.744485438907274E-1
189 567 2.771760848706767E-2
189 651 3.080582510646728E-2
189 668 4.173900664214091E-2
189 702 1.669469803897072E-2
189 720 2.971546932467453E-2
189 833 1.831563888873418E-2
190 52 6.355005120568262E-2
190 176 6.902801032722015E-2
190 195 1.630359151328427E-1
190 202 3.946139477604331E-2
190 216 1.7594645739472444E-2
190 241 4.36745199107284E-2
190 247 1.9084688882366117E-2
190 280 2.220963854436736E-2
190 544 5.721055045147532E-2
190 549 5.092979768845816E-2
190 604 4.413651492688911E-2
190 675 7.772975606682375E-2
190 680 5.135916296732271E-2
190 698 2.0493644824974122E-2
190 800 2.4555822526924374E-2
191 265 4.9746966019354064E-2
191 311 2.9162147739668316E-2
191 327 4.8019451679757E-1
191 355 5.714245623409751E-2
191 360 1.831563888873418E-2
191 439 3.8439781885248485E-2
191 444 6.691910685602973E-2
191 639 3.972765526558252E-2
191 804 2.793821340816324E-2
191 820 1.66811989416215E-2
191 827 3.956340333332223E-2
192 69 1.831563888873418E-2
192 111 6.354928548014228E-2
192 140 2.4330505617102927E-2
192 155 8.251274647879978E-2
192 274 3.387306459521228E-2
192 287 3.919462392840296E-2
192 313 1.831563888873418E-2
192 341 1.945745799359438E-2
192 450 1.1401462248184759E-1
192 589 1.831563888873418E-2
192 650 2.2803940755389447E-2
192 795 1.0398600875566835E-1
192 801 5.032763928962178E-2
192 823 1.6369105191757192E-2
193 160 4.2709608456930115E-1
193 209 2.132428435262677E-2
193 217 5.5169864759515734E-2
193 258 2.2014993446657177E-2
193 277 2.0218834976962793E-2
193 302 4.751409039847337E-2
193 306 2.3757727086443672E-1
193 328 1.831563888873418E-2
193 409 1.7766897377709902E-2
193 645 1.6941074120868607E-2
193 646 2.598618796919342E-2
193 809 2.6384435987902972E-2
194 172 1.1397348177175216E-1
194 295 2.736574373996286E-1
194 335 9.085504697161204E-2
194 346 2.60580848956481E-1
194 382 1.831563888873418E-2
194 445 2.455212973240372E-1
194 495 1.541356911474903E-1
194 532 2.343702800403211E-2
194 540 6.766144169770648E-1
194 557 2.3676579346787632E-1
194 732 6.971178966773853E-2
194 778 5.9455516861918176E-2
195 190 1.630359151328427E-1
195 216 9.466322186742573E-2
195 241 2.5945597802787494E-2
195 257 2.058460775508315E-2
195 293 2.472053710736979E-2
195 330 1.1453575908717537E-1
195 512 2.2439446466494848E-2
195 544 1.831563888873418E-2
195 568 5.9328381850803004E-2
195 604 3.195984992523364E-2
195 675 1.7791747438777258E-2
195 680 2.3214021896048237E-2
195 790 3.9732143863241476E-2
196 109 2.4518353159227027E-2
196 224 7.336965136838294E-2
196 266 9.301448921066344E-2
196 315 2.0245812129922813E-1
196 413 2.4180174376470374E-2
196 434 6.757991574479214E-2
196 464 1.831563888873418E-2
196 493 1.1616103965150623E-1
196 519 4.268153583644722E-2
196 593 2.062190090401575E-2
196 638 2.384666005418395E-2
196 746 2.1144962296330474E-2
196 766 5.33673813627632E-2
196 815 1.406748899595494E-2
197 91 2.5993235114406262E-2
197 218 1.6699736392193684E-2
197 252 1.831563888873418E-2
197 284 2.0563055013984442E-2
197 459 2.0937738245075062E-2
197 472 5.8102079608854995E-2
197 487 6.7696717624389E-2
197 518 1.0836802322189587E-1
197 560 5.7024483346080464E-2
197 621 7.019756060354355E-2
197 640 3.074643626225022E-1
197 722 5.903653348775836E-3
197 787 3.279737656530411E-2
197 822 7.424719797017355E-2
198 21 5.125437202247683E-2
198 98 1.1040068136254595E-2
198 217 3.4989855742365655E-2
198 224 2.650595318127654E-1
198 282 1.831563888873418E-2
198 365 5.7749663009386276E-2
198 383 7.44587220609548E-2
198 593 1.2769747534954923E-1
198 677 1.2052623276290099E-1
198 746 4.377770080014938E-2
198 816 3.7062330150444495E-2
198 826 1.831563888873418E-2
199 224 3.214039195987075E-2
199 238 8.551162884758394E-2
199 240 1.0189561786913162E-1
199 266 5.431641694485663E-2
199 283 1.3181112869166872E-1
199 305 1.1491203107647747E-1
199 383 1.6193359619867012E-1
199 638 1.163397179891311E-2
199 759 2.7065411878152673E-2
199 771 8.73358084766435E-2
200 67 2.5317986452094095E-2
200 109 3.499743808460297E-2
200 119 2.119932577696403E-2
200 169 2.428210388017247E-2
200 413 6.087360500462755E-2
200 434 1.9704801334078627E-2
200 456 6.828445705461265E-2
200 554 1.831563888873418E-2
200 591 1.756625658085002E-2
200 633 2.1646788508558577E-2
201 31 1.939800422908919E-1
201 36 1.6771901636000567E-2
201 49 1.8151005045939424E-2
201 94 1.3533528323661276E-1
201 112 1.939800422908919E-1
201 116 1.359889486620643E-2
201 175 3.438963734347271E-2
201 255 3.1685175416385764E-1
201 373 3.567399334725236E-2
201 509 2.253597989654116E-2
201 573 1.831563888873418E-2
201 658 2.8791593110030766E-2
201 669 3.442409140231139E-2
201 723 2.5324685412611525E-1
201 745 3.33732699603261E-2
201 843 7.058459240241644E-2
202 52 5.226902438463928E-2
202 141 3.716294541357107E-1
202 167 5.639819829244705E-2
202 190 3.946139477604331E-2
202 241 7.631732034330049E-1
202 257 2.4623723101647374E-1
202 280 1.8118698442871246E-2
202 453 1.831563888873418E-2
202 514 1.69370712852657E-1
202 565 6.568656977428104E-2
202 653 1.831563888873418E-2
202 831 2.3920332076393956E-2
203 239 6.51080346621877E-2
203 344 1.749789792413483E-1
203 473 2.991495857215317E-2
203 477 1.0673583018649332E-1
203 491 1.831563888873418E-2
203 502 1.7614649058882704E-2
203 513 1.831563888873418E-2
203 561 6.343601129858761E-2
203 583 9.49436667621724E-2
203 587 3.1153312835415066E-2
203 825 2.0928013331991662E-2
203 828 7.415290630228978E-2
204 79 2.961037462454212E-2
204 82 1.8829128302242926E-2
204 165 7.692417635604695E-2
204 301 3.345715748209559E-2
204 481 3.153313384406903E-2
204 510 2.4982133833364208E-2
204 550 1.679447690445475E-2
204 584 3.4208436199491155E-1
204 611 5.8877389784726335E-2
204 626 6.145354937827826E-2
204 649 7.639101874635915E-2
204 705 2.3772225100601264E-2
204 706 2.3563227025938882E-1
204 720 4.161075184915865E-1
204 799 3.9137352304273794E-2
204 808 1.831563888873418E-2
204 811 8.301600947776142E-2
204 833 2.1819137551201673E-2
205 263 8.341968487915954E-2
205 269 2.16509580252932E-1
205 461 2.1754013945692586E-2
205 470 8.523308564181292E-2
205 534 1.8811296154517012E-2
205 538 4.2259951268138285E-1
205 598 2.201069409222395E-1
205 600 1.953624401878512E-2
205 608 2.6548811374347853E-2
205 797 4.513292583072044E-2
206 26 4.4044735644915184E-1
206 125 2.8497689538606326E-2
206 209 5.2992154313972535E-2
206 219 6.1114329639166E-2
206 277 3.479474984683433E-2
206 306 9.17588076603691E-2
206 353 8.575883070839989E-2
206 388 1.9116197792924255E-2
206 409 1.1283618731705691E-1
206 622 4.015936106476837E-2
207 1 2.3822069045322025E-2
207 50 2.133956786300976E-1
207 145 4.905813465725062E-2
207 147 1.5047852950534887E-2
207 242 1.2148407536373695E-2
207 372 5.575154517373429E-2
207 411 1.9932286652114126E-1
207 488 8.53453524062045E-2
207 526 3.1049329643614055E-2
207 579 1.1471818483872696E-1
207 664 1.4453601655318074E-1
207 700 2.398857713142733E-2
207 790 1.6928561121956176E-2
207 803 9.454213437782276E-2
207 832 3.713506092311415E-2
208 100 3.868371963985899E-2
208 142 6.287122660066728E-2
208 144 2.1240365984422152E-2
208 243 2.0999684540597294E-2
208 323 3.588508145120219E-2
208 334 4.438942123698918E-2
208 480 2.223403196997782E-1
208 511 3.153080976286106E-2
208 530 6.477457554835711E-2
208 554 1.831563888873418E-2
208 559 4.1686201967850844E-1
208 569 2.732372244729256E-2
208 581 4.760696907118643E-2
208 591 2.4914440787632726E-2
208 610 5.308930324465884E-2
208 686 1.5803229144349205E-2
208 786 6.419931668591698E-2
208 791 7.140011619100482E-2
209 26 1.6796005759884224E-2
209 40 2.486566069400388E-2
209 81 2.4802234826674253E-2
209 169 1.8943543179455416E-2
209 193 2.132428435262677E-2
209 206 5.2992154313972535E-2
209 217 1.831563888873418E-2
209 219 6.948345122280149E-2
209 230 4.713664310515354E-2
209 271 1.5415950869526174E-1
209 277 5.678481376147379E-2
209 306 3.248861133102953E-2
209 353 4.5612769554798496E-2
209 354 1.0985555010233193E-1
209 369 2.8527514751874452E-2
209 466 6.462651944020864E-2
209 486 1.0759170076070484E-1
209 622 2.5391204726583964E-2
209 633 5.3880808260451836E-2
209 692 1.831563888873418E-2
209 806 1.831563888873418E-2
209 809 7.744869708785176E-2
209 816 4.1014377659865424E-2
210 19 8.959228526512406E-2
210 39 7.462216292462683E-2
210 71 5.126985507538431E-1
210 403 1.831563888873418E-2
210 468 5.735949163877329E-2
210 494 1.2315723694684791E-2
210 510 1.831563888873418E-2
210 550 5.534929174576229E-2
210 620 6.42947332923827E-1
210 705 1.9408794604496123E-2
210 799 7.200698172894947E-2
211 163 3.1196839264143877E-2
211 248 1.831563888873418E-2
211 325 5.9659448162904444E-2
211 410 3.9783119475289126E-2
211 543 4.276848881031167E-2
211 672 1.171010782721898E-1
211 691 1.3071547400305908E-1
211 717 1.580210442606648E-2
211 767 5.0439766458875074E-2
211 776 2.9957982001828892E-2
212 11 1.8090909960062768E-2
212 33 2.0005166658159865E-2
212 150 1.831563888873418E-2
212 215 2.44885925979373E-1
212 392 3.3724805636545716E-2
212 423 3.5994965424830314E-2
212 430 5.419025209875129E-2
212 484 1.831563888873418E-2
212 515 1.741393985071648E-1
212 520 3.172604635315567E-2
212 522 3.5409252501136135E-2
212 582 2.608761596863073E-1
212 588 4.705631248865153E-2
212 602 1.831563888873418E-2
212 607 2.7323722447292583E-2
212 659 1.831563888873418E-2
212 775 1.831563888873418E-2
213 54 3.7524597763161006E-2
213 85 4.278724856473082E-2
213 140 1.831563888873418E-2
213 148 1.105447756773125E-1
213 258 2.3325388468429242E-2
213 313 3.957443363749205E-2
213 340 8.418755502541661E-2
213 406 4.439781039127128E-1
213 419 2.1262734563659853E-2
213 545 6.0129077790910854E-2
213 650 5.319174094517383E-2
213 657 5.7050797171042465E-2
213 768 5.7050797171042465E-2
213 795 1.4974331488418335E-1
214 39 3.957934638313641E-2
214 135 3.7499203627844424E-2
214 174 1.2000217651098827E-1
214 256 2.261918010951625E-2
214 361 1.6400729755542853E-2
214 403 6.434099566680195E-2
214 500 1.831563888873418E-2
214 550 1.928425618520729E-2
214 701 2.9123894671242687E-2
214 738 1.0985555010233188E-1
215 212 2.44885925979373E-1
215 430 4.739589355593111E-2
215 484 8.721527858363745E-2
215 515 3.1434539763251323E-1
215 522 1.5444037509113098E-1
215 558 1.831563888873418E-2
215 582 5.008359930682144E-1
215 588 8.115417309971701E-2
215 775 1.729006795099627E-2
215 821 1.921659995839653E-2
216 176 2.8035122251130796E-2
216 190 1.7594645739472444E-2
216 195 9.466322186742573E-2
216 330 2.0141060603214764E-1
216 396 4.4116504926210186E-2
216 512 4.4894127839919515E-2
216 568 2.063228192576506E-1
216 604 3.2266203114436495E-2
216 721 1.831563888873418E-2
216 790 2.4390106264075304E-1
217 21 7.275267126594442E-2
217 81 1.831563888873418E-2
217 193 5.5169864759515734E-2
217 198 3.4989855742365655E-2
217 209 1.831563888873418E-2
217 224 1.8820866289079242E-2
217 306 4.1088789751407374E-2
217 364 2.256930100704887E-2
217 365 7.860243493924032E-2
217 388 1.831563888873418E-2
217 593 7.18326293164985E-2
217 646 3.369855803066351E-2
217 677 1.6743927459627182E-2
217 746 4.966306577110577E-2
217 807 1.831563888873418E-2
217 809 2.5202854804518494E-2
218 91 1.6599691724881066E-1
218 106 1.831563888873418E-2
218 197 1.6699736392193684E-2
218 221 4.3983580751020296E-2
218 227 1.1742734420193691E-1
218 252 3.598726461046993E-2
218 380 1.831563888873418E-2
218 459 5.371613742807755E-2
218 474 1.3453378245146391E-2
218 487 9.837689166171483E-2
218 560 7.228453408262832E-2
218 577 1.8730817948195702E-1
218 621 3.992075576594142E-2
218 640 2.876036168680356E-2
218 787 2.6140962260527456E-1
218 822 2.0114661412567802E-2
219 26 3.869795572685832E-2
219 78 2.316212169124235E-2
219 95 4.123755960167348E-2
219 125 1.7831553645890882E-2
219 169 1.2509877103814973E-1
219 206 6.1114329639166E-2
219 209 6.948345122280149E-2
219 230 3.689123899928224E-2
219 271 9.15657784862491E-2
219 277 1.8685556227318906E-1
219 306 2.558698022601607E-2
219 369 1.892529765439905E-1
219 409 2.3174427241061245E-2
219 467 2.6942910223538674E-2
219 633 3.5609249275480266E-2
219 806 4.5159212601210474E-2
219 809 8.699884249108113E-2
220 104 2.452676034826798E-1
220 114 3.3504157582436966E-2
220 124 1.2199779857723612E-2
220 263 1.597556254849833E-1
220 269 6.267426970839288E-2
220 551 1.831563888873418E-2
220 608 4.17980458956296E-1
220 756 2.416374374501104E-1
220 785 4.237358120572053E-2
220 797 6.015619731813703E-2
221 106 2.6250561184529043E-2
221 146 2.5820408189550004E-2
221 218 4.3983580751020296E-2
221 239 2.339806292995092E-2
221 260 5.189255844481174E-2
221 336 1.218136138366199E-1
221 344 2.2084804258368087E-2
221 474 1.2924982506202198E-1
221 487 1.598949348631146E-2
221 537 5.1419287409121724E-2
221 577 4.02669555202651E-2
221 787 3.196467350744918E-2
221 825 6.390073289766994E-2
221 828 1.8030576378858205E-2
221 844 1.831563888873418E-2
222 58 4.085851156262801E-2
222 115 2.94804643639728E-2
222 122 1.831563888873418E-2
222 253 4.288973294349309E-2
222 285 9.562695997929534E-3
222 288 1.9809995856158412E-2
222 312 1.0072526169554345E-1
222 415 2.109551503493225E-1
222 478 2.402541102430612E-2
222 498 5.679581230902235E-2
222 546 4.5868933867828296E-2
222 574 2.2918491402444126E-2
222 658 1.9905170032707495E-1
222 694 7.944017218973598E-2
222 709 1.4810937060882937E-2
222 830 2.578874534558429E-2
223 65 6.995822526996108E-2
223 70 1.831563888873418E-2
223 110 2.550068279064452E-2
223 151 6.138420921762766E-2
223 309 1.4532764776008197E-2
223 324 1.831563888873418E-2
223 332 1.0378637688483218E-1
223 444 9.543250290899956E-2
223 447 3.288519924716057E-2
223 465 1.5681726533081458E-1
223 479 1.7297362846084716E-2
223 629 1.6567076407891365E-1
223 660 2.4777280866997976E-2
223 690 2.1853532089254852E-2
224 196 7.336965136838294E-2
224 198 2.650595318127654E-1
224 199 3.214039195987075E-2
224 217 1.8820866289079242E-2
224 240 2.0932672284183433E-2
224 266 4.455142624448967E-2
224 383 2.2386373809746443E-1
224 413 1.333370395283077E-2
224 593 2.96585570210685E-1
224 746 1.4486213396276398E-1
224 759 1.831563888873418E-2
224 816 1.831563888873418E-2
225 164 1.831563888873418E-2
225 180 4.748519607455097E-2
225 246 3.343392498446595E-2
225 278 2.8106398460988136E-1
225 342 5.0980946324962806E-2
225 457 1.0743683221401593E-1
225 558 1.8423516098382667E-1
225 631 7.410076292011052E-2
225 652 2.6063524960140815E-2
225 696 1.4811032811395475E-1
225 747 3.587240214393877E-2
225 812 1.8787890012846165E-1
225 821 3.663540972299834E-2
225 829 1.7788607044387995E-2
225 845 1.645350927318559E-2
226 4 3.629014467260439E-1
226 24 3.5978897425059976E-2
226 111 1.854247048742432E-1
226 123 1.1553380701788174E-1
226 155 5.1147091754775595E-2
226 273 5.280357033430049E-2
226 287 3.342064152080991E-2
226 392 3.4345014625798045E-2
226 404 9.621331138412038E-2
226 602 2.862719730656342E-2
226 742 1.831563888873418E-2
226 823 2.169496700404162E-1
227 106 1.6213031740391112E-1
227 218 1.1742734420193691E-1
227 380 1.831563888873418E-2
227 431 1.6519301292086896E-2
227 459 1.831563888873418E-2
227 506 7.973614697371409E-2
227 577 2.465969639416065E-1
227 640 2.1660649222595398E-2
227 739 1.7714477016530752E-2
227 741 3.3806682998327335E-2
227 787 3.9749193072317246E-1
227 789 1.6241344538645705E-1
228 11 6.963599441346177E-2
228 56 2.382717537194363E-1
228 304 7.702414278299582E-2
228 420 5.188476076892043E-2
228 436 1.0750013690345309E-1
228 542 2.2850052973763673E-2
228 570 2.3315550652524392E-1
228 661 4.638834342001334E-2
228 726 1.8928145908720023E-2
228 775 7.243975703425146E-2
228 841 1.831563888873418E-2
229 3 1.0576079959230228E-1
229 20 1.7749221688355406E-2
229 25 2.353588060323271E-2
229 34 4.4613981988489614E-2
229 59 1.921255638987808E-2
229 181 5.295473658538904E-2
229 189 1.249559405025019E-1
229 358 2.7616590045838486E-2
229 401 7.321323378320031E-2
229 476 4.208173026554035E-2
229 575 1.459245084189273E-1
229 651 1.661156019136446E-1
229 668 1.9447154926048562E-2
229 702 2.7409691088957237E-2
229 798 8.98834970806563E-2
230 64 1.831563888873418E-2
230 78 2.690359448138405E-1
230 98 1.7378587893548084E-2
230 109 4.394895302796201E-2
230 209 4.713664310515354E-2
230 219 3.689123899928224E-2
230 456 2.9901494183748243E-2
230 466 1.1510326445537411E-1
230 467 1.648947759936147E-2
230 663 1.7183085378818748E-2
230 746 1.831563888873418E-2
230 759 2.1440990055920622E-2
230 806 1.0362689024283576E-1
231 17 4.021116498347331E-2
231 42 7.73657945986978E-2
231 114 2.0141193696444078E-2
231 232 2.5981664430460773E-2
231 319 8.525391738694738E-2
231 375 2.4069073562342452E-1
231 412 1.764269296143116E-1
231 499 3.515319957864631E-1
231 551 1.929806662721732E-2
231 613 5.257573204256244E-2
231 615 2.1977039947459302E-2
231 618 2.045551476002598E-2
231 656 4.3546283447187006E-1
231 752 6.108710115681895E-2
231 785 3.0236423343739362E-2
232 42 1.4090889192120669E-2
232 114 2.4510912887381473E-2
232 184 7.478543337020507E-2
232 231 2.5981664430460773E-2
232 250 1.831563888873418E-2
232 375 1.9253699995944607E-2
232 499 2.057960515436075E-2
232 613 1.7849316054035097E-1
232 615 8.651386643192344E-2
232 785 2.101238863661982E-2
233 37 2.6919050365464126E-1
233 80 4.264140380267979E-2
233 144 4.0826723414688393E-1
233 238 1.5877422572448632E-2
233 267 7.065121306042962E-2
233 283 1.831563888873418E-2
233 326 5.791490576038036E-2
233 334 1.4264233908999242E-2
233 391 1.3292471039616362E-2
233 424 2.190817284762924E-2
233 464 1.3353477301713546E-2
233 559 6.005466789530792E-2
233 569 5.760380429537E-2
233 679 1.4248251575760176E-2
233 748 2.836781644971309E-2
233 766 6.527366172806272E-2
234 154 2.4748911413433917E-2
234 171 1.57912925832736E-2
234 307 8.726558787948314E-2
234 338 1.9504194216732402E-2
234 358 4.8191312853256944E-2
234 422 8.708291495823674E-2
234 429 5.968917184512431E-2
234 435 2.4721511595113717E-2
234 449 2.9853583930439E-2
234 490 2.0326428698829613E-2
234 507 2.2070689379627972E-2
234 528 1.0852802027429216E-1
234 611 1.831563888873418E-2
234 626 1.9907342077733668E-2
234 632 1.8679980252557915E-1
234 702 1.8701217193719366E-2
234 779 9.335223009251116E-3
234 793 1.3653692051122998E-1
235 8 8.971401452453712E-2
235 138 6.077247915136819E-2
235 400 5.403715237007042E-2
235 471 8.644710407422371E-2
235 630 9.051802727778205E-3
235 665 4.21981595779442E-2
235 704 2.2011641286583884E-2
235 747 4.9251317257395004E-2
235 763 5.607926285686458E-2
235 792 1.831563888873418E-2
235 840 4.7752155750813145E-2
236 43 2.463212721614086E-2
236 122 3.771897583943556E-2
236 137 4.0762203978366225E-2
236 245 5.066203845736321E-2
236 312 1.831563888873418E-2
236 442 1.8011651919106888E-2
236 574 4.9343204441029694E-2
236 612 1.9434988020049437E-1
236 683 8.005831278672058E-2
236 694 8.821770507936358E-2
236 709 2.524998377371083E-2
236 760 2.068172801946925E-2
236 814 5.4091773227301264E-2
236 830 1.1147221264240716E-1
237 44 5.801470166751842E-2
237 163 3.904122050845547E-2
237 399 9.360912125130409E-2
237 543 1.0091332101558255E-2
237 614 2.109279999048299E-2
237 685 5.4060739508573125E-2
237 691 1.831563888873418E-2
237 753 4.513762081935973E-2
237 767 3.208984396550965E-2
237 813 4.8030530108979935E-1
238 199 8.551162884758394E-2
238 233 1.5877422572448632E-2
238 283 9.899090787344171E-2
238 305 3.1353279939406414E-1
238 315 1.831563888873418E-2
238 326 1.2158485594365534E-1
238 424 1.831563888873418E-2
238 554 6.430061736185566E-2
238 591 5.0684108610992665E-2
238 638 7.780330028580831E-2
238 670 1.831563888873418E-2
238 759 6.037205687179738E-2
238 766 4.2395447800056316E-2
238 771 1.0208318966916613E-1
239 203 6.51080346621877E-2
239 221 2.339806292995092E-2
239 260 1.5037041948248626E-2
239 320 2.702180595120905E-2
239 336 4.1919185802528444E-2
239 344 2.0002169445052997E-1
239 390 1.831563888873418E-2
239 473 2.0219899582431346E-2
239 474 2.2866587742045006E-2
239 477 3.5574874421185443E-1
239 501 3.590088197503565E-2
239 513 1.883428088251069E-1
239 561 2.3549895879516888E-2
239 583 1.7893395241268727E-2
239 587 1.1440372032785835E-1
239 731 7.104481211802702E-2
239 825 1.1494916335676936E-1
239 828 1.739443936020143E-1
240 21 2.5575761724484954E-2
240 49 1.831563888873418E-2
240 199 1.0189561786913162E-1
240 224 2.0932672284183433E-2
240 305 1.3292780326888003E-2
240 354 1.422859480480941E-1
240 364 1.9580481774801095E-2
240 383 3.4354148183527394E-1
240 486 5.374366863419328E-2
240 622 2.2128514524262614E-2
240 809 2.0517492532103485E-2
241 52 3.7615663682525634E-2
241 141 3.0340165150324017E-1
241 167 6.307954193118888E-2
241 179 1.3477828659081193E-2
241 190 4.36745199107284E-2
241 195 2.5945597802787494E-2
241 202 7.631732034330049E-1
241 247 1.831563888873418E-2
241 257 1.793427094357863E-1
241 280 2.302708062128931E-2
241 514 1.400466821981375E-1
241 565 5.635312986110443E-2
241 653 1.5039300575272918E-2
241 831 2.4364831961559107E-2
242 116 3.0508923317202962E-2
242 188 2.850382307266302E-1
242 207 1.2148407536373695E-2
242 370 8.98233864047186E-2
242 488 1.401826050936834E-1
242 492 2.0983420294120175E-2
242 496 4.029232789775722E-2
242 526 2.1763701207303154E-1
242 834 3.532697281548572E-2
242 838 1.5488031226281673E-1
243 78 3.637877598635695E-2
243 100 2.0643766277258425E-2
243 119 4.93633512055203E-2
243 142 1.4995262060176495E-1
243 208 2.0999684540597294E-2
243 323 1.9378119039412622E-1
243 352 7.328479975979886E-2
243 480 1.994992461141363E-2
243 511 2.5780944167289255E-2
243 591 1.831563888873418E-2
243 663 6.658873511522467E-2
243 786 3.447498234126846E-2
243 791 1.5176088906052437E-2
244 96 4.3698793646333084E-2
244 279 8.466286699110157E-2
244 284 2.3300993979424516E-2
244 347 1.831563888873418E-2
244 380 1.669544431664672E-2
244 384 2.8582732272964567E-2
244 448 8.545459344360376E-2
244 497 1.29641339914281E-1
244 518 3.0503953223002478E-2
244 560 9.871831330364983E-2
244 576 2.3056968483700557E-1
244 722 1.571468260884124E-1
244 764 1.888079903081829E-1
245 58 1.0678542861970249E-1
245 137 1.831563888873418E-2
245 236 5.066203845736321E-2
245 285 1.6109130352087922E-1
245 337 5.044215198327429E-2
245 415 1.4451836227790529E-2
245 446 4.256195818219789E-2
245 574 9.48554906210674E-2
245 694 4.110450179874614E-2
245 814 1.098038997762564E-1
246 51 3.971518444323319E-2
246 63 1.0468396355281259E-1
246 225 3.343392498446595E-2
246 437 1.4729561285602854E-2
246 457 8.116047910375444E-2
246 547 1.339166874552144E-1
246 552 8.288738716916032E-2
246 558 5.885462699084401E-2
246 652 1.831563888873418E-2
246 696 1.451538463833286E-1
246 810 1.8660664363863745E-2
246 821 9.785639664745109E-2
247 190 1.9084688882366117E-2
247 241 1.831563888873418E-2
247 280 5.618095952967308E-2
247 303 3.193753651151286E-1
247 544 1.388594429685383E-1
247 565 3.4380234059843007E-1
247 614 4.6448609928483334E-2
247 647 3.0158594238930542E-2
247 653 2.6444719850217516E-2
247 698 9.109185468098925E-2
247 753 2.4718450292044863E-2
248 77 2.4122627799649653E-2
248 92 1.0057499868582588E-1
248 163 1.6199706594837503E-2
248 187 3.805809500101801E-2
248 211 1.831563888873418E-2
248 325 3.7826816686819575E-1
248 410 5.622601580098142E-1
248 428 3.399531828268997E-1
248 543 9.787044429240913E-2
248 562 4.5938130813218125E-2
248 685 5.1999470708748066E-2
248 691 3.648711573928268E-2
248 721 2.586931480936792E-1
248 767 6.591642752602667E-2
248 842 1.7795615176276125E-1
249 45 2.535704203585375E-2
249 53 1.7454947140051763E-1
249 189 2.8346463182788172E-2
249 476 2.558721028441613E-2
249 481 2.0168879974553473E-2
249 567 4.42690328314801E-2
249 584 1.7192999014776392E-2
249 706 2.800698866367747E-2
249 720 2.520474794826788E-2
249 722 1.831563888873418E-2
250 17 2.5044712077424015E-2
250 88 3.053389619520744E-2
250 104 2.738697177659932E-2
250 114 1.831563888873418E-2
250 124 2.2069107601833067E-2
250 184 3.870689089994768E-1
250 232 1.831563888873418E-2
250 375 3.101536692002323E-2
250 412 1.7384935239785553E-2
250 443 4.779926326897303E-2
250 586 1.1629335657495846E-1
250 615 1.3517930119514502E-2
250 752 1.831563888873418E-2
250 785 5.621605022991863E-2
250 846 6.077835769234656E-2
251 60 3.3908323808801294E-2
251 63 9.060515510278597E-2
251 134 2.0334937797834218E-1
251 158 1.831563888873418E-2
251 170 1.1536529934018952E-1
251 291 1.4342701010186054E-2
251 298 3.385800113299042E-2
251 316 6.72159654207676E-2
251 421 5.705662965405539E-2
251 437 5.8332259643940766E-2
251 535 1.831563888873418E-2
251 619 1.5784308913485162E-1
251 636 5.087103682692912E-2
251 780 7.892717620067614E-2
251 802 3.151516463026E-2
252 91 1.2968809886420793E-1
252 197 1.831563888873418E-2
252 218 3.598726461046993E-2
252 333 6.514449078591128E-2
252 459 4.8851929656054877E-1
252 472 4.43894212369891E-2
252 487 3.5869466795657244E-2
252 560 1.3413744217157521E-2
252 621 2.7413455445420877E-2
252 822 2.679145913774479E-2
253 49 4.765061944254831E-2
253 58 1.4774304423284984E-1
253 115 1.831563888873418E-2
253 222 4.288973294349309E-2
253 285 4.14109257354058E-2
253 288 1.831563888873418E-2
253 337 6.594367909124198E-2
253 388 1.2440086034727184E-2
253 415 6.650179655706917E-2
253 446 2.14483992558893E-2
253 546 4.177577735682736E-2
253 658 1.3712140314464662E-2
254 69 1.831563888873418E-2
254 173 1.0668035887798472E-1
254 178 4.4471656478453095E-2
254 183 1.6290798956984646E-2
254 276 3.533585377395463E-2
254 331 3.0243592110205803E-2
254 417 4.8596996597672124E-2
254 454 4.0045381299197644E-2
254 458 3.38066829983273E-2
254 517 2.2938788909927357E-2
254 548 2.0176720161033786E-2
254 627 2.7191830238451172E-2
254 628 3.577002018934085E-2
254 733 1.890760881984501E-2
255 13 1.567762103410224E-2
255 31 2.504200966936794E-1
255 94 1.3656559555843573E-1
255 112 2.4151722590405972E-1
255 175 1.831563888873418E-2
255 201 3.1685175416385764E-1
255 359 1.8981590049947383E-2
255 367 8.686162758475306E-2
255 373 3.743804396346295E-2
255 386 1.958611990482112E-2
255 394 2.08200646357244E-2
255 658 1.6176939889973627E-2
255 723 4.139689685211087E-2
255 725 1.6238765188977888E-2
255 807 2.8323780203998946E-2
255 843 2.155593547248427E-2
256 143 2.0703414359717447E-2
256 168 2.786550496507013E-2
256 174 2.70233425470377E-2
256 214 2.261918010951625E-2
256 301 3.157227405751972E-2
256 361 1.244401502951805E-1
256 377 1.224188322562698E-1
256 416 1.8388032624270426E-2
256 507 3.1945309912434085E-2
256 563 1.831563888873418E-2
256 626 5.5322519434655285E-2
256 701 3.49749984959923E-2
256 833 2.3608187018402928E-2
257 52 3.929315686117208E-2
257 141 7.21647741041668E-2
257 167 1.2066914523272446E-1
257 179 1.7937620685895064E-2
257 195 2.058460775508315E-2
257 202 2.4623723101647374E-1
257 241 1.793427094357863E-1
257 402 1.268625987520712E-1
257 514 1.7970721893525454E-2
257 697 3.9787922539378025E-2
257 831 1.831563888873418E-2
258 54 2.682580974812175E-2
258 160 5.97643710217888E-2
258 193 2.2014993446657177E-2
258 213 2.3325388468429242E-2
258 302 1.7747023793542656E-2
258 306 1.831563888873418E-2
258 339 4.8167667835558224E-2
258 348 7.65124172825485E-2
258 454 7.336178141034497E-2
258 517 5.964479042912048E-2
258 758 2.2720354398439207E-2
259 117 1.148310297319083E-1
259 130 1.1861198874609317E-1
259 131 2.6737953111918306E-2
259 162 1.2480827104528103E-2
259 185 7.885796533265496E-2
259 289 1.1137539749842225E-1
259 455 2.8966658345478492E-2
259 462 2.7578382499255545E-2
259 585 4.1727368361387476E-2
259 673 1.6248174342938165E-1
259 713 4.0762203978366246E-2
259 781 1.3941973731543883E-2
260 68 2.266164985211382E-1
260 221 5.189255844481174E-2
260 239 1.5037041948248626E-2
260 345 6.27102248280717E-2
260 376 1.391652756701364E-2
260 390 1.1283618731705691E-1
260 474 2.7388470574487973E-2
260 477 1.831563888873418E-2
260 501 2.6103858379880573E-1
260 590 4.144317974556448E-2
260 676 3.81179488771883E-2
260 711 6.36025292836268E-2
261 27 3.3130890299856613E-1
261 60 6.90147619352815E-2
261 62 2.4277055726660342E-2
261 74 2.7380118139258114E-2
261 90 4.10957489695356E-2
261 139 1.722521338313373E-2
261 161 3.5978897425059976E-2
261 298 2.490242803917332E-2
261 379 5.639660821108557E-2
261 503 3.237771642149494E-2
261 516 4.0364648313356906E-2
261 592 1.831563888873418E-2
261 595 2.8882322551139594E-2
261 635 5.3922700232054574E-2
261 735 4.219299084307912E-2
261 796 4.059293475321894E-2
261 802 1.831563888873418E-2
262 73 3.776025681541369E-1
262 77 3.0643726673832514E-2
262 89 6.758494869327207E-2
262 177 4.863624022215843E-2
262 186 1.831563888873418E-2
262 187 1.8166580598723395E-2
262 299 1.5196855832573825E-1
262 300 1.831563888873418E-2
262 521 6.219341752127121E-2
262 553 2.211918549287287E-1
262 597 9.559547460244328E-2
262 605 2.0524279314509858E-1
262 672 4.581677342915161E-2
262 710 4.856500491098658E-2
262 717 4.313122903520762E-2
262 751 8.84633598625179E-2
262 776 3.2632640661940875E-2
263 104 3.131732516168223E-2
263 205 8.341968487915954E-2
263 220 1.597556254849833E-1
263 269 1.8586569728329586E-1
263 534 3.9730577291043366E-2
263 538 4.513562525718588E-2
263 551 1.7484436756915918E-2
263 598 7.898061884709677E-2
263 608 3.2230706170721335E-1
263 756 3.500618625161716E-1
263 797 1.0546914112617495E-1
264 9 2.7648754073977355E-1
264 12 1.7293965448812817E-1
264 83 2.8782286310411343E-2
264 436 6.347409090803954E-2
264 542 2.1878312087416216E-1
264 570 4.742508695294641E-2
264 661 1.2049324133127123E-1
264 708 1.3838574591733344E-1
264 729 2.3414823719298903E-2
264 788 1.831563888873418E-2
264 841 1.1258808674140301E-1
265 57 3.549562375305064E-2
265 151 2.380365308494355E-2
265 191 4.9746966019354064E-2
265 327 1.0800199969529226E-1
265 332 1.757774799503059E-2
265 360 2.5287354539795553E-1
265 387 2.0835305794121465E-2
265 444 6.285547137543947E-2
265 447 2.449259480095698E-2
265 527 1.2549329045591326E-2
265 690 2.826226573131465E-2
265 761 2.380365308494355E-2
266 37 2.4318073660234415E-2
266 109 4.680672475374872E-2
266 196 9.301448921066344E-2
266 199 5.431641694485663E-2
266 224 4.455142624448967E-2
266 315 2.959943516789204E-2
266 337 1.831563888873418E-2
266 413 1.3645375031192908E-1
266 434 1.831563888873418E-2
266 593 1.831563888873418E-2
266 638 4.9992375575949495E-2
266 748 4.382407230968198E-2
266 759 9.203906535145637E-2
266 766 1.5311849045875442E-1
266 771 1.831563888873418E-2
266 815 1.686854680783515E-2
267 37 1.3604757256108183E-1
267 144 5.688823834610157E-2
267 233 7.065121306042962E-2
267 334 3.877420783172203E-2
267 391 5.137307302067445E-2
267 464 1.14319145407998E-1
267 530 4.4304604571496604E-2
267 559 1.148553723692794E-2
267 569 2.312903170761661E-2
267 581 2.1279736438377175E-2
267 766 1.831563888873418E-2
268 50 4.29463795158983E-2
268 145 1.6249482164131604E-1
268 286 5.516786220541803E-2
268 363 7.05069587476327E-2
268 374 3.774749518544107E-2
268 463 1.160370022477601E-1
268 483 3.847556329714195E-2
268 529 3.8067351950112835E-2
268 579 1.3971401505709669E-1
268 601 7.45809470035948E-2
268 655 5.239448323903792E-2
268 682 8.301001436371987E-2
268 703 1.831563888873418E-2
268 718 1.831563888873418E-2
268 803 1.6777074535511267E-2
268 832 8.273218318427382E-2
269 9 1.977881022890899E-2
269 104 1.831563888873418E-2
269 205 2.16509580252932E-1
269 220 6.267426970839288E-2
269 263 1.8586569728329586E-1
269 443 1.7106905058851263E-2
269 538 3.1202915983253326E-1
269 608 3.422242152358732E-1
269 708 2.3399980725362306E-2
269 756 5.638782525618924E-2
269 797 1.532780007402232E-1
270 17 1.831563888873418E-2
270 22 8.921851740926015E-2
270 27 1.831563888873418E-2
270 74 4.704263170119713E-2
270 88 1.6048332796880077E-1
270 90 1.2449564127834499E-1
270 182 7.649959757219102E-2
270 319 2.091567006291164E-2
270 379 2.0055872157168184E-1
270 412 2.240150797021112E-2
270 551 2.8973771302786895E-2
270 618 2.8706130658922975E-2
270 689 3.086103575557278E-2
270 846 8.478028022933648E-2
271 95 6.550810553646531E-2
271 169 1.8741711124944993E-1
271 209 1.5415950869526174E-1
271 219 9.15657784862491E-2
271 277 1.831563888873418E-2
271 369 3.1553414680615954E-1
271 409 1.6229410292000004E-2
271 466 3.47999428347129E-2
271 486 1.8973616267224967E-2
271 633 1.8568178008247377E-1
271 806 4.5154089895458896E-2
272 15 2.406771030026797E-1
272 120 3.0225618467875574E-2
272 355 6.626995237131854E-2
272 395 6.653286974234171E-2
272 439 8.449794728636087E-2
272 531 4.131652619173762E-2
272 556 7.141464372708972E-2
272 566 4.04214052219958E-2
272 596 1.831563888873418E-2
272 703 3.122727352306724E-2
272 804 2.0907505726252756E-2
273 4 2.427374242987287E-2
273 111 1.5216373237420474E-2
273 140 3.0278233128898616E-2
273 148 1.831563888873418E-2
273 226 5.280357033430049E-2
273 274 2.4015513575832297E-2
273 329 1.9538201726637885E-1
273 393 5.4331235855262866E-2
273 742 1.857869563968881E-2
273 823 4.233206938515671E-2
274 69 1.831563888873418E-2
274 173 3.7233717621836235E-2
274 178 2.8224424254790065E-2
274 183 3.077133980207815E-2
274 192 3.387306459521228E-2
274 273 2.4015513575832297E-2
274 331 1.831563888873418E-2
274 339 1.831563888873418E-2
274 349 4.326449614270491E-1
274 450 3.7602969001134204E-2
274 454 4.037843355442588E-2
274 517 4.934669423426577E-2
274 548 2.4656796344992453E-2
274 823 4.4746521325149224E-2
275 6 2.9206782369141415E-1
275 55 8.269515309216116E-1
275 86 1.445910481605751E-1
275 156 7.330521131609416E-2
275 172 2.0297386239589058E-2
275 322 8.14788639375607E-2
275 382 2.5499462928280286E-2
275 397 2.4512192430010582E-1
275 495 1.831563888873418E-2
275 532 5.848998104870828E-2
275 684 4.550352889395183E-2
275 688 1.831563888873418E-2
275 734 2.6072971807495915E-1
275 836 1.1027515278501865E-1
276 23 3.871885565293232E-2
276 40 1.8420599283620262E-2
276 183 2.2389500002293818E-2
276 254 3.533585377395463E-2
276 357 8.91760425148427E-2
276 454 2.1007891148686147E-2
276 524 1.8168526117467262E-2
276 628 3.677793732321874E-2
276 692 5.035932725706607E-2
276 707 1.831563888873418E-2
276 733 1.831563888873418E-2
276 749 1.376378673305039E-2
277 109 1.982928222552243E-2
277 169 6.460560583720687E-2
277 193 2.0218834976962793E-2
277 206 3.479474984683433E-2
277 209 5.678481376147379E-2
277 219 1.8685556227318906E-1
277 271 1.831563888873418E-2
277 305 6.460560583720687E-2
277 353 3.131106330127249E-2
277 354 1.831563888873418E-2
277 369 3.632909017457925E-2
277 622 1.8740330544188836E-2
277 633 1.0300756430465918E-1
277 663 2.7053765505086175E-2
277 670 1.831563888873418E-2
277 809 2.0635366296609153E-1
278 47 2.0287621425903082E-2
278 164 1.4838556515937157E-2
278 180 3.681775240084192E-2
278 225 2.8106398460988136E-1
278 437 1.831563888873418E-2
278 457 3.7650994876033045E-2
278 631 3.039240502149663E-1
278 696 3.403209844466899E-2
278 747 2.9280688738697606E-2
278 812 1.2904178044763628E-1
278 821 1.743076432202509E-2
278 829 2.569872578621206E-2
279 96 4.023397551419404E-2
279 244 8.466286699110157E-2
279 284 6.363258292824263E-2
279 347 2.2283956306322567E-1
279 476 1.831563888873418E-2
279 497 2.957611624913382E-1
279 518 1.7237349282844833E-2
279 576 2.8492121075308713E-1
279 668 5.162096943997689E-2
279 722 4.702028399401886E-2
279 764 2.5171011130199858E-2
280 179 2.2478843008117862E-2
280 190 2.220963854436736E-2
280 202 1.8118698442871246E-2
280 241 2.302708062128931E-2
280 247 5.618095952967308E-2
280 418 4.250451108966478E-2
280 544 1.5287452400953569E-2
280 549 1.3863598214859538E-1
280 565 1.831563888873418E-2
280 675 2.5664396380676816E-2
280 698 2.097586378560743E-1
280 800 4.334542069968535E-2
280 831 3.0389112198824012E-2
281 10 1.322542292688393E-1
281 57 2.7053558447230075E-1
281 110 4.536553254929204E-2
281 356 3.979189156708547E-2
281 360 2.7527774906238717E-2
281 387 1.7809810544996457E-1
281 425 1.831563888873418E-2
281 599 5.5677231769934936E-2
281 667 2.1871188695221472E-1
281 695 1.1930012885282313E-2
281 761 9.445702832899464E-2
282 64 1.3703403031684494E-1
282 98 3.3295208408305477E-1
282 128 2.4146004356797854E-2
282 198 1.831563888873418E-2
282 293 3.140469737977214E-2
282 313 1.831563888873418E-2
282 340 1.2218856887411166E-1
282 365 3.367037859662293E-2
282 398 4.4064843092512455E-2
282 419 4.3268961919163865E-2
282 466 2.3134659893915076E-2
282 475 3.493847342122821E-2
282 545 2.442372681906301E-2
282 646 8.80754715399319E-2
282 657 2.858048099211018E-1
282 677 1.1523892887388625E-1
282 699 8.52397755743586E-2
282 826 2.1912360923288673E-2
283 80 1.7907508026287672E-2
283 199 1.3181112869166872E-1
283 233 1.831563888873418E-2
283 238 9.899090787344171E-2
283 305 1.2493021219858247E-1
283 326 1.831563888873418E-2
283 424 7.843739051713071E-2
283 638 2.1493601345089923E-2
283 679 6.881292857491575E-2
283 766 2.1493601345089923E-2
283 771 1.0617963484834465E-1
284 118 2.616013691851838E-2
284 197 2.0563055013984442E-2
284 244 2.3300993979424516E-2
284 279 6.363258292824263E-2
284 347 9.643984865762363E-2
284 472 7.379373212917582E-2
284 497 1.7487021595659506E-2
284 518 2.7227956557119715E-1
284 576 1.831563888873418E-2
284 722 1.1998718058435451E-1
285 58 1.27518150518741E-1
285 115 1.831563888873418E-2
285 222 9.562695997929534E-3
285 245 1.6109130352087922E-1
285 253 4.14109257354058E-2
285 337 2.453109331537062E-1
285 415 5.344715956149729E-2
285 446 2.301314976034572E-2
285 546 2.0071250338770837E-2
285 814 1.8998661917530982E-2
286 145 9.343904940638366E-3
286 268 5.516786220541803E-2
286 363 1.2471118490737196E-1
286 374 5.8210405662398E-2
286 463 2.4125244070279941E-1
286 483 1.4331349669043447E-1
286 529 6.539740322986023E-2
286 601 7.705422968546038E-2
286 655 2.620405775180361E-2
286 682 2.79489792733044E-2
286 700 5.841183904089605E-2
286 703 2.3933810803824784E-1
286 718 1.5985352029439E-2
287 24 1.461392880271872E-1
287 111 1.4986217873442192E-1
287 113 1.8989242991040354E-2
287 127 1.831563888873418E-2
287 155 2.4180882529625147E-1
287 192 3.919462392840296E-2
287 226 3.342064152080991E-2
287 313 2.7538868760906186E-2
287 341 9.14322642061055E-2
287 408 1.831563888873418E-2
287 450 1.6558754633658006E-2
287 484 5.353565452101035E-2
287 589 5.7829388812569396E-2
287 742 2.4750125205236565E-2
287 801 1.8172548690563676E-2
288 14 1.3294426324487557E-1
288 58 5.897394536814528E-2
288 115 2.2213803123908832E-1
288 222 1.9809995856158412E-2
288 253 1.831563888873418E-2
288 388 1.6457863829389626E-2
288 446 2.3675476627260408E-2
288 498 3.041470728064776E-1
288 546 3.0836516789658136E-1
288 807 1.9951748354406357E-2
289 99 2.699754783912832E-2
289 117 1.0894986356330674E-1
289 130 3.2054328346529903E-1
289 185 1.0793740454922951E-1
289 259 1.1137539749842225E-1
289 432 1.831563888873418E-2
289 455 6.13847709306454E-2
289 462 4.5469864682534285E-2
289 505 1.831563888873418E-2
289 539 1.8814558884198782E-2
289 673 1.831563888873418E-2
289 769 1.831563888873418E-2
289 781 5.4149126442199505E-2
289 824 1.831563888873418E-2
290 121 1.802354982363362E-1
290 161 1.831563888873418E-2
290 298 1.995829506269332E-2
290 343 1.0719251727125112E-1
290 368 3.984212569993504E-1
290 407 2.795835283243043E-2
290 503 1.831563888873418E-2
290 516 3.1399934752616085E-2
290 635 9.308584669792891E-2
290 802 5.948174087538731E-2
290 835 3.321679229526228E-2
291 83 1.6719769374623134E-1
291 134 3.809753741166587E-2
291 170 1.303234490467693E-1
291 251 1.4342701010186054E-2
291 294 4.2431061256199526E-2
291 378 5.089164947591039E-2
291 609 2.0145750527577673E-2
291 619 1.6683178815113345E-1
291 726 1.7721217712397752E-1
291 775 3.5599517396569996E-2
291 788 2.3869751898955294E-1
292 5 1.3146300552691081E-1
292 38 2.427036316508115E-1
292 85 1.8027209638810333E-2
292 101 3.4501686098336426E-1
292 136 3.006695068918229E-1
292 389 1.299829179866231E-1
292 451 2.5059358296953396E-2
292 524 6.361117952584976E-1
292 541 1.9574418456402808E-2
292 545 2.553618711715579E-2
292 642 2.4180174376470395E-2
292 707 2.315020953893884E-1
293 195 2.472053710736979E-2
293 282 3.140469737977214E-2
293 340 3.318102288158735E-2
293 359 3.354816740393166E-2
293 365 2.875824381199753E-2
293 398 1.1317533151993492E-1
293 568 2.744528107177599E-2
293 642 1.421313820047681E-2
293 646 2.7671694305696548E-2
293 657 1.831563888873418E-2
293 697 1.800155209510894E-2
293 736 1.831563888873418E-2
293 807 2.2699337672925292E-2
293 826 1.1932149007255452E-1
294 11 2.260749740328265E-2
294 291 4.2431061256199526E-2
294 304 6.46094922977857E-2
294 420 5.634901739450328E-2
294 426 1.6770711910867037E-1
294 436 3.999442217823246E-2
294 607 1.8526161169099248E-2
294 609 8.448528136148656E-2
294 726 2.9725364902612576E-2
294 775 1.2269004981526442E-2
294 841 5.771141784411321E-2
295 172 5.597805056319218E-1
295 194 2.736574373996286E-1
295 335 5.170254242656114E-2
295 346 1.8080868612095388E-1
295 445 4.803777919062179E-2
295 495 5.811620557977243E-1
295 532 1.6326555856585728E-1
295 540 4.0863595104379263E-1
295 557 3.726043405911231E-2
295 684 3.604393314153066E-3
295 732 1.113717148676752E-1
295 778 2.2333693444570318E-1
296 102 2.5527877473115253E-2
296 140 3.4837922853904434E-2
296 148 3.932728889552701E-2
296 179 2.6347980814448703E-2
296 340 4.4865582205957474E-2
296 398 5.687325000780166E-2
296 406 1.701293586297451E-2
296 697 9.891310777301845E-2
296 768 8.901304632996673E-2
296 800 1.831563888873418E-2
296 831 1.781671973387637E-2
297 70 2.2959946048172272E-1
297 76 1.5514197180672462E-1
297 93 3.5709774681613494E-2
297 441 1.2805639158204385E-1
297 641 5.309457969185092E-2
297 671 2.875705413978513E-2
297 693 2.535455836456569E-2
297 712 1.831563888873418E-2
297 757 1.1280283343396634E-1
297 769 1.5977315150759983E-2
297 773 3.333652445885405E-2
297 805 2.1271087896964688E-2
298 27 1.22698900611229E-2
298 60 9.953857402045718E-2
298 62 5.9011949957322084E-2
298 121 3.968810512443614E-2
298 251 3.385800113299042E-2
298 261 2.490242803917332E-2
298 290 1.995829506269332E-2
298 368 6.468879618354812E-3
298 378 1.372685351713846E-2
298 503 2.720926058203838E-2
298 592 1.327729899216013E-2
298 595 1.49300463635035E-2
298 635 4.216586798931321E-2
298 802 2.0598801240897374E-1
299 73 2.0928012097648238E-1
299 177 3.0482203883212523E-2
299 262 1.5196855832573825E-1
299 521 2.9696244354565E-2
299 553 4.02332615191893E-2
299 605 4.830577879784444E-2
299 623 5.190358858719123E-2
299 672 1.3563021954937582E-2
299 710 1.5048715443603838E-1
299 751 1.831563888873418E-2
300 77 6.928364273028505E-2
300 92 1.2590501560624544E-2
300 262 1.831563888873418E-2
300 371 1.8559437494270525E-2
300 521 2.3940554298007295E-2
300 553 4.002934180739434E-2
300 597 1.6511936980742815E-2
300 605 5.232275198671217E-2
300 672 3.789032938757669E-2
300 717 6.300262834535532E-2
300 751 9.69411586612125E-2
300 776 1.151273730718495E-1
301 19 1.530410366233591E-1
301 28 5.257533949080968E-2
301 82 2.9851483636087056E-2
301 96 2.5598605764490218E-2
301 165 3.765758895339097E-2
301 174 5.504102980542036E-2
301 204 3.345715748209559E-2
301 256 3.157227405751972E-2
301 361 7.63281368069325E-2
301 377 1.4737038852724952E-2
301 380 1.5170450381537708E-2
301 468 2.7996856960422943E-2
301 481 2.667894511819463E-2
301 510 8.05788945064229E-2
301 550 2.8255306779226632E-2
301 563 3.325637596459649E-2
301 584 2.296397130922319E-2
301 626 2.1956030255434876E-2
301 649 1.3518236267881477E-2
301 706 9.026690162533907E-2
301 720 3.863397576846295E-2
301 741 3.1573740598671275E-2
301 784 1.2089649498339997E-1
301 799 1.2560964064242974E-1
301 811 1.814514929821539E-1
301 833 1.3310842914367505E-2
302 7 1.911682303652312E-2
302 23 1.831563888873418E-2
302 160 6.991772138370897E-2
302 193 4.751409039847337E-2
302 258 1.7747023793542656E-2
302 306 2.1536497379452946E-2
302 348 5.763746120606657E-2
302 357 1.1226244523102412E-1
302 365 1.831563888873418E-2
302 572 5.282292648156707E-2
302 645 5.152273629773005E-2
302 646 3.61213103233633E-2
302 749 2.2649655894393023E-2
303 176 2.7580980578808065E-2
303 247 3.193753651151286E-1
303 453 1.831563888873418E-2
303 544 1.6638044743915303E-1
303 565 4.063745364289973E-2
303 614 2.8806612704948903E-1
303 647 1.8051227071142126E-1
303 653 3.4909956543277845E-2
303 698 2.0867440253262804E-2
303 753 1.3985546387558132E-1
304 11 1.386562298456747E-1
304 56 2.54440854534273E-1
304 150 2.3875730707728686E-2
304 228 7.702414278299582E-2
304 294 6.46094922977857E-2
304 420 1.7993645554829607E-1
304 426 3.7187947074910584E-2
304 436 1.386562298456747E-1
304 520 2.850785095391628E-2
304 542 5.006742890465335E-3
304 570 1.831563888873418E-2
304 607 1.1799148039765914E-1
304 616 3.917255105985337E-2
304 661 1.5503853599009314E-2
304 775 1.7238568331591334E-2
304 841 3.732337051328155E-2
305 37 2.212551919224659E-2
305 199 1.1491203107647747E-1
305 238 3.1353279939406414E-1
305 240 1.3292780326888003E-2
305 277 6.460560583720687E-2
305 283 1.2493021219858247E-1
305 326 4.6738033402081644E-2
305 354 2.020469065683027E-2
305 383 1.831563888873418E-2
305 424 2.9918038675995073E-2
305 633 1.2922648078900116E-2
305 670 1.831563888873418E-2
305 679 1.831563888873418E-2
305 746 2.3615397255884317E-2
305 759 4.205930222670373E-2
305 766 2.1893590892753053E-2
305 771 2.1157989198833604E-2
305 809 1.0119583547395944E-1
306 26 1.4188251747932312E-1
306 40 1.5226569619912063E-2
306 81 2.141806011200091E-2
306 98 1.772802256359386E-2
306 160 1.7573010238491943E-1
306 193 2.3757727086443672E-1
306 206 9.17588076603691E-2
306 209 3.248861133102953E-2
306 217 4.1088789751407374E-2
306 219 2.558698022601607E-2
306 258 1.831563888873418E-2
306 302 2.1536497379452946E-2
306 357 1.655775178691987E-2
306 409 5.762888603727266E-2
306 454 2.226652358501064E-2
306 646 1.831563888873418E-2
306 749 1.647033013667005E-2
306 809 2.1304494709510746E-2
307 34 1.2685382869023168E-1
307 41 1.831563888873418E-2
307 154 9.289524837480058E-2
307 234 8.726558787948314E-2
307 310 1.3592384395043709E-2
307 338 1.5076609461640914E-2
307 358 2.4518909063244773E-1
307 401 3.213181890258365E-2
307 422 1.9944477681776922E-2
307 429 1.011659469247597E-1
307 449 1.658533112883012E-2
307 528 5.263371788122369E-2
307 533 1.8530168091773505E-2
307 702 1.3596183435730705E-1
307 737 2.6626027855179826E-2
308 143 1.827333951058508E-2
308 168 3.325188561401125E-1
308 171 1.933435591900332E-1
308 416 7.608250894033948E-2
308 490 8.889720727240642E-2
308 550 1.831563888873418E-2
308 563 1.862771896534567E-2
308 626 3.884592652045548E-2
308 632 1.831563888873418E-2
308 701 2.0966353819208625E-2
308 741 1.6000046111745624E-2
308 779 1.3001223521132507E-1
309 61 9.924710804704037E-2
309 76 6.1651782082854545E-2
309 151 2.0118428811866415E-2
309 223 1.4532764776008197E-2
309 332 5.941937342237095E-2
309 447 3.49830412988067E-2
309 690 6.361235269847545E-1
309 693 4.394153748295403E-2
309 762 1.2797581496580618E-1
309 777 2.065754198932347E-2
310 154 6.767878904939909E-2
310 307 1.3592384395043709E-2
310 405 2.5412486789178894E-2
310 429 4.05719489967797E-2
310 533 2.1751813093117434E-1
310 539 1.831563888873418E-2
310 555 1.430666827544082E-1
310 634 8.831011857445568E-2
310 727 5.451078400987197E-2
310 737 3.002130588520712E-2
310 772 1.6835944401542523E-2
311 191 2.9162147739668316E-2
311 355 2.756715253057821E-2
311 395 9.138767350541956E-2
311 439 9.563516319985439E-2
311 444 1.831563888873418E-2
311 465 1.7313882895322985E-2
311 556 1.1151254625064175E-1
311 596 2.678123039829582E-1
311 750 8.096071527955243E-2
311 804 2.96712395196219E-2
312 43 3.2238330179716584E-2
312 46 3.448990496081312E-2
312 122 3.75267817113482E-2
312 222 1.0072526169554345E-1
312 236 1.831563888873418E-2
312 367 2.6327775308679777E-2
312 612 4.673363494232556E-2
312 658 1.600232752441147E-2
312 709 3.278705457833967E-2
312 830 5.6744399640664356E-2
313 64 1.8163957449616065E-2
313 108 4.104717016682607E-2
313 127 5.889494590917182E-2
313 128 1.1040096948216349E-1
313 140 1.831563888873418E-2
313 159 3.547958514660407E-2
313 192 1.831563888873418E-2
313 213 3.957443363749205E-2
313 282 1.831563888873418E-2
313 287 2.7538868760906186E-2
313 340 3.831762190952521E-2
313 341 8.177852107658636E-2
313 650 1.3271258931795515E-1
313 657 8.232630662858927E-2
313 699 3.170212482795235E-2
313 742 1.831563888873418E-2
313 768 2.525075853886547E-2
313 795 1.4014365409222623E-1
313 801 2.087932940321377E-2
314 76 1.971847506827625E-2
314 93 1.831563888873418E-2
314 185 1.656656115154403E-2
314 366 2.192941924186738E-2
314 462 3.537685745008976E-2
314 578 4.996456218508434E-2
314 693 2.0130180848327423E-2
314 712 1.0765944856973955E-1
314 805 2.1608114860402768E-2
314 824 3.0074997274218696E-1
315 196 2.0245812129922813E-1
315 238 1.831563888873418E-2
315 266 2.959943516789204E-2
315 334 6.398600386864663E-2
315 391 1.831563888873418E-2
315 493 8.435448730847973E-2
315 591 2.4146004356797875E-2
315 638 5.949766673018645E-2
315 766 1.1283618731705697E-1
315 815 6.683993515189016E-2
316 47 1.831563888873418E-2
316 134 1.6702623089935458E-2
316 158 3.630834695324417E-2
316 251 6.72159654207676E-2
316 317 2.5713510775998837E-2
316 421 1.5860021966471222E-1
316 437 1.1056216976439706E-1
316 535 1.0260923180416712E-1
316 595 4.8002780130554194E-2
316 636 1.1603700224776005E-1
316 735 4.278724856473082E-2
316 780 2.464254084055533E-2
316 796 2.7196107992718276E-2
316 829 9.787270323643871E-2
317 47 1.735957442418846E-1
317 60 1.408487293816821E-2
317 103 1.831563888873418E-2
317 158 5.243002123050128E-1
317 316 2.5713510775998837E-2
317 534 3.0746596679098022E-2
317 580 1.5796429264910705E-2
317 598 1.3565674456602259E-1
317 636 1.514007631454277E-1
317 755 4.300775507358171E-2
317 829 5.0128776491377605E-2
318 10 5.452527577743517E-2
318 57 1.807061729818712E-2
318 133 4.342247496843779E-2
318 152 2.4632127216140873E-2
318 351 2.499790617297703E-2
318 387 1.831563888873418E-2
318 425 3.496053750222628E-2
318 643 3.357614635848753E-2
318 667 2.191026566857169E-2
318 761 8.76552796052458E-2
318 819 3.496053750222628E-2
319 22 3.307125148830101E-2
319 74 2.8828472475840923E-2
319 231 8.525391738694738E-2
319 270 2.091567006291164E-2
319 375 4.477099911923166E-2
319 412 1.831563888873418E-2
319 499 4.040928667757386E-2
319 551 2.58545121037318E-1
319 618 1.2996167836703026E-1
319 656 1.201216348410373E-1
319 752 9.685085620914018E-3
320 239 2.702180595120905E-2
320 336 1.831563888873418E-2
320 344 3.93772161110562E-2
320 376 5.699413752060362E-2
320 473 2.8756947344052775E-1
320 474 3.589488424335345E-2
320 477 1.4220276366308815E-2
320 502 1.888975055918907E-2
320 561 2.8920347190974693E-2
320 711 5.105344465242E-2
320 739 1.588958738337069E-1
320 825 3.124020528791791E-2
321 146 1.4516750605765794E-1
321 336 3.0794257651737173E-2
321 384 5.6025190052061524E-2
321 487 1.831563888873418E-2
321 537 8.400589303658564E-2
321 577 2.111754123852698E-2
321 603 6.78192574683549E-2
321 606 1.549320441134124E-1
321 621 3.181387509115673E-2
321 716 3.945122718361463E-2
321 844 3.466558595331217E-1
322 6 2.2990583427564765E-1
322 55 8.19447223858524E-2
322 86 6.04852095374479E-1
322 156 1.831563888873418E-2
322 275 8.14788639375607E-2
322 382 1.6884116386682007E-2
322 397 3.9143192216271727E-1
322 684 1.831563888873418E-2
322 688 2.3485015590648692E-1
322 734 5.533907517143473E-1
322 836 4.6035242719930314E-1
323 100 2.264965589439303E-2
323 142 6.287122660066728E-2
323 208 3.588508145120219E-2
323 243 1.9378119039412622E-1
323 334 4.739775909531354E-2
323 352 3.827774592786646E-2
323 438 5.133244275013383E-2
323 480 1.1254555982225498E-1
323 493 1.831563888873418E-2
323 511 6.948345122280154E-2
323 559 1.831563888873418E-2
323 581 4.0600288783628716E-2
323 663 2.2024433310217577E-2
323 670 2.479257277912297E-2
323 686 2.75938064776118E-2
323 786 2.1698579648235978E-2
323 791 7.140011619100482E-2
324 151 1.3111846683667928E-2
324 223 1.831563888873418E-2
324 332 5.460615379838088E-2
324 447 4.275907125355666E-2
324 641 2.926149663214745E-2
324 660 1.974474889562201E-1
324 671 5.819601039824702E-1
324 750 1.3134643591124545E-1
324 757 6.445114229034114E-2
324 773 5.204926723085624E-1
325 77 1.8069243900509017E-2
325 92 4.529979492192618E-2
325 187 8.830431614214561E-2
325 211 5.9659448162904444E-2
325 248 3.7826816686819575E-1
325 410 4.32785250445989E-1
325 428 3.9809976806578073E-1
325 543 2.9035370890494162E-2
325 562 1.3802087152099846E-2
325 672 1.831563888873418E-2
325 691 3.8784780212796695E-2
325 721 2.45039686755334E-2
325 751 1.831563888873418E-2
325 767 5.412518383354471E-2
325 842 6.592368191792589E-2
326 37 1.9101178402937447E-2
326 80 3.7248602744665314E-2
326 144 2.7058445682482175E-2
326 233 5.791490576038036E-2
326 238 1.2158485594365534E-1
326 283 1.831563888873418E-2
326 305 4.6738033402081644E-2
326 424 8.228545029149753E-2
326 554 5.858894205577232E-2
326 559 1.831563888873418E-2
326 591 2.0590472106813047E-2
326 670 9.30608227037085E-2
326 679 4.032585986447745E-2
326 771 3.575205457072818E-2
327 57 1.831563888873418E-2
327 191 4.8019451679757E-1
327 265 1.0800199969529226E-1
327 355 1.9573786842995537E-2
327 360 4.0313347380328E-2
327 444 3.588859793731329E-2
327 639 2.2355295708836872E-2
327 695 2.2666862765948363E-2
327 820 1.388679890753561E-2
327 827 4.540915589865328E-2
328 2 1.980523954342109E-1
328 14 5.392548508193973E-2
328 75 5.717233138753155E-2
328 87 2.0790362910204097E-1
328 193 1.831563888873418E-2
328 519 3.1020769026121546E-2
328 564 2.059582967449422E-2
328 758 1.1811997641589242E-1
328 774 1.1783386788833708E-2
328 801 1.873828893593043E-2
328 839 4.737673184511096E-2
329 102 5.839650093037567E-2
329 123 1.3276293045149993E-2
329 140 6.783294070605149E-2
329 148 1.0631685090429117E-1
329 273 1.9538201726637885E-1
329 393 1.9825527674993731E-1
329 406 2.7007235012791005E-2
329 768 2.7613262823277803E-2
329 795 1.831563888873418E-2
329 823 3.982338522107286E-2
330 35 4.7002072256318514E-2
330 44 2.9748439504480462E-2
330 176 2.0016052243652046E-2
330 195 1.1453575908717537E-1
330 216 2.0141060603214764E-1
330 396 2.1206472938856988E-1
330 452 1.9421239687069117E-1
330 453 5.4015822781307246E-2
330 512 3.1803499034240723E-1
330 568 6.506105775799748E-2
330 604 4.560584922337294E-2
330 647 2.5561533206507402E-2
330 790 1.0425978464335056E-1
331 173 2.108217848146833E-2
331 178 2.5483482784168496E-2
331 254 3.0243592110205803E-2
331 274 1.831563888873418E-2
331 349 1.2048765841727561E-1
331 417 4.1822871391861784E-2
331 548 1.8092959108835568E-2
331 594 3.3352864415281576E-2
331 637 1.0467648986369224E-1
331 704 6.0013435718489966E-2
331 840 2.692556965440386E-2
332 151 4.751409039847337E-2
332 223 1.0378637688483218E-1
332 265 1.757774799503059E-2
332 309 5.941937342237095E-2
332 324 5.460615379838088E-2
332 444 6.701734997136015E-2
332 447 4.664442268518334E-1
332 629 2.5833717347029113E-2
332 660 1.9084505478025423E-2
332 671 3.694793150647757E-2
332 690 1.4024439406010714E-1
332 773 1.956719476911185E-2
333 72 7.75380018806559E-2
333 91 3.127873985291493E-2
333 118 1.831563888873418E-2
333 252 6.514449078591128E-2
333 336 1.2819486281980428E-2
333 345 3.372571928873187E-2
333 459 3.1018523158266618E-2
333 472 7.393573794005834E-2
333 487 4.1942447920524546E-2
333 537 3.550938061863305E-2
333 590 4.095657931039928E-2
334 48 1.5635800496169184E-2
334 78 1.8818554320862362E-2
334 100 4.897754052297843E-2
334 144 2.613592578010988E-2
334 208 4.438942123698918E-2
334 233 1.4264233908999242E-2
334 267 3.877420783172203E-2
334 315 6.398600386864663E-2
334 323 4.739775909531354E-2
334 391 2.4543282850175662E-2
334 438 3.5882308046655195E-2
334 464 2.942141948541333E-2
334 480 3.139857065010192E-2
334 493 1.2315154329764817E-1
334 530 3.243324089479554E-2
334 559 3.3165337488910304E-2
334 569 9.334727772646487E-2
334 581 3.532078839205796E-2
334 591 1.8887956745928056E-2
334 610 4.1822871391861804E-2
334 766 1.6029358476645567E-2
334 815 3.198069143927261E-2
335 194 9.085504697161204E-2
335 295 5.170254242656114E-2
335 346 4.200213799197303E-1
335 376 7.416150476693674E-2
335 445 9.361130962021053E-2
335 501 7.849421562240262E-3
335 540 1.5726355060189756E-1
335 557 6.678683637981261E-2
335 711 4.6321565397449915E-2
335 732 4.6103643001080724E-1
335 778 2.5350794039538593E-1
336 106 1.5437583225837007E-1
336 146 4.984730679774647E-2
336 221 1.218136138366199E-1
336 239 4.1919185802528444E-2
336 320 1.831563888873418E-2
336 321 3.0794257651737173E-2
336 333 1.2819486281980428E-2
336 344 2.511699610560656E-2
336 345 1.691131964531515E-2
336 427 5.813364960650758E-2
336 469 2.651465172576931E-2
336 474 1.3942477916646787E-1
336 487 1.8592618736729613E-2
336 491 1.4388640029625269E-2
336 506 1.973905881570219E-2
336 513 2.322068356751778E-2
336 537 1.6481444552192484E-1
336 577 5.785043581968978E-2
336 731 3.337326996032608E-2
336 739 2.7996232268790236E-2
336 787 3.933389003671575E-2
336 825 1.694924456750299E-1
336 844 1.6429796323476246E-2
337 58 1.172096755132195E-1
337 115 6.34077024836112E-2
337 245 5.044215198327429E-2
337 253 6.594367909124198E-2
337 266 1.831563888873418E-2
337 285 2.453109331537062E-1
337 415 7.27362762978412E-2
337 446 1.0557158629709262E-1
337 546 2.4739690919891488E-2
337 814 1.7843003812749232E-2
338 3 1.831563888873418E-2
338 234 1.9504194216732402E-2
338 307 1.5076609461640914E-2
338 358 4.817408145339108E-2
338 435 2.4708726395073412E-2
338 449 2.530289178444288E-1
338 585 1.0941854910556834E-1
338 611 1.8647635418473408E-2
338 651 2.9044615790895973E-2
338 702 8.208499862389883E-2
339 75 5.72831282331626E-2
339 173 2.5785969741434336E-2
339 258 4.8167667835558224E-2
339 274 1.831563888873418E-2
339 348 3.516245057329625E-2
339 349 1.7659382907517503E-2
339 517 1.6014596537242506E-2
339 573 4.560220009859453E-2
339 645 1.719507259217076E-1
339 745 1.8909837757756613E-2
339 749 2.4190898990306034E-2
340 64 3.807523271547835E-2
340 98 4.924883506150009E-2
340 108 1.831563888873418E-2
340 128 1.831563888873418E-2
340 140 6.873582214703552E-2
340 213 8.418755502541661E-2
340 282 1.2218856887411166E-1
340 293 3.318102288158735E-2
340 296 4.4865582205957474E-2
340 313 3.831762190952521E-2
340 398 2.521056642575439E-1
340 406 4.097981950013509E-2
340 646 8.030367013263914E-2
340 650 1.8031129875750146E-2
340 657 1.3065107631113182E-1
340 697 6.673491317975648E-2
340 699 3.207878279315491E-2
340 736 2.3143182231315836E-2
340 768 1.831563888873418E-2
340 795 1.831563888873418E-2
341 24 4.6892016865703684E-2
341 108 6.80199961585709E-2
341 111 7.117073845094449E-2
341 123 1.831563888873418E-2
341 127 8.175731443469382E-2
341 140 3.7707718658524E-2
341 148 1.0009152854574715E-2
341 155 9.42554752270754E-2
341 157 3.2643096139737954E-2
341 192 1.945745799359438E-2
341 287 9.14322642061055E-2
341 313 8.177852107658636E-2
341 589 1.2080262710893626E-1
341 650 5.8338835235973954E-2
341 674 1.9435786069749023E-2
341 742 1.0015109645352047E-1
341 768 3.176020193705912E-2
341 795 3.587108673318869E-2
342 32 1.831563888873418E-2
342 97 2.0425007711921066E-2
342 225 5.0980946324962806E-2
342 385 1.230964936614018E-1
342 417 1.7385257510274504E-2
342 471 4.4434278202047914E-2
342 558 9.306960890636096E-2
342 652 2.2365953157336982E-1
342 743 3.3755038213086355E-2
342 837 2.5521183517644656E-2
342 845 2.14228114500419E-2
343 121 3.8385194668763126E-2
343 161 2.0770609451135835E-1
343 290 1.0719251727125112E-1
343 368 4.107198491718697E-2
343 381 1.7343749836019345E-1
343 407 1.33772550870846E-2
343 516 4.0118147412694524E-2
343 635 8.166584209724552E-2
343 802 7.530078971739959E-2
343 810 6.955552948524465E-2
343 821 2.492498769859289E-2
343 835 6.024115768439069E-2
344 106 1.9878259041160303E-2
344 203 1.749789792413483E-1
344 221 2.2084804258368087E-2
344 239 2.0002169445052997E-1
344 320 3.93772161110562E-2
344 336 2.511699610560656E-2
344 473 1.9206197699389735E-2
344 474 7.126091296278682E-2
344 477 2.3603221424152787E-1
344 501 1.6874844850945835E-2
344 513 3.732337051328154E-2
344 561 2.1815455074038863E-2
344 583 1.831563888873418E-2
344 587 1.4429473623006117E-2
344 825 8.934904923297082E-2
344 828 6.177146667095795E-2
345 68 4.517738106076757E-1
345 72 2.6321662986266287E-1
345 146 5.131509841993434E-2
345 260 6.27102248280717E-2
345 333 3.372571928873187E-2
345 336 1.691131964531515E-2
345 390 8.854517331628875E-2
345 487 4.2809418123076794E-2
345 501 5.7673199581628004E-2
345 537 6.379140904681499E-2
345 590 2.7381971604197225E-1
345 676 9.046739462746775E-2
345 711 3.0892648108895172E-2
345 716 6.128124125443867E-2
345 731 2.3806948722728996E-2
346 172 1.831563888873418E-2
346 194 2.60580848956481E-1
346 295 1.8080868612095388E-1
346 335 4.200213799197303E-1
346 445 2.027810577351069E-1
346 495 2.354953533967547E-2
346 540 3.956766685752604E-1
346 557 1.010389647419791E-1
346 732 5.994090512945689E-1
346 778 1.6815273947227585E-1
347 45 6.103397177789042E-2
347 244 1.831563888873418E-2
347 279 2.2283956306322567E-1
347 284 9.643984865762363E-2
347 497 3.399956761122734E-2
347 576 5.766117807819454E-2
347 668 9.314590128029865E-2
347 706 1.644502290359503E-2
347 722 2.8976548104603393E-2
347 833 2.7600488500443266E-2
348 23 4.246291859332002E-2
348 54 3.0651996769573964E-2
348 149 2.943933043331888E-2
348 160 1.831563888873418E-2
348 258 7.65124172825485E-2
348 302 5.763746120606657E-2
348 339 3.516245057329625E-2
348 357 6.642012151810295E-2
348 517 1.831563888873418E-2
348 572 4.747181807884435E-2
348 573 2.3095535650176774E-2
348 645 2.385146058965929E-2
348 745 1.33582652241843E-2
348 749 7.726826303902527E-2
349 69 1.831563888873418E-2
349 173 6.107696810531084E-2
349 178 5.088932055180885E-2
349 274 4.326449614270491E-1
349 331 1.2048765841727561E-1
349 339 1.7659382907517503E-2
349 417 1.0140267749288775E-2
349 450 4.987081446818141E-2
349 454 3.21302860056585E-2
349 517 3.713525285293171E-2
349 548 4.462374997252274E-2
349 594 5.329369898186671E-2
349 637 1.831563888873418E-2
350 138 4.0251885753482125E-2
350 164 1.3881956795591122E-2
350 400 3.7557215437221125E-2
350 461 1.0567446953600577E-1
350 470 3.490801710461521E-2
350 600 6.310933390572868E-2
350 630 1.6297259382635465E-1
350 687 2.3344439746685014E-2
350 704 1.752799356254394E-2
350 755 2.7583122936487882E-2
350 782 5.5153349802817137E-2
351 107 4.235466770057823E-2
351 318 2.499790617297703E-2
351 479 3.1068156026069393E-2
351 643 8.100151391860849E-1
351 662 1.7905795734139546E-2
351 724 3.485819994296042E-2
351 761 1.6567133627727697E-2
351 777 2.045698491228415E-2
351 783 1.028742930810346E-1
351 794 3.212479586123579E-2
351 819 1.8845494465342516E-1
352 30 3.330452998473528E-2
352 66 3.488598511391709E-2
352 78 5.576560830975907E-2
352 142 1.831563888873418E-2
352 243 7.328479975979886E-2
352 323 3.827774592786646E-2
352 438 7.032420880238296E-2
352 663 3.279347313447015E-2
352 686 3.0042127295163878E-2
352 774 1.748535242927928E-2
353 26 1.831563888873418E-2
353 160 3.8700920569958275E-2
353 206 8.575883070839989E-2
353 209 4.5612769554798496E-2
353 277 3.131106330127249E-2
353 354 1.643884564421335E-2
353 409 2.4470908618734778E-2
353 622 1.1964296734534366E-1
353 645 2.0852732789814567E-2
353 692 1.9543058195213715E-2
354 21 1.7438414878937505E-2
354 81 8.455545833320348E-2
354 209 1.0985555010233193E-1
354 240 1.422859480480941E-1
354 277 1.831563888873418E-2
354 305 2.020469065683027E-2
354 353 1.643884564421335E-2
354 383 3.98392016456803E-2
354 486 1.478192987056003E-1
354 622 6.498983829045973E-2
354 809 1.1350945737360853E-1
355 15 1.1020821393182134E-1
355 120 1.0070242353474315E-1
355 191 5.714245623409751E-2
355 272 6.626995237131854E-2
355 311 2.756715253057821E-2
355 327 1.9573786842995537E-2
355 395 4.423038886459934E-2
355 439 4.0508039525595396E-1
355 531 1.0250738702865525E-1
355 556 2.0829345766338275E-1
355 566 6.0049040847488626E-2
355 596 8.56674496110157E-2
355 639 5.013108513457256E-2
355 804 6.162025140587725E-2
355 827 7.405219662523016E-2
356 10 7.953208257280914E-2
356 57 3.0131507636158866E-1
356 65 2.0248003208243992E-2
356 110 1.831563888873418E-2
356 133 2.3145441094447227E-2
356 281 3.979189156708547E-2
356 387 1.7742850096388613E-1
356 425 7.458712587359448E-2
356 527 1.3942431602926056E-2
356 599 4.501706138088686E-2
356 623 1.3195639399903992E-2
356 667 1.4315677694325958E-2
356 695 3.6081828800641425E-2
356 820 3.125850184150664E-1
356 827 1.6205767854636368E-2
357 7 1.831563888873418E-2
357 13 2.2211303216433175E-2
357 23 2.491298526413707E-1
357 40 2.0023913884469332E-2
357 54 2.4695124949661734E-2
357 160 2.645176396290789E-2
357 276 8.91760425148427E-2
357 302 1.1226244523102412E-1
357 306 1.655775178691987E-2
357 348 6.642012151810295E-2
357 545 1.9579663724303448E-2
357 572 2.94868899228758E-2
357 573 4.508980554754187E-2
357 645 3.3468080322674176E-2
357 715 2.2218465278091373E-2
357 749 1.90554486079559E-1
358 3 2.472596721533671E-2
358 34 1.7802549966936015E-2
358 229 2.7616590045838486E-2
358 234 4.8191312853256944E-2
358 307 2.4518909063244773E-1
358 338 4.817408145339108E-2
358 401 2.3029545622275254E-2
358 429 2.7945681587189155E-2
358 435 3.3805794225852843E-2
358 449 1.831563888873418E-2
358 528 2.2501104741175858E-2
358 611 3.0122950668770302E-2
358 702 2.0285545473406208E-1
358 793 1.8114370168307834E-2
359 7 1.754803228871254E-2
359 21 1.831563888873418E-2
359 31 7.642628699076809E-2
359 188 2.0533156981431842E-2
359 255 1.8981590049947383E-2
359 293 3.354816740393166E-2
359 373 2.5079254570856604E-2
359 394 2.2423648888133203E-2
359 526 5.038229527150605E-2
359 642 2.134602045667683E-2
359 725 3.181594783635155E-2
359 807 1.7377394345044508E-1
359 838 8.446410975870008E-2
360 57 6.807596596761062E-2
360 65 5.770448914820617E-2
360 110 4.524023767210425E-2
360 151 8.743707463290668E-2
360 191 1.831563888873418E-2
360 265 2.5287354539795553E-1
360 281 2.7527774906238717E-2
360 327 4.0313347380328E-2
360 387 3.6497640141402374E-2
360 444 6.402227539899133E-2
360 465 1.4434367418185535E-2
360 479 2.957822928680022E-2
360 527 1.831563888873418E-2
360 629 1.831563888873418E-2
360 761 1.569542571343683E-2
361 19 3.0129549568234257E-2
361 39 1.4937237077157623E-2
361 135 2.2378119785761593E-2
361 174 1.5816369727062723E-2
361 214 1.6400729755542853E-2
361 256 1.244401502951805E-1
361 301 7.63281368069325E-2
361 377 6.26234987040755E-2
361 416 2.4524398863341224E-2
361 468 4.809953551255479E-2
361 491 2.720926058203838E-2
361 500 7.331404372774253E-2
361 510 8.351252814713174E-2
361 719 3.8226448177374604E-2
361 799 1.831563888873418E-2
362 99 1.704071033454765E-2
362 131 5.452527577743514E-2
362 440 5.9165115981080686E-2
362 505 2.6653904605637387E-2
362 693 8.880108404394692E-2
362 713 2.3072363358248E-2
362 727 1.831563888873418E-2
362 769 2.0497632497253237E-2
362 777 1.8105418668853207E-2
362 781 4.217426129468265E-2
362 794 2.1158790027338267E-2
363 50 2.4310438532265125E-2
363 145 1.831563888873418E-2
363 268 7.05069587476327E-2
363 286 1.2471118490737196E-1
363 463 5.178726469632602E-1
363 483 2.086080585264548E-1
363 579 2.1121415964448675E-2
363 601 1.2390471645396351E-2
363 655 6.467250746083423E-3
363 664 3.6659533755028145E-2
363 700 2.2511942037550903E-1
363 703 2.3788316962645004E-1
364 21 1.921993554630564E-2
364 31 1.831563888873418E-2
364 49 5.8228899414325054E-2
364 112 1.717574563035969E-2
364 126 2.0995360058623146E-2
364 175 4.0566232222236986E-2
364 217 2.256930100704887E-2
364 240 1.9580481774801095E-2
364 365 1.9631186326674502E-2
364 367 1.5389481278976266E-1
364 388 2.9974616561235723E-1
364 622 1.831563888873418E-2
364 645 3.4676185389355046E-2
365 14 1.888907656312973E-2
365 31 2.32586308129158E-2
365 98 1.695705528182665E-2
365 198 5.7749663009386276E-2
365 217 7.860243493924032E-2
365 282 3.367037859662293E-2
365 293 2.875824381199753E-2
365 302 1.831563888873418E-2
365 364 1.9631186326674502E-2
365 646 2.454789689967097E-2
365 658 2.5122090830965466E-2
365 677 1.831563888873418E-2
365 807 1.8884623381018907E-2
365 826 2.4276420896506147E-2
366 3 1.831563888873418E-2
366 16 1.2618087184796628E-1
366 25 5.68514293934256E-2
366 93 5.657543202728615E-2
366 185 3.0839331673370714E-2
366 314 2.192941924186738E-2
366 455 1.6892151911167573E-2
366 575 2.5978514787846126E-2
366 578 3.917508217463891E-1
366 712 7.341327617219272E-2
366 824 3.893137911201343E-2
367 21 5.966763593377001E-2
367 31 1.831563888873418E-2
367 43 1.5405541604825119E-2
367 46 2.5110269540005198E-2
367 49 6.72206849967662E-2
367 94 1.831563888873418E-2
367 112 4.219749575347876E-2
367 175 3.0539883174961986E-2
367 255 8.686162758475306E-2
367 312 2.6327775308679777E-2
367 364 1.5389481278976266E-1
367 386 7.20827784435757E-2
367 388 2.368497706121604E-1
367 807 3.1046309491971544E-2
368 62 5.416212834709336E-2
368 121 4.0132163232279694E-2
368 290 3.984212569993504E-1
368 298 6.468879618354812E-3
368 343 4.107198491718697E-2
368 407 1.5931721425463258E-1
368 503 7.724912885854464E-2
368 516 1.2232522829649163E-1
368 635 2.5267572152198485E-2
368 802 1.831563888873418E-2
369 95 3.8422700618164046E-1
369 125 8.063220505327594E-2
369 169 1.3841095422755775E-1
369 209 2.8527514751874452E-2
369 219 1.892529765439905E-1
369 271 3.1553414680615954E-1
369 277 3.632909017457925E-2
369 409 4.1850451456626386E-2
369 467 4.442134918011214E-2
369 633 7.72036995160404E-2
369 663 5.42097977259871E-2
370 46 1.7988582677734195E-2
370 116 2.193175220534098E-2
370 188 3.816769637486558E-2
370 242 8.98233864047186E-2
370 488 3.31933605860937E-2
370 526 7.042878981675463E-2
370 664 1.1611744384055192E-1
370 666 4.271722035031858E-2
370 700 5.300981963237959E-2
370 817 1.831563888873418E-2
370 834 2.152325869015081E-1
371 18 1.6833181102726213E-1
371 186 2.522297483522721E-2
371 300 1.8559437494270525E-2
371 460 1.904939129510307E-2
371 521 6.692837699827618E-2
371 597 1.3759081951080412E-1
371 644 2.750497367504999E-2
371 654 2.705408264856054E-2
371 695 3.202231376438696E-2
371 717 1.4823074152488003E-2
372 50 3.1033032956450605E-2
372 145 3.920550716707616E-2
372 207 5.575154517373429E-2
372 411 5.525691759278294E-2
372 488 2.7256957123320387E-2
372 496 6.916032281769816E-3
372 541 2.2072758480892025E-2
372 718 1.6632452437180467E-1
372 803 1.1037507199941052E-1
372 832 1.3462857318492064E-1
373 31 4.931515657795621E-2
373 36 7.125363568607304E-2
373 94 2.1929879457309894E-2
373 112 1.1844182901380365E-1
373 116 2.153458055355597E-2
373 201 3.567399334725236E-2
373 255 3.743804396346295E-2
373 359 2.5079254570856604E-2
373 509 2.409496194266756E-2
373 573 5.6888238346101495E-2
373 669 3.717268468957345E-2
373 740 2.4404091304993773E-2
373 745 1.1379765847034781E-1
373 749 2.8678074041249436E-2
373 843 1.6510254852711674E-2
374 89 5.800738281659079E-2
374 136 1.831563888873418E-2
374 268 3.774749518544107E-2
374 286 5.8210405662398E-2
374 389 1.761997203815597E-2
374 463 3.9492740132582846E-2
374 483 2.0975361758270306E-2
374 529 5.453088142281547E-1
374 601 4.672790673169097E-1
374 655 2.811229884290361E-2
374 682 1.7222640044274934E-1
374 718 8.579934732321479E-2
375 17 5.69384454497498E-2
375 42 8.048078311649785E-2
375 88 1.756689471278398E-2
375 114 4.1861167382002684E-2
375 184 6.386472258349021E-2
375 231 2.4069073562342452E-1
375 232 1.9253699995944607E-2
375 250 3.101536692002323E-2
375 319 4.477099911923166E-2
375 412 1.4041771213311668E-1
375 499 6.587630926406005E-1
375 551 5.299325110521378E-2
375 613 9.96810265025126E-3
375 615 1.9281713276840976E-2
375 618 5.4088857700259035E-2
375 656 6.118414932580353E-2
375 689 2.5269404596330862E-2
375 752 6.14212139150001E-2
375 785 1.1470694848919306E-1
375 846 1.9841094744370288E-2
376 68 2.117042296480141E-2
376 260 1.391652756701364E-2
376 320 5.699413752060362E-2
376 335 7.416150476693674E-2
376 390 5.27569329021762E-2
376 445 1.7144625413049064E-2
376 473 8.848761291181817E-2
376 477 1.831563888873418E-2
376 501 6.351763035456254E-2
376 711 3.643440547693231E-1
376 732 1.0806032782950167E-1
376 778 1.8274967612595994E-2
377 28 1.627996083690926E-2
377 174 2.1954783709873263E-2
377 256 1.224188322562698E-1
377 301 1.4737038852724952E-2
377 361 6.26234987040755E-2
377 416 3.875509311294151E-2
377 469 7.272151380549317E-2
377 491 3.3456288002048265E-2
377 525 1.6163494588165874E-2
377 563 3.963391152902528E-2
377 571 1.3208829042913536E-2
377 624 3.175056110899036E-2
377 701 1.8904267545191616E-1
377 714 3.0291309889236777E-2
377 741 2.5614510458458084E-2
377 818 4.0309015546264926E-2
378 60 1.8946064398990565E-2
378 62 3.1208180023647007E-2
378 83 3.616864933167446E-2
378 139 1.9375730226461187E-2
378 170 6.381198692052271E-2
378 291 5.089164947591039E-2
378 298 1.372685351713846E-2
378 407 3.311215031694875E-2
378 503 5.587949839285781E-2
378 580 1.1234761398671068E-1
378 592 1.5799055434812678E-1
378 619 2.6823912322054645E-2
378 729 3.776714291272169E-2
378 788 9.727312280243802E-2
379 22 2.4618744790414965E-1
379 27 1.9945066516282073E-1
379 60 1.6761969828857016E-2
379 74 2.1489170131551313E-2
379 88 2.2733094288936412E-2
379 90 5.288136838665659E-1
379 182 1.51193217219809E-1
379 261 5.639660821108557E-2
379 270 2.0055872157168184E-1
379 618 1.831563888873418E-2
379 689 1.5717184588267064E-1
380 28 3.422667249203396E-1
380 91 1.8079691913540082E-2
380 96 2.4297269423621842E-2
380 106 2.2763231559268307E-2
380 218 1.831563888873418E-2
380 227 1.831563888873418E-2
380 244 1.669544431664672E-2
380 301 1.5170450381537708E-2
380 427 5.6314028871942916E-2
380 431 9.858211558187557E-2
380 482 5.626414281226807E-2
380 497 3.2269643558333054E-2
380 518 1.831563888873418E-2
380 525 2.466473095356278E-2
380 563 1.4617089665346108E-2
380 576 3.3723571572687495E-2
380 577 2.976289624704959E-2
380 741 1.716591029017114E-2
380 764 1.7696796519274458E-2
380 784 4.432261184896621E-1
380 787 3.294079307205715E-2
380 789 2.0382435355391897E-2
381 51 1.4299378253547412E-1
381 121 1.7125555412170618E-2
381 161 2.5495567996179348E-2
381 343 1.7343749836019345E-1
381 547 1.831563888873418E-2
381 558 1.831563888873418E-2
381 635 2.0949655536198358E-2
381 802 3.5673993347252395E-2
381 810 3.9577669345734845E-1
381 821 1.8741711124945004E-1
381 835 3.151270941332217E-2
382 6 2.8921032499139042E-2
382 55 3.178526697482712E-2
382 156 5.846977284954893E-1
382 194 1.831563888873418E-2
382 275 2.5499462928280286E-2
382 322 1.6884116386682007E-2
382 397 2.3201654925328722E-2
382 445 2.7104712044919543E-2
382 557 4.5115339015397174E-2
382 684 3.8714950690187877E-1
382 688 2.9636822939247378E-2
382 734 2.6701577589869085E-2
383 21 1.8795497527742764E-2
383 198 7.44587220609548E-2
383 199 1.6193359619867012E-1
383 224 2.2386373809746443E-1
383 240 3.4354148183527394E-1
383 305 1.831563888873418E-2
383 354 3.98392016456803E-2
383 486 5.767444046591784E-2
383 593 4.9678244218084824E-2
383 746 5.866651167951618E-2
383 809 2.360797551862334E-2
383 816 2.9087552835543512E-2
384 118 4.484794046967463E-2
384 244 2.8582732272964567E-2
384 321 5.6025190052061524E-2
384 469 1.831563888873418E-2
384 472 1.725416884485433E-2
384 560 4.134148771285283E-2
384 603 1.0994311230884274E-1
384 606 1.3793067562947017E-1
384 640 3.2033375558411924E-2
384 714 6.629079657773025E-2
384 716 1.831563888873418E-2
384 764 2.6502801528732273E-2
385 32 1.8668417277874327E-2
385 97 1.9140000960637248E-2
385 342 1.230964936614018E-1
385 417 9.941760452221844E-2
385 471 1.592437044991378E-2
385 548 3.90370828135298E-2
385 564 2.83630888742804E-2
385 594 4.26719690618085E-2
385 652 4.294234490111388E-2
385 792 2.1471742984200896E-2
385 837 2.4448479734764011E-1
386 46 6.805594784244301E-2
386 49 1.7882153121729326E-2
386 94 7.708286619130325E-2
386 112 7.03767577750488E-2
386 116 3.192673995410361E-2
386 175 2.5612605183952957E-2
386 255 1.958611990482112E-2
386 367 7.20827784435757E-2
386 394 3.4141367424302446E-2
386 817 1.831563888873418E-2
387 10 3.3805407539158665E-2
387 57 2.685378971090366E-1
387 65 3.32902863231678E-2
387 110 1.383832477936751E-1
387 133 2.335745892638825E-2
387 152 4.7583582166371624E-2
387 265 2.0835305794121465E-2
387 281 1.7809810544996457E-1
387 318 1.831563888873418E-2
387 356 1.7742850096388613E-1
387 360 3.6497640141402374E-2
387 425 3.437044036796067E-2
387 479 1.831563888873418E-2
387 527 1.8521693025025054E-1
387 599 7.119395660013268E-2
387 667 4.290358028515707E-2
387 761 1.7140215669862882E-1
387 783 2.728586485384161E-2
387 819 1.0550510021802045E-1
387 820 1.5510757606985046E-1
388 21 1.9562195454953985E-2
388 49 4.171248758612646E-2
388 58 1.8773506308341043E-2
388 175 1.8467006947162953E-2
388 206 1.9116197792924255E-2
388 217 1.831563888873418E-2
388 253 1.2440086034727184E-2
388 288 1.6457863829389626E-2
388 364 2.9974616561235723E-1
388 367 2.368497706121604E-1
388 622 7.67397659901929E-2
388 760 2.1771347820429776E-2
389 5 1.3179373601466757E-1
389 38 7.324441408261313E-1
389 101 2.873246422668734E-1
389 136 4.379151899124334E-1
389 292 1.299829179866231E-1
389 374 1.761997203815597E-2
389 524 9.496329655933294E-2
389 562 1.831563888873418E-2
389 707 1.6679275252260664E-1
389 718 2.0444626702142026E-2
390 68 2.0895077822144187E-1
390 146 1.4085262195103252E-2
390 239 1.831563888873418E-2
390 260 1.1283618731705691E-1
390 345 8.854517331628875E-2
390 376 5.27569329021762E-2
390 477 2.81833593545122E-2
390 501 5.922806478607384E-1
390 590 3.024826358454973E-2
390 676 1.0097025677073346E-1
390 711 9.241410437892647E-2
390 731 2.885550339038822E-2
391 144 3.8875666669237155E-2
391 233 1.3292471039616362E-2
391 267 5.137307302067445E-2
391 315 1.831563888873418E-2
391 334 2.4543282850175662E-2
391 464 2.0843021517212547E-2
391 530 6.694842362937183E-2
391 610 1.9041743596602168E-1
391 748 2.1054790286251998E-2
391 766 2.705844568248219E-2
391 815 5.137307302067445E-2
392 4 3.5296779428300645E-2
392 24 1.831563888873418E-2
392 33 2.565876220021464E-2
392 150 1.81733822172441E-2
392 212 3.3724805636545716E-2
392 226 3.4345014625798045E-2
392 404 3.777323215867756E-2
392 423 1.9032403899722217E-2
392 484 1.4256113081487946E-2
392 520 1.997168745679223E-2
392 523 1.784490173206891E-2
392 602 6.61876122953162E-2
392 659 3.236997711598932E-2
393 102 1.6790248592861906E-1
393 129 8.368360773121772E-2
393 140 3.930515475919425E-2
393 148 1.831563888873418E-2
393 273 5.4331235855262866E-2
393 329 1.9825527674993731E-1
393 406 2.10359322419431E-2
393 536 4.390978021371421E-2
393 725 1.4909795078983951E-2
393 740 1.4911070370550883E-1
394 13 2.917884332320969E-1
394 21 1.6291893559676887E-1
394 31 2.6364142740526664E-2
394 40 2.0023913884469332E-2
394 81 1.3763684869408097E-1
394 112 7.863002253835485E-2
394 255 2.08200646357244E-2
394 359 2.2423648888133203E-2
394 386 3.4141367424302446E-2
394 451 4.66725312541874E-2
394 496 1.9979600953452192E-2
394 572 5.221523583843955E-2
394 642 2.913295802630203E-2
395 15 9.185225061195387E-2
395 120 1.831563888873418E-2
395 272 6.653286974234171E-2
395 311 9.138767350541956E-2
395 355 4.423038886459934E-2
395 439 1.5369562934885875E-1
395 531 3.138144571425705E-2
395 556 2.7044343706201557E-1
395 596 2.712447503642367E-1
395 804 8.898313708737834E-3
396 44 1.0790678525944136E-1
396 176 1.7693659138691198E-2
396 216 4.4116504926210186E-2
396 330 2.1206472938856988E-1
396 452 1.0667122495978158E-1
396 512 1.5123975969049566E-1
396 544 2.9368544450695474E-2
396 568 9.543325131557309E-2
396 647 1.831563888873418E-2
396 790 4.3842421433914334E-2
397 6 8.033903354647824E-1
397 55 1.7070745373608112E-1
397 86 4.0235369295597456E-1
397 156 2.689500946983767E-2
397 275 2.4512192430010582E-1
397 322 3.9143192216271727E-1
397 382 2.3201654925328722E-2
397 684 1.196485357425454E-1
397 688 2.8429239636188628E-2
397 734 6.126025461285624E-1
397 836 2.676698704254143E-1
398 98 2.0101180301247447E-2
398 140 1.7180959943064296E-2
398 282 4.4064843092512455E-2
398 293 1.1317533151993492E-1
398 296 5.687325000780166E-2
398 340 2.521056642575439E-1
398 646 1.7889965220251608E-1
398 675 2.0336279160812223E-2
398 697 1.0418140488130112E-1
398 740 1.831563888873418E-2
399 44 7.714322628860101E-2
399 163 1.783896339402694E-1
399 237 9.360912125130409E-2
399 543 6.002033272449789E-2
399 614 2.19938268208299E-2
399 647 1.693400797952337E-2
399 685 4.377340298434082E-1
399 691 2.268027801627048E-2
399 753 1.439342965787262E-1
399 767 1.831563888873418E-2
399 813 9.755396910713664E-2
400 8 3.3591773164352905E-2
400 103 3.0997722201763746E-2
400 138 9.772305966500868E-1
400 164 3.370705372788825E-2
400 235 5.403715237007042E-2
400 350 3.7557215437221125E-2
400 600 1.49031069592919E-2
400 630 1.571919030122138E-1
400 631 1.8939621748210102E-2
400 665 1.9692599851829813E-2
400 687 1.788722265729101E-2
400 747 1.5479664452727393E-1
400 755 2.0394002929529552E-2
400 763 6.039918539216819E-2
400 782 5.932791601317256E-2
401 3 1.913134833526047E-2
401 34 1.831563888873418E-2
401 162 2.751689800215017E-2
401 185 1.6141500450062102E-2
401 229 7.321323378320031E-2
401 307 3.213181890258365E-2
401 358 2.3029545622275254E-2
401 429 2.2478252973522184E-2
401 462 2.069225832342374E-2
401 555 2.5394074067164155E-2
401 575 6.594367909124195E-2
401 737 6.65208629856083E-2
401 798 8.98834970806563E-2
402 52 3.5376711796934225E-2
402 108 3.349944474400374E-2
402 132 1.8429932677429924E-2
402 159 5.287150672935377E-2
402 167 1.831563888873418E-2
402 179 2.1671100051280038E-2
402 257 1.268625987520712E-1
402 489 2.171886731153825E-2
402 508 2.320842602791255E-2
402 697 1.0925681642418722E-1
402 736 8.997198987222502E-2
402 826 1.961036737243302E-2
403 71 3.449518658786094E-2
403 135 2.2663813400020105E-1
403 210 1.831563888873418E-2
403 214 6.434099566680195E-2
403 468 1.503190036387016E-2
403 550 3.8000297500625044E-2
403 620 1.8688653393591666E-2
403 649 1.8764163001756293E-2
403 705 5.353501491127663E-2
403 765 3.815383384773261E-2
403 808 2.7522761232035023E-2
404 4 1.643357736654598E-1
404 33 1.8593933880770568E-2
404 123 1.831563888873418E-2
404 226 9.621331138412038E-2
404 392 3.777323215867756E-2
404 423 1.304562376973262E-2
404 520 9.73076690707152E-2
404 602 2.9814388413263276E-1
404 659 1.6248759336465934E-1
404 823 2.2451037026612837E-2
405 105 3.427255452861707E-2
405 107 1.0747049629474581E-1
405 310 2.5412486789178894E-2
405 440 3.044874841878557E-1
405 539 2.0812420185940306E-1
405 555 2.5270455080828567E-2
405 634 1.7537748950388777E-2
405 713 2.2836727774133404E-2
405 727 1.860507141833292E-1
405 744 8.73691511854071E-2
405 772 2.8728440126922233E-1
405 781 1.831563888873418E-2
406 54 2.9545049450238482E-2
406 85 1.0570677971180181E-1
406 102 2.0665072042259598E-2
406 148 2.4228579677697804E-1
406 179 7.1199969055739E-2
406 213 4.439781039127128E-1
406 296 1.701293586297451E-2
406 329 2.7007235012791005E-2
406 340 4.097981950013509E-2
406 393 2.10359322419431E-2
406 545 1.734895249892436E-2
406 650 1.831563888873418E-2
406 657 1.7716163390193086E-2
406 675 1.937202558648271E-2
406 768 1.0544307695339411E-1
406 795 4.438699968763415E-2
406 800 9.230144265896453E-2
407 62 6.207225350486326E-2
407 290 2.795835283243043E-2
407 343 1.33772550870846E-2
407 368 1.5931721425463258E-1
407 378 3.311215031694875E-2
407 503 3.142956142328609E-1
407 516 1.3210355131367665E-1
407 592 3.64731739919162E-2
407 609 3.62144981355177E-2
407 802 3.0426323826609862E-2
408 24 9.17315512198565E-2
408 51 4.175316662235754E-2
408 66 3.1284063493955315E-2
408 84 1.3201383710659959E-2
408 155 3.208412436050465E-2
408 287 1.831563888873418E-2
408 484 1.9468670833151014E-1
408 504 1.3740143093850954E-1
408 552 2.702180595120905E-2
408 589 6.740947468583232E-2
408 648 2.9296036934865984E-2
408 743 1.415657982639075E-2
409 26 3.045328310960783E-1
409 95 9.465771226571223E-2
409 125 5.395295277159268E-2
409 160 1.8870616415041015E-2
409 178 4.057468410752255E-2
409 193 1.7766897377709902E-2
409 206 1.1283618731705691E-1
409 219 2.3174427241061245E-2
409 271 1.6229410292000004E-2
409 306 5.762888603727266E-2
409 353 2.4470908618734778E-2
409 369 4.1850451456626386E-2
409 454 1.3591117719172993E-1
409 466 1.9979600953452165E-2
409 467 1.831563888873418E-2
409 548 5.700428600178319E-2
409 627 1.831563888873418E-2
409 628 7.532400402183854E-2
409 692 5.3260978871779455E-2
409 733 1.831563888873418E-2
410 77 2.833110436734614E-2
410 92 5.390458551829282E-2
410 187 1.8541522648161626E-2
410 211 3.9783119475289126E-2
410 248 5.622601580098142E-1
410 325 4.32785250445989E-1
410 428 3.863827055032682E-1
410 543 5.895560616616973E-2
410 562 1.831563888873418E-2
410 691 1.831563888873418E-2
410 721 8.692165427638708E-2
410 767 5.1498937055098164E-2
410 842 9.320487153331668E-2
411 50 5.891761774244691E-2
411 145 3.709076839424963E-2
411 207 1.9932286652114126E-1
411 372 5.525691759278294E-2
411 488 4.5793198549469144E-2
411 541 4.434776293714912E-2
411 579 2.9129259455162686E-2
411 728 2.3309820729303696E-2
411 803 2.1350376712986333E-1
411 832 3.918722991216074E-2
411 838 1.531849804865089E-2
412 17 6.094816263245347E-2
412 22 3.5673993347252395E-2
412 42 5.7540676844929264E-2
412 74 4.491009019631672E-2
412 88 1.9229603319101077E-2
412 182 2.8142629204697824E-2
412 184 1.831563888873418E-2
412 231 1.764269296143116E-1
412 250 1.7384935239785553E-2
412 270 2.240150797021112E-2
412 319 1.831563888873418E-2
412 375 1.4041771213311668E-1
412 499 1.3416355653392553E-1
412 613 1.956341987139968E-2
412 618 3.660572446830267E-2
412 656 7.45524682645874E-2
412 689 3.009343384038474E-2
412 752 3.828593008247558E-2
412 846 1.65981914481515E-2
413 67 2.448983350074951E-2
413 109 4.322679288047969E-1
413 119 1.7515085559276593E-2
413 196 2.4180174376470374E-2
413 200 6.087360500462755E-2
413 224 1.333370395283077E-2
413 266 1.3645375031192908E-1
413 434 5.351276520671717E-2
413 456 9.86135342504639E-2
413 591 1.831563888873418E-2
413 638 3.5807105108572816E-2
413 748 2.0943607976078065E-2
413 759 2.96156434337229E-1
414 33 1.8119401788016087E-2
414 150 1.163900882896294E-1
414 426 3.127328615475028E-2
414 523 5.081527696775049E-1
414 607 5.096273078983791E-2
414 616 1.5456424838958205E-1
414 625 4.41444859559559E-2
414 659 4.9697764233322256E-2
414 770 3.297187501043928E-1
414 845 1.831563888873418E-2
415 58 5.272616845673912E-2
415 115 2.8420608877958956E-2
415 222 2.109551503493225E-1
415 245 1.4451836227790529E-2
415 253 6.650179655706917E-2
415 285 5.344715956149729E-2
415 337 7.27362762978412E-2
415 498 1.1318680087969196E-2
415 546 2.5185198225485622E-2
415 574 1.2918082795951108E-2
415 658 3.625879991987396E-2
415 694 7.806461946350642E-2
416 135 2.2378119785761593E-2
416 143 9.589430625733422E-2
416 166 2.4591052616404156E-2
416 256 1.8388032624270426E-2
416 308 7.608250894033948E-2
416 361 2.4524398863341224E-2
416 377 3.875509311294151E-2
416 490 5.571120615975854E-2
416 507 3.812515307659163E-2
416 525 1.853367964895919E-2
416 563 4.757894766520255E-2
416 701 1.6419408358082876E-1
417 32 4.868597795997509E-2
417 69 7.216349569756786E-2
417 97 2.705014554583489E-2
417 173 2.1252067053391933E-2
417 178 3.004525586868828E-2
417 254 4.8596996597672124E-2
417 331 4.1822871391861784E-2
417 342 1.7385257510274504E-2
417 349 1.0140267749288775E-2
417 385 9.941760452221844E-2
417 458 7.434537480440981E-2
417 548 1.078434936423383E-1
417 594 4.66737941074601E-2
417 617 2.242997986361532E-2
417 627 8.46403133372384E-2
417 637 8.383763733596968E-2
417 704 1.831563888873418E-2
417 733 1.5498717321567814E-2
417 792 4.730238607250166E-2
417 837 3.704214632546224E-2
417 840 4.2660939435737656E-2
418 52 3.3828734359117776E-2
418 85 1.512899479679358E-2
418 148 1.857885315333884E-2
418 153 8.930602943501739E-2
418 167 1.831563888873418E-2
418 179 2.665388055898711E-1
418 280 4.250451108966478E-2
418 675 1.657464611052898E-2
418 698 2.543016368747875E-2
418 800 8.55223607623722E-2
418 831 1.747264017462572E-1
419 5 1.9595926235178758E-2
419 40 5.172658362960486E-2
419 64 1.831563888873418E-2
419 98 2.299113582130304E-2
419 213 2.1262734563659853E-2
419 282 4.3268961919163865E-2
419 466 4.001613749242533E-2
419 545 3.1363004487347723E-1
419 642 7.621761466463467E-2
419 657 1.1059776430467537E-2
419 677 1.5002092992119334E-1
420 11 1.0905826308186949E-1
420 56 4.15101135341151E-2
420 228 5.188476076892043E-2
420 294 5.634901739450328E-2
420 304 1.7993645554829607E-1
420 426 1.3004168197032778E-1
420 436 6.81724819712579E-2
420 607 1.3073828687908049E-2
420 609 1.831563888873418E-2
420 616 4.040346303479903E-2
420 726 1.4298236834296948E-2
420 775 2.2018483574774525E-2
420 841 1.0269117910175551E-1
420 845 1.831563888873418E-2
421 134 2.845193654113026E-2
421 161 4.0994136236219864E-2
421 251 5.705662965405539E-2
421 316 1.5860021966471222E-1
421 437 1.796733305793554E-2
421 535 2.618714674540014E-1
421 595 8.119115996967766E-2
421 635 1.831563888873418E-2
421 636 2.5535329689370678E-2
421 735 1.2502343499974194E-1
421 780 1.831563888873418E-2
421 796 5.811952714964786E-2
421 835 1.831563888873418E-2
422 154 2.5210084596675487E-2
422 171 1.7561187796205208E-1
422 234 8.708291495823674E-2
422 307 1.9944477681776922E-2
422 429 2.780513366045787E-2
422 449 1.8668530558823827E-2
422 490 3.469976500587459E-2
422 626 1.6963737247925832E-2
422 632 8.199012096316298E-2
422 702 1.831563888873418E-2
422 779 1.2777198289826264E-1
423 4 1.831563888873418E-2
423 33 3.57438919157807E-1
423 212 3.5994965424830314E-2
423 392 1.9032403899722217E-2
423 404 1.304562376973262E-2
423 520 5.263690380967521E-2
423 582 2.761899717637622E-2
423 602 5.283935319062373E-2
423 616 1.5890488616895307E-2
423 659 4.584296215384415E-2
423 674 5.026717139977226E-2
424 37 1.831563888873418E-2
424 80 1.472692171880402E-1
424 144 1.831563888873418E-2
424 233 2.190817284762924E-2
424 238 1.831563888873418E-2
424 283 7.843739051713071E-2
424 305 2.9918038675995073E-2
424 326 8.228545029149753E-2
424 554 4.7157436330482146E-2
424 569 1.831563888873418E-2
424 670 2.3452356559856447E-1
424 679 5.944139170767541E-1
424 771 3.0545906672030807E-2
425 10 2.862867290309194E-1
425 18 1.4274989897361727E-2
425 57 7.618282089033282E-2
425 133 6.06623758427072E-2
425 152 1.831563888873418E-2
425 186 1.7980606142575614E-2
425 281 1.831563888873418E-2
425 318 3.496053750222628E-2
425 356 7.458712587359448E-2
425 387 3.437044036796067E-2
425 623 2.888494200224265E-2
425 667 1.3751806344428075E-1
425 695 7.052580203939504E-2
425 761 1.831563888873418E-2
425 820 1.2546134500816092E-1
426 11 2.596845315217017E-2
426 294 1.6770711910867037E-1
426 304 3.7187947074910584E-2
426 414 3.127328615475028E-2
426 420 1.3004168197032778E-1
426 436 1.831563888873418E-2
426 523 1.831563888873418E-2
426 607 3.0462105195823097E-2
426 609 6.09315005531981E-2
426 616 2.750547603064747E-2
426 625 1.8733468246191178E-2
426 841 3.8053388941081095E-2
426 845 4.9073652866990364E-2
427 28 1.5634813819301863E-1
427 106 8.511362793798675E-2
427 118 1.831563888873418E-2
427 336 5.813364960650758E-2
427 380 5.6314028871942916E-2
427 469 5.955772619814007E-2
427 482 1.831563888873418E-2
427 491 4.215668636869532E-2
427 502 1.831563888873418E-2
427 506 4.002323100630419E-2
427 537 3.1064235259286886E-2
427 571 7.11717520769799E-2
427 583 2.1610753216738575E-2
427 624 4.8416171149149034E-2
427 714 1.962336201975271E-2
427 731 1.6757843043667328E-2
427 739 3.7445717348930166E-2
427 784 5.816657252767598E-2
427 789 1.3041448576356661E-2
427 818 6.414461809721542E-2
427 825 7.900112258888442E-2
428 92 6.491784811149308E-2
428 187 3.535958053490679E-2
428 248 3.399531828268997E-1
428 325 3.9809976806578073E-1
428 410 3.863827055032682E-1
428 543 2.3724949330825622E-2
428 562 2.880220675203221E-2
428 721 8.576533707796664E-2
428 767 2.647434978532698E-2
428 842 1.490447366795855E-1
429 154 9.289524837480058E-2
429 171 2.229022105449225E-2
429 234 5.968917184512431E-2
429 307 1.011659469247597E-1
429 310 4.05719489967797E-2
429 358 2.7945681587189155E-2
429 401 2.2478252973522184E-2
429 422 2.780513366045787E-2
429 490 2.1654150377992926E-2
429 528 2.977151097596259E-1
429 533 8.178683331984851E-2
429 555 1.7508471621418855E-2
429 632 7.314832876528582E-2
429 779 2.7636402497898588E-2
429 793 2.5122839645650125E-2
430 11 5.1213535715673136E-2
430 212 5.419025209875129E-2
430 215 4.739589355593111E-2
430 484 1.740761616969493E-2
430 515 7.599932560717876E-2
430 520 2.861934714144779E-2
430 522 1.674952339978033E-2
430 558 4.7318806710871575E-2
430 582 4.757748707940006E-2
430 588 2.6495795186978074E-2
430 617 5.4133635422606796E-2
430 659 1.7396607701023685E-2
430 845 3.3858438818023855E-2
431 28 3.057778266058433E-2
431 106 2.2317480949631006E-2
431 227 1.6519301292086896E-2
431 380 9.858211558187557E-2
431 481 1.842531304636597E-2
431 525 1.1731916609425078E-1
431 577 7.980979569730828E-2
431 714 2.813619461823528E-2
431 741 1.2807934190531076E-1
431 764 1.831563888873418E-2
431 784 4.690527141455242E-2
431 787 1.831563888873418E-2
431 789 4.0202082629808816E-2
432 34 1.685593009428155E-2
432 41 1.7015529293691872E-1
432 117 1.2680619287939987E-1
432 130 3.372721987857829E-2
432 154 3.153080976286109E-2
432 289 1.831563888873418E-2
432 585 2.5247898721377296E-2
432 634 3.441550684090892E-2
432 730 3.466347225848607E-1
432 737 7.950093216962287E-2
433 2 1.831563888873418E-2
433 84 1.3355066817141664E-1
433 87 1.8772080075240748E-2
433 108 2.2572984781331133E-2
433 113 2.5236643354492817E-2
433 157 1.831563888873418E-2
433 159 5.64546882822601E-2
433 489 1.1702550125129522E-1
433 504 2.3717586454210963E-2
433 519 2.7662092421311638E-2
433 648 1.9285178599107222E-1
433 650 1.8887956745928056E-2
434 67 2.5473843641859194E-2
434 109 5.9323944535715586E-2
434 119 5.030299194439592E-2
434 196 6.757991574479214E-2
434 200 1.9704801334078627E-2
434 266 1.831563888873418E-2
434 413 5.351276520671717E-2
434 438 1.7841985318325593E-2
434 456 1.9123553571574824E-2
434 493 4.616784595889048E-2
434 519 1.831563888873418E-2
434 638 9.275188278425035E-3
434 748 2.0304612205595256E-2
434 766 1.8697201040573926E-2
434 774 1.8815125769911557E-2
434 815 5.4627574576306175E-2
435 165 1.831563888873418E-2
435 234 2.4721511595113717E-2
435 338 2.4708726395073412E-2
435 358 3.3805794225852843E-2
435 611 2.0242374868741977E-1
435 649 6.260024137397163E-2
435 705 7.562963384955947E-2
435 765 1.9213601385866186E-1
435 793 1.1568248057870367E-1
435 808 4.3265449136661555E-1
436 11 1.4865350006826072E-1
436 56 6.124155645050696E-2
436 83 1.805051970775922E-2
436 228 1.0750013690345309E-1
436 264 6.347409090803954E-2
436 294 3.999442217823246E-2
436 304 1.386562298456747E-1
436 420 6.81724819712579E-2
436 426 1.831563888873418E-2
436 542 1.0423193561923752E-1
436 570 1.2078370705226155E-1
436 609 5.16943899460395E-2
436 661 1.0148149748770646E-1
436 726 5.400170627901385E-2
436 775 2.344527212036765E-2
436 841 6.545500939502477E-2
437 63 6.80574689318361E-2
437 134 1.831563888873418E-2
437 180 1.6760046718204715E-2
437 246 1.4729561285602854E-2
437 251 5.8332259643940766E-2
437 278 1.831563888873418E-2
437 316 1.1056216976439706E-1
437 421 1.796733305793554E-2
437 457 1.928900441747305E-2
437 535 9.130041006402573E-2
437 547 7.267868998321998E-2
437 636 2.7156092775615186E-2
437 696 8.3566288691264E-2
437 780 2.8259267874307735E-2
437 812 1.831563888873418E-2
437 829 1.8175248517878048E-1
438 66 2.9703704316682268E-2
438 78 3.231207077113422E-2
438 109 2.643179141845202E-2
438 119 1.831563888873418E-2
438 323 5.133244275013383E-2
438 334 3.5882308046655195E-2
438 352 7.032420880238296E-2
438 434 1.7841985318325593E-2
438 464 9.62204750187439E-2
438 475 2.351774585600911E-2
438 493 4.7039455112484044E-2
438 519 3.0113463003716603E-2
438 581 2.1247237665366556E-2
438 663 2.686257361457305E-2
438 686 2.3594895308605937E-2
439 15 2.0448957451929545E-1
439 120 6.1372897616411175E-2
439 191 3.8439781885248485E-2
439 272 8.449794728636087E-2
439 311 9.563516319985439E-2
439 355 4.0508039525595396E-1
439 395 1.5369562934885875E-1
439 531 1.1988064766687082E-1
439 556 3.776206346143396E-1
439 566 2.9151981753666664E-2
439 596 4.2625147357288085E-1
439 639 6.116469366415336E-2
439 804 1.0122179532728855E-1
439 827 3.143914543732125E-2
440 107 4.8280985021114153E-1
440 362 5.9165115981080686E-2
440 405 3.044874841878557E-1
440 539 4.4236576490685936E-2
440 713 2.061375535574083E-2
440 724 1.62737270387313E-2
440 727 1.822952489088247E-1
440 744 5.073762818175572E-2
440 772 6.411705272673425E-2
440 794 1.831563888873418E-2
441 76 2.649536980788354E-1
441 93 2.1831757476292907E-1
441 131 1.831563888873418E-2
441 297 1.2805639158204385E-1
441 578 3.475504265996339E-2
441 641 7.632286848559777E-2
441 671 1.9160829423587045E-2
441 693 6.395989721766683E-2
441 712 3.894797665383868E-2
441 757 6.493276999962438E-2
441 769 2.0822034813489182E-2
441 805 3.620213172153078E-2
442 46 2.5812310087049897E-2
442 122 2.5563190600291613E-1
442 126 8.613126189925135E-2
442 137 1.0441162846818657E-1
442 236 1.8011651919106888E-2
442 485 1.265717919253356E-1
442 574 1.831563888873418E-2
442 683 2.4108778896447022E-1
442 709 1.1071047483920632E-1
442 830 5.083961030033277E-2
443 9 1.0323551391199406E-1
443 12 5.0447162676927934E-2
443 88 1.1632831708310297E-1
443 104 1.2535498851868426E-2
443 124 8.237659689194218E-2
443 182 1.2916582781984341E-2
443 250 4.779926326897303E-2
443 269 1.7106905058851263E-2
443 586 1.973155964477398E-1
443 689 1.831563888873418E-2
443 708 2.6682152797829245E-1
443 846 1.313003603496667E-1
444 65 1.841725104985089E-2
444 110 1.668006137215348E-2
444 151 1.5188029873783773E-1
444 191 6.691910685602973E-2
444 223 9.543250290899956E-2
444 265 6.285547137543947E-2
444 311 1.831563888873418E-2
444 327 3.588859793731329E-2
444 332 6.701734997136015E-2
444 360 6.402227539899133E-2
444 447 1.48201470496009E-1
444 465 2.704224456049638E-1
444 629 2.9909229042235413E-1
444 660 5.79618767007432E-2
444 690 1.5981420862038652E-2
444 750 1.831563888873418E-2
445 156 1.831563888873418E-2
445 194 2.455212973240372E-1
445 295 4.803777919062179E-2
445 335 9.361130962021053E-2
445 346 2.027810577351069E-1
445 376 1.7144625413049064E-2
445 382 2.7104712044919543E-2
445 540 2.3525296670936094E-1
445 557 7.702343856249905E-1
445 732 4.839707280380446E-2
446 58 1.0196710447804304E-1
446 122 1.86532448801007E-2
446 126 3.226442805168823E-2
446 137 1.626529696696014E-2
446 245 4.256195818219789E-2
446 253 2.14483992558893E-2
446 285 2.301314976034572E-2
446 288 2.3675476627260408E-2
446 337 1.0557158629709262E-1
446 709 2.839211436381685E-2
446 814 6.458803982274489E-2
446 830 2.430933181200723E-2
447 151 1.0644131771353084E-1
447 223 3.288519924716057E-2
447 265 2.449259480095698E-2
447 309 3.49830412988067E-2
447 324 4.275907125355666E-2
447 332 4.664442268518334E-1
447 444 1.48201470496009E-1
447 465 1.831563888873418E-2
447 629 4.6532305006209584E-2
447 660 6.516204007942479E-2
447 671 1.831563888873418E-2
447 690 1.4646167637258348E-1
447 750 1.3519785038225643E-2
447 773 1.647091404340054E-2
448 20 6.661588205729044E-2
448 53 1.210006589500786E-1
448 59 2.1267510218409995E-2
448 244 8.545459344360376E-2
448 476 7.530513922149754E-2
448 481 2.0234157409720017E-2
448 560 1.962336201975271E-2
448 576 1.831563888873418E-2
448 668 1.6078565985187934E-2
448 722 2.1186181406741313E-2
449 3 5.3531719333395254E-2
449 41 1.845598792787798E-2
449 234 2.9853583930439E-2
449 307 1.658533112883012E-2
449 338 2.530289178444288E-1
449 358 1.831563888873418E-2
449 422 1.8668530558823827E-2
449 585 1.292765298471133E-1
449 651 3.944592913611004E-2
449 702 2.0594365402538511E-1
450 69 3.1151042630484627E-2
450 97 1.7973300559311463E-2
450 111 2.4785933319375113E-2
450 155 1.2868082465409525E-1
450 178 4.021780873277631E-2
450 192 1.1401462248184759E-1
450 274 3.7602969001134204E-2
450 287 1.6558754633658006E-2
450 349 4.987081446818141E-2
450 517 2.119692173590955E-2
450 627 2.1522519741463852E-2
450 628 1.831563888873418E-2
450 823 2.0378834790940593E-2
451 13 8.412494066117486E-2
451 36 1.6012799223494373E-2
451 38 1.831563888873418E-2
451 101 1.6669587799867252E-2
451 292 2.5059358296953396E-2
451 394 4.66725312541874E-2
451 488 2.1058202731995938E-2
451 496 2.529212755313193E-1
451 524 2.0130283541368376E-2
451 541 2.0568789151446926E-1
451 642 4.3336676036701854E-2
451 669 1.831563888873418E-2
451 715 1.1182582849382536E-1
451 745 3.102790813551307E-2
452 35 4.06278139779721E-2
452 44 5.537069200673864E-2
452 141 1.831563888873418E-2
452 330 1.9421239687069117E-1
452 396 1.0667122495978158E-1
452 453 5.842325422208247E-2
452 512 1.4723743189335145E-1
452 544 1.7793967763096937E-2
452 614 3.264431286329688E-2
452 647 1.2031438840089924E-1
452 653 1.831563888873418E-2
453 35 7.901223141658008E-2
453 141 2.6173651860666183E-2
453 202 1.831563888873418E-2
453 303 1.831563888873418E-2
453 330 5.4015822781307246E-2
453 452 5.842325422208247E-2
453 514 4.649357887476029E-2
453 544 3.8355031311250745E-2
453 604 1.5177135759648008E-1
453 614 2.7234768464845405E-2
453 647 8.253232721261558E-2
453 653 1.798619782869351E-1
454 26 4.2869001104611906E-2
454 160 2.6010532382765832E-2
454 173 2.5403649008307952E-2
454 178 1.3362220140517828E-1
454 183 9.656707505986045E-2
454 254 4.0045381299197644E-2
454 258 7.336178141034497E-2
454 274 4.037843355442588E-2
454 276 2.1007891148686147E-2
454 306 2.226652358501064E-2
454 349 3.21302860056585E-2
454 409 1.3591117719172993E-1
454 517 3.2856777592275725E-2
454 548 6.2220542798347156E-2
454 628 4.70132951959589E-2
455 25 2.5032902126699E-2
455 117 1.831563888873418E-2
455 130 8.093313996383444E-2
455 162 1.4184317003381341E-1
455 185 1.2966763597643088E-1
455 259 2.8966658345478492E-2
455 289 6.13847709306454E-2
455 366 1.6892151911167573E-2
455 462 1.1554968004428931E-1
455 585 2.1688222331178154E-2
455 634 4.1958076518159214E-2
455 737 2.684163513611664E-2
455 805 9.405864345468101E-2
455 824 6.0565409150066696E-2
456 67 1.9123553571574824E-2
456 78 1.831563888873418E-2
456 109 1.679359433501786E-1
456 119 1.831563888873418E-2
456 169 1.3222402925983243E-2
456 200 6.828445705461265E-2
456 230 2.9901494183748243E-2
456 413 9.86135342504639E-2
456 434 1.9123553571574824E-2
456 467 2.250960519818645E-1
456 493 1.5411182903846543E-2
456 591 2.7402465108860734E-2
456 759 4.4670866994075506E-2
456 774 1.8984630266173752E-2
456 806 2.4543282850175662E-2
457 180 8.18639241586691E-2
457 225 1.0743683221401593E-1
457 246 8.116047910375444E-2
457 278 3.7650994876033045E-2
457 437 1.928900441747305E-2
457 547 1.683493205386912E-2
457 558 1.616131519160905E-2
457 652 7.739819635923373E-2
457 696 3.643250782199661E-1
457 812 1.831563888873418E-2
457 837 4.898793528932617E-2
458 69 9.460181636621626E-2
458 95 1.831563888873418E-2
458 125 9.553961643690859E-2
458 173 2.7161684539917318E-2
458 178 1.1263814228269975E-1
458 254 3.38066829983273E-2
458 417 7.434537480440981E-2
458 548 3.683488047722112E-2
458 594 1.4958983135419922E-2
458 627 1.7664464461663432E-1
458 628 9.019357352082294E-2
458 692 3.0688387056043043E-2
458 733 2.779488732294972E-1
459 91 1.7175736376943126E-1
459 197 2.0937738245075062E-2
459 218 5.371613742807755E-2
459 227 1.831563888873418E-2
459 252 4.8851929656054877E-1
459 333 3.1018523158266618E-2
459 472 3.477400975254132E-2
459 487 2.5096737494213598E-2
459 560 1.624677864355496E-2
459 787 2.5237040344320647E-2
460 10 1.831563888873418E-2
460 18 5.854435891136143E-2
460 73 5.4298593443620646E-2
460 186 1.6496362373132203E-2
460 371 1.904939129510307E-2
460 644 3.559622990484178E-2
460 654 5.694914800398593E-1
460 695 1.8652044847358407E-1
460 710 4.7169403856038204E-2
460 717 1.1303783048724027E-1
461 103 9.050189396138242E-2
461 138 1.831563888873418E-2
461 205 2.1754013945692586E-2
461 350 1.0567446953600577E-1
461 470 4.832250811898254E-1
461 538 1.831563888873418E-2
461 598 1.7466865639457603E-2
461 600 4.8167483496795643E-1
461 630 1.6823149409874977E-1
461 687 2.706625701201298E-2
461 755 7.130173805145074E-2
461 782 2.6782093850070915E-1
462 99 5.723085816067523E-2
462 130 6.703387431685735E-2
462 162 1.0827381064515743E-1
462 185 7.085931663054641E-2
462 259 2.7578382499255545E-2
462 289 4.5469864682534285E-2
462 314 3.537685745008976E-2
462 401 2.069225832342374E-2
462 455 1.1554968004428931E-1
462 555 3.327939303227129E-2
462 634 5.794895332304517E-2
462 693 1.9767448431916215E-2
462 727 3.0641333748528975E-2
462 737 4.507279453881274E-2
462 781 1.5683086916003137E-2
462 805 5.7650132478595704E-2
462 824 2.3957437264318412E-1
463 145 1.7158389088884656E-2
463 268 1.160370022477601E-1
463 286 2.4125244070279941E-1
463 363 5.178726469632602E-1
463 374 3.9492740132582846E-2
463 483 1.5348907699541015E-1
463 529 3.372181270907028E-2
463 601 6.948345122280154E-2
463 655 1.831563888873418E-2
463 682 5.016040297057335E-2
463 700 1.174183789137903E-1
463 703 2.3715902050728566E-1
464 196 1.831563888873418E-2
464 233 1.3353477301713546E-2
464 267 1.14319145407998E-1
464 334 2.942141948541333E-2
464 391 2.0843021517212547E-2
464 438 9.62204750187439E-2
464 493 4.8290489314286034E-2
464 530 2.406228708809303E-2
464 581 3.3481293397774996E-2
464 686 2.239488261926079E-2
465 65 7.80068506230314E-2
465 110 2.449259480095698E-2
465 151 8.056684937852483E-2
465 223 1.5681726533081458E-1
465 311 1.7313882895322985E-2
465 360 1.4434367418185535E-2
465 444 2.704224456049638E-1
465 447 1.831563888873418E-2
465 479 3.288519924716057E-2
465 629 5.263567922906142E-1
465 639 1.831563888873418E-2
465 660 3.942958308774251E-2
465 750 2.9429380325017452E-2
466 40 1.831563888873418E-2
466 64 5.8188074887775935E-2
466 98 1.831563888873418E-2
466 209 6.462651944020864E-2
466 230 1.1510326445537411E-1
466 271 3.47999428347129E-2
466 282 2.3134659893915076E-2
466 409 1.9979600953452165E-2
466 419 4.001613749242533E-2
466 467 8.728326836808276E-2
466 677 1.5657727710150499E-1
466 699 1.3219173617676905E-2
466 806 1.0655111725238736E-1
466 816 2.7589821236937387E-2
467 95 4.40333922754288E-2
467 109 3.826736270646591E-2
467 127 1.831563888873418E-2
467 219 2.6942910223538674E-2
467 230 1.648947759936147E-2
467 369 4.442134918011214E-2
467 409 1.831563888873418E-2
467 456 2.250960519818645E-1
467 466 8.728326836808276E-2
467 699 1.831563888873418E-2
467 801 1.3028560709258416E-2
467 806 6.948345122280151E-2
468 19 5.596687283447634E-2
468 71 6.0402626549037816E-2
468 135 5.876820207464991E-2
468 165 2.1407932249908387E-2
468 210 5.735949163877329E-2
468 301 2.7996856960422943E-2
468 361 4.809953551255479E-2
468 403 1.503190036387016E-2
468 500 9.314656940294584E-2
468 510 5.033711757297984E-1
468 620 6.139016253565106E-2
468 765 3.8946373394601524E-2
468 799 1.1908412331520847E-1
468 811 2.01128521893181E-2
469 106 8.688586458644183E-2
469 336 2.651465172576931E-2
469 377 7.272151380549317E-2
469 384 1.831563888873418E-2
469 427 5.955772619814007E-2
469 491 2.21510134574622E-2
469 506 2.908384963200981E-2
469 525 4.553446741103051E-2
469 571 7.038749832569499E-2
469 583 1.831563888873418E-2
469 624 5.5727571852794845E-2
469 701 1.831563888873418E-2
469 714 1.312500047924935E-1
469 739 4.6627992012479684E-2
469 818 6.095082659628987E-2
470 103 1.9213014057806614E-2
470 205 8.523308564181292E-2
470 350 3.490801710461521E-2
470 461 4.832250811898254E-1
470 538 7.547219408449443E-2
470 598 1.994871103853173E-2
470 600 2.292931300558516E-1
470 630 1.948745222594975E-2
470 687 2.3206714839103686E-2
470 755 1.831563888873418E-2
470 782 5.388353975650387E-2
471 8 1.9673467595750646E-1
471 180 5.06787534302051E-2
471 235 8.644710407422371E-2
471 342 4.4434278202047914E-2
471 385 1.592437044991378E-2
471 665 1.6811918395149852E-2
471 743 4.361324605367141E-2
471 747 6.832679763785833E-2
471 763 2.951301058617882E-1
471 792 1.0877975533856807E-1
471 837 7.451355725699572E-2
471 840 4.342627321243529E-2
472 91 1.5671065525001665E-1
472 118 4.583609914730072E-2
472 197 5.8102079608854995E-2
472 252 4.43894212369891E-2
472 284 7.379373212917582E-2
472 333 7.393573794005834E-2
472 384 1.725416884485433E-2
472 459 3.477400975254132E-2
472 487 2.1812479672920104E-2
472 518 4.4123316775998395E-1
472 560 1.831563888873418E-2
472 722 6.448134573994568E-2
472 822 3.397211327822041E-2
473 203 2.991495857215317E-2
473 239 2.0219899582431346E-2
473 320 2.8756947344052775E-1
473 344 1.9206197699389735E-2
473 376 8.848761291181817E-2
473 477 2.5536262290913242E-2
473 502 1.831563888873418E-2
473 561 3.225044165683758E-2
473 587 1.802805875727836E-2
473 738 3.518339611642361E-2
473 739 1.831563888873418E-2
474 106 4.985448483470978E-2
474 218 1.3453378245146391E-2
474 221 1.2924982506202198E-1
474 239 2.2866587742045006E-2
474 260 2.7388470574487973E-2
474 320 3.589488424335345E-2
474 336 1.3942477916646787E-1
474 344 7.126091296278682E-2
474 477 1.5890849567481734E-2
474 506 2.440112976922464E-2
474 577 4.261215674194668E-2
474 787 1.831563888873418E-2
474 825 6.861141584132431E-2
475 14 1.831563888873418E-2
475 98 1.6389553790213604E-2
475 282 3.493847342122821E-2
475 438 2.351774585600911E-2
475 489 8.116442890320394E-2
475 519 3.337970110120241E-1
475 646 2.2246834379834664E-2
475 699 1.8571797523836094E-2
475 736 1.7497375879325397E-1
475 774 4.517451302884703E-2
475 826 1.660277051520221E-2
476 20 9.332367836425293E-2
476 53 5.71203165087077E-2
476 59 1.8908806935240056E-2
476 181 4.804995795022594E-2
476 189 3.744485438907274E-1
476 229 4.208173026554035E-2
476 249 2.558721028441613E-2
476 279 1.831563888873418E-2
476 448 7.530513922149754E-2
476 497 3.0197383422318515E-2
476 576 3.1844116004354224E-2
476 668 6.184117707345331E-2
476 720 1.775703592738388E-2
477 203 1.0673583018649332E-1
477 239 3.5574874421185443E-1
477 260 1.831563888873418E-2
477 320 1.4220276366308815E-2
477 344 2.3603221424152787E-1
477 376 1.831563888873418E-2
477 390 2.81833593545122E-2
477 473 2.5536262290913242E-2
477 474 1.5890849567481734E-2
477 501 9.709026962827573E-2
477 513 7.638322992881393E-2
477 587 7.828294825249683E-2
477 711 1.7945638693965104E-2
477 825 2.2046626968308E-2
477 828 1.4185623320420768E-1
478 31 1.7071382442304293E-2
478 49 1.831563888873418E-2
478 122 9.910674385576852E-2
478 126 5.1525674724157575E-2
478 222 2.402541102430612E-2
478 485 5.876723223832287E-2
478 612 2.2847936493230397E-2
478 658 9.533744825622917E-2
478 681 4.58596083075935E-2
478 725 3.0709419703839155E-2
478 817 5.186517029417822E-2
478 830 2.765524992055434E-2
478 843 2.935472120730553E-2
479 65 1.9236200108806184E-1
479 110 5.406357258369609E-2
479 151 4.12027729596854E-2
479 152 3.717268468957344E-2
479 223 1.7297362846084716E-2
479 351 3.1068156026069393E-2
479 360 2.957822928680022E-2
479 387 1.831563888873418E-2
479 465 3.288519924716057E-2
479 527 6.594560971049253E-2
479 629 2.8815008233933303E-2
479 643 3.457143179991069E-2
479 777 2.169020920540267E-2
479 783 2.0728578256550786E-1
479 819 2.6823580857777956E-2
480 48 1.9600437534020573E-2
480 100 4.41321218132065E-2
480 142 3.722479744324837E-2
480 208 2.223403196997782E-1
480 243 1.994992461141363E-2
480 323 1.1254555982225498E-1
480 334 3.139857065010192E-2
480 511 2.9279601570957825E-2
480 559 1.1911574941423317E-1
480 569 1.831563888873418E-2
480 581 5.258766818691048E-2
480 610 1.6710080494081583E-2
480 686 1.9556917290950947E-2
480 786 2.9666687476778756E-2
480 791 1.1339582008376897E-1
481 19 8.648699752009945E-2
481 79 3.961143604512488E-2
481 82 3.2583047746367326E-2
481 204 3.153313384406903E-2
481 249 2.0168879974553473E-2
481 301 2.667894511819463E-2
481 431 1.842531304636597E-2
481 448 2.0234157409720017E-2
481 584 1.1047289584010592E-1
481 706 1.694788993867797E-2
481 720 4.0762203978366204E-2
481 741 1.9442410174544924E-2
481 799 2.003152971166078E-2
481 811 1.831563888873418E-2
482 28 2.885927806542902E-2
482 380 5.626414281226807E-2
482 427 1.831563888873418E-2
482 525 5.959736693128223E-2
482 563 1.326488158500246E-1
482 701 4.63461044385656E-2
482 714 4.957262332308557E-2
482 764 5.136230721628254E-2
482 784 3.256684828974167E-2
482 818 1.4633228206592346E-2
483 50 1.2702208773795335E-2
483 145 6.37633108183803E-2
483 268 3.847556329714195E-2
483 286 1.4331349669043447E-1
483 363 2.086080585264548E-1
483 374 2.0975361758270306E-2
483 463 1.5348907699541015E-1
483 529 4.115226995351131E-2
483 601 1.61843372604417E-2
483 664 5.868527810709202E-2
483 700 2.3997538223759443E-1
483 703 9.386913396844768E-2
483 718 2.6328233406106502E-2
484 24 2.2595771309700105E-1
484 33 1.8955023798093936E-2
484 84 1.8975591759572315E-2
484 111 1.8207422726555837E-2
484 113 3.205889538830846E-2
484 155 5.7822901019177024E-2
484 157 1.7116367829087806E-2
484 212 1.831563888873418E-2
484 215 8.721527858363745E-2
484 287 5.353565452101035E-2
484 392 1.4256113081487946E-2
484 408 1.9468670833151014E-1
484 430 1.740761616969493E-2
484 504 1.9204846832893942E-2
484 515 1.6282781831675534E-2
484 552 1.712642190840738E-2
484 582 1.2423217154895436E-1
484 588 1.8791343367625373E-2
484 589 1.0772774134872892E-1
484 625 3.159086703492486E-2
484 770 1.881158373551475E-2
485 43 2.989776621300386E-2
485 46 2.274868183870944E-1
485 122 1.0365712861152786E-1
485 126 4.0613233092936234E-2
485 137 2.3813426280939234E-1
485 442 1.265717919253356E-1
485 478 5.876723223832287E-2
485 612 2.2158728220451653E-2
485 666 1.831563888873418E-2
485 683 1.8966422634073526E-1
485 709 3.6638097426147966E-2
485 817 1.831563888873418E-2
485 830 2.8438824714184532E-2
485 834 1.2972261176399415E-2
486 13 1.737120764360933E-2
486 21 1.831563888873418E-2
486 40 4.77786462443687E-2
486 81 1.1960873419273406E-1
486 209 1.0759170076070484E-1
486 240 5.374366863419328E-2
486 271 1.8973616267224967E-2
486 354 1.478192987056003E-1
486 383 5.767444046591784E-2
486 816 5.860094798647946E-2
487 72 8.063064508916297E-2
487 91 2.3280721609132426E-2
487 118 2.087238065656686E-2
487 146 2.1175779668973885E-2
487 197 6.7696717624389E-2
487 218 9.837689166171483E-2
487 221 1.598949348631146E-2
487 252 3.5869466795657244E-2
487 321 1.831563888873418E-2
487 333 4.1942447920524546E-2
487 336 1.8592618736729613E-2
487 345 4.2809418123076794E-2
487 459 2.5096737494213598E-2
487 472 2.1812479672920104E-2
487 537 8.1547744830156E-2
487 590 5.040862174786159E-2
487 606 1.0801946462387621E-2
487 621 1.0459403961150962E-1
487 640 4.18156732108545E-2
487 787 1.3789837558365325E-1
487 822 1.9196341913398354E-1
487 844 1.8692619997289737E-2
488 1 1.2280680406079361E-1
488 116 1.7090984918337975E-2
488 188 7.159871152115578E-2
488 207 8.53453524062045E-2
488 242 1.401826050936834E-1
488 370 3.31933605860937E-2
488 372 2.7256957123320387E-2
488 411 4.5793198549469144E-2
488 451 2.1058202731995938E-2
488 496 1.5374440424444027E-1
488 526 4.02669555202651E-2
488 541 8.998041303281165E-2
488 664 4.172670758586772E-2
488 666 1.6736876086074357E-2
488 803 5.0629250000516074E-2
488 838 9.059247896186451E-2
489 2 1.831563888873418E-2
489 14 1.40425375378529E-2
489 108 8.972305056844995E-2
489 113 1.4680738336989583E-2
489 159 2.5497549427175387E-2
489 402 2.171886731153825E-2
489 433 1.1702550125129522E-1
489 475 8.116442890320394E-2
489 519 4.063979504953907E-2
489 648 2.1287737843223107E-2
489 736 1.131660485613789E-1
490 143 2.2455342687275864E-1
490 154 2.2591222284372173E-2
490 168 4.8697057587104006E-2
490 171 1.7075336558242427E-1
490 234 2.0326428698829613E-2
490 308 8.889720727240642E-2
490 416 5.571120615975854E-2
490 422 3.469976500587459E-2
490 429 2.1654150377992926E-2
490 507 1.8546530308251852E-1
490 533 1.831563888873418E-2
490 626 4.8994718090719216E-2
490 632 1.0018929733894995E-1
490 779 1.9291333677144293E-1
491 106 2.4719007043156976E-2
491 166 2.8150486524837554E-2
491 203 1.831563888873418E-2
491 336 1.4388640029625269E-2
491 361 2.720926058203838E-2
491 377 3.3456288002048265E-2
491 427 4.215668636869532E-2
491 469 2.21510134574622E-2
491 494 2.530013194271729E-2
491 502 4.380007276355318E-2
491 513 2.894456351544769E-2
491 561 1.831563888873418E-2
491 571 1.831563888873418E-2
491 583 3.0676174747209367E-1
491 587 1.831563888873418E-2
491 624 1.831563888873418E-2
491 719 1.288919931395107E-1
491 818 2.8196546905825598E-2
491 825 3.385256854845405E-2
492 7 1.3230268814406346E-1
492 36 1.3954480015308607E-2
492 129 3.0134798194127992E-2
492 149 1.498223403140453E-1
492 188 3.227611609556767E-2
492 242 2.0983420294120175E-2
492 526 1.831563888873418E-2
492 536 6.696019110826099E-2
492 715 2.362185257374444E-2
492 728 7.264473364061731E-2
492 838 9.798448044705839E-2
493 78 2.445156766151553E-2
493 109 3.612555689170115E-2
493 119 1.7637360889116768E-2
493 196 1.1616103965150623E-1
493 315 8.435448730847973E-2
493 323 1.831563888873418E-2
493 334 1.2315154329764817E-1
493 434 4.616784595889048E-2
493 438 4.7039455112484044E-2
493 456 1.5411182903846543E-2
493 464 4.8290489314286034E-2
493 519 2.4103036761965364E-2
493 638 2.5722804176116193E-2
493 766 2.385290999781331E-2
493 774 2.1914038882227715E-2
493 815 3.1064235259286872E-2
494 19 2.698875984312374E-2
494 39 2.559909607000479E-2
494 71 1.1488754924884735E-2
494 166 3.9812665421619875E-2
494 210 1.2315723694684791E-2
494 491 2.530013194271729E-2
494 500 7.54634136842167E-2
494 502 1.7576284275821893E-1
494 561 8.836940131785677E-2
494 583 1.0000887680056449E-1
494 620 4.0127785695458454E-2
494 719 6.405792802090174E-2
494 738 2.085406283192911E-2
494 799 1.2502939740138849E-2
494 825 1.831563888873418E-2
494 828 2.2109128401854868E-2
495 6 1.5631063462154007E-2
495 172 8.568497508776751E-1
495 194 1.541356911474903E-1
495 275 1.831563888873418E-2
495 295 5.811620557977243E-1
495 346 2.354953533967547E-2
495 532 3.854391200035756E-1
495 540 1.69133617602937E-1
495 557 1.3746989449394571E-2
495 684 6.228307002082922E-2
495 778 5.6199691225693064E-2
496 1 1.9392727722463293E-2
496 7 1.0807269905785996E-2
496 188 7.712569074823471E-2
496 242 4.029232789775722E-2
496 372 6.916032281769816E-3
496 394 1.9979600953452192E-2
496 451 2.529212755313193E-1
496 488 1.5374440424444027E-1
496 541 3.210264103323201E-1
496 715 5.727820465595773E-2
496 728 1.831563888873418E-2
496 838 1.006957007399773E-1
497 96 3.485628759931689E-2
497 244 1.29641339914281E-1
497 279 2.957611624913382E-1
497 284 1.7487021595659506E-2
497 347 3.399956761122734E-2
497 380 3.2269643558333054E-2
497 476 3.0197383422318515E-2
497 518 1.5980858185483393E-2
497 576 4.363415537854789E-1
497 668 2.6763045318643805E-2
497 722 6.517230913203399E-2
497 764 9.252870992546336E-2
498 14 5.085067976071683E-2
498 58 2.8318849321744555E-2
498 115 1.4584611032511188E-1
498 222 5.679581230902235E-2
498 288 3.041470728064776E-1
498 415 1.1318680087969196E-2
498 546 1.6396044302792756E-1
498 574 1.954649388424723E-2
498 694 1.831563888873418E-2
498 807 2.0724830340313714E-2
499 17 1.250058072115998E-1
499 42 2.0216234615640233E-1
499 114 2.0333470941868E-2
499 184 3.357614635848753E-2
499 231 3.515319957864631E-1
499 232 2.057960515436075E-2
499 319 4.040928667757386E-2
499 375 6.587630926406005E-1
499 412 1.3416355653392553E-1
499 551 2.640366269746263E-2
499 613 1.831563888873418E-2
499 615 2.8285087384927143E-2
499 618 3.375651132519675E-2
499 656 9.208819517904791E-2
499 689 1.7689525244181405E-2
499 752 7.299303127711725E-2
499 785 6.233739462853699E-2
500 19 2.142627610235312E-2
500 39 6.189909362285735E-2
500 71 3.0306652718636792E-2
500 166 1.831563888873418E-2
500 214 1.831563888873418E-2
500 361 7.331404372774253E-2
500 468 9.314656940294584E-2
500 494 7.54634136842167E-2
500 510 4.4674199646043064E-2
500 620 1.831563888873418E-2
500 719 3.932981651869573E-2
500 738 5.6187776418044885E-2
501 68 1.9086642919435853E-1
501 146 1.831563888873418E-2
501 239 3.590088197503565E-2
501 260 2.6103858379880573E-1
501 335 7.849421562240262E-3
501 344 1.6874844850945835E-2
501 345 5.7673199581628004E-2
501 376 6.351763035456254E-2
501 390 5.922806478607384E-1
501 477 9.709026962827573E-2
501 590 2.1139322728306244E-2
501 676 7.30985074818693E-2
501 711 9.581184900922157E-2
502 19 3.469828933849735E-2
502 39 9.64759486526891E-2
502 106 2.64118256557341E-2
502 166 3.278849317491613E-2
502 203 1.7614649058882704E-2
502 320 1.888975055918907E-2
502 427 1.831563888873418E-2
502 473 1.831563888873418E-2
502 491 4.380007276355318E-2
502 494 1.7576284275821893E-1
502 561 4.5031217808883084E-1
502 583 1.3573568319124146E-1
502 719 5.0193491167977965E-2
502 738 3.26526615635991E-2
502 784 1.3131009584874629E-2
502 825 1.0199189834541096E-1
502 828 1.831563888873418E-2
503 62 1.5675464554330384E-1
503 139 1.831563888873418E-2
503 261 3.237771642149494E-2
503 290 1.831563888873418E-2
503 298 2.720926058203838E-2
503 368 7.724912885854464E-2
503 378 5.587949839285781E-2
503 407 3.142956142328609E-1
503 516 4.422607288171008E-2
503 592 1.2631638626303013E-1
503 609 2.511699610560657E-2
503 729 3.0463437950408925E-2
503 802 1.5299883806216611E-2
504 30 9.995548890550252E-2
504 51 1.9449187991492048E-2
504 66 6.156311885137037E-2
504 84 1.4983357684910684E-1
504 113 6.691788963154863E-2
504 408 1.3740143093850954E-1
504 433 2.3717586454210963E-2
504 484 1.9204846832893942E-2
504 552 2.6347980814448748E-2
504 564 2.6463205037107987E-2
504 648 4.773127544077261E-1
504 774 3.3682757118535835E-2
505 29 1.7015156153811266E-2
505 61 3.367092723101763E-2
505 70 4.1604116872556704E-2
505 76 2.1282808806892924E-2
505 105 4.409595239195346E-2
505 131 2.412472800231493E-2
505 289 1.831563888873418E-2
505 362 2.6653904605637387E-2
505 678 8.83784137755953E-2
505 693 5.429521166472681E-2
505 713 2.6347980814448748E-2
505 744 3.381360043846927E-2
505 769 2.5090927790899253E-1
505 777 1.1540015364507046E-1
505 781 1.7441806111738306E-1
505 794 1.831563888873418E-2
506 106 1.8333032540031516E-1
506 227 7.973614697371409E-2
506 336 1.973905881570219E-2
506 427 4.002323100630419E-2
506 469 2.908384963200981E-2
506 474 2.440112976922464E-2
506 577 3.278187794745022E-2
506 739 2.403491019225248E-2
506 787 3.333166605552376E-2
506 789 1.5639883309163533E-1
506 825 1.831563888873418E-2
507 143 2.3846660210531562E-1
507 154 4.0009053311708606E-2
507 165 1.831563888873418E-2
507 234 2.2070689379627972E-2
507 256 3.1945309912434085E-2
507 416 3.812515307659163E-2
507 490 1.8546530308251852E-1
507 563 1.7622386781317542E-2
507 626 5.026965331557099E-2
507 779 2.558894503573864E-2
508 108 1.5388028266362631E-2
508 132 3.5605879437761234E-1
508 148 2.4449488173971055E-2
508 153 8.224610749985346E-2
508 157 6.141705460568385E-2
508 159 1.2674554684614245E-1
508 402 2.320842602791255E-2
508 650 3.475271275201905E-2
508 742 2.7721214296134687E-2
508 754 3.227916403135988E-2
509 31 1.6129743306668748E-2
509 94 3.4809688291289734E-2
509 116 1.1759976669275188E-1
509 129 3.657329068181762E-2
509 147 2.0456440176198604E-2
509 201 2.253597989654116E-2
509 373 2.409496194266756E-2
509 658 4.226146510065511E-2
509 725 5.485784733736408E-2
509 817 3.127666636029532E-2
509 843 2.0081902079649333E-1
510 19 4.6150949570426106E-2
510 135 3.520843401667849E-2
510 165 8.050141480613919E-2
510 204 2.4982133833364208E-2
510 210 1.831563888873418E-2
510 301 8.05788945064229E-2
510 361 8.351252814713174E-2
510 468 5.033711757297984E-1
510 500 4.4674199646043064E-2
510 649 9.114398725180415E-3
510 765 5.664870927610773E-2
510 799 9.384585389566105E-2
510 811 7.669634426147083E-2
511 48 5.419025209875129E-2
511 67 1.831563888873418E-2
511 100 1.4218627518597654E-1
511 119 1.831563888873418E-2
511 142 9.11670511531529E-2
511 208 3.153080976286106E-2
511 243 2.5780944167289255E-2
511 323 6.948345122280154E-2
511 480 2.9279601570957825E-2
511 686 2.0542776637841275E-2
511 786 4.213895691086441E-1
511 791 3.5673993347252395E-2
512 35 1.831563888873418E-2
512 44 2.1929481249898485E-2
512 195 2.2439446466494848E-2
512 216 4.4894127839919515E-2
512 330 3.1803499034240723E-1
512 396 1.5123975969049566E-1
512 452 1.4723743189335145E-1
512 568 6.460499161914182E-2
512 647 8.94665914933447E-3
512 790 1.4522799833882197E-1
513 166 4.1216849178684456E-2
513 203 1.831563888873418E-2
513 239 1.883428088251069E-1
513 336 2.322068356751778E-2
513 344 3.732337051328154E-2
513 477 7.638322992881393E-2
513 491 2.894456351544769E-2
513 571 1.831563888873418E-2
513 587 7.295691782279244E-2
513 731 2.654652886379606E-1
513 825 2.1243699636771012E-2
514 52 6.546525458455477E-2
514 141 4.054579536565661E-2
514 167 2.132428435262677E-2
514 179 2.9911696032368696E-2
514 202 1.69370712852657E-1
514 241 1.400466821981375E-1
514 257 1.7970721893525454E-2
514 453 4.649357887476029E-2
514 565 3.495785215485053E-2
514 653 1.831563888873418E-2
515 11 3.50794406698467E-2
515 212 1.741393985071648E-1
515 215 3.1434539763251323E-1
515 430 7.599932560717876E-2
515 484 1.6282781831675534E-2
515 522 2.2375430005014868E-1
515 558 1.831563888873418E-2
515 582 2.2327490886871906E-1
515 588 1.627752904681115E-1
515 775 7.948293891829619E-2
516 62 1.831563888873418E-2
516 121 1.831563888873418E-2
516 161 5.664667506505952E-2
516 261 4.0364648313356906E-2
516 290 3.1399934752616085E-2
516 343 4.0118147412694524E-2
516 368 1.2232522829649163E-1
516 407 1.3210355131367665E-1
516 503 4.422607288171008E-2
516 635 7.091678824905037E-2
516 802 1.3319450583912918E-2
517 54 1.9664820753247877E-2
517 183 7.32396916729097E-2
517 254 2.2938788909927357E-2
517 258 5.964479042912048E-2
517 274 4.934669423426577E-2
517 339 1.6014596537242506E-2
517 348 1.831563888873418E-2
517 349 3.713525285293171E-2
517 450 2.119692173590955E-2
517 454 3.2856777592275725E-2
518 91 6.441400230404404E-2
518 118 1.2609659097093995E-1
518 197 1.0836802322189587E-1
518 244 3.0503953223002478E-2
518 279 1.7237349282844833E-2
518 284 2.7227956557119715E-1
518 380 1.831563888873418E-2
518 472 4.4123316775998395E-1
518 497 1.5980858185483393E-2
518 722 1.681618647408189E-1
518 787 1.6979346661925826E-2
518 822 3.224657527690432E-2
519 2 1.831563888873418E-2
519 14 3.0563749449551328E-2
519 87 1.831563888873418E-2
519 196 4.268153583644722E-2
519 328 3.1020769026121546E-2
519 433 2.7662092421311638E-2
519 434 1.831563888873418E-2
519 438 3.0113463003716603E-2
519 475 3.337970110120241E-1
519 489 4.063979504953907E-2
519 493 2.4103036761965364E-2
519 736 4.7120559227209084E-2
519 758 4.619748442866885E-2
519 774 6.914053544319175E-2
519 826 2.3967499269292987E-2
519 839 1.831563888873418E-2
520 11 1.831563888873418E-2
520 56 7.30828451555695E-2
520 150 2.003386106022358E-2
520 212 3.172604635315567E-2
520 304 2.850785095391628E-2
520 392 1.997168745679223E-2
520 404 9.73076690707152E-2
520 423 5.263690380967521E-2
520 430 2.861934714144779E-2
520 602 3.290154774386258E-1
520 607 7.599081075360999E-2
520 616 1.5145448084843945E-2
520 659 2.732693617130788E-1
521 73 9.196859963937726E-2
521 177 9.119442991068578E-2
521 262 6.219341752127121E-2
521 299 2.9696244354565E-2
521 300 2.3940554298007295E-2
521 371 6.692837699827618E-2
521 553 2.631678269108388E-1
521 597 5.219868584408076E-1
521 605 7.452825102304558E-2
521 623 6.9884277638092E-2
521 717 1.5545110740706546E-2
521 751 6.930704141295875E-2
522 134 2.5550625789046946E-2
522 164 1.831563888873418E-2
522 212 3.5409252501136135E-2
522 215 1.5444037509113098E-1
522 430 1.674952339978033E-2
522 515 2.2375430005014868E-1
522 558 3.5807105108572816E-2
522 582 4.071993050123571E-2
522 775 5.789281408497271E-2
522 821 2.0334002426456225E-2
523 33 3.8971893791012124E-2
523 150 3.009002683325064E-1
523 392 1.784490173206891E-2
523 414 5.081527696775049E-1
523 426 1.831563888873418E-2
523 607 8.292413466352719E-2
523 616 1.1445014702925048E-1
523 625 2.6030282396534793E-2
523 659 5.7780816432336665E-2
523 770 2.1730698154627925E-1
524 5 1.9947083194195175E-1
524 38 1.5999009875619008E-1
524 85 4.296087600601249E-2
524 101 3.339203154557868E-1
524 136 1.679921279626661E-1
524 276 1.8168526117467262E-2
524 292 6.361117952584976E-1
524 389 9.496329655933294E-2
524 451 2.0130283541368376E-2
524 545 5.159731130803104E-2
524 642 2.8375988080493336E-2
524 707 3.6114209136728337E-1
524 800 1.831563888873418E-2
525 377 1.6163494588165874E-2
525 380 2.466473095356278E-2
525 416 1.853367964895919E-2
525 431 1.1731916609425078E-1
525 469 4.553446741103051E-2
525 482 5.959736693128223E-2
525 563 3.567399334725241E-2
525 571 2.4161575673921448E-2
525 624 1.4172337346617667E-2
525 701 3.0317771502740534E-2
525 714 2.9692202572789617E-1
525 818 5.743261926761735E-2
526 116 1.7824797273389703E-2
526 147 3.170180115440348E-2
526 188 1.5555109988528099E-1
526 207 3.1049329643614055E-2
526 242 2.1763701207303154E-1
526 359 5.038229527150605E-2
526 370 7.042878981675463E-2
526 488 4.02669555202651E-2
526 492 1.831563888873418E-2
526 568 1.369124410416486E-2
526 664 1.831563888873418E-2
526 666 2.5251411105988393E-2
526 681 9.015710220165936E-2
526 790 3.1786027709515066E-2
526 834 2.1177332331923823E-1
526 838 1.6423587653856195E-1
527 57 2.99991321417335E-2
527 65 4.215225629365993E-2
527 110 3.6046703337920954E-2
527 152 1.9179573144380166E-2
527 265 1.2549329045591326E-2
527 356 1.3942431602926056E-2
527 360 1.831563888873418E-2
527 387 1.8521693025025054E-1
527 479 6.594560971049253E-2
527 599 1.831563888873418E-2
527 643 2.0689760902245898E-2
527 761 2.0112118230674967E-2
527 783 1.2539876502297476E-1
527 819 1.3752690023025915E-1
527 820 6.0168515572894564E-2
528 154 1.7310681586434302E-2
528 234 1.0852802027429216E-1
528 307 5.263371788122369E-2
528 358 2.2501104741175858E-2
528 429 2.977151097596259E-1
528 533 3.4050428441286335E-2
528 555 3.569373545706817E-2
528 632 1.8970261639311675E-1
528 634 1.831563888873418E-2
528 793 1.4113886011360224E-1
529 145 1.807931136455696E-2
529 268 3.8067351950112835E-2
529 286 6.539740322986023E-2
529 374 5.453088142281547E-1
529 463 3.372181270907028E-2
529 483 4.115226995351131E-2
529 566 1.853663940757809E-2
529 601 3.2029009770666644E-1
529 655 4.537077837519367E-2
529 682 1.8921185983060998E-1
529 703 1.7711580543183728E-2
529 718 3.7380805129403116E-2
530 100 2.7078301448006867E-2
530 142 2.7078301448006867E-2
530 144 1.831563888873418E-2
530 208 6.477457554835711E-2
530 267 4.4304604571496604E-2
530 334 3.243324089479554E-2
530 391 6.694842362937183E-2
530 464 2.406228708809303E-2
530 559 1.945113950885766E-2
530 581 4.484794046967463E-2
530 610 1.403939678571836E-1
530 686 3.414807101105183E-2
530 786 1.887485224362372E-2
530 791 3.424722772574424E-2
530 815 1.831563888873418E-2
531 15 1.831563888873418E-2
531 120 2.1415417179468027E-1
531 272 4.131652619173762E-2
531 355 1.0250738702865525E-1
531 395 3.138144571425705E-2
531 439 1.1988064766687082E-1
531 556 2.014012945290249E-1
531 566 7.960052165618142E-2
531 596 1.74377580431707E-2
531 703 6.0698926385771686E-2
532 6 1.8731782899762014E-2
532 55 4.054655257568539E-2
532 156 2.038023305507856E-2
532 172 5.765248460526072E-1
532 194 2.343702800403211E-2
532 275 5.848998104870828E-2
532 295 1.6326555856585728E-1
532 495 3.854391200035756E-1
532 540 3.1222971820659834E-2
532 684 5.0625463937952135E-2
532 778 1.831563888873418E-2
533 154 2.5528961760335867E-1
533 307 1.8530168091773505E-2
533 310 2.1751813093117434E-1
533 429 8.178683331984851E-2
533 490 1.831563888873418E-2
533 528 3.4050428441286335E-2
533 555 1.7431252928711123E-2
533 632 1.9641099314737E-2
533 634 8.083996310883257E-2
533 737 2.3457915170169423E-2
534 139 7.21393214021631E-2
534 158 4.191004935013521E-2
534 205 1.8811296154517012E-2
534 263 3.9730577291043366E-2
534 317 3.0746596679098022E-2
534 551 2.5233753308364953E-2
534 580 1.2068656422168222E-1
534 598 1.1877951040767282E-1
534 756 1.831563888873418E-2
534 797 1.736931043947187E-2
535 63 2.920436735333471E-2
535 121 1.2209928872546609E-1
535 251 1.831563888873418E-2
535 316 1.0260923180416712E-1
535 421 2.618714674540014E-1
535 437 9.130041006402573E-2
535 547 1.1266337419904131E-1
535 595 9.902244284608326E-2
535 635 1.6829610998636422E-2
535 735 5.8747960908605436E-2
535 780 6.575457931914087E-2
535 796 5.0242335593393625E-2
535 835 8.773622881481966E-2
536 7 1.831563888873418E-2
536 102 6.0840743786335756E-2
536 129 4.8611431076175515E-1
536 149 4.8400332881288914E-2
536 393 4.390978021371421E-2
536 492 6.696019110826099E-2
536 549 1.7769623629442025E-2
536 573 1.7949795717258923E-2
536 680 2.0777250948436417E-2
536 725 3.903176132864367E-2
536 740 9.974181920114997E-2
537 68 1.831563888873418E-2
537 72 5.7503776290290944E-2
537 118 3.1342041043968184E-2
537 146 1.330635217282096E-1
537 221 5.1419287409121724E-2
537 321 8.400589303658564E-2
537 333 3.550938061863305E-2
537 336 1.6481444552192484E-1
537 345 6.379140904681499E-2
537 427 3.1064235259286886E-2
537 487 8.1547744830156E-2
537 606 3.387182299739965E-2
537 716 2.0704338075924436E-2
537 731 4.3766399579324065E-2
537 787 2.0425210650003488E-2
537 822 1.7042039563122228E-2
537 844 1.8692619997289737E-2
538 9 1.4044812290107702E-2
538 205 4.2259951268138285E-1
538 263 4.513562525718588E-2
538 269 3.1202915983253326E-1
538 461 1.831563888873418E-2
538 470 7.547219408449443E-2
538 580 2.284483013166695E-2
538 598 6.330033152309217E-2
538 600 1.6585759338127254E-2
538 608 3.232893726753444E-2
538 708 1.5958059385710457E-2
538 797 7.615596921619776E-2
539 117 3.691954332362426E-2
539 130 1.9886497687382168E-2
539 162 1.912139980602347E-2
539 289 1.8814558884198782E-2
539 310 1.831563888873418E-2
539 405 2.0812420185940306E-1
539 440 4.4236576490685936E-2
539 555 1.831563888873418E-2
539 634 7.730474044329974E-2
539 713 1.831563888873418E-2
539 727 2.081014183838053E-1
539 744 1.2921126449227857E-1
539 772 4.634662375007569E-1
539 781 3.2731133100808114E-2
540 172 1.3556340839669537E-1
540 194 6.766144169770648E-1
540 295 4.0863595104379263E-1
540 335 1.5726355060189756E-1
540 346 3.956766685752604E-1
540 445 2.3525296670936094E-1
540 495 1.69133617602937E-1
540 532 3.1222971820659834E-2
540 557 1.8602467764722486E-1
540 732 1.5604489127330268E-1
540 778 1.6777934346124865E-1
541 1 1.9841094744370288E-2
541 7 1.2537780584094802E-2
541 38 1.6761582357224934E-2
541 136 1.6395864707348273E-2
541 292 1.9574418456402808E-2
541 372 2.2072758480892025E-2
541 411 4.434776293714912E-2
541 451 2.0568789151446926E-1
541 488 8.998041303281165E-2
541 496 3.210264103323201E-1
541 642 2.155126907957865E-2
541 715 1.5405650830444856E-1
541 728 1.2824390592168966E-1
541 803 1.831563888873418E-2
541 838 2.6292173621536585E-2
542 9 1.516071137964553E-1
542 12 2.2429779640630615E-2
542 83 5.5204030085844166E-2
542 228 2.2850052973763673E-2
542 264 2.1878312087416216E-1
542 304 5.006742890465335E-3
542 436 1.0423193561923752E-1
542 570 1.6403876065774087E-1
542 661 6.444268644910611E-1
542 708 7.910487701827351E-2
542 841 4.274331915528082E-2
543 35 9.736219658579662E-2
543 44 2.7779631376540728E-2
543 163 2.9149379120402896E-1
543 211 4.276848881031167E-2
543 237 1.0091332101558255E-2
543 248 9.787044429240913E-2
543 325 2.9035370890494162E-2
543 399 6.002033272449789E-2
543 410 5.895560616616973E-2
543 428 2.3724949330825622E-2
543 685 5.101275690199783E-2
543 691 1.9909791093201834E-1
543 767 1.4790304656470302E-2
543 813 1.831563888873418E-2
543 842 1.156934036724561E-2
544 176 1.5653109220115105E-1
544 190 5.721055045147532E-2
544 195 1.831563888873418E-2
544 247 1.388594429685383E-1
544 280 1.5287452400953569E-2
544 303 1.6638044743915303E-1
544 396 2.9368544450695474E-2
544 452 1.7793967763096937E-2
544 453 3.8355031311250745E-2
544 549 3.7632811183448446E-2
544 565 2.0285907144744195E-2
544 604 3.944892278032664E-2
544 614 1.1418085145004825E-1
544 647 4.464672337663009E-2
544 680 4.9273804191210864E-2
544 698 3.634834005806729E-2
545 5 3.485386927845985E-2
545 40 3.0466224554805993E-2
545 64 1.831563888873418E-2
545 85 1.9992286413948974E-2
545 101 2.4282970054670866E-2
545 213 6.0129077790910854E-2
545 282 2.442372681906301E-2
545 292 2.553618711715579E-2
545 357 1.9579663724303448E-2
545 406 1.734895249892436E-2
545 419 3.1363004487347723E-1
545 524 5.159731130803104E-2
545 642 9.754666496843684E-2
545 677 4.70120462125911E-2
545 707 2.4199974567286116E-2
546 14 2.49503729116237E-2
546 58 1.0170139230422684E-1
546 115 4.077809354763647E-1
546 222 4.5868933867828296E-2
546 253 4.177577735682736E-2
546 285 2.0071250338770837E-2
546 288 3.0836516789658136E-1
546 337 2.4739690919891488E-2
546 415 2.5185198225485622E-2
546 498 1.6396044302792756E-1
546 658 1.3789970212922617E-2
546 839 1.7455154262268385E-2
547 51 1.576244441265747E-2
547 63 2.3458264723329234E-1
547 121 4.728163627921865E-2
547 246 1.339166874552144E-1
547 381 1.831563888873418E-2
547 437 7.267868998321998E-2
547 457 1.683493205386912E-2
547 535 1.1266337419904131E-1
547 696 1.5717918648105078E-1
547 780 9.886354110330432E-2
547 810 1.6122697516434713E-2
547 821 4.0114522230148095E-2
548 69 1.831563888873418E-2
548 97 1.8664497752958222E-2
548 125 4.913908970014684E-2
548 173 1.7647260481020912E-2
548 178 9.29637309640595E-2
548 254 2.0176720161033786E-2
548 274 2.4656796344992453E-2
548 331 1.8092959108835568E-2
548 349 4.462374997252274E-2
548 385 3.90370828135298E-2
548 409 5.700428600178319E-2
548 417 1.078434936423383E-1
548 454 6.2220542798347156E-2
548 458 3.683488047722112E-2
548 564 1.7550608335726234E-2
548 594 2.373913164439071E-1
548 637 5.511802078802701E-2
548 837 2.3964473990118095E-2
549 85 4.588646518311249E-2
549 176 1.1643389802117703E-1
549 190 5.092979768845816E-2
549 280 1.3863598214859538E-1
549 536 1.7769623629442025E-2
549 544 3.7632811183448446E-2
549 675 1.5136692672218138E-1
549 680 1.9349820430514614E-1
549 698 6.446885540666945E-2
549 728 1.903932590362252E-2
549 800 9.849983027935708E-2
550 19 7.083522711297105E-2
550 39 3.135355109768192E-2
550 71 1.831563888873418E-2
550 168 1.3988917162407561E-2
550 204 1.679447690445475E-2
550 210 5.534929174576229E-2
550 214 1.928425618520729E-2
550 301 2.8255306779226632E-2
550 308 1.831563888873418E-2
550 403 3.8000297500625044E-2
550 584 2.0919950140670877E-2
550 620 5.746649782098868E-2
550 649 1.4256220066537048E-1
550 705 1.0872405747538222E-1
550 799 2.7930536734406645E-2
550 808 4.5713893902591354E-2
551 22 1.986645224553215E-2
551 104 2.05603037723656E-2
551 114 1.8490488535025367E-2
551 220 1.831563888873418E-2
551 231 1.929806662721732E-2
551 263 1.7484436756915918E-2
551 270 2.8973771302786895E-2
551 319 2.58545121037318E-1
551 375 5.299325110521378E-2
551 499 2.640366269746263E-2
551 534 2.5233753308364953E-2
551 618 3.0351171147489673E-2
551 756 1.8437562872794944E-1
551 785 2.1058202731995938E-2
552 51 1.2429830804676802E-1
552 84 9.209305440304114E-2
552 246 8.288738716916032E-2
552 408 2.702180595120905E-2
552 484 1.712642190840738E-2
552 504 2.6347980814448748E-2
552 558 2.0143067289631784E-2
552 588 1.9881836197717353E-2
552 625 7.935414579217957E-2
552 648 2.4518353159227027E-2
552 652 3.291456903390486E-2
552 810 4.803766785120933E-2
553 73 1.1993499766050321E-1
553 77 1.0046273690613503E-1
553 177 3.1866135614933934E-2
553 262 2.211918549287287E-1
553 299 4.02332615191893E-2
553 300 4.002934180739434E-2
553 521 2.631678269108388E-1
553 597 1.8563499756047114E-1
553 605 5.872443739241896E-2
553 717 5.198917174449004E-2
553 751 7.11819016948598E-2
553 776 4.0174554671164396E-2
554 80 2.0500132208530288E-2
554 144 1.3432508274173426E-2
554 169 2.371676649996808E-2
554 200 1.831563888873418E-2
554 208 1.831563888873418E-2
554 238 6.430061736185566E-2
554 326 5.858894205577232E-2
554 424 4.7157436330482146E-2
554 559 5.768759163231067E-2
554 569 7.865880855101759E-2
554 591 6.331139675717598E-2
554 670 1.556002413293727E-1
554 679 1.2141666554866037E-1
555 99 1.831563888873418E-2
555 310 1.430666827544082E-1
555 401 2.5394074067164155E-2
555 405 2.5270455080828567E-2
555 429 1.7508471621418855E-2
555 462 3.327939303227129E-2
555 528 3.569373545706817E-2
555 533 1.7431252928711123E-2
555 539 1.831563888873418E-2
555 634 9.561573882871907E-2
555 727 6.692214487061823E-2
555 737 2.2859151103876884E-2
556 15 1.4804052984224447E-1
556 120 7.580018766414325E-2
556 272 7.141464372708972E-2
556 311 1.1151254625064175E-1
556 355 2.0829345766338275E-1
556 395 2.7044343706201557E-1
556 439 3.776206346143396E-1
556 531 2.014012945290249E-1
556 566 1.831563888873418E-2
556 596 2.624557179247964E-1
556 804 8.453511783334167E-2
557 156 4.7753622164141786E-2
557 194 2.3676579346787632E-1
557 295 3.726043405911231E-2
557 335 6.678683637981261E-2
557 346 1.010389647419791E-1
557 382 4.5115339015397174E-2
557 445 7.702343856249905E-1
557 495 1.3746989449394571E-2
557 540 1.8602467764722486E-1
557 732 1.831563888873418E-2
558 164 2.7446802070491057E-2
558 180 1.831563888873418E-2
558 215 1.831563888873418E-2
558 225 1.8423516098382667E-1
558 246 5.885462699084401E-2
558 342 9.306960890636096E-2
558 381 1.831563888873418E-2
558 430 4.7318806710871575E-2
558 457 1.616131519160905E-2
558 515 1.831563888873418E-2
558 522 3.5807105108572816E-2
558 552 2.0143067289631784E-2
558 588 1.831563888873418E-2
558 625 2.034872867322478E-2
558 652 3.7902914400958505E-2
558 696 2.1665431110738E-2
558 743 2.2182519632174012E-2
558 810 2.234990684428899E-2
558 812 5.193969433792487E-2
558 821 6.316305235549835E-2
558 845 5.113961301641269E-2
559 37 1.5003450580769684E-2
559 80 1.831563888873418E-2
559 100 2.2794180883612368E-2
559 144 5.816657252767601E-2
559 208 4.1686201967850844E-1
559 233 6.005466789530792E-2
559 267 1.148553723692794E-2
559 323 1.831563888873418E-2
559 326 1.831563888873418E-2
559 334 3.3165337488910304E-2
559 480 1.1911574941423317E-1
559 530 1.945113950885766E-2
559 554 5.768759163231067E-2
559 569 1.4329395305256898E-1
559 581 1.831563888873418E-2
559 591 2.4914440787632726E-2
559 610 1.831563888873418E-2
559 670 2.3261487677921758E-2
559 791 5.743261926761737E-2
560 91 1.0188288035301418E-1
560 197 5.7024483346080464E-2
560 218 7.228453408262832E-2
560 244 9.871831330364983E-2
560 252 1.3413744217157521E-2
560 384 4.134148771285283E-2
560 448 1.962336201975271E-2
560 459 1.624677864355496E-2
560 472 1.831563888873418E-2
560 621 3.641103337459206E-2
560 640 7.050257223382199E-2
560 722 1.831563888873418E-2
560 764 3.38570891114645E-2
560 822 4.909291452494773E-2
561 39 3.6863018170710804E-2
561 106 1.4401294818805657E-2
561 203 6.343601129858761E-2
561 239 2.3549895879516888E-2
561 320 2.8920347190974693E-2
561 344 2.1815455074038863E-2
561 473 3.225044165683758E-2
561 491 1.831563888873418E-2
561 494 8.836940131785677E-2
561 502 4.5031217808883084E-1
561 583 6.507333351195686E-2
561 719 1.831563888873418E-2
561 738 1.831563888873418E-2
561 825 1.046817377262166E-1
561 828 1.1299720931945711E-1
562 44 2.7899862731970076E-2
562 187 2.941992502377972E-2
562 248 4.5938130813218125E-2
562 325 1.3802087152099846E-2
562 389 1.831563888873418E-2
562 410 1.831563888873418E-2
562 428 2.880220675203221E-2
562 685 2.9733734597777103E-2
562 721 4.9655182171267104E-2
562 767 8.0896165066948E-2
562 842 4.029550948925833E-1
563 28 3.325637596459649E-2
563 143 2.80275738230772E-2
563 166 3.8323252956994874E-2
563 256 1.831563888873418E-2
563 301 3.325637596459649E-2
563 308 1.862771896534567E-2
563 377 3.963391152902528E-2
563 380 1.4617089665346108E-2
563 416 4.757894766520255E-2
563 482 1.326488158500246E-1
563 507 1.7622386781317542E-2
563 525 3.567399334725241E-2
563 701 2.9432883681851285E-1
563 741 1.831563888873418E-2
563 784 4.843324008803179E-2
564 2 2.3036700366576644E-2
564 84 1.831563888873418E-2
564 87 2.4298678001807704E-2
564 97 5.524375370989507E-2
564 328 2.059582967449422E-2
564 385 2.83630888742804E-2
564 504 2.6463205037107987E-2
564 548 1.7550608335726234E-2
564 594 1.831563888873418E-2
564 758 1.4976817705725762E-1
564 801 9.120307488128376E-2
565 141 4.2072666624487984E-2
565 202 6.568656977428104E-2
565 241 5.635312986110443E-2
565 247 3.4380234059843007E-1
565 280 1.831563888873418E-2
565 303 4.063745364289973E-2
565 514 3.495785215485053E-2
565 544 2.0285907144744195E-2
565 653 4.670846874210335E-2
565 698 3.669054191021796E-2
566 120 1.4326940275442326E-1
566 272 4.04214052219958E-2
566 355 6.0049040847488626E-2
566 439 2.9151981753666664E-2
566 529 1.853663940757809E-2
566 531 7.960052165618142E-2
566 556 1.831563888873418E-2
566 655 7.632813680693257E-2
566 804 3.829757060094025E-2
566 827 1.831563888873418E-2
567 3 5.378357294822505E-2
567 16 8.375191535306725E-2
567 20 1.4982234031404534E-1
567 45 2.207808073276827E-2
567 53 1.3362436706350195E-1
567 59 1.859366985380722E-2
567 79 1.831563888873418E-2
567 181 2.292101887523277E-2
567 189 2.771760848706767E-2
567 249 4.42690328314801E-2
567 798 1.725926910164395E-2
568 176 1.831563888873418E-2
568 195 5.9328381850803004E-2
568 216 2.063228192576506E-1
568 293 2.744528107177599E-2
568 330 6.506105775799748E-2
568 396 9.543325131557309E-2
568 512 6.460499161914182E-2
568 526 1.369124410416486E-2
568 680 2.1341487243290838E-2
568 790 4.029504185340229E-1
569 37 2.331798835835158E-2
569 48 2.6293905962613662E-2
569 80 2.874487539813988E-2
569 100 3.33732699603261E-2
569 144 8.567939987365944E-2
569 208 2.732372244729256E-2
569 233 5.760380429537E-2
569 267 2.312903170761661E-2
569 334 9.334727772646487E-2
569 424 1.831563888873418E-2
569 480 1.831563888873418E-2
569 554 7.865880855101759E-2
569 559 1.4329395305256898E-1
569 591 1.831563888873418E-2
569 670 4.689890477371925E-2
569 679 5.277572035059276E-2
569 766 2.6604719166209413E-2
569 791 1.831563888873418E-2
569 815 3.2433240894795524E-2
570 9 1.831563888873418E-2
570 11 1.757346743455137E-2
570 56 6.630121522714438E-2
570 83 3.322863316952886E-2
570 228 2.3315550652524392E-1
570 264 4.742508695294641E-2
570 304 1.831563888873418E-2
570 436 1.2078370705226155E-1
570 542 1.6403876065774087E-1
570 661 1.880311045616726E-1
570 775 2.215436390351851E-2
571 118 7.820071765542543E-2
571 377 1.3208829042913536E-2
571 427 7.11717520769799E-2
571 469 7.038749832569499E-2
571 491 1.831563888873418E-2
571 513 1.831563888873418E-2
571 525 2.4161575673921448E-2
571 624 6.863127005059112E-1
571 714 1.503578977083766E-1
571 731 7.76490817034759E-2
571 818 6.34896282034498E-1
572 13 7.471381963272616E-2
572 23 2.3134659893915055E-2
572 81 3.3056938027590355E-2
572 112 1.831563888873418E-2
572 160 4.5988446395061736E-2
572 302 5.282292648156707E-2
572 348 4.747181807884435E-2
572 357 2.94868899228758E-2
572 394 5.221523583843955E-2
572 645 2.5158997761555398E-2
573 7 2.517365704607104E-2
573 31 4.179159851829585E-2
573 36 9.94424592960411E-2
573 102 1.7694830244964616E-2
573 129 3.0301981112939795E-2
573 201 1.831563888873418E-2
573 339 4.560220009859453E-2
573 348 2.3095535650176774E-2
573 357 4.508980554754187E-2
573 373 5.6888238346101495E-2
573 536 1.7949795717258923E-2
573 645 5.6566382130156356E-2
573 669 1.831563888873418E-2
573 715 1.5241312916786097E-2
573 723 6.250353343728886E-2
573 740 1.663399034309127E-1
573 745 2.261251511872281E-1
573 749 1.540918401557489E-1
574 43 3.0240430290903356E-2
574 58 1.831563888873418E-2
574 137 3.7944079658278375E-2
574 222 2.2918491402444126E-2
574 236 4.9343204441029694E-2
574 245 9.48554906210674E-2
574 415 1.2918082795951108E-2
574 442 1.831563888873418E-2
574 498 1.954649388424723E-2
574 683 2.1908172847629203E-2
574 694 3.157392930371321E-1
574 709 2.2707168148712487E-2
574 830 2.528328078342574E-2
575 3 9.70112516264219E-2
575 16 1.841090857768063E-2
575 25 2.0457005194341318E-1
575 41 1.645829158691446E-2
575 181 2.5641288315716895E-2
575 185 2.1190718907164948E-2
575 229 1.459245084189273E-1
575 366 2.5978514787846126E-2
575 401 6.594367909124195E-2
575 651 5.213801649200956E-1
575 702 2.675860568696163E-2
575 730 2.464341018289062E-2
575 737 6.325179105180062E-2
575 798 4.995165356820254E-2
575 824 2.5060805981180462E-2
576 28 1.831563888873418E-2
576 96 8.685820992121808E-2
576 244 2.3056968483700557E-1
576 279 2.8492121075308713E-1
576 284 1.831563888873418E-2
576 347 5.766117807819454E-2
576 380 3.3723571572687495E-2
576 448 1.831563888873418E-2
576 476 3.1844116004354224E-2
576 497 4.363415537854789E-1
576 668 7.733786335659237E-2
576 722 3.318615560227434E-2
576 764 1.717789636013613E-1
577 91 2.1819319602256887E-2
577 106 1.7368212102539568E-1
577 218 1.8730817948195702E-1
577 221 4.02669555202651E-2
577 227 2.465969639416065E-1
577 321 2.111754123852698E-2
577 336 5.785043581968978E-2
577 380 2.976289624704959E-2
577 431 7.980979569730828E-2
577 474 4.261215674194668E-2
577 506 3.278187794745022E-2
577 640 1.831563888873418E-2
577 739 2.8671621668692634E-2
577 787 2.4985059054667538E-1
577 789 1.2869442727825317E-1
577 844 2.5202427982924026E-2
578 16 1.6596692038200936E-1
578 25 4.522589720271526E-2
578 93 2.3746799560649634E-1
578 185 1.6736652381140804E-2
578 314 4.996456218508434E-2
578 366 3.917508217463891E-1
578 441 3.475504265996339E-2
578 641 1.831563888873418E-2
578 712 5.170843686319924E-1
578 824 4.241970225893157E-2
579 50 3.158814882703985E-1
579 145 1.3971401505709669E-1
579 207 1.1471818483872696E-1
579 268 1.3971401505709669E-1
579 363 2.1121415964448675E-2
579 411 2.9129259455162686E-2
579 664 1.776853638565697E-2
579 790 1.831563888873418E-2
579 803 2.4209727636176664E-2
579 832 9.827954627553125E-2
580 60 4.536208028509598E-2
580 62 3.573079905714942E-2
580 139 1.1616489018733585E-1
580 158 2.314191542366863E-2
580 317 1.5796429264910705E-2
580 378 1.1234761398671068E-1
580 534 1.2068656422168222E-1
580 538 2.284483013166695E-2
580 592 6.582446355801796E-2
580 687 2.0834985326552872E-2
581 100 2.0231843347804694E-2
581 208 4.760696907118643E-2
581 267 2.1279736438377175E-2
581 323 4.0600288783628716E-2
581 334 3.532078839205796E-2
581 438 2.1247237665366556E-2
581 464 3.3481293397774996E-2
581 480 5.258766818691048E-2
581 530 4.484794046967463E-2
581 559 1.831563888873418E-2
581 686 2.694222547519123E-1
581 786 1.2059404732149509E-2
581 791 1.9442410174544924E-2
582 24 3.413500414730401E-2
582 33 2.2836120487032856E-2
582 212 2.608761596863073E-1
582 215 5.008359930682144E-1
582 423 2.761899717637622E-2
582 430 4.757748707940006E-2
582 484 1.2423217154895436E-1
582 515 2.2327490886871906E-1
582 522 4.071993050123571E-2
582 588 3.8526450160906486E-2
583 106 2.9557492301677372E-2
583 166 4.008962198108932E-2
583 203 9.49436667621724E-2
583 239 1.7893395241268727E-2
583 344 1.831563888873418E-2
583 427 2.1610753216738575E-2
583 469 1.831563888873418E-2
583 491 3.0676174747209367E-1
583 494 1.0000887680056449E-1
583 502 1.3573568319124146E-1
583 561 6.507333351195686E-2
583 587 2.999348559447285E-2
583 719 2.1687041178208136E-1
583 738 2.6404567060243113E-2
583 825 6.719558651382594E-2
584 19 1.831563888873418E-2
584 45 3.0733900771835694E-2
584 79 8.256030128711372E-2
584 82 2.0083953795348816E-2
584 204 3.4208436199491155E-1
584 249 1.7192999014776392E-2
584 301 2.296397130922319E-2
584 481 1.1047289584010592E-1
584 550 2.0919950140670877E-2
584 706 2.385868684054553E-1
584 720 5.008554197354113E-1
584 799 4.614674194458822E-2
584 811 1.78482798532498E-2
584 833 4.57915783470537E-2
585 41 4.0480540121914876E-2
585 117 1.594391187594396E-2
585 130 7.993480782919508E-2
585 185 3.9101147407713074E-2
585 259 4.1727368361387476E-2
585 338 1.0941854910556834E-1
585 432 2.5247898721377296E-2
585 449 1.292765298471133E-1
585 455 2.1688222331178154E-2
585 673 3.5738943704105956E-2
585 702 3.259427449941786E-2
585 737 1.831563888873418E-2
586 9 3.305418855258344E-2
586 12 2.4323506349105482E-2
586 88 1.98801648231483E-2
586 124 1.780334720164273E-2
586 184 3.94150893575804E-2
586 250 1.1629335657495846E-1
586 443 1.973155964477398E-1
586 608 2.9223360125410137E-2
586 708 3.3774656023706884E-2
586 846 7.199579668943618E-2
587 203 3.1153312835415066E-2
587 239 1.1440372032785835E-1
587 344 1.4429473623006117E-2
587 473 1.802805875727836E-2
587 477 7.828294825249683E-2
587 491 1.831563888873418E-2
587 513 7.295691782279244E-2
587 583 2.999348559447285E-2
587 719 7.870839801385113E-2
587 731 2.5013317812150677E-2
587 828 6.546188180805569E-2
588 11 1.3191202772426292E-2
588 212 4.705631248865153E-2
588 215 8.115417309971701E-2
588 430 2.6495795186978074E-2
588 484 1.8791343367625373E-2
588 515 1.627752904681115E-1
588 552 1.9881836197717353E-2
588 558 1.831563888873418E-2
588 582 3.8526450160906486E-2
588 625 1.1384330076732775E-1
588 845 2.1334651856812846E-2
589 24 1.2456229724397459E-1
589 108 2.4626831408106203E-2
589 111 1.0454103979314842E-1
589 113 1.831563888873418E-2
589 155 1.1752126624430571E-1
589 157 3.823100848741636E-2
589 192 1.831563888873418E-2
589 287 5.7829388812569396E-2
589 341 1.2080262710893626E-1
589 408 6.740947468583232E-2
589 484 1.0772774134872892E-1
589 650 1.4002735413754923E-2
589 674 1.4981888481108697E-2
589 742 1.9756583476827974E-2
589 770 2.0774151082576353E-2
590 68 2.9840539663402604E-1
590 72 7.856109657808137E-2
590 260 4.144317974556448E-2
590 333 4.095657931039928E-2
590 345 2.7381971604197225E-1
590 390 3.024826358454973E-2
590 487 5.040862174786159E-2
590 501 2.1139322728306244E-2
590 603 2.1898438405823575E-2
590 621 3.561502808242827E-2
590 676 9.078070130924573E-2
590 711 4.288914232632329E-2
590 716 3.839101252642313E-2
591 67 4.950657858583237E-2
591 100 2.136173917500704E-2
591 109 2.475012520523659E-2
591 119 5.371097452470753E-2
591 144 1.2460580405770735E-2
591 200 1.756625658085002E-2
591 208 2.4914440787632726E-2
591 238 5.0684108610992665E-2
591 243 1.831563888873418E-2
591 315 2.4146004356797875E-2
591 326 2.0590472106813047E-2
591 334 1.8887956745928056E-2
591 413 1.831563888873418E-2
591 456 2.7402465108860734E-2
591 554 6.331139675717598E-2
591 559 2.4914440787632726E-2
591 569 1.831563888873418E-2
591 638 1.9105911163939587E-1
591 748 8.23225816670321E-2
591 759 6.56845483380672E-2
591 766 3.1220927161230903E-2
591 815 8.530361363583894E-2
592 60 3.1436439763600145E-2
592 62 5.629855024567449E-2
592 139 4.303334274243302E-2
592 261 1.831563888873418E-2
592 298 1.327729899216013E-2
592 378 1.5799055434812678E-1
592 407 3.64731739919162E-2
592 503 1.2631638626303013E-1
592 580 6.582446355801796E-2
592 609 1.6568522369480847E-2
592 729 2.8400258753475643E-1
592 788 2.745110553854673E-2
593 21 1.831563888873418E-2
593 196 2.062190090401575E-2
593 198 1.2769747534954923E-1
593 217 7.18326293164985E-2
593 224 2.96585570210685E-1
593 266 1.831563888873418E-2
593 383 4.9678244218084824E-2
593 677 2.0954108108328616E-2
593 746 1.7625049009658636E-1
593 759 1.609285243168746E-2
593 806 2.5861846023216235E-2
593 809 3.573815518851015E-2
593 816 1.7681395555575328E-2
594 32 1.7853439407371087E-2
594 97 2.7220808360345725E-2
594 125 3.027653772416597E-2
594 178 4.203366358908421E-2
594 331 3.3352864415281576E-2
594 349 5.329369898186671E-2
594 385 4.26719690618085E-2
594 417 4.66737941074601E-2
594 458 1.4958983135419922E-2
594 548 2.373913164439071E-1
594 564 1.831563888873418E-2
594 637 4.625653972014785E-2
594 837 1.831563888873418E-2
595 60 3.421187469918239E-2
595 161 2.0516520841381006E-2
595 261 2.8882322551139594E-2
595 298 1.49300463635035E-2
595 316 4.8002780130554194E-2
595 421 8.119115996967766E-2
595 535 9.902244284608326E-2
595 635 1.1064151993972515E-1
595 735 3.653158317830953E-1
595 796 6.229169955109837E-1
595 835 1.7024410559387016E-2
596 15 1.0723747406441504E-1
596 272 1.831563888873418E-2
596 311 2.678123039829582E-1
596 355 8.56674496110157E-2
596 395 2.712447503642367E-1
596 439 4.2625147357288085E-1
596 531 1.74377580431707E-2
596 556 2.624557179247964E-1
596 639 3.157969241887283E-2
596 750 4.444186238648058E-2
596 804 5.089294757994596E-2
597 18 1.831563888873418E-2
597 73 9.388463970317573E-2
597 77 1.831563888873418E-2
597 177 2.6927880544722626E-2
597 262 9.559547460244328E-2
597 300 1.6511936980742815E-2
597 371 1.3759081951080412E-1
597 521 5.219868584408076E-1
597 553 1.8563499756047114E-1
597 605 9.178908841374307E-2
597 623 2.1026957860598567E-2
597 644 1.928395143757259E-2
597 717 1.8989242991040354E-2
597 751 4.6263440992881016E-2
598 158 7.973370607748263E-2
598 205 2.201069409222395E-1
598 263 7.898061884709677E-2
598 317 1.3565674456602259E-1
598 461 1.7466865639457603E-2
598 470 1.994871103853173E-2
598 534 1.1877951040767282E-1
598 538 6.330033152309217E-2
598 600 2.3219749847482228E-2
598 797 1.831563888873418E-2
599 57 2.882847247584091E-2
599 110 3.130687597739271E-2
599 281 5.5677231769934936E-2
599 356 4.501706138088686E-2
599 387 7.119395660013268E-2
599 527 1.831563888873418E-2
599 724 1.8461463271860136E-2
599 761 2.2190548624343314E-2
599 794 1.954624184053611E-2
599 819 1.735411793165139E-2
600 103 1.2064839186751325E-1
600 138 1.831563888873418E-2
600 205 1.953624401878512E-2
600 350 6.310933390572868E-2
600 400 1.49031069592919E-2
600 461 4.8167483496795643E-1
600 470 2.292931300558516E-1
600 538 1.6585759338127254E-2
600 598 2.3219749847482228E-2
600 630 1.1509436228066286E-1
600 687 7.226659965767579E-2
600 755 1.2647043844529482E-1
600 782 1.4567716597852934E-1
601 89 1.831563888873418E-2
601 145 1.831563888873418E-2
601 268 7.45809470035948E-2
601 286 7.705422968546038E-2
601 363 1.2390471645396351E-2
601 374 4.672790673169097E-1
601 463 6.948345122280154E-2
601 483 1.61843372604417E-2
601 529 3.2029009770666644E-1
601 655 2.7553332214763943E-2
601 682 4.097495423626949E-1
601 718 1.726133717372421E-1
601 832 3.2922052221978505E-2
602 4 9.541546916400426E-2
602 33 1.904091777059093E-2
602 150 2.4062623930975337E-2
602 212 1.831563888873418E-2
602 226 2.862719730656342E-2
602 392 6.61876122953162E-2
602 404 2.9814388413263276E-1
602 423 5.283935319062373E-2
602 520 3.290154774386258E-1
602 607 1.5987912194720257E-2
602 659 2.2097433004261288E-1
603 118 4.4065508528571225E-2
603 321 6.78192574683549E-2
603 384 1.0994311230884274E-1
603 590 2.1898438405823575E-2
603 606 1.1762428729074159E-1
603 621 3.3809515683649594E-2
603 640 2.54070833261354E-2
603 716 3.363271847765398E-1
603 822 1.4956677810358955E-2
603 844 2.0110896296612085E-2
604 35 6.0102976887317916E-2
604 190 4.413651492688911E-2
604 195 3.195984992523364E-2
604 216 3.2266203114436495E-2
604 330 4.560584922337294E-2
604 453 1.5177135759648008E-1
604 544 3.944892278032664E-2
604 614 3.677547939784882E-2
604 647 5.3971548785148024E-2
604 653 1.941383511338164E-2
605 73 1.7605016408065036E-1
605 177 1.653298170058956E-1
605 186 1.8714408599702553E-2
605 262 2.0524279314509858E-1
605 299 4.830577879784444E-2
605 300 5.232275198671217E-2
605 521 7.452825102304558E-2
605 553 5.872443739241896E-2
605 597 9.178908841374307E-2
605 672 6.626090319415066E-2
605 710 3.156768520316061E-2
605 751 1.933081035700029E-1
606 118 3.6150216815582115E-2
606 146 9.858780182047715E-2
606 321 1.549320441134124E-1
606 384 1.3793067562947017E-1
606 487 1.0801946462387621E-2
606 537 3.387182299739965E-2
606 603 1.1762428729074159E-1
606 714 1.831563888873418E-2
606 716 3.945122718361463E-2
606 822 2.1155489510240537E-2
606 844 3.5876455877695806E-2
607 11 4.2183999622017965E-2
607 56 1.3190177854764526E-2
607 150 1.1899724103011769E-1
607 212 2.7323722447292583E-2
607 294 1.8526161169099248E-2
607 304 1.1799148039765914E-1
607 414 5.096273078983791E-2
607 420 1.3073828687908049E-2
607 426 3.0462105195823097E-2
607 520 7.599081075360999E-2
607 523 8.292413466352719E-2
607 602 1.5987912194720257E-2
607 616 6.258242955979601E-2
607 659 1.2690074108696256E-1
608 104 8.823552098924761E-2
608 205 2.6548811374347853E-2
608 220 4.17980458956296E-1
608 263 3.2230706170721335E-1
608 269 3.422242152358732E-1
608 538 3.232893726753444E-2
608 586 2.9223360125410137E-2
608 756 2.6646675217822824E-1
608 797 8.23711749712299E-2
608 846 9.926681934628286E-3
609 11 4.8676622693180016E-2
609 291 2.0145750527577673E-2
609 294 8.448528136148656E-2
609 407 3.62144981355177E-2
609 420 1.831563888873418E-2
609 426 6.09315005531981E-2
609 436 5.16943899460395E-2
609 503 2.511699610560657E-2
609 592 1.6568522369480847E-2
609 726 7.719631866523191E-2
609 729 1.1658096218462768E-2
609 841 1.2432898671995216E-2
610 48 3.355748257555607E-2
610 100 6.26217760065981E-2
610 208 5.308930324465884E-2
610 334 4.1822871391861804E-2
610 391 1.9041743596602168E-1
610 480 1.6710080494081583E-2
610 530 1.403939678571836E-1
610 559 1.831563888873418E-2
610 786 2.79320179497291E-2
610 815 4.9332395118924816E-2
611 165 6.800331957188323E-2
611 204 5.8877389784726335E-2
611 234 1.831563888873418E-2
611 338 1.8647635418473408E-2
611 358 3.0122950668770302E-2
611 435 2.0242374868741977E-1
611 626 3.5644461897493124E-2
611 649 8.849185894718305E-2
611 705 2.7016266993362077E-2
611 720 1.609587024231253E-2
611 765 1.5905434912533273E-1
611 793 3.1129067199171107E-2
611 808 1.456952532244687E-1
612 43 1.7290970537538913E-1
612 46 6.599132109263195E-2
612 49 4.2798957464860135E-2
612 122 6.604226801565612E-2
612 137 1.831563888873418E-2
612 175 2.7626704185401158E-2
612 236 1.9434988020049437E-1
612 312 4.673363494232556E-2
612 478 2.2847936493230397E-2
612 485 2.2158728220451653E-2
612 683 1.5184197956837972E-2
612 694 1.4468117258266014E-2
612 709 7.498432476103846E-2
612 760 6.40773999952243E-2
612 814 2.602284461225821E-2
612 817 3.222720723797962E-2
612 830 2.703774027717658E-1
613 17 2.761617541500914E-2
613 42 2.8181916144836557E-2
613 231 5.257573204256244E-2
613 232 1.7849316054035097E-1
613 375 9.96810265025126E-3
613 412 1.956341987139968E-2
613 499 1.831563888873418E-2
613 615 2.7631881482429396E-2
613 656 2.3126100457166468E-2
613 752 3.248025410040516E-2
614 35 1.7736537277902416E-2
614 44 4.284605759053072E-2
614 176 6.538274342197946E-2
614 237 2.109279999048299E-2
614 247 4.6448609928483334E-2
614 303 2.8806612704948903E-1
614 399 2.19938268208299E-2
614 452 3.264431286329688E-2
614 453 2.7234768464845405E-2
614 544 1.1418085145004825E-1
614 604 3.677547939784882E-2
614 647 5.610733222962488E-1
614 753 1.439342965787262E-1
615 17 5.1683493535060104E-2
615 42 5.8360178581899486E-2
615 184 6.937530579527583E-2
615 231 2.1977039947459302E-2
615 232 8.651386643192344E-2
615 250 1.3517930119514502E-2
615 375 1.9281713276840976E-2
615 499 2.8285087384927143E-2
615 613 2.7631881482429396E-2
615 785 1.831563888873418E-2
616 33 1.831563888873418E-2
616 150 3.1002599892108008E-2
616 304 3.917255105985337E-2
616 414 1.5456424838958205E-1
616 420 4.040346303479903E-2
616 423 1.5890488616895307E-2
616 426 2.750547603064747E-2
616 520 1.5145448084843945E-2
616 523 1.1445014702925048E-1
616 607 6.258242955979601E-2
616 659 7.305267040252078E-2
617 8 2.4067996989767217E-2
617 32 3.1670652084245204E-1
617 417 2.242997986361532E-2
617 430 5.4133635422606796E-2
617 637 6.747249522519111E-2
617 659 1.626169834138E-2
617 665 2.5599096070004802E-2
617 704 7.536482796489216E-2
617 743 1.864124174680708E-2
617 770 2.5046456945319248E-2
617 840 1.831563888873418E-2
618 22 1.831563888873418E-2
618 74 1.587846836214976E-1
618 90 1.831563888873418E-2
618 231 2.045551476002598E-2
618 270 2.8706130658922975E-2
618 319 1.2996167836703026E-1
618 375 5.4088857700259035E-2
618 379 1.831563888873418E-2
618 412 3.660572446830267E-2
618 499 3.375651132519675E-2
618 551 3.0351171147489673E-2
618 656 1.7226114004718546E-2
618 689 2.137990391810941E-2
619 47 1.776066264948603E-2
619 134 7.528851667135399E-2
619 158 2.56929546823095E-2
619 170 2.0378063636908247E-1
619 251 1.5784308913485162E-1
619 291 1.6683178815113345E-1
619 378 2.6823912322054645E-2
619 636 1.831563888873418E-2
619 726 7.874516015309287E-2
619 775 3.9527081643578627E-2
619 788 4.494455853266645E-2
620 19 1.3120953204594996E-1
620 39 1.4191480307670534E-1
620 71 4.9982439511807736E-1
620 210 6.42947332923827E-1
620 403 1.8688653393591666E-2
620 468 6.139016253565106E-2
620 494 4.0127785695458454E-2
620 500 1.831563888873418E-2
620 550 5.746649782098868E-2
620 799 8.937979034714658E-2
621 197 7.019756060354355E-2
621 218 3.992075576594142E-2
621 252 2.7413455445420877E-2
621 321 3.181387509115673E-2
621 487 1.0459403961150962E-1
621 560 3.641103337459206E-2
621 590 3.561502808242827E-2
621 603 3.3809515683649594E-2
621 640 2.2797310731391301E-1
621 822 9.657616446455958E-2
621 844 5.594223811389745E-2
622 81 1.4480432552546493E-2
622 206 4.015936106476837E-2
622 209 2.5391204726583964E-2
622 240 2.2128514524262614E-2
622 277 1.8740330544188836E-2
622 353 1.1964296734534366E-1
622 354 6.498983829045973E-2
622 364 1.831563888873418E-2
622 388 7.67397659901929E-2
622 809 1.9065299300984193E-2
623 73 3.0736256177431243E-2
623 133 6.747159177938007E-2
623 177 5.2296822127851306E-2
623 299 5.190358858719123E-2
623 356 1.3195639399903992E-2
623 425 2.888494200224265E-2
623 521 6.9884277638092E-2
623 597 2.1026957860598567E-2
623 710 5.545694063338202E-2
623 820 1.831563888873418E-2
624 118 8.462773085640252E-2
624 377 3.175056110899036E-2
624 427 4.8416171149149034E-2
624 469 5.5727571852794845E-2
624 491 1.831563888873418E-2
624 525 1.4172337346617667E-2
624 571 6.863127005059112E-1
624 714 1.2279882160583312E-1
624 731 2.416489815619691E-2
624 818 4.538119431770484E-1
625 84 3.589821632821933E-2
625 414 4.41444859559559E-2
625 426 1.8733468246191178E-2
625 484 3.159086703492486E-2
625 523 2.6030282396534793E-2
625 552 7.935414579217957E-2
625 558 2.034872867322478E-2
625 588 1.1384330076732775E-1
625 770 1.831563888873418E-2
625 845 2.9523864074677417E-2
626 135 4.231720337848443E-2
626 143 1.831563888873418E-2
626 165 4.05719489967797E-2
626 168 3.8356636359325014E-2
626 171 4.1989290497744074E-2
626 174 1.9624821982702677E-2
626 204 6.145354937827826E-2
626 234 1.9907342077733668E-2
626 256 5.5322519434655285E-2
626 301 2.1956030255434876E-2
626 308 3.884592652045548E-2
626 422 1.6963737247925832E-2
626 490 4.8994718090719216E-2
626 507 5.026965331557099E-2
626 611 3.5644461897493124E-2
626 649 2.6785809152613867E-2
626 706 2.4970541733979005E-2
626 720 3.963391152902527E-2
626 779 5.011497323497019E-2
626 811 1.6104525319186446E-2
626 833 1.978601462781864E-2
627 69 1.2383627781396202E-1
627 95 4.565323719470268E-2
627 97 1.831563888873418E-2
627 125 1.6688702995300904E-2
627 178 1.569216792069491E-1
627 254 2.7191830238451172E-2
627 409 1.831563888873418E-2
627 417 8.46403133372384E-2
627 450 2.1522519741463852E-2
627 458 1.7664464461663432E-1
627 628 4.4404058038306576E-1
627 692 1.717129595535084E-2
627 733 1.48295450534956E-1
628 26 1.831563888873418E-2
628 69 8.59363415278145E-2
628 95 7.015804256332983E-2
628 125 2.18964978290686E-2
628 173 1.831563888873418E-2
628 178 1.6666531913022023E-1
628 254 3.577002018934085E-2
628 276 3.677793732321874E-2
628 409 7.532400402183854E-2
628 450 1.831563888873418E-2
628 454 4.70132951959589E-2
628 458 9.019357352082294E-2
628 627 4.4404058038306576E-1
628 692 4.935098005847326E-2
628 733 1.912687930633326E-1
629 65 4.459222892165678E-2
629 151 9.834648284576092E-2
629 223 1.6567076407891365E-1
629 332 2.5833717347029113E-2
629 360 1.831563888873418E-2
629 444 2.9909229042235413E-1
629 447 4.6532305006209584E-2
629 465 5.263567922906142E-1
629 479 2.8815008233933303E-2
629 660 5.116929288665E-2
629 750 2.651838806148863E-2
630 103 8.931859425509273E-2
630 138 1.7258545996599078E-1
630 235 9.051802727778205E-3
630 350 1.6297259382635465E-1
630 400 1.571919030122138E-1
630 461 1.6823149409874977E-1
630 470 1.948745222594975E-2
630 600 1.1509436228066286E-1
630 631 2.9275968866052902E-2
630 747 4.410642139212792E-2
630 755 3.144675567138358E-2
630 782 1.0994311230884278E-1
631 47 2.7786534878745505E-2
631 138 1.831563888873418E-2
631 164 3.161088955577354E-2
631 180 1.8533679648959172E-2
631 225 7.410076292011052E-2
631 278 3.039240502149663E-1
631 400 1.8939621748210102E-2
631 630 2.9275968866052902E-2
631 636 1.4407591843112338E-2
631 747 7.380231648896382E-2
631 812 1.4044168033518062E-1
631 829 2.4241044489777416E-2
632 171 6.135636993880878E-2
632 234 1.8679980252557915E-1
632 308 1.831563888873418E-2
632 422 8.199012096316298E-2
632 429 7.314832876528582E-2
632 490 1.0018929733894995E-1
632 528 1.8970261639311675E-1
632 533 1.9641099314737E-2
632 779 3.554586729055048E-2
632 793 2.0145083049815227E-1
633 169 2.1981117953008036E-1
633 200 2.1646788508558577E-2
633 209 5.3880808260451836E-2
633 219 3.5609249275480266E-2
633 271 1.8568178008247377E-1
633 277 1.0300756430465918E-1
633 305 1.2922648078900116E-2
633 369 7.72036995160404E-2
633 663 8.969434837721413E-2
633 670 4.332763708773661E-2
634 99 2.9157971352179384E-2
634 117 2.382236724238844E-2
634 130 2.7855554429852502E-2
634 162 4.349847694724642E-2
634 310 8.831011857445568E-2
634 405 1.7537748950388777E-2
634 432 3.441550684090892E-2
634 455 4.1958076518159214E-2
634 462 5.794895332304517E-2
634 528 1.831563888873418E-2
634 533 8.083996310883257E-2
634 539 7.730474044329974E-2
634 555 9.561573882871907E-2
634 727 1.6193819311329719E-1
634 730 2.7973239577631766E-2
634 737 2.5567314651722056E-1
634 772 6.731517632066866E-2
635 27 2.0061495276361817E-2
635 121 1.4670486871837407E-1
635 161 3.402705697731654E-1
635 261 5.3922700232054574E-2
635 290 9.308584669792891E-2
635 298 4.216586798931321E-2
635 343 8.166584209724552E-2
635 368 2.5267572152198485E-2
635 381 2.0949655536198358E-2
635 421 1.831563888873418E-2
635 516 7.091678824905037E-2
635 535 1.6829610998636422E-2
635 595 1.1064151993972515E-1
635 735 5.13188591453573E-2
635 796 6.283580849462052E-2
635 802 1.3131572331603314E-1
635 835 2.2110040017316385E-1
636 47 1.2725803761999327E-1
636 158 2.2416237185148646E-1
636 251 5.087103682692912E-2
636 316 1.1603700224776005E-1
636 317 1.514007631454277E-1
636 421 2.5535329689370678E-2
636 437 2.7156092775615186E-2
636 619 1.831563888873418E-2
636 631 1.4407591843112338E-2
636 829 7.748551730446457E-2
637 32 1.2129300084598249E-1
637 331 1.0467648986369224E-1
637 349 1.831563888873418E-2
637 417 8.383763733596968E-2
637 548 5.511802078802701E-2
637 594 4.625653972014785E-2
637 617 6.747249522519111E-2
637 665 2.616866730515118E-2
637 704 5.5625648000806355E-2
637 792 1.3906062818660046E-2
637 840 5.017816666596583E-2
638 109 2.370817191173094E-2
638 119 3.486325606942548E-2
638 196 2.384666005418395E-2
638 199 1.163397179891311E-2
638 238 7.780330028580831E-2
638 266 4.9992375575949495E-2
638 283 2.1493601345089923E-2
638 315 5.949766673018645E-2
638 413 3.5807105108572816E-2
638 434 9.275188278425035E-3
638 493 2.5722804176116193E-2
638 591 1.9105911163939587E-1
638 748 4.001940551647398E-2
638 759 2.03851917000907E-1
638 766 3.8221090205811784E-2
638 815 5.5213282804043445E-2
639 15 4.6438561613566624E-2
639 120 1.5959197512511673E-2
639 191 3.972765526558252E-2
639 327 2.2355295708836872E-2
639 355 5.013108513457256E-2
639 439 6.116469366415336E-2
639 465 1.831563888873418E-2
639 596 3.157969241887283E-2
639 644 3.6131815560316125E-2
639 804 1.2403113610400866E-1
639 827 5.114276065062213E-2
640 197 3.074643626225022E-1
640 218 2.876036168680356E-2
640 227 2.1660649222595398E-2
640 384 3.2033375558411924E-2
640 487 4.18156732108545E-2
640 560 7.050257223382199E-2
640 577 1.831563888873418E-2
640 603 2.54070833261354E-2
640 621 2.2797310731391301E-1
640 787 4.1201008572096354E-2
640 822 2.9260068815464384E-2
640 844 3.3749334949328885E-2
641 76 1.831563888873418E-2
641 93 8.459574062440987E-2
641 297 5.309457969185092E-2
641 324 2.926149663214745E-2
641 441 7.632286848559777E-2
641 578 1.831563888873418E-2
641 671 2.0008308846307762E-1
641 712 5.367286759006303E-2
641 757 6.396387427365674E-1
641 773 1.7366520561315185E-1
642 5 2.2264308620204697E-2
642 13 2.9981431663572308E-2
642 31 1.831563888873418E-2
642 101 1.831563888873418E-2
642 292 2.4180174376470395E-2
642 293 1.421313820047681E-2
642 359 2.134602045667683E-2
642 394 2.913295802630203E-2
642 419 7.621761466463467E-2
642 451 4.3336676036701854E-2
642 524 2.8375988080493336E-2
642 541 2.155126907957865E-2
642 545 9.754666496843684E-2
642 680 2.4877788435604863E-2
643 107 2.1465305063523798E-2
643 152 1.5032648684983324E-2
643 318 3.357614635848753E-2
643 351 8.100151391860849E-1
643 479 3.457143179991069E-2
643 527 2.0689760902245898E-2
643 662 1.9327008290219105E-2
643 724 4.225477748981664E-2
643 761 1.445983569926213E-2
643 777 3.4757858331674045E-2
643 783 2.0945251327964665E-1
643 794 2.5130488985274438E-2
643 819 2.912392042786667E-1
644 18 2.0398753047197526E-1
644 73 1.7141765773303088E-2
644 186 8.878492014972592E-2
644 371 2.750497367504999E-2
644 460 3.559622990484178E-2
644 597 1.928395143757259E-2
644 639 3.6131815560316125E-2
644 654 2.476851922676025E-2
644 695 1.401500845142978E-1
644 827 1.0010931527369893E-1
645 160 4.9787068367863924E-2
645 193 1.6941074120868607E-2
645 302 5.152273629773005E-2
645 339 1.719507259217076E-1
645 348 2.385146058965929E-2
645 353 2.0852732789814567E-2
645 357 3.3468080322674176E-2
645 364 3.4676185389355046E-2
645 572 2.5158997761555398E-2
645 573 5.6566382130156356E-2
645 723 1.831563888873418E-2
645 745 3.916389509898709E-2
645 749 7.198709324090415E-2
646 14 2.143015749831234E-2
646 64 2.3310864050084788E-2
646 98 5.498511093634072E-2
646 193 2.598618796919342E-2
646 217 3.369855803066351E-2
646 282 8.80754715399319E-2
646 293 2.7671694305696548E-2
646 302 3.61213103233633E-2
646 306 1.831563888873418E-2
646 340 8.030367013263914E-2
646 365 2.454789689967097E-2
646 398 1.7889965220251608E-1
646 475 2.2246834379834664E-2
646 697 1.831563888873418E-2
646 699 3.46455286459201E-2
646 736 1.3781837598311473E-2
646 807 3.905322467831804E-2
647 35 7.692484504387793E-2
647 44 3.296634164064374E-2
647 176 3.763196877884205E-2
647 247 3.0158594238930542E-2
647 303 1.8051227071142126E-1
647 330 2.5561533206507402E-2
647 396 1.831563888873418E-2
647 399 1.693400797952337E-2
647 452 1.2031438840089924E-1
647 453 8.253232721261558E-2
647 512 8.94665914933447E-3
647 544 4.464672337663009E-2
647 604 5.3971548785148024E-2
647 614 5.610733222962488E-1
647 653 4.670846874210335E-2
647 753 5.736526938467144E-2
648 30 7.955950871822769E-2
648 84 4.2950034110688584E-1
648 113 1.1607730686779524E-1
648 408 2.9296036934865984E-2
648 433 1.9285178599107222E-1
648 489 2.1287737843223107E-2
648 504 4.773127544077261E-1
648 552 2.4518353159227027E-2
648 758 1.4190134159660731E-2
648 774 1.980392754686106E-2
649 135 1.831563888873418E-2
649 165 2.2768182274662738E-1
649 204 7.639101874635915E-2
649 301 1.3518236267881477E-2
649 403 1.8764163001756293E-2
649 435 6.260024137397163E-2
649 510 9.114398725180415E-3
649 550 1.4256220066537048E-1
649 611 8.849185894718305E-2
649 626 2.6785809152613867E-2
649 705 1.8771757089801167E-1
649 720 2.433911781841592E-2
649 765 6.494742287901338E-2
649 808 1.9902379777374313E-1
650 108 2.244231663913119E-2
650 128 1.3593251560464653E-2
650 148 4.505801914710506E-2
650 159 3.471248919206697E-2
650 192 2.2803940755389447E-2
650 213 5.319174094517383E-2
650 313 1.3271258931795515E-1
650 340 1.8031129875750146E-2
650 341 5.8338835235973954E-2
650 406 1.831563888873418E-2
650 433 1.8887956745928056E-2
650 508 3.475271275201905E-2
650 589 1.4002735413754923E-2
650 657 1.831563888873418E-2
650 742 3.3445117661261264E-2
650 768 2.9295168299314306E-2
650 795 1.3375551198203214E-1
651 3 1.3639258478011537E-1
651 16 4.7577487079399995E-2
651 20 1.8993023947646362E-2
651 25 2.2578300769962484E-1
651 34 2.1583359049003645E-2
651 41 2.006566272007097E-2
651 181 9.630963474708953E-2
651 189 3.080582510646728E-2
651 229 1.661156019136446E-1
651 338 2.9044615790895973E-2
651 449 3.944592913611004E-2
651 575 5.213801649200956E-1
651 702 5.169539820392293E-2
651 730 1.831563888873418E-2
651 737 1.59216124203129E-2
651 798 2.5986840167465906E-2
652 30 2.5922450745501816E-2
652 225 2.6063524960140815E-2
652 246 1.831563888873418E-2
652 342 2.2365953157336982E-1
652 385 4.294234490111388E-2
652 457 7.739819635923373E-2
652 552 3.291456903390486E-2
652 558 3.7902914400958505E-2
652 696 1.831563888873418E-2
652 837 4.9254591456217564E-2
653 35 6.594560971049253E-2
653 141 6.845753984716019E-2
653 202 1.831563888873418E-2
653 241 1.5039300575272918E-2
653 247 2.6444719850217516E-2
653 303 3.4909956543277845E-2
653 452 1.831563888873418E-2
653 453 1.798619782869351E-1
653 514 1.831563888873418E-2
653 565 4.670846874210335E-2
653 604 1.941383511338164E-2
653 647 4.670846874210335E-2
653 753 1.5541039455863135E-2
654 10 1.831563888873418E-2
654 18 7.591190026147966E-2
654 73 2.6540300991506182E-2
654 186 3.015096162759015E-2
654 371 2.705408264856054E-2
654 460 5.694914800398593E-1
654 644 2.476851922676025E-2
654 667 1.831563888873418E-2
654 695 2.0710166841159872E-1
654 710 2.8028162953258787E-2
654 717 4.320417340425628E-2
655 89 1.749961483879303E-2
655 187 2.4920856661102133E-2
655 268 5.239448323903792E-2
655 286 2.620405775180361E-2
655 363 6.467250746083423E-3
655 374 2.811229884290361E-2
655 463 1.831563888873418E-2
655 529 4.537077837519367E-2
655 566 7.632813680693257E-2
655 601 2.7553332214763943E-2
655 682 4.300480115971809E-2
656 17 1.831563888873418E-2
656 22 2.6104283030204775E-2
656 42 2.664909733635546E-2
656 231 4.3546283447187006E-1
656 319 1.201216348410373E-1
656 375 6.118414932580353E-2
656 412 7.45524682645874E-2
656 499 9.208819517904791E-2
656 613 2.3126100457166468E-2
656 618 1.7226114004718546E-2
656 752 9.399012196297737E-2
657 14 1.667351971563601E-2
657 75 2.244915320323227E-2
657 87 1.5382572444694277E-2
657 98 1.0912468102322892E-1
657 128 2.0278748399151898E-2
657 159 2.9303314549270217E-2
657 213 5.7050797171042465E-2
657 282 2.858048099211018E-1
657 293 1.831563888873418E-2
657 313 8.232630662858927E-2
657 340 1.3065107631113182E-1
657 406 1.7716163390193086E-2
657 419 1.1059776430467537E-2
657 650 1.831563888873418E-2
657 677 5.792546790976252E-2
657 699 1.8604637103394793E-2
657 795 2.646071937334101E-2
657 826 4.3383615776349665E-2
657 839 4.125553782900807E-2
658 31 3.377526302711527E-2
658 122 3.7236506852391445E-2
658 126 2.073708811333532E-2
658 175 1.831563888873418E-2
658 201 2.8791593110030766E-2
658 222 1.9905170032707495E-1
658 253 1.3712140314464662E-2
658 255 1.6176939889973627E-2
658 312 1.600232752441147E-2
658 365 2.5122090830965466E-2
658 415 3.625879991987396E-2
658 478 9.533744825622917E-2
658 509 4.226146510065511E-2
658 546 1.3789970212922617E-2
658 723 1.831563888873418E-2
658 830 2.3687831735461375E-2
659 4 4.304835994149683E-2
659 33 4.85816299585598E-2
659 150 3.512198907652615E-2
659 212 1.831563888873418E-2
659 392 3.236997711598932E-2
659 404 1.6248759336465934E-1
659 414 4.9697764233322256E-2
659 423 4.584296215384415E-2
659 430 1.7396607701023685E-2
659 520 2.732693617130788E-1
659 523 5.7780816432336665E-2
659 602 2.2097433004261288E-1
659 607 1.2690074108696256E-1
659 616 7.305267040252078E-2
659 617 1.626169834138E-2
659 770 2.5529032850803983E-2
660 70 1.9908457741256685E-2
660 151 1.1790619701064839E-1
660 223 2.4777280866997976E-2
660 324 1.974474889562201E-1
660 332 1.9084505478025423E-2
660 444 5.79618767007432E-2
660 447 6.516204007942479E-2
660 465 3.942958308774251E-2
660 629 5.116929288665E-2
660 671 4.0741776915913144E-2
660 750 1.7250298812075293E-1
660 773 1.1610853894784023E-1
661 9 8.226441931456152E-2
661 56 1.831563888873418E-2
661 83 2.3582128998424705E-2
661 228 4.638834342001334E-2
661 264 1.2049324133127123E-1
661 304 1.5503853599009314E-2
661 436 1.0148149748770646E-1
661 542 6.444268644910611E-1
661 570 1.880311045616726E-1
661 708 1.831563888873418E-2
661 841 2.2665191636150557E-2
662 29 1.542460307343231E-1
662 61 3.490862951119502E-2
662 107 2.283754553277308E-2
662 351 1.7905795734139546E-2
662 643 1.9327008290219105E-2
662 713 1.831563888873418E-2
662 724 7.708553034566302E-1
662 744 3.789316821577155E-2
662 762 3.490862951119502E-2
662 794 4.207435656128983E-2
663 78 2.5201517605696427E-2
663 119 1.831563888873418E-2
663 169 1.8709508577841514E-2
663 230 1.7183085378818748E-2
663 243 6.658873511522467E-2
663 277 2.7053765505086175E-2
663 323 2.2024433310217577E-2
663 352 3.279347313447015E-2
663 369 5.42097977259871E-2
663 438 2.686257361457305E-2
663 633 8.969434837721413E-2
664 50 2.5759481734391042E-2
664 207 1.4453601655318074E-1
664 363 3.6659533755028145E-2
664 370 1.1611744384055192E-1
664 483 5.868527810709202E-2
664 488 4.172670758586772E-2
664 526 1.831563888873418E-2
664 579 1.776853638565697E-2
664 666 4.467217810519609E-2
664 700 2.886317715139118E-1
664 834 2.269462234185353E-2
665 8 2.6417679074246797E-1
665 32 3.1127968280570625E-2
665 138 1.831563888873418E-2
665 235 4.21981595779442E-2
665 400 1.9692599851829813E-2
665 471 1.6811918395149852E-2
665 617 2.5599096070004802E-2
665 637 2.616866730515118E-2
665 704 2.4205715123447194E-1
665 743 1.831563888873418E-2
665 792 7.405365332050118E-2
665 840 4.3020536706136453E-1
666 116 3.52081083082101E-2
666 147 1.5714867490722792E-1
666 370 4.271722035031858E-2
666 485 1.831563888873418E-2
666 488 1.6736876086074357E-2
666 526 2.5251411105988393E-2
666 664 4.467217810519609E-2
666 681 1.0562213436514362E-1
666 700 1.701988723898991E-2
666 817 4.1224093726581444E-2
666 834 7.791687886716231E-2
667 10 3.1398816024842124E-1
667 57 8.084674124141272E-2
667 281 2.1871188695221472E-1
667 318 2.191026566857169E-2
667 356 1.4315677694325958E-2
667 387 4.290358028515707E-2
667 425 1.3751806344428075E-1
667 654 1.831563888873418E-2
667 695 6.823483959963227E-2
667 761 9.277296565539585E-2
668 20 1.981202963223141E-2
668 34 2.5353907592741125E-2
668 45 1.8092620183065632E-2
668 59 2.8281898720393306E-1
668 189 4.173900664214091E-2
668 229 1.9447154926048562E-2
668 279 5.162096943997689E-2
668 347 9.314590128029865E-2
668 448 1.6078565985187934E-2
668 476 6.184117707345331E-2
668 497 2.6763045318643805E-2
668 576 7.733786335659237E-2
668 730 1.6135414013959973E-2
668 764 1.970347509985162E-2
668 833 2.2853847875639762E-2
669 1 1.4308327332702807E-2
669 36 1.1766452694646383E-1
669 94 3.170429383679647E-2
669 112 4.382407230968196E-2
669 116 5.13828956470926E-2
669 201 3.442409140231139E-2
669 373 3.717268468957345E-2
669 451 1.831563888873418E-2
669 573 1.831563888873418E-2
669 723 3.596881806738247E-2
669 745 2.536646620244689E-1
670 80 2.810434787636305E-2
670 144 1.4888423493711424E-2
670 169 2.072520898322335E-2
670 238 1.831563888873418E-2
670 277 1.831563888873418E-2
670 305 1.831563888873418E-2
670 323 2.479257277912297E-2
670 326 9.30608227037085E-2
670 424 2.3452356559856447E-1
670 554 1.556002413293727E-1
670 559 2.3261487677921758E-2
670 569 4.689890477371925E-2
670 633 4.332763708773661E-2
670 679 4.3662295524231975E-1
670 791 4.615743568136861E-2
671 76 1.5329980438059046E-2
671 297 2.875705413978513E-2
671 324 5.819601039824702E-1
671 332 3.694793150647757E-2
671 441 1.9160829423587045E-2
671 447 1.831563888873418E-2
671 641 2.0008308846307762E-1
671 660 4.0741776915913144E-2
671 750 1.910328943859444E-2
671 757 2.296548050971785E-1
671 773 4.578691851373834E-1
672 73 9.104994908895603E-2
672 211 1.171010782721898E-1
672 262 4.581677342915161E-2
672 299 1.3563021954937582E-2
672 300 3.789032938757669E-2
672 325 1.831563888873418E-2
672 605 6.626090319415066E-2
672 710 4.7695302098975864E-2
672 717 2.6488350979627477E-2
672 767 2.923408104233921E-2
672 776 2.456897951573534E-2
673 117 1.2776295860985677E-2
673 130 6.0843255890019154E-2
673 131 8.349681479694576E-2
673 259 1.6248174342938165E-1
673 289 1.831563888873418E-2
673 585 3.5738943704105956E-2
673 713 9.8886852109459E-2
673 769 4.593669011413989E-2
673 781 3.384091911846655E-2
673 805 2.0041321289972124E-2
674 4 1.9435786069749023E-2
674 24 1.997563477957866E-2
674 33 6.1987537772631766E-2
674 111 1.831563888873418E-2
674 123 4.1098616414892895E-2
674 341 1.9435786069749023E-2
674 423 5.026717139977226E-2
674 589 1.4981888481108697E-2
674 754 4.756480887789241E-2
674 768 1.9794039356130513E-2
675 52 4.205576863330039E-2
675 85 1.221428396198273E-1
675 179 2.7978358243487805E-2
675 190 7.772975606682375E-2
675 195 1.7791747438777258E-2
675 280 2.5664396380676816E-2
675 398 2.0336279160812223E-2
675 406 1.937202558648271E-2
675 418 1.657464611052898E-2
675 549 1.5136692672218138E-1
675 680 3.1557040876884435E-2
675 697 2.9217922522698284E-2
675 698 2.714013709918818E-2
675 800 4.1025936075015335E-1
676 68 2.76350662933446E-1
676 72 4.594178194874357E-2
676 146 1.831563888873418E-2
676 260 3.81179488771883E-2
676 345 9.046739462746775E-2
676 390 1.0097025677073346E-1
676 501 7.30985074818693E-2
676 590 9.078070130924573E-2
676 711 1.831563888873418E-2
676 716 1.955913422006213E-2
676 844 6.980997065415765E-3
677 5 1.831563888873418E-2
677 98 7.753627824259345E-2
677 198 1.2052623276290099E-1
677 217 1.6743927459627182E-2
677 282 1.1523892887388625E-1
677 365 1.831563888873418E-2
677 419 1.5002092992119334E-1
677 466 1.5657727710150499E-1
677 545 4.70120462125911E-2
677 593 2.0954108108328616E-2
677 657 5.792546790976252E-2
677 806 2.9777009051102175E-2
677 816 6.897516197460342E-2
678 29 3.005392818956002E-2
678 61 3.792435573224994E-2
678 70 2.522568895298053E-2
678 105 9.370253292647801E-2
678 130 1.831563888873418E-2
678 505 8.83784137755953E-2
678 693 5.916816144594064E-2
678 713 2.453583618345987E-2
678 744 2.6851909278742772E-2
678 769 1.6122697516434713E-2
678 781 1.4048213362301196E-1
678 794 2.9754512002022962E-2
679 80 1.0863970724955496E-1
679 144 1.9328234187633953E-2
679 233 1.4248251575760176E-2
679 283 6.881292857491575E-2
679 305 1.831563888873418E-2
679 326 4.032585986447745E-2
679 424 5.944139170767541E-1
679 554 1.2141666554866037E-1
679 569 5.277572035059276E-2
679 670 4.3662295524231975E-1
679 791 1.831563888873418E-2
680 176 4.564769760524835E-1
680 190 5.135916296732271E-2
680 195 2.3214021896048237E-2
680 536 2.0777250948436417E-2
680 544 4.9273804191210864E-2
680 549 1.9349820430514614E-1
680 568 2.1341487243290838E-2
680 642 2.4877788435604863E-2
680 675 3.1557040876884435E-2
680 728 3.711016453196568E-2
680 800 1.9090790694519244E-2
681 1 1.831563888873418E-2
681 116 2.592070579056346E-2
681 147 2.1188982275303794E-1
681 188 1.668870299530089E-2
681 478 4.58596083075935E-2
681 526 9.015710220165936E-2
681 666 1.0562213436514362E-1
681 725 3.00805658374421E-2
681 834 2.9526101206892513E-2
681 838 3.7838862173880924E-2
681 843 1.831563888873418E-2
682 89 2.8968247582827525E-2
682 145 2.3064121414220602E-2
682 187 2.1744458777038372E-2
682 268 8.301001436371987E-2
682 286 2.79489792733044E-2
682 374 1.7222640044274934E-1
682 463 5.016040297057335E-2
682 529 1.8921185983060998E-1
682 601 4.097495423626949E-1
682 655 4.300480115971809E-2
682 832 5.190304596108765E-2
683 46 3.363240664419336E-2
683 122 9.90134083638263E-2
683 137 1.9204990862075416E-1
683 236 8.005831278672058E-2
683 442 2.4108778896447022E-1
683 485 1.8966422634073526E-1
683 574 2.1908172847629203E-2
683 612 1.5184197956837972E-2
683 694 5.133244275013383E-2
683 709 2.4416405892030046E-2
683 830 3.33732699603261E-2
684 6 1.7455012216544893E-1
684 55 3.534633556171795E-2
684 86 1.831563888873418E-2
684 156 2.565630402725084E-1
684 172 4.44556525825979E-2
684 275 4.550352889395183E-2
684 295 3.604393314153066E-3
684 322 1.831563888873418E-2
684 382 3.8714950690187877E-1
684 397 1.196485357425454E-1
684 495 6.228307002082922E-2
684 532 5.0625463937952135E-2
684 688 1.6412099899712682E-2
684 734 6.790806842694111E-2
684 836 1.831563888873418E-2
685 35 2.6644638355802608E-2
685 44 6.175419083857508E-2
685 163 1.1142836047434868E-1
685 237 5.4060739508573125E-2
685 248 5.1999470708748066E-2
685 399 4.377340298434082E-1
685 543 5.101275690199783E-2
685 562 2.9733734597777103E-2
685 691 1.558578721371881E-2
685 721 9.080317446989261E-2
685 753 6.650539018039961E-2
685 767 4.505553887324264E-2
685 813 6.899602109110615E-2
685 842 3.301897595545387E-2
686 30 3.5673993347252374E-2
686 51 1.831563888873418E-2
686 100 2.5422233643710532E-2
686 142 2.5422233643710532E-2
686 208 1.5803229144349205E-2
686 323 2.75938064776118E-2
686 352 3.0042127295163878E-2
686 438 2.3594895308605937E-2
686 464 2.239488261926079E-2
686 480 1.9556917290950947E-2
686 511 2.0542776637841275E-2
686 530 3.414807101105183E-2
686 581 2.694222547519123E-1
686 786 4.295763061405887E-2
686 791 1.831563888873418E-2
687 11 1.831563888873418E-2
687 138 1.9090205401633753E-2
687 164 7.668513953625165E-2
687 350 2.3344439746685014E-2
687 400 1.788722265729101E-2
687 461 2.706625701201298E-2
687 470 2.3206714839103686E-2
687 580 2.0834985326552872E-2
687 600 7.226659965767579E-2
687 755 3.660053915427093E-2
687 782 2.3622346480941768E-2
688 55 3.253308916792184E-2
688 86 6.52296686751614E-2
688 156 2.8695553759937598E-2
688 275 1.831563888873418E-2
688 322 2.3485015590648692E-1
688 382 2.9636822939247378E-2
688 397 2.8429239636188628E-2
688 684 1.6412099899712682E-2
688 734 6.650901428553666E-2
688 836 1.3355145225000328E-1
689 17 3.728273408212918E-2
689 22 1.9031191231343556E-1
689 27 1.8539338584454723E-2
689 42 2.8089247670362007E-2
689 74 1.1224114648498228E-2
689 88 3.022365343668883E-2
689 90 8.290846187074032E-2
689 124 2.2069107601833067E-2
689 182 1.2402795166236309E-1
689 270 3.086103575557278E-2
689 375 2.5269404596330862E-2
689 379 1.5717184588267064E-1
689 412 3.009343384038474E-2
689 443 1.831563888873418E-2
689 499 1.7689525244181405E-2
689 618 2.137990391810941E-2
689 752 3.360422592729574E-2
689 846 4.813016565512812E-2
690 61 3.4460834358933774E-2
690 76 1.831563888873418E-2
690 151 5.7994615304913545E-2
690 223 2.1853532089254852E-2
690 265 2.826226573131465E-2
690 309 6.361235269847545E-1
690 332 1.4024439406010714E-1
690 444 1.5981420862038652E-2
690 447 1.4646167637258348E-1
690 762 4.329210703149276E-2
691 163 1.270404515151205E-1
691 187 1.831563888873418E-2
691 211 1.3071547400305908E-1
691 237 1.831563888873418E-2
691 248 3.648711573928268E-2
691 325 3.8784780212796695E-2
691 399 2.268027801627048E-2
691 410 1.831563888873418E-2
691 543 1.9909791093201834E-1
691 685 1.558578721371881E-2
691 767 4.016212183103776E-2
691 776 1.7897355576042686E-2
691 813 7.765819277201375E-2
692 40 8.819963161589728E-2
692 95 1.988303222353613E-2
692 173 2.071633323705998E-2
692 209 1.831563888873418E-2
692 276 5.035932725706607E-2
692 353 1.9543058195213715E-2
692 409 5.3260978871779455E-2
692 458 3.0688387056043043E-2
692 627 1.717129595535084E-2
692 628 4.935098005847326E-2
692 733 2.9453966671673812E-2
693 61 8.955491863918189E-2
693 70 2.211052781342025E-2
693 76 2.16883988138327E-1
693 131 2.368570969279988E-2
693 297 2.535455836456569E-2
693 309 4.394153748295403E-2
693 314 2.0130180848327423E-2
693 362 8.880108404394692E-2
693 441 6.395989721766683E-2
693 462 1.9767448431916215E-2
693 505 5.429521166472681E-2
693 678 5.916816144594064E-2
693 713 2.9848284634468078E-2
693 762 7.008373650065297E-2
693 769 1.974486387430238E-2
693 781 1.1480944492377142E-1
693 805 2.080428885969822E-1
693 824 2.2206043054830073E-2
694 58 2.087932940321377E-2
694 122 2.239031818245093E-2
694 222 7.944017218973598E-2
694 236 8.821770507936358E-2
694 245 4.110450179874614E-2
694 415 7.806461946350642E-2
694 498 1.831563888873418E-2
694 574 3.157392930371321E-1
694 612 1.4468117258266014E-2
694 683 5.133244275013383E-2
694 830 2.464806776062023E-2
695 10 1.560919626086028E-1
695 18 1.5862600295681822E-1
695 57 1.831563888873418E-2
695 186 7.158118084504211E-2
695 281 1.1930012885282313E-2
695 327 2.2666862765948363E-2
695 356 3.6081828800641425E-2
695 371 3.202231376438696E-2
695 425 7.052580203939504E-2
695 460 1.8652044847358407E-1
695 644 1.401500845142978E-1
695 654 2.0710166841159872E-1
695 667 6.823483959963227E-2
695 710 2.662151639975545E-2
695 827 1.0500667669407662E-1
696 63 1.831563888873418E-2
696 180 2.4621333120250482E-2
696 225 1.4811032811395475E-1
696 246 1.451538463833286E-1
696 278 3.403209844466899E-2
696 437 8.3566288691264E-2
696 457 3.643250782199661E-1
696 547 1.5717918648105078E-1
696 558 2.1665431110738E-2
696 652 1.831563888873418E-2
696 812 1.9006714586387495E-2
696 829 1.831563888873418E-2
697 108 3.5036974831749376E-2
697 257 3.9787922539378025E-2
697 293 1.800155209510894E-2
697 296 9.891310777301845E-2
697 340 6.673491317975648E-2
697 398 1.0418140488130112E-1
697 402 1.0925681642418722E-1
697 646 1.831563888873418E-2
697 675 2.9217922522698284E-2
697 736 7.763975504662522E-2
698 52 1.3780250590817028E-2
698 176 1.3292014177133788E-2
698 190 2.0493644824974122E-2
698 247 9.109185468098925E-2
698 280 2.097586378560743E-1
698 303 2.0867440253262804E-2
698 418 2.543016368747875E-2
698 544 3.634834005806729E-2
698 549 6.446885540666945E-2
698 565 3.669054191021796E-2
698 675 2.714013709918818E-2
698 800 2.952635838161416E-2
699 64 4.6530007214885094E-1
699 98 9.151024481051155E-2
699 127 2.1524034317051768E-1
699 128 2.6540300991506182E-2
699 282 8.52397755743586E-2
699 313 3.170212482795235E-2
699 340 3.207878279315491E-2
699 466 1.3219173617676905E-2
699 467 1.831563888873418E-2
699 475 1.8571797523836094E-2
699 646 3.46455286459201E-2
699 657 1.8604637103394793E-2
699 774 4.6548310324693476E-2
699 806 4.610088752834602E-2
700 50 1.831563888873418E-2
700 207 2.398857713142733E-2
700 286 5.841183904089605E-2
700 363 2.2511942037550903E-1
700 370 5.300981963237959E-2
700 463 1.174183789137903E-1
700 483 2.3997538223759443E-1
700 664 2.886317715139118E-1
700 666 1.701988723898991E-2
700 703 1.2605891308226372E-1
701 143 3.2347650996599676E-2
701 166 7.880901359422988E-2
701 168 2.05580162059564E-2
701 214 2.9123894671242687E-2
701 256 3.49749984959923E-2
701 308 2.0966353819208625E-2
701 377 1.8904267545191616E-1
701 416 1.6419408358082876E-1
701 469 1.831563888873418E-2
701 482 4.63461044385656E-2
701 525 3.0317771502740534E-2
701 563 2.9432883681851285E-1
701 714 2.325411415850655E-2
701 818 1.921133822081647E-2
702 3 2.1566447971785407E-1
702 25 1.5796041805032593E-2
702 41 2.6518537026446805E-2
702 189 1.669469803897072E-2
702 229 2.7409691088957237E-2
702 234 1.8701217193719366E-2
702 307 1.3596183435730705E-1
702 338 8.208499862389883E-2
702 358 2.0285545473406208E-1
702 422 1.831563888873418E-2
702 449 2.0594365402538511E-1
702 575 2.675860568696163E-2
702 585 3.259427449941786E-2
702 651 5.169539820392293E-2
702 798 3.650773864838495E-2
703 120 4.814506754382511E-2
703 268 1.831563888873418E-2
703 272 3.122727352306724E-2
703 286 2.3933810803824784E-1
703 363 2.3788316962645004E-1
703 463 2.3715902050728566E-1
703 483 9.386913396844768E-2
703 529 1.7711580543183728E-2
703 531 6.0698926385771686E-2
703 700 1.2605891308226372E-1
704 8 6.1224564259375336E-2
704 32 1.2028611073761777E-1
704 235 2.2011641286583884E-2
704 331 6.0013435718489966E-2
704 350 1.752799356254394E-2
704 417 1.831563888873418E-2
704 617 7.536482796489216E-2
704 637 5.5625648000806355E-2
704 665 2.4205715123447194E-1
704 840 1.5974670144555086E-1
705 165 1.831563888873418E-2
705 204 2.3772225100601264E-2
705 210 1.9408794604496123E-2
705 403 5.353501491127663E-2
705 435 7.562963384955947E-2
705 550 1.0872405747538222E-1
705 611 2.7016266993362077E-2
705 649 1.8771757089801167E-1
705 765 2.0510078727974036E-2
705 793 1.9657786336037545E-2
705 808 3.9065253336806166E-1
706 45 5.4662082921253526E-2
706 79 5.601044487189591E-2
706 82 1.831563888873418E-2
706 204 2.3563227025938882E-1
706 249 2.800698866367747E-2
706 301 9.026690162533907E-2
706 347 1.644502290359503E-2
706 481 1.694788993867797E-2
706 584 2.385868684054553E-1
706 626 2.4970541733979005E-2
706 720 4.312266334852661E-1
706 799 1.831563888873418E-2
706 811 4.2473348041384335E-2
706 833 1.4358932827002044E-1
707 5 2.634089048732664E-1
707 38 2.5536490093073905E-1
707 85 1.959474281054104E-2
707 101 4.9408386341817123E-1
707 136 1.503166269568469E-1
707 276 1.831563888873418E-2
707 292 2.315020953893884E-1
707 389 1.6679275252260664E-1
707 524 3.6114209136728337E-1
707 545 2.4199974567286116E-2
707 733 1.78985106907747E-2
708 9 5.295075473766431E-1
708 12 1.937207894936897E-1
708 124 3.783315659532239E-2
708 264 1.3838574591733344E-1
708 269 2.3399980725362306E-2
708 443 2.6682152797829245E-1
708 538 1.5958059385710457E-2
708 542 7.910487701827351E-2
708 586 3.3774656023706884E-2
708 661 1.831563888873418E-2
709 43 4.3028614276995936E-1
709 46 1.1215815518825129E-1
709 122 2.1544376590801798E-1
709 126 1.263562620061331E-1
709 137 3.202399410828981E-2
709 222 1.4810937060882937E-2
709 236 2.524998377371083E-2
709 312 3.278705457833967E-2
709 442 1.1071047483920632E-1
709 446 2.839211436381685E-2
709 485 3.6638097426147966E-2
709 574 2.2707168148712487E-2
709 612 7.498432476103846E-2
709 683 2.4416405892030046E-2
709 760 1.831563888873418E-2
709 814 1.831563888873418E-2
709 830 5.1594004821404E-1
710 18 2.0746517360871228E-2
710 73 3.414492524156042E-1
710 177 4.234802520802383E-2
710 186 7.612453849872185E-2
710 262 4.856500491098658E-2
710 299 1.5048715443603838E-1
710 460 4.7169403856038204E-2
710 605 3.156768520316061E-2
710 623 5.545694063338202E-2
710 654 2.8028162953258787E-2
710 672 4.7695302098975864E-2
710 695 2.662151639975545E-2
711 68 9.763388999836682E-2
711 260 6.36025292836268E-2
711 320 5.105344465242E-2
711 335 4.6321565397449915E-2
711 345 3.0892648108895172E-2
711 376 3.643440547693231E-1
711 390 9.241410437892647E-2
711 477 1.7945638693965104E-2
711 501 9.581184900922157E-2
711 590 4.288914232632329E-2
711 676 1.831563888873418E-2
711 732 5.9281421575690676E-2
712 16 1.6045999387144134E-2
712 76 8.754290270816386E-3
712 93 2.4182308541450515E-1
712 297 1.831563888873418E-2
712 314 1.0765944856973955E-1
712 366 7.341327617219272E-2
712 441 3.894797665383868E-2
712 578 5.170843686319924E-1
712 641 5.367286759006303E-2
712 757 3.5442720297034574E-2
712 824 2.670874530633289E-2
713 29 4.1810692337960746E-2
713 61 1.831563888873418E-2
713 105 1.831563888873418E-2
713 131 1.1620104689741755E-1
713 259 4.0762203978366246E-2
713 362 2.3072363358248E-2
713 405 2.2836727774133404E-2
713 440 2.061375535574083E-2
713 505 2.6347980814448748E-2
713 539 1.831563888873418E-2
713 662 1.831563888873418E-2
713 673 9.8886852109459E-2
713 678 2.453583618345987E-2
713 693 2.9848284634468078E-2
713 744 2.071274098196545E-1
713 762 7.3584638106202E-2
713 769 4.355626808973678E-2
713 772 2.6794323666402296E-2
713 781 2.3105112350555912E-1
713 805 3.4870325841610844E-2
714 118 2.9359747614582037E-2
714 377 3.0291309889236777E-2
714 384 6.629079657773025E-2
714 427 1.962336201975271E-2
714 431 2.813619461823528E-2
714 469 1.312500047924935E-1
714 482 4.957262332308557E-2
714 525 2.9692202572789617E-1
714 571 1.503578977083766E-1
714 606 1.831563888873418E-2
714 624 1.2279882160583312E-1
714 701 2.325411415850655E-2
714 818 1.9105911163939585E-1
715 7 1.9589957542882763E-1
715 23 8.232706568147433E-2
715 54 1.079431543337246E-2
715 149 1.2416853636414843E-2
715 357 2.2218465278091373E-2
715 451 1.1182582849382536E-1
715 492 2.362185257374444E-2
715 496 5.727820465595773E-2
715 541 1.5405650830444856E-1
715 573 1.5241312916786097E-2
715 728 1.771260888210999E-1
715 745 1.831563888873418E-2
716 68 2.2579842975658716E-2
716 72 1.831563888873418E-2
716 118 2.9907436201118416E-2
716 146 2.3404567963274604E-2
716 321 3.945122718361463E-2
716 345 6.128124125443867E-2
716 384 1.831563888873418E-2
716 537 2.0704338075924436E-2
716 590 3.839101252642313E-2
716 603 3.363271847765398E-1
716 606 3.945122718361463E-2
716 676 1.955913422006213E-2
717 73 7.3165288700355E-2
717 77 2.194067426131923E-2
717 89 2.0886908417685365E-2
717 211 1.580210442606648E-2
717 262 4.313122903520762E-2
717 300 6.300262834535532E-2
717 371 1.4823074152488003E-2
717 460 1.1303783048724027E-1
717 521 1.5545110740706546E-2
717 553 5.198917174449004E-2
717 597 1.8989242991040354E-2
717 654 4.320417340425628E-2
717 672 2.6488350979627477E-2
717 776 6.834626812219996E-2
718 38 2.035326769826699E-2
718 136 2.3428326123978795E-2
718 145 3.572306348167657E-2
718 268 1.831563888873418E-2
718 286 1.5985352029439E-2
718 372 1.6632452437180467E-1
718 374 8.579934732321479E-2
718 389 2.0444626702142026E-2
718 483 2.6328233406106502E-2
718 529 3.7380805129403116E-2
718 601 1.726133717372421E-1
718 803 6.576618460439601E-2
718 832 3.485003871306624E-2
719 39 1.423527100746962E-2
719 361 3.8226448177374604E-2
719 491 1.288919931395107E-1
719 494 6.405792802090174E-2
719 500 3.932981651869573E-2
719 502 5.0193491167977965E-2
719 561 1.831563888873418E-2
719 583 2.1687041178208136E-1
719 587 7.870839801385113E-2
719 738 9.387588787238887E-2
720 45 2.6128811301735364E-2
720 79 8.294252422306354E-2
720 82 2.971423567779043E-2
720 165 1.3237847401291788E-2
720 189 2.971546932467453E-2
720 204 4.161075184915865E-1
720 249 2.520474794826788E-2
720 301 3.863397576846295E-2
720 476 1.775703592738388E-2
720 481 4.0762203978366204E-2
720 584 5.008554197354113E-1
720 611 1.609587024231253E-2
720 626 3.963391152902527E-2
720 649 2.433911781841592E-2
720 706 4.312266334852661E-1
720 799 1.5460119203230116E-2
720 808 8.983831950665336E-3
720 811 4.7668796295062085E-2
720 833 9.56088062587042E-2
721 35 1.8144465945268837E-2
721 44 2.5322642119768625E-2
721 92 6.4143874048589E-2
721 216 1.831563888873418E-2
721 248 2.586931480936792E-1
721 325 2.45039686755334E-2
721 410 8.692165427638708E-2
721 428 8.576533707796664E-2
721 562 4.9655182171267104E-2
721 685 9.080317446989261E-2
721 767 1.831563888873418E-2
721 790 2.252176340704523E-2
721 842 1.4918737627986517E-1
722 45 1.831563888873418E-2
722 53 2.02779978694963E-2
722 91 2.556153320650738E-2
722 197 5.903653348775836E-3
722 244 1.571468260884124E-1
722 249 1.831563888873418E-2
722 279 4.702028399401886E-2
722 284 1.1998718058435451E-1
722 347 2.8976548104603393E-2
722 448 2.1186181406741313E-2
722 472 6.448134573994568E-2
722 497 6.517230913203399E-2
722 518 1.681618647408189E-1
722 560 1.831563888873418E-2
722 576 3.318615560227434E-2
723 31 1.1301242498108856E-1
723 36 8.935890843839345E-2
723 94 1.754618985471842E-2
723 112 3.340192884217264E-2
723 116 3.311644401624988E-2
723 129 1.831563888873418E-2
723 201 2.5324685412611525E-1
723 255 4.139689685211087E-2
723 573 6.250353343728886E-2
723 645 1.831563888873418E-2
723 658 1.831563888873418E-2
723 669 3.596881806738247E-2
723 740 1.831563888873418E-2
723 745 7.041610108787864E-2
724 29 1.4660696213035015E-1
724 61 2.2697761788297015E-2
724 105 1.7650446126149483E-2
724 107 2.34123640498102E-2
724 351 3.485819994296042E-2
724 440 1.62737270387313E-2
724 599 1.8461463271860136E-2
724 643 4.225477748981664E-2
724 662 7.708553034566302E-1
724 744 2.1377295726698737E-2
724 761 1.831563888873418E-2
724 794 6.07333790759598E-2
724 819 1.5891739453870776E-2
725 31 5.5267225067866604E-2
725 129 1.611006198689441E-1
725 147 2.2384514522994423E-2
725 255 1.6238765188977888E-2
725 359 3.181594783635155E-2
725 393 1.4909795078983951E-2
725 478 3.0709419703839155E-2
725 509 5.485784733736408E-2
725 536 3.903176132864367E-2
725 681 3.00805658374421E-2
725 740 1.2335663649859759E-1
725 807 3.296234661832095E-2
725 843 3.488312076781464E-2
726 11 6.948345122280151E-2
726 83 4.501090222986649E-2
726 170 2.7181329312361117E-2
726 228 1.8928145908720023E-2
726 291 1.7721217712397752E-1
726 294 2.9725364902612576E-2
726 420 1.4298236834296948E-2
726 436 5.400170627901385E-2
726 609 7.719631866523191E-2
726 619 7.874516015309287E-2
726 775 2.2629771711535962E-1
726 788 6.430061736185569E-2
727 99 5.381258684307401E-2
727 107 3.539030504029883E-2
727 310 5.451078400987197E-2
727 362 1.831563888873418E-2
727 405 1.860507141833292E-1
727 440 1.822952489088247E-1
727 462 3.0641333748528975E-2
727 539 2.081014183838053E-1
727 555 6.692214487061823E-2
727 634 1.6193819311329719E-1
727 744 1.831563888873418E-2
727 772 1.7759299894332742E-1
727 781 2.7029921826189723E-2
728 7 6.751730341531446E-2
728 149 2.213602344430457E-2
728 176 1.4960107243436934E-2
728 411 2.3309820729303696E-2
728 492 7.264473364061731E-2
728 496 1.831563888873418E-2
728 541 1.2824390592168966E-1
728 549 1.903932590362252E-2
728 680 3.711016453196568E-2
728 715 1.771260888210999E-1
729 12 9.190209914059144E-2
729 139 1.831563888873418E-2
729 182 2.2214333531887002E-2
729 264 2.3414823719298903E-2
729 378 3.776714291272169E-2
729 503 3.0463437950408925E-2
729 592 2.8400258753475643E-1
729 609 1.1658096218462768E-2
729 788 3.325637596459648E-2
729 846 2.7661345816207293E-2
730 34 4.9403797994170495E-2
730 41 1.6091269085120719E-1
730 59 2.0726288767996853E-2
730 154 3.505454236148546E-2
730 432 3.466347225848607E-1
730 575 2.464341018289062E-2
730 634 2.7973239577631766E-2
730 651 1.831563888873418E-2
730 668 1.6135414013959973E-2
730 737 1.526750326865627E-1
731 146 2.2975351001108226E-2
731 239 7.104481211802702E-2
731 336 3.337326996032608E-2
731 345 2.3806948722728996E-2
731 390 2.885550339038822E-2
731 427 1.6757843043667328E-2
731 513 2.654652886379606E-1
731 537 4.3766399579324065E-2
731 571 7.76490817034759E-2
731 587 2.5013317812150677E-2
731 624 2.416489815619691E-2
731 818 4.205029450553523E-2
732 172 1.4710995008958476E-2
732 194 6.971178966773853E-2
732 295 1.113717148676752E-1
732 335 4.6103643001080724E-1
732 346 5.994090512945689E-1
732 376 1.0806032782950167E-1
732 445 4.839707280380446E-2
732 540 1.5604489127330268E-1
732 557 1.831563888873418E-2
732 711 5.9281421575690676E-2
732 778 3.2094582497854474E-1
733 69 1.7248322935116667E-1
733 95 2.181735114270617E-2
733 125 5.190965387176826E-2
733 178 9.885360030260855E-2
733 254 1.890760881984501E-2
733 276 1.831563888873418E-2
733 409 1.831563888873418E-2
733 417 1.5498717321567814E-2
733 458 2.779488732294972E-1
733 627 1.48295450534956E-1
733 628 1.912687930633326E-1
733 692 2.9453966671673812E-2
733 707 1.78985106907747E-2
734 6 6.20841864087487E-1
734 55 2.081018946468671E-1
734 86 4.318741922629208E-1
734 156 2.7412097322725874E-2
734 275 2.6072971807495915E-1
734 322 5.533907517143473E-1
734 382 2.6701577589869085E-2
734 397 6.126025461285624E-1
734 684 6.790806842694111E-2
734 688 6.650901428553666E-2
734 836 2.861565397877349E-1
735 27 1.772757339469811E-2
735 60 1.831563888873418E-2
735 161 3.40490420655268E-2
735 261 4.219299084307912E-2
735 316 4.278724856473082E-2
735 421 1.2502343499974194E-1
735 535 5.8747960908605436E-2
735 595 3.653158317830953E-1
735 635 5.13188591453573E-2
735 796 6.244634544263544E-1
736 14 2.2004379847351346E-2
736 293 1.831563888873418E-2
736 340 2.3143182231315836E-2
736 402 8.997198987222502E-2
736 475 1.7497375879325397E-1
736 489 1.131660485613789E-1
736 519 4.7120559227209084E-2
736 646 1.3781837598311473E-2
736 697 7.763975504662522E-2
736 826 5.9754984557735126E-2
737 34 2.6583449497159455E-2
737 41 8.048816528926495E-2
737 99 3.4539009041578216E-2
737 117 2.5218554985966146E-2
737 130 1.831563888873418E-2
737 154 1.8567974381232984E-2
737 162 3.704955190939938E-2
737 185 2.367216254439409E-2
737 307 2.6626027855179826E-2
737 310 3.002130588520712E-2
737 401 6.65208629856083E-2
737 432 7.950093216962287E-2
737 455 2.684163513611664E-2
737 462 4.507279453881274E-2
737 533 2.3457915170169423E-2
737 555 2.2859151103876884E-2
737 575 6.325179105180062E-2
737 585 1.831563888873418E-2
737 634 2.5567314651722056E-1
737 651 1.59216124203129E-2
737 730 1.526750326865627E-1
738 39 4.359802783327962E-2
738 71 1.3201383710659936E-2
738 166 2.2918491402444126E-2
738 214 1.0985555010233188E-1
738 473 3.518339611642361E-2
738 494 2.085406283192911E-2
738 500 5.6187776418044885E-2
738 502 3.26526615635991E-2
738 561 1.831563888873418E-2
738 583 2.6404567060243113E-2
738 719 9.387588787238887E-2
739 106 7.915456642990286E-2
739 227 1.7714477016530752E-2
739 320 1.588958738337069E-1
739 336 2.7996232268790236E-2
739 427 3.7445717348930166E-2
739 469 4.6627992012479684E-2
739 473 1.831563888873418E-2
739 506 2.403491019225248E-2
739 577 2.8671621668692634E-2
739 787 1.831563888873418E-2
739 825 4.574720632592309E-2
740 31 6.0556083020028885E-2
740 102 1.1926149239057376E-1
740 129 2.0324136911176355E-1
740 149 3.2370477022974686E-2
740 373 2.4404091304993773E-2
740 393 1.4911070370550883E-1
740 398 1.831563888873418E-2
740 536 9.974181920114997E-2
740 573 1.663399034309127E-1
740 723 1.831563888873418E-2
740 725 1.2335663649859759E-1
741 19 2.210407016579333E-2
741 106 2.6332456890423427E-2
741 168 2.41659564472722E-2
741 227 3.3806682998327335E-2
741 301 3.1573740598671275E-2
741 308 1.6000046111745624E-2
741 377 2.5614510458458084E-2
741 380 1.716591029017114E-2
741 431 1.2807934190531076E-1
741 481 1.9442410174544924E-2
741 563 1.831563888873418E-2
741 784 4.282088468430994E-2
741 789 1.9737663762171487E-1
741 799 1.831563888873418E-2
742 108 1.584125159332985E-2
742 111 3.750975967512043E-2
742 132 4.2682521061166635E-2
742 148 8.492813753963695E-2
742 153 1.831563888873418E-2
742 157 6.281921024527318E-2
742 226 1.831563888873418E-2
742 273 1.857869563968881E-2
742 287 2.4750125205236565E-2
742 313 1.831563888873418E-2
742 341 1.0015109645352047E-1
742 508 2.7721214296134687E-2
742 589 1.9756583476827974E-2
742 650 3.3445117661261264E-2
742 768 8.077166688948717E-2
742 770 3.7679995292845214E-2
742 795 3.516618713157489E-2
742 823 2.22954917079545E-2
743 8 4.614086228199096E-2
743 32 6.730023508171189E-2
743 342 3.3755038213086355E-2
743 408 1.415657982639075E-2
743 471 4.361324605367141E-2
743 558 2.2182519632174012E-2
743 617 1.864124174680708E-2
743 665 1.831563888873418E-2
743 747 4.3368228463660154E-2
743 763 3.6010537969994795E-2
743 792 4.053320343642E-2
743 840 2.9070592900244798E-2
744 29 9.990934406754076E-2
744 61 3.3301576604553684E-2
744 105 5.0540964249536316E-2
744 107 2.2250535092523442E-2
744 405 8.73691511854071E-2
744 440 5.073762818175572E-2
744 505 3.381360043846927E-2
744 539 1.2921126449227857E-1
744 662 3.789316821577155E-2
744 678 2.6851909278742772E-2
744 713 2.071274098196545E-1
744 724 2.1377295726698737E-2
744 727 1.831563888873418E-2
744 762 1.831563888873418E-2
744 769 1.872399760693446E-2
744 772 1.6060548131426536E-1
744 781 9.323266728481708E-2
745 13 1.831563888873418E-2
745 31 1.831563888873418E-2
745 36 2.6030221706161205E-1
745 112 3.293124639973676E-2
745 116 1.5922851504511698E-2
745 201 3.33732699603261E-2
745 339 1.8909837757756613E-2
745 348 1.33582652241843E-2
745 373 1.1379765847034781E-1
745 451 3.102790813551307E-2
745 573 2.261251511872281E-1
745 645 3.916389509898709E-2
745 669 2.536646620244689E-1
745 715 1.831563888873418E-2
745 723 7.041610108787864E-2
745 749 2.2649655894393023E-2
746 196 2.1144962296330474E-2
746 198 4.377770080014938E-2
746 217 4.966306577110577E-2
746 224 1.4486213396276398E-1
746 230 1.831563888873418E-2
746 305 2.3615397255884317E-2
746 383 5.866651167951618E-2
746 593 1.7625049009658636E-1
746 759 1.831563888873418E-2
746 806 3.969542500824418E-2
746 809 3.969542500824418E-2
746 816 5.157296338336713E-2
747 8 1.831563888873418E-2
747 47 4.714947765329887E-2
747 138 1.5223149227758764E-1
747 164 5.1825571714539276E-2
747 180 1.1952133893843245E-1
747 225 3.587240214393877E-2
747 235 4.9251317257395004E-2
747 278 2.9280688738697606E-2
747 400 1.5479664452727393E-1
747 471 6.832679763785833E-2
747 630 4.410642139212792E-2
747 631 7.380231648896382E-2
747 743 4.3368228463660154E-2
747 763 1.353352832366127E-1
747 792 1.831563888873418E-2
747 812 2.0795557994967278E-2
748 67 1.755005689238235E-1
748 119 7.860243493924032E-2
748 144 1.3690893169243845E-1
748 233 2.836781644971309E-2
748 266 4.382407230968198E-2
748 391 2.1054790286251998E-2
748 413 2.0943607976078065E-2
748 434 2.0304612205595256E-2
748 591 8.23225816670321E-2
748 638 4.001940551647398E-2
748 759 1.703834040108701E-2
748 766 7.860243493924032E-2
748 771 3.177166805875669E-2
748 786 1.7487957556351626E-2
748 815 1.9819634270060826E-1
749 23 2.2866045688173492E-2
749 26 1.831563888873418E-2
749 276 1.376378673305039E-2
749 302 2.2649655894393023E-2
749 306 1.647033013667005E-2
749 339 2.4190898990306034E-2
749 348 7.726826303902527E-2
749 357 1.90554486079559E-1
749 373 2.8678074041249436E-2
749 573 1.540918401557489E-1
749 645 7.198709324090415E-2
749 745 2.2649655894393023E-2
750 311 8.096071527955243E-2
750 324 1.3134643591124545E-1
750 444 1.831563888873418E-2
750 447 1.3519785038225643E-2
750 465 2.9429380325017452E-2
750 596 4.444186238648058E-2
750 629 2.651838806148863E-2
750 660 1.7250298812075293E-1
750 671 1.910328943859444E-2
750 773 9.991302886382367E-2
751 73 3.307555082980967E-2
751 77 7.479938151621052E-2
751 92 2.5857038988653235E-2
751 177 1.4687373909056185E-2
751 262 8.84633598625179E-2
751 299 1.831563888873418E-2
751 300 9.69411586612125E-2
751 325 1.831563888873418E-2
751 521 6.930704141295875E-2
751 553 7.11819016948598E-2
751 597 4.6263440992881016E-2
751 605 1.933081035700029E-1
752 17 9.740064021810378E-2
752 22 6.2491341194386464E-2
752 42 1.0820970619642648E-1
752 88 4.8168814073010824E-2
752 114 5.7005468565180455E-2
752 182 1.4775792183139534E-2
752 184 1.7559489941425067E-2
752 231 6.108710115681895E-2
752 250 1.831563888873418E-2
752 319 9.685085620914018E-3
752 375 6.14212139150001E-2
752 412 3.828593008247558E-2
752 499 7.299303127711725E-2
752 613 3.248025410040516E-2
752 656 9.399012196297737E-2
752 689 3.360422592729574E-2
753 44 1.831563888873418E-2
753 163 4.807910529814626E-2
753 237 4.513762081935973E-2
753 247 2.4718450292044863E-2
753 303 1.3985546387558132E-1
753 399 1.439342965787262E-1
753 614 1.439342965787262E-1
753 647 5.736526938467144E-2
753 653 1.5541039455863135E-2
753 685 6.650539018039961E-2
754 132 1.2382464234673259E-1
754 148 1.142190561488994E-2
754 153 2.3898068432998917E-1
754 157 3.910382507723792E-2
754 167 1.0654522344940459E-1
754 179 2.1279736438377186E-2
754 508 3.227916403135988E-2
754 674 4.756480887789241E-2
754 768 1.831563888873418E-2
754 831 1.2954481143192E-1
755 47 5.825509079619416E-2
755 103 1.8746923852686656E-1
755 138 3.049027525381782E-2
755 164 5.526220093168626E-2
755 317 4.300775507358171E-2
755 350 2.7583122936487882E-2
755 400 2.0394002929529552E-2
755 461 7.130173805145074E-2
755 470 1.831563888873418E-2
755 600 1.2647043844529482E-1
755 630 3.144675567138358E-2
755 687 3.660053915427093E-2
755 782 3.460917828870049E-2
756 88 3.8295941766158595E-2
756 104 1.343997896249355E-1
756 220 2.416374374501104E-1
756 263 3.500618625161716E-1
756 269 5.638782525618924E-2
756 534 1.831563888873418E-2
756 551 1.8437562872794944E-1
756 608 2.6646675217822824E-1
756 785 3.915175313811735E-2
756 797 3.669775168459259E-2
756 846 1.831563888873418E-2
757 70 1.4109202385341642E-2
757 76 1.831563888873418E-2
757 93 4.897029675344078E-2
757 297 1.1280283343396634E-1
757 324 6.445114229034114E-2
757 441 6.493276999962438E-2
757 641 6.396387427365674E-1
757 671 2.296548050971785E-1
757 712 3.5442720297034574E-2
757 773 2.848240021627471E-1
758 2 6.807979336287949E-2
758 66 2.3106047238029944E-2
758 75 2.3771481325164805E-2
758 87 6.1058774191800655E-2
758 109 1.831563888873418E-2
758 258 2.2720354398439207E-2
758 328 1.1811997641589242E-1
758 519 4.619748442866885E-2
758 564 1.4976817705725762E-1
758 648 1.4190134159660731E-2
758 774 3.424722772574424E-2
758 801 5.257165245132939E-2
758 839 3.955452465218055E-2
759 109 2.03851917000907E-1
759 199 2.7065411878152673E-2
759 224 1.831563888873418E-2
759 230 2.1440990055920622E-2
759 238 6.037205687179738E-2
759 266 9.203906535145637E-2
759 305 4.205930222670373E-2
759 413 2.96156434337229E-1
759 456 4.4670866994075506E-2
759 591 6.56845483380672E-2
759 593 1.609285243168746E-2
759 638 2.03851917000907E-1
759 746 1.831563888873418E-2
759 748 1.703834040108701E-2
759 766 1.831563888873418E-2
759 809 1.831563888873418E-2
760 43 2.8684399679987798E-2
760 49 7.627855581195842E-2
760 58 5.1202720334114576E-2
760 175 3.7264295865109265E-2
760 236 2.068172801946925E-2
760 388 2.1771347820429776E-2
760 612 6.40773999952243E-2
760 709 1.831563888873418E-2
760 814 1.825128715438491E-1
760 830 5.4664429957495944E-2
761 10 1.831563888873418E-2
761 57 5.371964003100501E-2
761 110 2.4034016981037073E-2
761 133 2.2181190183273726E-2
761 152 3.3899258434696426E-2
761 265 2.380365308494355E-2
761 281 9.445702832899464E-2
761 318 8.76552796052458E-2
761 351 1.6567133627727697E-2
761 360 1.569542571343683E-2
761 387 1.7140215669862882E-1
761 425 1.831563888873418E-2
761 527 2.0112118230674967E-2
761 599 2.2190548624343314E-2
761 643 1.445983569926213E-2
761 667 9.277296565539585E-2
761 724 1.831563888873418E-2
761 819 4.782720579178226E-2
761 820 2.0442248492903367E-2
762 61 1.3057045747308435E-1
762 76 1.7444244379737853E-2
762 309 1.2797581496580618E-1
762 662 3.490862951119502E-2
762 690 4.329210703149276E-2
762 693 7.008373650065297E-2
762 713 7.3584638106202E-2
762 744 1.831563888873418E-2
762 781 2.2386814000947115E-2
762 805 3.176270851338025E-2
763 8 8.592870929996844E-2
763 138 5.838606876780315E-2
763 180 1.1332281163104496E-1
763 235 5.607926285686458E-2
763 400 6.039918539216819E-2
763 471 2.951301058617882E-1
763 743 3.6010537969994795E-2
763 747 1.353352832366127E-1
763 792 2.5188797367783615E-2
763 840 1.2700655217551066E-2
764 244 1.888079903081829E-1
764 279 2.5171011130199858E-2
764 380 1.7696796519274458E-2
764 384 2.6502801528732273E-2
764 431 1.831563888873418E-2
764 482 5.136230721628254E-2
764 497 9.252870992546336E-2
764 560 3.38570891114645E-2
764 576 1.717789636013613E-1
764 668 1.970347509985162E-2
765 135 8.406285583693753E-2
765 165 5.780772212827438E-2
765 403 3.815383384773261E-2
765 435 1.9213601385866186E-1
765 468 3.8946373394601524E-2
765 510 5.664870927610773E-2
765 611 1.5905434912533273E-1
765 649 6.494742287901338E-2
765 705 2.0510078727974036E-2
765 808 1.598516699104659E-1
766 37 1.0798944536052585E-1
766 144 9.071795328941251E-2
766 196 5.33673813627632E-2
766 233 6.527366172806272E-2
766 238 4.2395447800056316E-2
766 266 1.5311849045875442E-1
766 267 1.831563888873418E-2
766 283 2.1493601345089923E-2
766 305 2.1893590892753053E-2
766 315 1.1283618731705697E-1
766 334 1.6029358476645567E-2
766 391 2.705844568248219E-2
766 434 1.8697201040573926E-2
766 493 2.385290999781331E-2
766 569 2.6604719166209413E-2
766 591 3.1220927161230903E-2
766 638 3.8221090205811784E-2
766 748 7.860243493924032E-2
766 759 1.831563888873418E-2
766 771 3.0949147146926138E-2
766 815 9.071795328941251E-2
767 89 2.459790914454628E-2
767 163 4.46020960442564E-2
767 187 7.875852575224188E-2
767 211 5.0439766458875074E-2
767 237 3.208984396550965E-2
767 248 6.591642752602667E-2
767 325 5.412518383354471E-2
767 399 1.831563888873418E-2
767 410 5.1498937055098164E-2
767 428 2.647434978532698E-2
767 543 1.4790304656470302E-2
767 562 8.0896165066948E-2
767 672 2.923408104233921E-2
767 685 4.505553887324264E-2
767 691 4.016212183103776E-2
767 721 1.831563888873418E-2
767 776 6.504517390466694E-2
767 813 7.476144190188197E-2
767 842 1.5627336088464555E-1
768 85 1.831563888873418E-2
768 123 1.8734264043572E-2
768 132 9.893640108857604E-3
768 140 4.6563555265666697E-2
768 148 4.306096897124393E-1
768 153 1.6346761245912767E-2
768 179 1.7472308073940058E-2
768 183 2.367406404092983E-2
768 213 5.7050797171042465E-2
768 296 8.901304632996673E-2
768 313 2.525075853886547E-2
768 329 2.7613262823277803E-2
768 340 1.831563888873418E-2
768 341 3.176020193705912E-2
768 406 1.0544307695339411E-1
768 650 2.9295168299314306E-2
768 674 1.9794039356130513E-2
768 742 8.077166688948717E-2
768 754 1.831563888873418E-2
768 795 7.949110966064145E-2
769 70 1.7925700054742068E-2
769 76 6.326984238302309E-2
769 131 1.7469390924378866E-1
769 289 1.831563888873418E-2
769 297 1.5977315150759983E-2
769 362 2.0497632497253237E-2
769 441 2.0822034813489182E-2
769 505 2.5090927790899253E-1
769 673 4.593669011413989E-2
769 678 1.6122697516434713E-2
769 693 1.974486387430238E-2
769 713 4.355626808973678E-2
769 744 1.872399760693446E-2
769 777 1.0231747528142263E-1
769 781 4.6132246008578265E-2
770 33 1.723059489587248E-2
770 150 1.831563888873418E-2
770 157 1.9320957613766298E-2
770 414 3.297187501043928E-1
770 484 1.881158373551475E-2
770 523 2.1730698154627925E-1
770 589 2.0774151082576353E-2
770 617 2.5046456945319248E-2
770 625 1.831563888873418E-2
770 659 2.5529032850803983E-2
770 742 3.7679995292845214E-2
771 144 1.6929653924657704E-2
771 199 8.73358084766435E-2
771 238 1.0208318966916613E-1
771 266 1.831563888873418E-2
771 283 1.0617963484834465E-1
771 305 2.1157989198833604E-2
771 326 3.575205457072818E-2
771 424 3.0545906672030807E-2
771 748 3.177166805875669E-2
771 766 3.0949147146926138E-2
772 107 1.831563888873418E-2
772 117 1.9979600953452165E-2
772 310 1.6835944401542523E-2
772 405 2.8728440126922233E-1
772 440 6.411705272673425E-2
772 539 4.634662375007569E-1
772 634 6.731517632066866E-2
772 713 2.6794323666402296E-2
772 727 1.7759299894332742E-1
772 744 1.6060548131426536E-1
773 70 1.831563888873418E-2
773 297 3.333652445885405E-2
773 324 5.204926723085624E-1
773 332 1.956719476911185E-2
773 447 1.647091404340054E-2
773 641 1.7366520561315185E-1
773 660 1.1610853894784023E-1
773 671 4.578691851373834E-1
773 750 9.991302886382367E-2
773 757 2.848240021627471E-1
774 2 2.5735366767733792E-2
774 66 7.911192320329936E-2
774 87 1.963990187839322E-2
774 98 2.9727133414263557E-2
774 109 1.4248251575760176E-2
774 127 2.870783798457017E-1
774 328 1.1783386788833708E-2
774 352 1.748535242927928E-2
774 434 1.8815125769911557E-2
774 456 1.8984630266173752E-2
774 475 4.517451302884703E-2
774 493 2.1914038882227715E-2
774 504 3.3682757118535835E-2
774 519 6.914053544319175E-2
774 648 1.980392754686106E-2
774 699 4.6548310324693476E-2
774 758 3.424722772574424E-2
775 11 1.6431064390836916E-1
775 56 5.706088840603356E-2
775 212 1.831563888873418E-2
775 215 1.729006795099627E-2
775 228 7.243975703425146E-2
775 291 3.5599517396569996E-2
775 294 1.2269004981526442E-2
775 304 1.7238568331591334E-2
775 420 2.2018483574774525E-2
775 436 2.344527212036765E-2
775 515 7.948293891829619E-2
775 522 5.789281408497271E-2
775 570 2.215436390351851E-2
775 619 3.9527081643578627E-2
775 726 2.2629771711535962E-1
776 77 5.0448680866514405E-2
776 89 1.9743460115359136E-2
776 211 2.9957982001828892E-2
776 262 3.2632640661940875E-2
776 300 1.151273730718495E-1
776 553 4.0174554671164396E-2
776 672 2.456897951573534E-2
776 691 1.7897355576042686E-2
776 717 6.834626812219996E-2
776 767 6.504517390466694E-2
776 813 8.929216042399048E-2
777 70 2.6907966467686097E-2
777 131 1.831563888873418E-2
777 309 2.065754198932347E-2
777 351 2.045698491228415E-2
777 362 1.8105418668853207E-2
777 479 2.169020920540267E-2
777 505 1.1540015364507046E-1
777 643 3.4757858331674045E-2
777 769 1.0231747528142263E-1
777 783 6.553288167290855E-2
777 794 4.493946017653408E-2
777 819 1.5216637860794245E-2
778 172 7.10805028842898E-2
778 194 5.9455516861918176E-2
778 295 2.2333693444570318E-1
778 335 2.5350794039538593E-1
778 346 1.6815273947227585E-1
778 376 1.8274967612595994E-2
778 495 5.6199691225693064E-2
778 532 1.831563888873418E-2
778 540 1.6777934346124865E-1
778 732 3.2094582497854474E-1
779 143 3.5977717469910755E-2
779 154 2.4556385178953952E-2
779 168 2.288943566717091E-1
779 171 7.344618429076718E-1
779 234 9.335223009251116E-3
779 308 1.3001223521132507E-1
779 422 1.2777198289826264E-1
779 429 2.7636402497898588E-2
779 490 1.9291333677144293E-1
779 507 2.558894503573864E-2
779 626 5.011497323497019E-2
779 632 3.554586729055048E-2
779 833 1.831563888873418E-2
780 63 1.61984151945152E-1
780 121 1.4180166905191036E-2
780 134 5.0752527769567526E-2
780 170 1.831563888873418E-2
780 251 7.892717620067614E-2
780 316 2.464254084055533E-2
780 421 1.831563888873418E-2
780 437 2.8259267874307735E-2
780 535 6.575457931914087E-2
780 547 9.886354110330432E-2
781 29 1.831563888873418E-2
781 61 2.507155091416066E-2
781 76 1.7488735910225966E-2
781 105 3.937272028938695E-2
781 130 3.8088872151767705E-2
781 131 4.079215966614465E-2
781 259 1.3941973731543883E-2
781 289 5.4149126442199505E-2
781 362 4.217426129468265E-2
781 405 1.831563888873418E-2
781 462 1.5683086916003137E-2
781 505 1.7441806111738306E-1
781 539 3.2731133100808114E-2
781 673 3.384091911846655E-2
781 678 1.4048213362301196E-1
781 693 1.1480944492377142E-1
781 713 2.3105112350555912E-1
781 727 2.7029921826189723E-2
781 744 9.323266728481708E-2
781 762 2.2386814000947115E-2
781 769 4.6132246008578265E-2
781 805 4.9841990666067676E-2
782 103 2.5144675412117196E-2
782 138 7.069710536999577E-2
782 350 5.5153349802817137E-2
782 400 5.932791601317256E-2
782 461 2.6782093850070915E-1
782 470 5.388353975650387E-2
782 600 1.4567716597852934E-1
782 630 1.0994311230884278E-1
782 687 2.3622346480941768E-2
782 755 3.460917828870049E-2
783 65 3.418107369223571E-2
783 152 2.238919159317076E-2
783 351 1.028742930810346E-1
783 387 2.728586485384161E-2
783 479 2.0728578256550786E-1
783 527 1.2539876502297476E-1
783 643 2.0945251327964665E-1
783 777 6.553288167290855E-2
783 819 2.4736744506390793E-1
783 820 8.573332316985358E-3
784 19 3.55522392221347E-2
784 28 4.1571247903557595E-1
784 96 1.831563888873418E-2
784 106 1.831563888873418E-2
784 301 1.2089649498339997E-1
784 380 4.432261184896621E-1
784 427 5.816657252767598E-2
784 431 4.690527141455242E-2
784 482 3.256684828974167E-2
784 502 1.3131009584874629E-2
784 563 4.843324008803179E-2
784 741 4.282088468430994E-2
784 789 1.831563888873418E-2
784 811 2.631524532456139E-2
785 17 1.831563888873418E-2
785 104 2.7769554260689614E-2
785 114 6.388991056299805E-2
785 184 1.485287489006372E-1
785 220 4.237358120572053E-2
785 231 3.0236423343739362E-2
785 232 2.101238863661982E-2
785 250 5.621605022991863E-2
785 375 1.1470694848919306E-1
785 499 6.233739462853699E-2
785 551 2.1058202731995938E-2
785 615 1.831563888873418E-2
785 756 3.915175313811735E-2
786 30 2.223560144173465E-2
786 48 1.3082453186177545E-1
786 67 7.605707859465063E-2
786 100 2.7578447852381155E-1
786 119 5.834513439081647E-2
786 142 1.546382645492548E-1
786 208 6.419931668591698E-2
786 243 3.447498234126846E-2
786 323 2.1698579648235978E-2
786 480 2.9666687476778756E-2
786 511 4.213895691086441E-1
786 530 1.887485224362372E-2
786 581 1.2059404732149509E-2
786 610 2.79320179497291E-2
786 686 4.295763061405887E-2
786 748 1.7487957556351626E-2
786 791 4.0320939526520036E-2
786 815 1.6572675401761237E-2
787 91 3.9105541882875385E-2
787 106 1.7679602347484433E-1
787 197 3.279737656530411E-2
787 218 2.6140962260527456E-1
787 221 3.196467350744918E-2
787 227 3.9749193072317246E-1
787 336 3.933389003671575E-2
787 380 3.294079307205715E-2
787 431 1.831563888873418E-2
787 459 2.5237040344320647E-2
787 474 1.831563888873418E-2
787 487 1.3789837558365325E-1
787 506 3.333166605552376E-2
787 518 1.6979346661925826E-2
787 537 2.0425210650003488E-2
787 577 2.4985059054667538E-1
787 640 4.1201008572096354E-2
787 739 1.831563888873418E-2
787 789 3.895753707885376E-2
787 822 1.831563888873418E-2
788 60 1.4447855231504146E-2
788 83 2.901929297132469E-1
788 170 2.4890159176787738E-1
788 264 1.831563888873418E-2
788 291 2.3869751898955294E-1
788 378 9.727312280243802E-2
788 592 2.745110553854673E-2
788 619 4.494455853266645E-2
788 726 6.430061736185569E-2
788 729 3.325637596459648E-2
789 106 1.0723802284492613E-1
789 227 1.6241344538645705E-1
789 380 2.0382435355391897E-2
789 427 1.3041448576356661E-2
789 431 4.0202082629808816E-2
789 506 1.5639883309163533E-1
789 577 1.2869442727825317E-1
789 741 1.9737663762171487E-1
789 784 1.831563888873418E-2
789 787 3.895753707885376E-2
790 44 1.831563888873418E-2
790 92 1.831563888873418E-2
790 195 3.9732143863241476E-2
790 207 1.6928561121956176E-2
790 216 2.4390106264075304E-1
790 330 1.0425978464335056E-1
790 396 4.3842421433914334E-2
790 512 1.4522799833882197E-1
790 526 3.1786027709515066E-2
790 568 4.029504185340229E-1
790 579 1.831563888873418E-2
790 721 2.252176340704523E-2
791 100 1.2858612012470502E-2
791 142 6.948345122280154E-2
791 208 7.140011619100482E-2
791 243 1.5176088906052437E-2
791 323 7.140011619100482E-2
791 480 1.1339582008376897E-1
791 511 3.5673993347252395E-2
791 530 3.424722772574424E-2
791 559 5.743261926761737E-2
791 569 1.831563888873418E-2
791 581 1.9442410174544924E-2
791 670 4.615743568136861E-2
791 679 1.831563888873418E-2
791 686 1.831563888873418E-2
791 786 4.0320939526520036E-2
792 8 2.212344183284572E-1
792 235 1.831563888873418E-2
792 385 2.1471742984200896E-2
792 417 4.730238607250166E-2
792 471 1.0877975533856807E-1
792 637 1.3906062818660046E-2
792 665 7.405365332050118E-2
792 743 4.053320343642E-2
792 747 1.831563888873418E-2
792 763 2.5188797367783615E-2
792 837 5.543893588492418E-2
792 840 3.2869402164688183E-1
793 135 1.831563888873418E-2
793 234 1.3653692051122998E-1
793 358 1.8114370168307834E-2
793 429 2.5122839645650125E-2
793 435 1.1568248057870367E-1
793 528 1.4113886011360224E-1
793 611 3.1129067199171107E-2
793 632 2.0145083049815227E-1
793 705 1.9657786336037545E-2
793 808 3.161436584305819E-2
794 29 2.1241649146285382E-1
794 105 3.161795322464659E-1
794 107 2.3694437333427326E-2
794 351 3.212479586123579E-2
794 362 2.1158790027338267E-2
794 440 1.831563888873418E-2
794 505 1.831563888873418E-2
794 599 1.954624184053611E-2
794 643 2.5130488985274438E-2
794 662 4.207435656128983E-2
794 678 2.9754512002022962E-2
794 724 6.07333790759598E-2
794 777 4.493946017653408E-2
794 819 1.716941200165747E-2
795 128 2.4858750526883938E-2
795 140 1.7905161980733414E-1
795 148 1.1415332638504565E-1
795 155 1.8163957449616065E-2
795 183 1.831563888873418E-2
795 192 1.0398600875566835E-1
795 213 1.4974331488418335E-1
795 313 1.4014365409222623E-1
795 329 1.831563888873418E-2
795 340 1.831563888873418E-2
795 341 3.587108673318869E-2
795 406 4.438699968763415E-2
795 650 1.3375551198203214E-1
795 657 2.646071937334101E-2
795 742 3.516618713157489E-2
795 768 7.949110966064145E-2
796 27 2.021823515985596E-2
796 60 1.831563888873418E-2
796 161 1.6250430296583334E-2
796 261 4.059293475321894E-2
796 316 2.7196107992718276E-2
796 421 5.811952714964786E-2
796 535 5.0242335593393625E-2
796 595 6.229169955109837E-1
796 635 6.283580849462052E-2
796 735 6.244634544263544E-1
797 124 1.1209037112217712E-1
797 139 2.2473994922204477E-2
797 205 4.513292583072044E-2
797 220 6.015619731813703E-2
797 263 1.0546914112617495E-1
797 269 1.532780007402232E-1
797 534 1.736931043947187E-2
797 538 7.615596921619776E-2
797 598 1.831563888873418E-2
797 608 8.23711749712299E-2
797 756 3.669775168459259E-2
798 3 1.6280835303651825E-1
798 20 1.831563888873418E-2
798 25 3.4744431181005536E-2
798 59 3.638744966793813E-2
798 229 8.98834970806563E-2
798 401 8.98834970806563E-2
798 567 1.725926910164395E-2
798 575 4.995165356820254E-2
798 651 2.5986840167465906E-2
798 702 3.650773864838495E-2
799 19 3.4964131732108605E-1
799 39 1.831563888873418E-2
799 71 2.406755150473689E-2
799 204 3.9137352304273794E-2
799 210 7.200698172894947E-2
799 301 1.2560964064242974E-1
799 361 1.831563888873418E-2
799 468 1.1908412331520847E-1
799 481 2.003152971166078E-2
799 494 1.2502939740138849E-2
799 510 9.384585389566105E-2
799 550 2.7930536734406645E-2
799 584 4.614674194458822E-2
799 620 8.937979034714658E-2
799 706 1.831563888873418E-2
799 720 1.5460119203230116E-2
799 741 1.831563888873418E-2
799 811 2.8074843410030515E-2
800 52 7.554818168183168E-2
800 85 2.4465030662532072E-1
800 102 1.8849585253140483E-2
800 148 1.1832426738414744E-2
800 179 1.5073139122982127E-1
800 190 2.4555822526924374E-2
800 280 4.334542069968535E-2
800 296 1.831563888873418E-2
800 406 9.230144265896453E-2
800 418 8.55223607623722E-2
800 524 1.831563888873418E-2
800 549 9.849983027935708E-2
800 675 4.1025936075015335E-1
800 680 1.9090790694519244E-2
800 698 2.952635838161416E-2
801 2 1.206812402215675E-1
801 26 2.715214547786901E-2
801 66 2.3843020731786745E-2
801 75 1.831563888873418E-2
801 87 1.7706487422852424E-1
801 97 4.254330824354312E-2
801 127 2.9363584347699347E-2
801 155 4.313368021870151E-2
801 192 5.032763928962178E-2
801 287 1.8172548690563676E-2
801 313 2.087932940321377E-2
801 328 1.873828893593043E-2
801 467 1.3028560709258416E-2
801 564 9.120307488128376E-2
801 758 5.257165245132939E-2
802 62 1.670773297919487E-2
802 121 9.993863939837302E-2
802 161 8.474698518582055E-2
802 251 3.151516463026E-2
802 261 1.831563888873418E-2
802 290 5.948174087538731E-2
802 298 2.0598801240897374E-1
802 343 7.530078971739959E-2
802 368 1.831563888873418E-2
802 381 3.5673993347252395E-2
802 407 3.0426323826609862E-2
802 503 1.5299883806216611E-2
802 516 1.3319450583912918E-2
802 635 1.3131572331603314E-1
802 821 2.2574787436623396E-2
802 835 4.2679054868674536E-2
803 50 2.7394326342030685E-2
803 145 2.1702517128062362E-1
803 207 9.454213437782276E-2
803 268 1.6777074535511267E-2
803 372 1.1037507199941052E-1
803 411 2.1350376712986333E-1
803 488 5.0629250000516074E-2
803 541 1.831563888873418E-2
803 579 2.4209727636176664E-2
803 718 6.576618460439601E-2
803 832 1.9385579647453025E-2
804 15 1.451268547297495E-1
804 120 2.169046853513567E-2
804 191 2.793821340816324E-2
804 272 2.0907505726252756E-2
804 311 2.96712395196219E-2
804 355 6.162025140587725E-2
804 395 8.898313708737834E-3
804 439 1.0122179532728855E-1
804 556 8.453511783334167E-2
804 566 3.829757060094025E-2
804 596 5.089294757994596E-2
804 639 1.2403113610400866E-1
805 61 2.0220157647312678E-2
805 76 2.0236342050716882E-1
805 130 1.7525445364363856E-2
805 297 2.1271087896964688E-2
805 314 2.1608114860402768E-2
805 441 3.620213172153078E-2
805 455 9.405864345468101E-2
805 462 5.7650132478595704E-2
805 673 2.0041321289972124E-2
805 693 2.080428885969822E-1
805 713 3.4870325841610844E-2
805 762 3.176270851338025E-2
805 781 4.9841990666067676E-2
805 824 4.215158840377069E-2
806 64 1.1700599039589432E-1
806 78 3.4460352319276126E-2
806 98 2.7087154905978662E-2
806 209 1.831563888873418E-2
806 219 4.5159212601210474E-2
806 230 1.0362689024283576E-1
806 271 4.5154089895458896E-2
806 456 2.4543282850175662E-2
806 466 1.0655111725238736E-1
806 467 6.948345122280151E-2
806 593 2.5861846023216235E-2
806 677 2.9777009051102175E-2
806 699 4.610088752834602E-2
806 746 3.969542500824418E-2
806 816 2.9087552835543512E-2
807 21 3.176688817803448E-2
807 31 1.0474628888221349E-1
807 217 1.831563888873418E-2
807 255 2.8323780203998946E-2
807 288 1.9951748354406357E-2
807 293 2.2699337672925292E-2
807 359 1.7377394345044508E-1
807 365 1.8884623381018907E-2
807 367 3.1046309491971544E-2
807 498 2.0724830340313714E-2
807 646 3.905322467831804E-2
807 725 3.296234661832095E-2
808 165 2.5552556373164566E-2
808 204 1.831563888873418E-2
808 403 2.7522761232035023E-2
808 435 4.3265449136661555E-1
808 550 4.5713893902591354E-2
808 611 1.456952532244687E-1
808 649 1.9902379777374313E-1
808 705 3.9065253336806166E-1
808 720 8.983831950665336E-3
808 765 1.598516699104659E-1
808 793 3.161436584305819E-2
809 193 2.6384435987902972E-2
809 209 7.744869708785176E-2
809 217 2.5202854804518494E-2
809 219 8.699884249108113E-2
809 240 2.0517492532103485E-2
809 277 2.0635366296609153E-1
809 305 1.0119583547395944E-1
809 306 2.1304494709510746E-2
809 354 1.1350945737360853E-1
809 383 2.360797551862334E-2
809 593 3.573815518851015E-2
809 622 1.9065299300984193E-2
809 746 3.969542500824418E-2
809 759 1.831563888873418E-2
810 30 1.831563888873418E-2
810 51 4.7549906768730443E-1
810 246 1.8660664363863745E-2
810 343 6.955552948524465E-2
810 381 3.9577669345734845E-1
810 547 1.6122697516434713E-2
810 552 4.803766785120933E-2
810 558 2.234990684428899E-2
810 821 7.56491917746377E-2
810 835 4.202385335397839E-2
811 19 2.790505654453611E-2
811 82 1.6473688892319774E-2
811 96 3.5160707398491864E-2
811 165 1.1283618731705691E-1
811 174 2.654509049430448E-2
811 204 8.301600947776142E-2
811 301 1.814514929821539E-1
811 468 2.01128521893181E-2
811 481 1.831563888873418E-2
811 510 7.669634426147083E-2
811 584 1.78482798532498E-2
811 626 1.6104525319186446E-2
811 706 4.2473348041384335E-2
811 720 4.7668796295062085E-2
811 784 2.631524532456139E-2
811 799 2.8074843410030515E-2
812 164 1.5710293359896366E-2
812 180 2.1353046707507487E-2
812 225 1.8787890012846165E-1
812 278 1.2904178044763628E-1
812 437 1.831563888873418E-2
812 457 1.831563888873418E-2
812 558 5.193969433792487E-2
812 631 1.4044168033518062E-1
812 696 1.9006714586387495E-2
812 747 2.0795557994967278E-2
812 821 2.1353046707507487E-2
813 44 3.4512963408476226E-2
813 163 3.677039276683226E-2
813 187 1.6402579832847115E-2
813 237 4.8030530108979935E-1
813 399 9.755396910713664E-2
813 543 1.831563888873418E-2
813 685 6.899602109110615E-2
813 691 7.765819277201375E-2
813 767 7.476144190188197E-2
813 776 8.929216042399048E-2
814 43 1.6940488036070928E-2
814 58 7.91361599964935E-2
814 137 2.67957443999138E-2
814 236 5.4091773227301264E-2
814 245 1.098038997762564E-1
814 285 1.8998661917530982E-2
814 337 1.7843003812749232E-2
814 446 6.458803982274489E-2
814 612 2.602284461225821E-2
814 709 1.831563888873418E-2
814 760 1.825128715438491E-1
814 830 3.453252454755977E-2
815 48 3.6079375297621494E-2
815 67 2.3017243037192692E-1
815 100 8.208499862389876E-2
815 119 9.854505942534658E-2
815 144 3.412319987521719E-2
815 196 1.406748899595494E-2
815 266 1.686854680783515E-2
815 315 6.683993515189016E-2
815 334 3.198069143927261E-2
815 391 5.137307302067445E-2
815 434 5.4627574576306175E-2
815 493 3.1064235259286872E-2
815 530 1.831563888873418E-2
815 569 3.2433240894795524E-2
815 591 8.530361363583894E-2
815 610 4.9332395118924816E-2
815 638 5.5213282804043445E-2
815 748 1.9819634270060826E-1
815 766 9.071795328941251E-2
815 786 1.6572675401761237E-2
816 5 4.096755120379664E-2
816 198 3.7062330150444495E-2
816 209 4.1014377659865424E-2
816 224 1.831563888873418E-2
816 383 2.9087552835543512E-2
816 466 2.7589821236937387E-2
816 486 5.860094798647946E-2
816 593 1.7681395555575328E-2
816 677 6.897516197460342E-2
816 746 5.157296338336713E-2
816 806 2.9087552835543512E-2
817 1 2.368633112846589E-2
817 46 3.175153760239859E-2
817 94 1.4256526411450518E-1
817 116 1.0278735526318833E-1
817 122 3.0366240672777538E-2
817 370 1.831563888873418E-2
817 386 1.831563888873418E-2
817 478 5.186517029417822E-2
817 485 1.831563888873418E-2
817 509 3.127666636029532E-2
817 612 3.222720723797962E-2
817 666 4.1224093726581444E-2
817 843 1.1072080744946874E-1
818 28 2.3875456533247588E-2
818 118 3.345817374512775E-2
818 377 4.0309015546264926E-2
818 427 6.414461809721542E-2
818 469 6.095082659628987E-2
818 482 1.4633228206592346E-2
818 491 2.8196546905825598E-2
818 525 5.743261926761735E-2
818 571 6.34896282034498E-1
818 624 4.538119431770484E-1
818 701 1.921133822081647E-2
818 714 1.9105911163939585E-1
818 731 4.205029450553523E-2
819 133 2.0309702835097698E-2
819 152 6.233023599342444E-2
819 318 3.496053750222628E-2
819 351 1.8845494465342516E-1
819 387 1.0550510021802045E-1
819 479 2.6823580857777956E-2
819 527 1.3752690023025915E-1
819 599 1.735411793165139E-2
819 643 2.912392042786667E-1
819 724 1.5891739453870776E-2
819 761 4.782720579178226E-2
819 777 1.5216637860794245E-2
819 783 2.4736744506390793E-1
819 794 1.716941200165747E-2
819 820 1.831563888873418E-2
820 10 5.33000408273976E-2
820 57 2.248269593038509E-1
820 65 1.6915152611269323E-2
820 133 1.429459411945642E-1
820 191 1.66811989416215E-2
820 327 1.388679890753561E-2
820 356 3.125850184150664E-1
820 387 1.5510757606985046E-1
820 425 1.2546134500816092E-1
820 527 6.0168515572894564E-2
820 623 1.831563888873418E-2
820 761 2.0442248492903367E-2
820 783 8.573332316985358E-3
820 819 1.831563888873418E-2
821 51 7.144225903848214E-2
821 63 4.3210224681341225E-2
821 215 1.921659995839653E-2
821 225 3.663540972299834E-2
821 246 9.785639664745109E-2
821 278 1.743076432202509E-2
821 343 2.492498769859289E-2
821 381 1.8741711124945004E-1
821 522 2.0334002426456225E-2
821 547 4.0114522230148095E-2
821 558 6.316305235549835E-2
821 802 2.2574787436623396E-2
821 810 7.56491917746377E-2
821 812 2.1353046707507487E-2
822 72 1.807905698254218E-2
822 91 1.831563888873418E-2
822 197 7.424719797017355E-2
822 218 2.0114661412567802E-2
822 252 2.679145913774479E-2
822 472 3.397211327822041E-2
822 487 1.9196341913398354E-1
822 518 3.224657527690432E-2
822 537 1.7042039563122228E-2
822 560 4.909291452494773E-2
822 603 1.4956677810358955E-2
822 606 2.1155489510240537E-2
822 621 9.657616446455958E-2
822 640 2.9260068815464384E-2
822 787 1.831563888873418E-2
823 4 1.5174427396386175E-1
823 111 9.184614402347677E-2
823 123 2.938402281219291E-1
823 140 1.831563888873418E-2
823 192 1.6369105191757192E-2
823 226 2.169496700404162E-1
823 273 4.233206938515671E-2
823 274 4.4746521325149224E-2
823 329 3.982338522107286E-2
823 404 2.2451037026612837E-2
823 450 2.0378834790940593E-2
823 742 2.22954917079545E-2
824 93 1.831563888873418E-2
824 99 3.707389535426292E-2
824 130 3.3681132354210865E-2
824 185 5.488168526217753E-2
824 289 1.831563888873418E-2
824 314 3.0074997274218696E-1
824 366 3.893137911201343E-2
824 455 6.0565409150066696E-2
824 462 2.3957437264318412E-1
824 575 2.5060805981180462E-2
824 578 4.241970225893157E-2
824 693 2.2206043054830073E-2
824 712 2.670874530633289E-2
824 805 4.215158840377069E-2
825 106 1.69177765225651E-1
825 166 1.82522630389674E-2
825 203 2.0928013331991662E-2
825 221 6.390073289766994E-2
825 239 1.1494916335676936E-1
825 320 3.124020528791791E-2
825 336 1.694924456750299E-1
825 344 8.934904923297082E-2
825 427 7.900112258888442E-2
825 474 6.861141584132431E-2
825 477 2.2046626968308E-2
825 491 3.385256854845405E-2
825 494 1.831563888873418E-2
825 502 1.0199189834541096E-1
825 506 1.831563888873418E-2
825 513 2.1243699636771012E-2
825 561 1.046817377262166E-1
825 583 6.719558651382594E-2
825 739 4.574720632592309E-2
825 828 3.525675844322468E-2
826 14 4.0692658754937355E-2
826 198 1.831563888873418E-2
826 282 2.1912360923288673E-2
826 293 1.1932149007255452E-1
826 365 2.4276420896506147E-2
826 402 1.961036737243302E-2
826 475 1.660277051520221E-2
826 519 2.3967499269292987E-2
826 657 4.3383615776349665E-2
826 736 5.9754984557735126E-2
827 18 2.171285611280841E-2
827 191 3.956340333332223E-2
827 327 4.540915589865328E-2
827 355 7.405219662523016E-2
827 356 1.6205767854636368E-2
827 439 3.143914543732125E-2
827 566 1.831563888873418E-2
827 639 5.114276065062213E-2
827 644 1.0010931527369893E-1
827 695 1.0500667669407662E-1
828 203 7.415290630228978E-2
828 221 1.8030576378858205E-2
828 239 1.739443936020143E-1
828 344 6.177146667095795E-2
828 477 1.4185623320420768E-1
828 494 2.2109128401854868E-2
828 502 1.831563888873418E-2
828 561 1.1299720931945711E-1
828 587 6.546188180805569E-2
828 825 3.525675844322468E-2
829 47 1.4989650060967988E-1
829 158 2.569872578621206E-2
829 225 1.7788607044387995E-2
829 278 2.569872578621206E-2
829 316 9.787270323643871E-2
829 317 5.0128776491377605E-2
829 437 1.8175248517878048E-1
829 631 2.4241044489777416E-2
829 636 7.748551730446457E-2
829 696 1.831563888873418E-2
830 43 3.1632119207399284E-1
830 46 7.618538478868095E-2
830 49 3.0643726673832514E-2
830 58 1.902000134892689E-2
830 122 2.1987284382209998E-1
830 126 8.681846697525356E-2
830 137 2.3912992862805314E-2
830 175 2.065703689024799E-2
830 222 2.578874534558429E-2
830 236 1.1147221264240716E-1
830 312 5.6744399640664356E-2
830 442 5.083961030033277E-2
830 446 2.430933181200723E-2
830 478 2.765524992055434E-2
830 485 2.8438824714184532E-2
830 574 2.528328078342574E-2
830 612 2.703774027717658E-1
830 658 2.3687831735461375E-2
830 683 3.33732699603261E-2
830 694 2.464806776062023E-2
830 709 5.1594004821404E-1
830 760 5.4664429957495944E-2
830 814 3.453252454755977E-2
831 52 1.831563888873418E-2
831 141 1.2661766259893029E-2
831 153 1.44665176638995E-1
831 167 2.0716840927509056E-1
831 179 1.3502416778013598E-1
831 202 2.3920332076393956E-2
831 241 2.4364831961559107E-2
831 257 1.831563888873418E-2
831 280 3.0389112198824012E-2
831 296 1.781671973387637E-2
831 418 1.747264017462572E-1
831 754 1.2954481143192E-1
832 50 3.913110138509993E-2
832 145 5.979974234172909E-2
832 207 3.713506092311415E-2
832 268 8.273218318427382E-2
832 372 1.3462857318492064E-1
832 411 3.918722991216074E-2
832 579 9.827954627553125E-2
832 601 3.2922052221978505E-2
832 682 5.190304596108765E-2
832 718 3.485003871306624E-2
832 803 1.9385579647453025E-2
833 45 3.750399530901468E-2
833 59 2.0073263292218226E-2
833 79 8.527331039863165E-2
833 82 3.11155967295544E-2
833 168 1.831563888873418E-2
833 189 1.831563888873418E-2
833 204 2.1819137551201673E-2
833 256 2.3608187018402928E-2
833 301 1.3310842914367505E-2
833 347 2.7600488500443266E-2
833 584 4.57915783470537E-2
833 626 1.978601462781864E-2
833 668 2.2853847875639762E-2
833 706 1.4358932827002044E-1
833 720 9.56088062587042E-2
833 779 1.831563888873418E-2
834 46 2.585999644478506E-2
834 116 1.831563888873418E-2
834 147 2.3415664648178278E-2
834 188 4.666893136747465E-2
834 242 3.532697281548572E-2
834 370 2.152325869015081E-1
834 485 1.2972261176399415E-2
834 526 2.1177332331923823E-1
834 664 2.269462234185353E-2
834 666 7.791687886716231E-2
834 681 2.9526101206892513E-2
834 838 2.818902520549669E-2
835 121 2.519335092851152E-1
835 161 6.514951003004418E-2
835 290 3.321679229526228E-2
835 343 6.024115768439069E-2
835 381 3.151270941332217E-2
835 421 1.831563888873418E-2
835 535 8.773622881481966E-2
835 595 1.7024410559387016E-2
835 635 2.2110040017316385E-1
835 802 4.2679054868674536E-2
835 810 4.202385335397839E-2
836 6 1.634667765477434E-1
836 55 1.0415958880974621E-1
836 86 7.858072183309368E-1
836 156 9.935150551473256E-3
836 275 1.1027515278501865E-1
836 322 4.6035242719930314E-1
836 397 2.676698704254143E-1
836 684 1.831563888873418E-2
836 688 1.3355145225000328E-1
836 734 2.861565397877349E-1
837 125 8.20849986238988E-2
837 342 2.5521183517644656E-2
837 385 2.4448479734764011E-1
837 417 3.704214632546224E-2
837 457 4.898793528932617E-2
837 471 7.451355725699572E-2
837 548 2.3964473990118095E-2
837 594 1.831563888873418E-2
837 652 4.9254591456217564E-2
837 792 5.543893588492418E-2
838 7 6.110833333524235E-2
838 36 3.1064235259286872E-2
838 116 1.831563888873418E-2
838 147 3.4406889286841325E-2
838 188 3.222740716806254E-1
838 242 1.5488031226281673E-1
838 359 8.446410975870008E-2
838 411 1.531849804865089E-2
838 488 9.059247896186451E-2
838 492 9.798448044705839E-2
838 496 1.006957007399773E-1
838 526 1.6423587653856195E-1
838 541 2.6292173621536585E-2
838 681 3.7838862173880924E-2
838 834 2.818902520549669E-2
839 2 1.1891773728092643E-1
839 14 1.333153914149203E-1
839 75 1.0607498571566114E-1
839 87 2.2229289974374367E-1
839 115 2.2743892148592005E-2
839 328 4.737673184511096E-2
839 519 1.831563888873418E-2
839 546 1.7455154262268385E-2
839 657 4.125553782900807E-2
839 758 3.955452465218055E-2
840 8 3.01888740917441E-1
840 32 4.5672359873462624E-2
840 235 4.7752155750813145E-2
840 331 2.692556965440386E-2
840 417 4.2660939435737656E-2
840 471 4.342627321243529E-2
840 617 1.831563888873418E-2
840 637 5.017816666596583E-2
840 665 4.3020536706136453E-1
840 704 1.5974670144555086E-1
840 743 2.9070592900244798E-2
840 763 1.2700655217551066E-2
840 792 3.2869402164688183E-1
841 12 2.4821411478746034E-2
841 228 1.831563888873418E-2
841 264 1.1258808674140301E-1
841 294 5.771141784411321E-2
841 304 3.732337051328155E-2
841 420 1.0269117910175551E-1
841 426 3.8053388941081095E-2
841 436 6.545500939502477E-2
841 542 4.274331915528082E-2
841 609 1.2432898671995216E-2
841 661 2.2665191636150557E-2
842 92 5.488315952855771E-2
842 187 2.9541442089271713E-2
842 248 1.7795615176276125E-1
842 325 6.592368191792589E-2
842 410 9.320487153331668E-2
842 428 1.490447366795855E-1
842 543 1.156934036724561E-2
842 562 4.029550948925833E-1
842 685 3.301897595545387E-2
842 721 1.4918737627986517E-1
842 767 1.5627336088464555E-1
843 1 4.242574108051138E-2
843 31 2.5005005721851076E-2
843 94 8.286304968503094E-2
843 112 2.5005005721851076E-2
843 116 3.969956318129317E-2
843 129 1.630664521064873E-2
843 201 7.058459240241644E-2
843 255 2.155593547248427E-2
843 373 1.6510254852711674E-2
843 478 2.935472120730553E-2
843 509 2.0081902079649333E-1
843 681 1.831563888873418E-2
843 725 3.488312076781464E-2
843 817 1.1072080744946874E-1
844 146 1.523614842932695E-1
844 221 1.831563888873418E-2
844 321 3.466558595331217E-1
844 336 1.6429796323476246E-2
844 487 1.8692619997289737E-2
844 537 1.8692619997289737E-2
844 577 2.5202427982924026E-2
844 603 2.0110896296612085E-2
844 606 3.5876455877695806E-2
844 621 5.594223811389745E-2
844 640 3.3749334949328885E-2
844 676 6.980997065415765E-3
845 11 2.6437027604535406E-2
845 164 7.535334136437016E-2
845 225 1.645350927318559E-2
845 342 2.14228114500419E-2
845 414 1.831563888873418E-2
845 420 1.831563888873418E-2
845 426 4.9073652866990364E-2
845 430 3.3858438818023855E-2
845 558 5.113961301641269E-2
845 588 2.1334651856812846E-2
845 625 2.9523864074677417E-2
846 12 1.2717940540939485E-2
846 17 1.831563888873418E-2
846 88 2.3402959615961116E-1
846 124 5.4045276463304426E-2
846 182 5.682992134624326E-2
846 184 2.5393697086547276E-2
846 250 6.077835769234656E-2
846 270 8.478028022933648E-2
846 375 1.9841094744370288E-2
846 412 1.65981914481515E-2
846 443 1.313003603496667E-1
846 586 7.199579668943618E-2
846 608 9.926681934628286E-3
846 689 4.813016565512812E-2
846 729 2.7661345816207293E-2
846 756 1.831563888873418E-2
