%%MatrixMarket matrix coordinate real general
%
165 165 2268
1 3 1.6315391603474755E-2
1 4 1.763978417903014E-2
1 6 8.21167571896574E-2
1 8 1.831563888873418E-2
1 23 2.0215897002882913E-2
1 32 1.831563888873418E-2
1 34 2.0187433355699426E-2
1 45 8.341512705485385E-2
1 56 1.94862363770634E-2
1 61 5.520963331630919E-2
1 78 2.277831246157971E-2
1 100 3.726535043979081E-2
1 112 2.6720982639305786E-2
1 121 1.831563888873418E-2
1 122 5.788520534314805E-2
2 3 3.3874465185249905E-2
2 4 5.396633008278556E-2
2 5 3.241746761990715E-2
2 7 4.527575999061196E-2
2 8 7.924583946816156E-2
2 10 1.2268689816116425E-1
2 11 4.089397983086045E-2
2 24 1.9706556728024432E-2
2 30 1.4228460070757074E-2
2 32 2.5130507244420744E-2
3 1 1.6315391603474755E-2
3 2 3.3874465185249905E-2
3 4 3.8409394162603576E-2
3 5 8.320890425254446E-2
3 7 5.942260297722776E-2
3 8 4.631514085740083E-2
3 10 5.0791529846464664E-2
3 11 6.729298177361492E-2
3 25 2.0413070423538474E-2
3 32 1.831563888873418E-2
4 1 1.763978417903014E-2
4 2 5.396633008278556E-2
4 3 3.8409394162603576E-2
4 5 6.388044414463859E-2
4 7 8.231291350318962E-2
4 8 2.7902810464736005E-1
4 10 1.0983788565588351E-1
4 11 5.984951205298043E-2
4 29 1.8229301787847547E-2
4 30 1.831563888873418E-2
4 32 3.223118092695827E-2
4 56 1.983799766858026E-2
5 2 3.241746761990715E-2
5 3 8.320890425254446E-2
5 4 6.388044414463859E-2
5 7 9.909746623788607E-2
5 8 1.0415098946988473E-1
5 10 6.113463047105203E-2
5 11 1.9716937408528024E-1
5 12 1.831563888873418E-2
5 29 1.831563888873418E-2
5 30 1.7453640779994308E-2
5 32 3.974901932671319E-2
6 1 8.21167571896574E-2
6 17 1.199387385998753E-1
6 28 4.952704786674533E-2
6 39 7.606786900236162E-2
6 45 1.5494618848071294E-2
6 50 8.27652860637266E-2
6 61 5.8352727503138066E-2
6 83 3.1309808116676524E-2
6 94 6.51316796271196E-2
6 105 2.8087929534415402E-2
6 116 6.49430634273899E-2
6 127 1.6085623443794755E-1
6 149 6.054360299318878E-2
7 2 4.527575999061196E-2
7 3 5.942260297722776E-2
7 4 8.231291350318962E-2
7 5 9.909746623788607E-2
7 8 1.5599726023559424E-1
7 10 9.212875036869515E-2
7 11 2.2669887912684603E-1
7 12 2.4708654395659207E-2
7 29 1.831563888873418E-2
7 30 1.7006280909536462E-2
7 56 1.8365826818960006E-2
8 1 1.831563888873418E-2
8 2 7.924583946816156E-2
8 3 4.631514085740083E-2
8 4 2.7902810464736005E-1
8 5 1.0415098946988473E-1
8 7 1.5599726023559424E-1
8 10 2.0890368947216173E-1
8 11 1.0242074780651342E-1
8 12 1.5460734133463603E-2
8 32 2.126872825088491E-2
8 56 1.817061738191775E-2
9 20 4.166784841837085E-2
9 31 1.1842437515928626E-1
9 42 2.2833737870270113E-1
9 53 6.131777258994904E-2
9 64 3.851249456773962E-2
9 75 1.729102445848012E-2
9 97 8.603340032338173E-2
9 108 1.831563888873418E-2
9 119 7.942112980807017E-2
9 130 1.6060149646655805E-2
9 141 6.792226784570024E-2
9 152 2.010304160609686E-1
9 155 1.6791757026948108E-2
9 163 1.3779433842676106E-1
10 2 1.2268689816116425E-1
10 3 5.0791529846464664E-2
10 4 1.0983788565588351E-1
10 5 6.113463047105203E-2
10 7 9.212875036869515E-2
10 8 2.0890368947216173E-1
10 11 9.178887942359033E-2
10 29 1.831563888873418E-2
10 32 2.7580113971869803E-2
10 89 1.8309863420377836E-2
11 2 4.089397983086045E-2
11 3 6.729298177361492E-2
11 4 5.984951205298043E-2
11 5 1.9716937408528024E-1
11 7 2.2669887912684603E-1
11 8 1.0242074780651342E-1
11 10 9.178887942359033E-2
11 12 1.8498288420862704E-2
11 29 1.831563888873418E-2
11 30 1.7534615062999838E-2
11 32 2.627223994435929E-2
11 56 3.327557307178745E-2
12 5 1.831563888873418E-2
12 7 2.4708654395659207E-2
12 8 1.5460734133463603E-2
12 11 1.8498288420862704E-2
12 29 4.5907499710080645E-2
12 30 4.164040772870613E-2
12 32 2.548758149191442E-2
12 34 2.021713178949239E-2
12 56 1.831563888873418E-2
12 78 1.750439987097298E-2
12 89 1.2212009998480643E-1
12 144 1.990097435787601E-2
12 162 1.9985136837992044E-2
13 15 2.7748591062377835E-2
13 16 1.636266790699656E-2
13 18 2.425273293835707E-2
13 21 9.488039145418037E-2
13 22 1.0026494014831047E-1
13 46 2.914385211264631E-2
13 54 1.789580628578551E-2
13 57 2.035108025728544E-2
13 69 1.8666543529331177E-2
13 73 1.953446181601223E-2
13 74 1.831563888873418E-2
13 79 3.697068898367381E-2
13 84 2.2461684956738767E-2
13 90 2.4502173431481276E-2
13 101 2.418213211574751E-2
13 103 2.077245368107828E-2
13 107 1.831563888873418E-2
13 109 1.814860652666959E-2
13 110 1.7418173247955714E-2
13 123 2.8922636542126658E-2
13 134 2.2803338125930158E-2
13 138 1.831563888873418E-2
13 139 3.353869137134791E-2
13 145 1.9347391001529147E-2
14 15 8.25116955946891E-2
14 16 1.755053612409894E-1
14 18 5.325041985078728E-2
14 19 2.32695450035738E-2
14 21 4.764140952307582E-2
14 22 2.3468866816408522E-2
14 23 1.833503349681096E-2
14 25 3.1985197989084946E-2
14 69 6.865774517876855E-2
14 80 2.0954965975133473E-2
14 82 1.732938334917117E-2
14 91 2.1081198283768764E-2
14 92 1.767168615960707E-2
14 93 3.937776522738165E-2
14 95 1.832070693523879E-2
14 96 1.832070693523879E-2
14 98 2.37298730510382E-2
14 124 3.826250439464135E-2
15 13 2.7748591062377835E-2
15 14 8.25116955946891E-2
15 16 1.8713826060562128E-2
15 17 1.1862369099221053E-2
15 18 1.6081429053922895E-2
15 21 7.796210916800483E-2
15 22 3.2623549241435845E-2
15 23 2.848327885954794E-2
15 46 2.6914819029687002E-2
15 69 1.831563888873418E-2
15 73 1.831563888873418E-2
15 92 7.187411288034273E-2
15 95 1.5802726516917633E-2
15 96 1.5802726516917633E-2
15 98 2.4192739505071607E-2
15 103 1.9697988150369623E-2
15 124 2.535852276136559E-2
15 128 2.2817190739921528E-2
15 129 2.7602268477448334E-2
15 131 1.7320534676473986E-2
15 138 4.2154164414576666E-2
16 13 1.636266790699656E-2
16 14 1.755053612409894E-1
16 15 1.8713826060562128E-2
16 18 1.5625008557256373E-1
16 19 8.699947964901608E-2
16 22 4.778631836657752E-2
16 27 2.998448378185803E-2
16 69 3.126092829753777E-2
16 74 2.222126246243404E-2
16 77 2.1555755455520575E-2
16 82 2.0961180331727274E-2
16 93 4.336024492573301E-2
16 104 1.755840043305836E-2
16 124 3.682542179076563E-2
16 134 1.967039950568188E-2
16 135 2.3862698704671784E-2
16 136 2.628684490889035E-2
16 137 1.831563888873418E-2
16 142 4.739826025849275E-2
16 143 2.2517538220274542E-2
16 159 1.831563888873418E-2
17 6 1.199387385998753E-1
17 15 1.1862369099221053E-2
17 28 4.486765799594395E-2
17 39 2.6383025400906326E-2
17 50 1.1985547072095551E-1
17 61 2.947324462701024E-2
17 83 3.441370558989674E-2
17 94 1.557968988503904E-1
17 105 6.545687434638899E-2
17 127 9.478004269676658E-2
17 149 3.2874923384155576E-2
18 13 2.425273293835707E-2
18 14 5.325041985078728E-2
18 15 1.6081429053922895E-2
18 16 1.5625008557256373E-1
18 19 1.6511666415025458E-1
18 21 2.8407944692478426E-2
18 22 1.2516466606654986E-1
18 27 2.4231101817653648E-2
18 69 2.6209591542723214E-2
18 74 3.0666803342651087E-2
18 77 2.0888705729742864E-2
18 93 3.110801682836121E-2
18 106 2.3148680874114952E-2
18 135 2.4101426281029036E-2
18 136 2.1129060229077647E-2
18 137 1.5102849978944533E-2
18 139 3.1117650950290177E-2
18 140 3.405986852303018E-2
18 142 2.3867545695355194E-2
18 143 2.66086735147093E-2
19 14 2.32695450035738E-2
19 16 8.699947964901608E-2
19 18 1.6511666415025458E-1
19 22 2.0389086461745573E-2
19 27 1.831563888873418E-2
19 77 3.769251287782789E-2
19 135 5.685759579401786E-2
19 136 2.9399886423966504E-2
19 137 2.0351935861822365E-2
19 140 4.001667775537381E-2
19 142 2.6633933511281797E-2
19 143 3.577929354701098E-2
19 153 1.3391686604493528E-2
20 9 4.166784841837085E-2
20 62 2.4028310793102133E-2
20 63 1.5088553555779647E-2
20 64 7.610526823586859E-2
20 86 3.4541584924739535E-2
20 97 4.365077931889363E-2
20 108 6.120832979577498E-2
20 130 3.0338414417361854E-2
20 133 4.543846161157761E-2
20 139 3.363290828749573E-2
20 140 2.2720812390662495E-2
20 141 2.2570531644169035E-2
20 152 8.576020624687622E-2
20 163 1.831563888873418E-2
21 13 9.488039145418037E-2
21 14 4.764140952307582E-2
21 15 7.796210916800483E-2
21 18 2.8407944692478426E-2
21 22 1.106459117813001E-1
21 32 2.428909745343598E-2
21 46 1.876093334085034E-2
21 47 1.4595353428675125E-2
21 49 1.8440048192725867E-2
21 65 1.831563888873418E-2
21 69 2.9530180061099507E-2
21 70 1.3206156592145243E-2
21 73 4.121024958857818E-2
21 74 1.8591774062769552E-2
21 76 1.6456003625294452E-2
21 90 2.599343011564038E-2
21 92 3.559288588746833E-2
21 98 2.2644347528936994E-2
21 103 1.689640071691115E-2
21 128 1.9003561749928965E-2
21 145 1.831563888873418E-2
21 157 1.831563888873418E-2
22 13 1.0026494014831047E-1
22 14 2.3468866816408522E-2
22 15 3.2623549241435845E-2
22 16 4.778631836657752E-2
22 18 1.2516466606654986E-1
22 19 2.0389086461745573E-2
22 21 1.106459117813001E-1
22 47 3.2257955964254584E-2
22 51 1.703020136349313E-2
22 52 3.0307993226193437E-2
22 54 3.0681505300043366E-2
22 68 1.831563888873418E-2
22 70 1.8616392839450647E-2
22 71 2.1874577753009265E-2
22 74 2.2480300877441454E-2
22 76 2.6864450627881925E-2
22 90 3.653604948486821E-2
22 92 3.7525897755471195E-2
22 134 1.523468912693029E-2
22 139 1.0604946035480407E-1
22 140 1.831563888873418E-2
22 162 1.6580829755579164E-2
23 1 2.0215897002882913E-2
23 14 1.833503349681096E-2
23 15 2.848327885954794E-2
23 25 1.894949907180063E-2
23 28 6.993472771364312E-2
23 39 1.831563888873418E-2
23 45 4.607405895941927E-2
23 46 1.843787905833292E-2
23 80 1.779364046455379E-2
23 83 1.6109699754410883E-2
23 87 5.27111835201403E-2
23 98 1.6595625794223093E-2
23 99 3.206862547127441E-2
23 100 4.12483979880893E-2
23 105 8.247650670709494E-3
23 124 2.6139580351186312E-2
23 129 1.684278359672416E-2
23 131 2.659334262643383E-2
23 138 3.2235499078377944E-2
23 146 1.831563888873418E-2
23 149 7.052614944182073E-2
23 160 2.8598757259566177E-2
24 2 1.9706556728024432E-2
24 25 1.4799221579056596E-2
24 29 2.9784853677822163E-2
24 30 3.355284433922857E-2
24 32 2.7758533993249738E-2
24 33 2.446197074528612E-2
24 84 2.1332169672301574E-2
24 145 3.493178144319044E-2
24 146 2.138525838458514E-2
24 151 2.2357927029192565E-2
24 154 1.831563888873418E-2
25 3 2.0413070423538474E-2
25 14 3.1985197989084946E-2
25 23 1.894949907180063E-2
25 24 1.4799221579056596E-2
25 27 5.169959112526418E-2
25 29 3.012517959767411E-2
25 30 3.693490665382544E-2
25 32 4.271436960957775E-2
25 33 1.0226463332970011E-1
25 91 1.7303257465664953E-2
25 146 1.72516333041213E-2
25 151 2.0007609837889566E-2
25 154 1.831563888873418E-2
26 48 1.810021926004831E-2
26 54 1.831563888873418E-2
26 63 2.013647976971088E-2
26 81 1.8666950411487613E-2
26 85 2.254016529055733E-2
26 124 2.8266202054704113E-2
26 125 2.423589626050069E-2
26 136 1.8599227213118345E-2
26 142 2.1561139573628957E-2
26 158 2.3291900379366917E-2
27 16 2.998448378185803E-2
27 18 2.4231101817653648E-2
27 19 1.831563888873418E-2
27 25 5.169959112526418E-2
27 29 3.812478417956174E-2
27 30 3.922375383467724E-2
27 33 2.8374902783636698E-2
27 93 2.5453946015597143E-2
27 148 2.2767522542553348E-2
27 159 1.90487135859646E-2
27 161 1.6944650697454464E-2
28 6 4.952704786674533E-2
28 17 4.486765799594395E-2
28 23 6.993472771364312E-2
28 39 4.849086594615034E-2
28 50 2.7763576062620338E-2
28 72 1.5993151595589984E-2
28 83 2.877952623637777E-2
28 94 6.89027735317784E-2
28 105 2.299614480477952E-2
28 116 3.321989023028527E-2
28 127 6.016223214961186E-2
28 138 1.423466103599116E-1
28 149 9.324643489771381E-2
28 160 1.9065817753568443E-1
29 4 1.8229301787847547E-2
29 5 1.831563888873418E-2
29 7 1.831563888873418E-2
29 10 1.831563888873418E-2
29 11 1.831563888873418E-2
29 12 4.5907499710080645E-2
29 24 2.9784853677822163E-2
29 25 3.012517959767411E-2
29 27 3.812478417956174E-2
29 30 8.725965756235085E-1
29 32 2.045627089029717E-1
29 33 3.1064538925343506E-2
29 84 2.0336942470844336E-2
29 89 3.506291631718229E-2
29 90 1.9495891045359322E-2
29 122 1.567836350096118E-2
29 151 1.831563888873418E-2
29 162 2.386520928278616E-2
29 164 1.831563888873418E-2
30 2 1.4228460070757074E-2
30 4 1.831563888873418E-2
30 5 1.7453640779994308E-2
30 7 1.7006280909536462E-2
30 11 1.7534615062999838E-2
30 12 4.164040772870613E-2
30 24 3.355284433922857E-2
30 25 3.693490665382544E-2
30 27 3.922375383467724E-2
30 29 8.725965756235085E-1
30 32 2.1126651127973067E-1
30 33 3.656528045059402E-2
30 84 2.3275693419213327E-2
30 89 2.8601664567320557E-2
30 90 1.831563888873418E-2
30 151 1.849009633891822E-2
30 157 1.4812267517936123E-2
30 162 2.03206068957686E-2
31 9 1.1842437515928626E-1
31 42 3.982891731195974E-1
31 53 1.4596619085049928E-1
31 75 6.78306063493836E-2
31 86 1.961308430400721E-2
31 97 3.147990600019714E-2
31 119 3.601606121246946E-2
31 141 3.751185443767474E-2
31 152 4.0086693514440774E-2
31 155 4.3701588917534256E-2
31 163 1.0952816318511158E-1
32 1 1.831563888873418E-2
32 2 2.5130507244420744E-2
32 3 1.831563888873418E-2
32 4 3.223118092695827E-2
32 5 3.974901932671319E-2
32 8 2.126872825088491E-2
32 10 2.7580113971869803E-2
32 11 2.627223994435929E-2
32 12 2.548758149191442E-2
32 21 2.428909745343598E-2
32 24 2.7758533993249738E-2
32 25 4.271436960957775E-2
32 29 2.045627089029717E-1
32 30 2.1126651127973067E-1
32 33 2.3559524412441673E-2
32 84 1.831563888873418E-2
32 89 1.9383280325432628E-2
32 122 1.831563888873418E-2
32 145 2.392755737111793E-2
32 151 1.783953046787394E-2
32 157 2.7938856476979614E-2
32 162 2.12566499083631E-2
33 24 2.446197074528612E-2
33 25 1.0226463332970011E-1
33 27 2.8374902783636698E-2
33 29 3.1064538925343506E-2
33 30 3.656528045059402E-2
33 32 2.3559524412441673E-2
33 91 1.831563888873418E-2
33 99 1.9458473459274022E-2
33 146 2.3422911524336728E-2
33 148 1.80129173716263E-2
33 150 2.4003723219965592E-2
33 151 3.2129630762461496E-2
33 154 3.503680744271654E-2
33 165 3.8444884053674785E-2
34 1 2.0187433355699426E-2
34 12 2.021713178949239E-2
34 35 3.6646369443640005E-2
34 37 4.4853011797827025E-2
34 38 1.6400058023364944E-2
34 41 1.4531935176916817E-2
34 43 1.4531935176916817E-2
34 44 8.905888156299287E-2
34 45 3.509590485439667E-2
34 47 2.061152091246856E-2
34 51 4.6875271385555806E-2
34 52 1.831563888873418E-2
34 55 1.8137416120743134E-2
34 78 3.305630069562262E-2
34 89 1.831563888873418E-2
34 122 2.2686926052368578E-2
34 144 6.1894148893895704E-2
34 145 1.8742533623386574E-2
35 34 3.6646369443640005E-2
35 36 8.161672224544408E-2
35 37 3.448608808389916E-2
35 38 2.9303121750233477E-2
35 40 1.1940729757266803E-1
35 41 5.4212199367523514E-2
35 43 5.4212199367523514E-2
35 44 7.585769000017113E-2
35 55 1.5191876059150707E-2
35 79 1.831563888873418E-2
35 84 1.983752680738287E-2
35 120 1.5456290333408116E-2
35 123 2.5992339273485484E-2
35 145 2.7750989384733533E-2
35 155 1.831563888873418E-2
36 35 8.161672224544408E-2
36 37 2.297467878417487E-2
36 38 7.893209689022877E-2
36 40 2.517063785984942E-1
36 41 1.2290486811084532E-1
36 43 1.2290486811084532E-1
36 44 4.980749925080136E-2
36 81 3.24531157989725E-2
36 85 1.831563888873418E-2
36 125 1.831563888873418E-2
36 132 1.2156295514403899E-2
36 155 3.596170037428258E-2
37 34 4.4853011797827025E-2
37 35 3.448608808389916E-2
37 36 2.297467878417487E-2
37 38 2.7383429538494295E-2
37 40 5.338969767352295E-2
37 41 2.1224522516903228E-2
37 43 2.1224522516903228E-2
37 44 8.300205232534272E-2
37 47 2.1479544381182145E-2
37 54 1.831563888873418E-2
37 62 1.773247307119423E-2
37 65 1.9557841713498697E-2
37 81 2.3597521678878523E-2
37 88 2.4834234343475585E-2
37 147 3.352177219291245E-2
37 155 2.0267289910998736E-2
38 34 1.6400058023364944E-2
38 35 2.9303121750233477E-2
38 36 7.893209689022877E-2
38 37 2.7383429538494295E-2
38 40 1.6835990401618037E-1
38 41 2.5167529300757513E-1
38 43 2.5167529300757513E-1
38 44 6.477840982174508E-2
38 62 1.831563888873418E-2
38 68 2.3388363710524218E-2
38 76 2.1843030197971458E-2
38 133 2.115781259545024E-2
38 155 2.150311986488542E-2
39 6 7.606786900236162E-2
39 17 2.6383025400906326E-2
39 23 1.831563888873418E-2
39 28 4.849086594615034E-2
39 50 4.925965618197549E-2
39 61 7.676057635934627E-2
39 83 3.659129368475807E-2
39 94 3.858329497947666E-2
39 105 2.8201409725556292E-2
39 116 4.051840779021777E-2
39 127 9.476418238558647E-2
39 149 1.0079834676435094E-1
40 35 1.1940729757266803E-1
40 36 2.517063785984942E-1
40 37 5.338969767352295E-2
40 38 1.6835990401618037E-1
40 41 2.366098536343629E-1
40 43 2.366098536343629E-1
40 44 1.4264332008819855E-1
40 54 1.831563888873418E-2
40 125 1.6544494967805704E-2
40 155 2.3103739651374598E-2
40 156 1.831563888873418E-2
40 162 1.831563888873418E-2
41 34 1.4531935176916817E-2
41 35 5.4212199367523514E-2
41 36 1.2290486811084532E-1
41 37 2.1224522516903228E-2
41 38 2.5167529300757513E-1
41 40 2.366098536343629E-1
41 43 1
41 44 5.893594617372362E-2
41 125 2.2643363151877108E-2
41 155 1.9958445137824767E-2
42 9 2.2833737870270113E-1
42 31 3.982891731195974E-1
42 53 1.2474707669571557E-1
42 64 1.831563888873418E-2
42 75 5.141031063838203E-2
42 86 1.831563888873418E-2
42 97 4.80821696978392E-2
42 108 2.485197796745674E-2
42 119 4.0429881727929495E-2
42 141 8.186999209829417E-2
42 152 1.0664076279352348E-1
42 155 5.671717759649875E-2
42 163 1.6056126586381025E-1
43 34 1.4531935176916817E-2
43 35 5.4212199367523514E-2
43 36 1.2290486811084532E-1
43 37 2.1224522516903228E-2
43 38 2.5167529300757513E-1
43 40 2.366098536343629E-1
43 41 1
43 44 5.893594617372362E-2
43 125 2.2643363151877108E-2
43 155 1.9958445137824767E-2
44 34 8.905888156299287E-2
44 35 7.585769000017113E-2
44 36 4.980749925080136E-2
44 37 8.300205232534272E-2
44 38 6.477840982174508E-2
44 40 1.4264332008819855E-1
44 41 5.893594617372362E-2
44 43 5.893594617372362E-2
44 47 1.8742521241838568E-2
44 51 1.831563888873418E-2
44 52 1.831563888873418E-2
44 54 1.831563888873418E-2
44 62 1.831563888873418E-2
44 88 2.3695202043760827E-2
44 139 1.831563888873418E-2
44 144 1.8543688555576053E-2
44 145 2.4076071117460178E-2
44 153 1.7438246165264095E-2
44 155 2.1762472540361556E-2
45 1 8.341512705485385E-2
45 6 1.5494618848071294E-2
45 23 4.607405895941927E-2
45 34 3.509590485439667E-2
45 46 5.8905321236609465E-2
45 48 5.9174809213198835E-2
45 49 3.0049609467715923E-2
45 50 1.831563888873418E-2
45 51 3.642915307753855E-2
45 55 3.176039372098351E-2
45 58 1.831563888873418E-2
45 78 4.9783538417790284E-2
45 87 3.8186230456095024E-2
45 100 1.916603082738423E-2
45 114 1.7612287419595692E-2
45 116 2.6006629637024763E-2
45 122 5.996780657869725E-2
45 127 1.777214379481781E-2
45 128 2.7812762379150598E-2
45 129 2.8026184448213528E-2
45 149 1.831563888873418E-2
46 13 2.914385211264631E-2
46 15 2.6914819029687002E-2
46 21 1.876093334085034E-2
46 23 1.843787905833292E-2
46 45 5.8905321236609465E-2
46 47 1.8697969905713086E-2
46 48 3.6137251993742056E-2
46 49 7.641314676869171E-2
46 51 2.8154691982003124E-2
46 52 3.686376830047419E-2
46 54 2.7217537977723482E-2
46 55 4.973037635348683E-2
46 57 1.6393017759585144E-2
46 58 2.0944854186524836E-2
46 66 1.831563888873418E-2
46 67 1.831563888873418E-2
46 72 1.831563888873418E-2
46 79 2.9803354374774528E-2
46 80 1.831563888873418E-2
46 84 2.278848644422409E-2
46 85 1.9653354707962298E-2
46 87 2.3212259521580694E-2
46 92 2.7322709124005494E-2
46 123 2.936773978671752E-2
46 128 3.567818612716718E-2
46 129 3.923896799564494E-2
46 131 5.641982579846851E-2
46 132 2.2971710339527912E-2
47 21 1.4595353428675125E-2
47 22 3.2257955964254584E-2
47 34 2.061152091246856E-2
47 37 2.1479544381182145E-2
47 44 1.8742521241838568E-2
47 46 1.8697969905713086E-2
47 48 3.630041230627473E-2
47 49 1.9464160215446655E-2
47 51 1.652361274717347E-1
47 52 4.10868970999143E-1
47 54 4.581763582109887E-1
47 55 1.7325538042887223E-1
47 60 1.4354439151036054E-2
47 62 1.9489867850896608E-2
47 81 1.831563888873418E-2
47 139 1.9868244213932296E-2
47 157 1.771660140062074E-2
48 26 1.810021926004831E-2
48 45 5.9174809213198835E-2
48 46 3.6137251993742056E-2
48 47 3.630041230627473E-2
48 49 4.0969928906428914E-2
48 51 8.046586784678603E-2
48 52 3.709935054018134E-2
48 54 3.860607150582643E-2
48 55 3.367163865148666E-2
48 58 1.6831047312941112E-2
48 128 1.831563888873418E-2
49 21 1.8440048192725867E-2
49 45 3.0049609467715923E-2
49 46 7.641314676869171E-2
49 47 1.9464160215446655E-2
49 48 4.0969928906428914E-2
49 51 4.291037691651631E-2
49 52 2.799223308435734E-2
49 54 2.8500266930378156E-2
49 55 3.2781231207931256E-2
49 58 3.731997442129234E-2
49 59 1.7451429052256984E-2
49 66 2.218595258367724E-2
49 123 1.831563888873418E-2
49 128 3.505095301810728E-2
49 129 3.5364340340197545E-2
49 131 2.207067603462269E-2
49 132 1.7422761859324117E-2
50 6 8.27652860637266E-2
50 17 1.1985547072095551E-1
50 28 2.7763576062620338E-2
50 39 4.925965618197549E-2
50 45 1.831563888873418E-2
50 61 4.880892744508661E-2
50 83 4.943808230203251E-2
50 94 8.259525744362883E-2
50 105 2.573733180135631E-2
50 116 2.0159653002009236E-2
50 127 1.5873462623059603E-1
50 149 6.51678658407467E-2
51 22 1.703020136349313E-2
51 34 4.6875271385555806E-2
51 44 1.831563888873418E-2
51 45 3.642915307753855E-2
51 46 2.8154691982003124E-2
51 47 1.652361274717347E-1
51 48 8.046586784678603E-2
51 49 4.291037691651631E-2
51 52 1.3671754246720136E-1
51 54 1.786299205112939E-1
51 55 8.794383972837641E-2
51 78 2.2368468670833957E-2
52 22 3.0307993226193437E-2
52 34 1.831563888873418E-2
52 44 1.831563888873418E-2
52 46 3.686376830047419E-2
52 47 4.10868970999143E-1
52 48 3.709935054018134E-2
52 49 2.799223308435734E-2
52 51 1.3671754246720136E-1
52 54 5.189186220792221E-1
52 55 2.761393119290539E-1
52 78 2.006797658862988E-2
52 81 1.95650110920527E-2
52 82 1.969634471128041E-2
52 88 1.8145371442027818E-2
52 90 2.3359303292215618E-2
52 92 2.2144965379552656E-2
52 156 1.7972927361667303E-2
52 157 2.1249388363990086E-2
52 158 1.73244985492548E-2
53 9 6.131777258994904E-2
53 31 1.4596619085049928E-1
53 42 1.2474707669571557E-1
53 75 7.598307000722307E-2
53 86 6.363303339605987E-2
53 97 2.633187874980955E-2
53 119 2.264289031253692E-2
53 141 2.942923664507661E-2
53 152 2.329714227849156E-2
53 155 1.831563888873418E-2
53 163 3.1560706072684026E-2
54 13 1.789580628578551E-2
54 22 3.0681505300043366E-2
54 26 1.831563888873418E-2
54 37 1.831563888873418E-2
54 40 1.831563888873418E-2
54 44 1.831563888873418E-2
54 46 2.7217537977723482E-2
54 47 4.581763582109887E-1
54 48 3.860607150582643E-2
54 49 2.8500266930378156E-2
54 51 1.786299205112939E-1
54 52 5.189186220792221E-1
54 55 2.637138850259868E-1
54 81 2.407708548009583E-2
54 88 2.254338129228429E-2
54 90 2.0162685124662637E-2
54 92 1.9091396400783403E-2
54 125 2.331589734065654E-2
54 128 1.5193075891992525E-2
54 139 2.1115820050534414E-2
54 157 1.986835463836492E-2
55 34 1.8137416120743134E-2
55 35 1.5191876059150707E-2
55 45 3.176039372098351E-2
55 46 4.973037635348683E-2
55 47 1.7325538042887223E-1
55 48 3.367163865148666E-2
55 49 3.2781231207931256E-2
55 51 8.794383972837641E-2
55 52 2.761393119290539E-1
55 54 2.637138850259868E-1
55 79 1.9261394973905208E-2
55 80 2.0972283930837395E-2
55 81 1.956238697818051E-2
55 84 2.6576626298510944E-2
55 88 1.831563888873418E-2
55 92 2.5710176869914565E-2
55 126 2.1413094273651744E-2
55 128 1.735963201560399E-2
55 129 1.831563888873418E-2
55 131 1.831563888873418E-2
55 132 3.652871076646836E-2
56 1 1.94862363770634E-2
56 4 1.983799766858026E-2
56 7 1.8365826818960006E-2
56 8 1.817061738191775E-2
56 11 3.327557307178745E-2
56 12 1.831563888873418E-2
56 78 2.758766496340764E-2
56 89 3.9937858555959646E-2
56 122 6.337726283702944E-2
56 144 3.2722471239164115E-2
57 13 2.035108025728544E-2
57 46 1.6393017759585144E-2
57 58 3.222365957332372E-2
57 59 1.1454450811486404E-1
57 60 6.668590823063754E-2
57 62 3.5543907446038324E-2
57 65 1.0796706327552885E-1
57 66 8.051933319634783E-2
57 67 2.124744543056877E-2
57 73 2.076059145544473E-2
57 75 1.8484984034135666E-2
57 101 3.420625935476956E-2
57 102 2.2251506456573155E-2
57 103 2.8065211216471007E-2
57 123 2.7524211037483343E-2
57 145 4.1664401587944114E-2
58 45 1.831563888873418E-2
58 46 2.0944854186524836E-2
58 48 1.6831047312941112E-2
58 49 3.731997442129234E-2
58 57 3.222365957332372E-2
58 59 3.6681853506638294E-2
58 60 2.3073643294303208E-2
58 65 7.450940048410609E-2
58 66 4.957179074109659E-2
58 67 4.083882739384926E-2
58 72 3.080075090291542E-2
58 75 3.8689683562041555E-2
58 119 2.1719906425821268E-2
58 123 2.9425226815673763E-2
58 125 1.8731938587499178E-2
58 128 3.810793327707704E-2
58 129 3.447541722131418E-2
58 131 2.313110110396431E-2
58 132 1.831563888873418E-2
59 49 1.7451429052256984E-2
59 57 1.1454450811486404E-1
59 58 3.6681853506638294E-2
59 60 1.7127000536406678E-1
59 62 8.880890429088983E-2
59 63 2.352066303080334E-2
59 65 2.7419406594433526E-1
59 66 1.6917816683680137E-1
59 73 2.054899642999619E-2
59 79 1.818590315483011E-2
59 86 1.8238437596817682E-2
59 103 2.444649837635547E-2
59 124 1.8225162344167312E-2
59 126 2.2753119466632134E-2
59 129 1.831563888873418E-2
59 146 1.8749202985718718E-2
59 147 3.4151839636306004E-2
59 154 1.7854709596583654E-2
60 47 1.4354439151036054E-2
60 57 6.668590823063754E-2
60 58 2.3073643294303208E-2
60 59 1.7127000536406678E-1
60 62 1.841091623349164E-1
60 63 5.106146156606241E-2
60 65 1.3373887430738815E-1
60 66 8.300991205842279E-2
60 70 1.8520595589637874E-2
60 71 2.1575538028351944E-2
60 104 2.0260472805452807E-2
60 126 2.948622691613347E-2
60 147 1.831563888873418E-2
61 1 5.520963331630919E-2
61 6 5.8352727503138066E-2
61 17 2.947324462701024E-2
61 39 7.676057635934627E-2
61 50 4.880892744508661E-2
61 83 1.831563888873418E-2
61 94 1.4606552149814444E-2
61 105 2.873713367528641E-2
61 127 2.1112182214670577E-2
61 149 5.080818401950246E-2
62 20 2.4028310793102133E-2
62 37 1.773247307119423E-2
62 38 1.831563888873418E-2
62 44 1.831563888873418E-2
62 47 1.9489867850896608E-2
62 57 3.5543907446038324E-2
62 59 8.880890429088983E-2
62 60 1.841091623349164E-1
62 63 1.6500123771159775E-1
62 65 1.0323888370532981E-1
62 66 4.475674345723003E-2
62 68 2.1885934335165207E-2
62 70 1.831563888873418E-2
62 71 2.4213890887996987E-2
62 76 2.843188442931324E-2
62 104 2.1496640442577132E-2
62 126 1.4842281348496777E-2
62 133 1.996169261650701E-2
62 139 2.362658237720885E-2
62 147 2.8797417210601077E-2
62 148 2.424956285127926E-2
62 150 2.2478933942391408E-2
62 153 1.8492365590116324E-2
62 155 2.560517447192788E-2
63 20 1.5088553555779647E-2
63 26 2.013647976971088E-2
63 59 2.352066303080334E-2
63 60 5.106146156606241E-2
63 62 1.6500123771159775E-1
63 64 1.3232154474143587E-2
63 65 2.3138801656826094E-2
63 77 2.3366993680260885E-2
63 86 2.5259327470054733E-2
63 106 3.0488809841256233E-2
63 108 4.932879815654132E-2
63 124 2.2175848965653958E-2
63 125 1.3895092635622304E-2
63 126 1.831563888873418E-2
63 147 2.3461830105708875E-2
63 150 2.339640317444572E-2
63 153 2.6847231041788867E-2
64 9 3.851249456773962E-2
64 20 7.610526823586859E-2
64 42 1.831563888873418E-2
64 63 1.3232154474143587E-2
64 86 1.9073288652042206E-2
64 97 1.1782368833799589E-1
64 108 7.15944393845576E-2
64 130 5.2979361295491426E-2
64 152 6.095662730307839E-2
64 163 7.573715846829478E-2
65 21 1.831563888873418E-2
65 37 1.9557841713498697E-2
65 57 1.0796706327552885E-1
65 58 7.450940048410609E-2
65 59 2.7419406594433526E-1
65 60 1.3373887430738815E-1
65 62 1.0323888370532981E-1
65 63 2.3138801656826094E-2
65 66 1.1457176666249855E-1
65 67 1.998281155260492E-2
65 70 1.8955196772858014E-2
65 71 1.6656997511892726E-2
65 73 3.709310710266959E-2
65 75 1.831563888873418E-2
65 79 1.8941390271256364E-2
65 92 1.8590648508417598E-2
65 103 3.742272910073942E-2
65 119 1.7273423602172946E-2
65 124 1.9209030159669304E-2
65 125 2.2643074234625544E-2
65 126 1.9704122855293184E-2
65 128 1.831563888873418E-2
65 129 1.9156720053378307E-2
65 131 2.358440369211118E-2
65 145 2.805993584560063E-2
65 146 1.6742378266770486E-2
65 147 2.820070141271618E-2
65 151 2.339213138979393E-2
65 154 1.831563888873418E-2
66 46 1.831563888873418E-2
66 49 2.218595258367724E-2
66 57 8.051933319634783E-2
66 58 4.957179074109659E-2
66 59 1.6917816683680137E-1
66 60 8.300991205842279E-2
66 62 4.475674345723003E-2
66 65 1.1457176666249855E-1
66 101 3.720626816037171E-2
66 103 2.520687157211786E-2
66 113 1.6941654361581612E-2
66 114 1.831563888873418E-2
66 115 1.831563888873418E-2
66 117 1.831563888873418E-2
66 118 1.831563888873418E-2
66 119 1.831563888873418E-2
66 129 1.8652216503590637E-2
66 146 1.831563888873418E-2
67 46 1.831563888873418E-2
67 57 2.124744543056877E-2
67 58 4.083882739384926E-2
67 65 1.998281155260492E-2
67 72 2.0249889380436098E-1
67 73 2.0162120797516378E-2
67 75 9.843097897180778E-2
67 123 2.127948214650675E-2
67 128 1.839096349549019E-2
67 129 1.783534850017453E-2
67 138 3.218005306112183E-2
68 22 1.831563888873418E-2
68 38 2.3388363710524218E-2
68 62 2.1885934335165207E-2
68 70 3.2221238083318386E-2
68 71 2.5063636226951937E-2
68 76 1.822158896182094E-1
68 133 2.5339187753571916E-2
68 139 3.812458726376077E-2
68 140 1.3849312049507715E-2
68 155 1.957749257094935E-2
69 13 1.8666543529331177E-2
69 14 6.865774517876855E-2
69 15 1.831563888873418E-2
69 16 3.126092829753777E-2
69 18 2.6209591542723214E-2
69 21 2.9530180061099507E-2
69 73 7.305690312420343E-2
69 74 1.582435711257308E-1
69 98 2.4309601130902796E-2
69 107 1.5821942738224667E-2
70 21 1.3206156592145243E-2
70 22 1.8616392839450647E-2
70 60 1.8520595589637874E-2
70 62 1.831563888873418E-2
70 65 1.8955196772858014E-2
70 68 3.2221238083318386E-2
70 71 1.5741948702111153E-1
70 73 2.4005818890307576E-2
70 74 3.214920809358471E-2
70 76 1.0641139320184999E-1
71 22 2.1874577753009265E-2
71 60 2.1575538028351944E-2
71 62 2.4213890887996987E-2
71 65 1.6656997511892726E-2
71 68 2.5063636226951937E-2
71 70 1.5741948702111153E-1
71 73 2.373125689541192E-2
71 74 2.9418076910051414E-2
71 76 2.0105041620468406E-1
71 139 2.6672054806996463E-2
72 28 1.5993151595589984E-2
72 46 1.831563888873418E-2
72 58 3.080075090291542E-2
72 67 2.0249889380436098E-1
72 75 4.6831401914054736E-2
72 123 2.1794680882918728E-2
72 128 2.798732479733902E-2
72 129 2.6743086975641456E-2
72 138 8.888087658772136E-2
72 160 6.683667288969464E-2
73 13 1.953446181601223E-2
73 15 1.831563888873418E-2
73 21 4.121024958857818E-2
73 57 2.076059145544473E-2
73 59 2.054899642999619E-2
73 65 3.709310710266959E-2
73 67 2.0162120797516378E-2
73 69 7.305690312420343E-2
73 70 2.4005818890307576E-2
73 71 2.373125689541192E-2
73 74 1.2933279705002457E-1
73 107 1.677460825082541E-2
74 13 1.831563888873418E-2
74 16 2.222126246243404E-2
74 18 3.0666803342651087E-2
74 21 1.8591774062769552E-2
74 22 2.2480300877441454E-2
74 69 1.582435711257308E-1
74 70 3.214920809358471E-2
74 71 2.9418076910051414E-2
74 73 1.2933279705002457E-1
74 76 2.2225186420643122E-2
74 107 1.762460205020701E-2
75 9 1.729102445848012E-2
75 31 6.78306063493836E-2
75 42 5.141031063838203E-2
75 53 7.598307000722307E-2
75 57 1.8484984034135666E-2
75 58 3.8689683562041555E-2
75 65 1.831563888873418E-2
75 67 9.843097897180778E-2
75 72 4.6831401914054736E-2
75 123 2.279725359928788E-2
76 21 1.6456003625294452E-2
76 22 2.6864450627881925E-2
76 38 2.1843030197971458E-2
76 62 2.843188442931324E-2
76 68 1.822158896182094E-1
76 70 1.0641139320184999E-1
76 71 2.0105041620468406E-1
76 74 2.2225186420643122E-2
76 139 3.423963640583399E-2
76 155 1.831563888873418E-2
77 16 2.1555755455520575E-2
77 18 2.0888705729742864E-2
77 19 3.769251287782789E-2
77 63 2.3366993680260885E-2
77 135 3.7277420664073316E-2
77 136 2.250235721402276E-2
77 137 1.831563888873418E-2
77 140 1.6721674616999953E-2
77 142 1.9743486168525705E-2
77 143 2.152442248760651E-2
78 1 2.277831246157971E-2
78 12 1.750439987097298E-2
78 34 3.305630069562262E-2
78 45 4.9783538417790284E-2
78 51 2.2368468670833957E-2
78 52 2.006797658862988E-2
78 56 2.758766496340764E-2
78 84 2.4872729869549432E-2
78 89 2.920802269204954E-2
78 100 1.831563888873418E-2
78 122 4.845652157411329E-2
78 130 1.902783720569201E-2
78 144 8.751350567060179E-2
78 145 2.1462725915648767E-2
78 151 1.8185890129186876E-2
79 13 3.697068898367381E-2
79 35 1.831563888873418E-2
79 46 2.9803354374774528E-2
79 55 1.9261394973905208E-2
79 59 1.818590315483011E-2
79 65 1.8941390271256364E-2
79 80 7.6579027850735E-2
79 82 2.7092423359799236E-2
79 84 3.2073257539510715E-2
79 85 1.7767734732430977E-2
79 87 3.864858048852335E-2
79 134 2.893776588678906E-2
79 147 3.0709768044498754E-2
80 14 2.0954965975133473E-2
80 23 1.779364046455379E-2
80 46 1.831563888873418E-2
80 55 2.0972283930837395E-2
80 79 7.6579027850735E-2
80 82 1.1177334294026224E-1
80 85 3.1684509155515454E-2
80 87 1.0676821858943567E-1
80 142 2.10516859271849E-2
80 147 2.5029733566045348E-2
81 26 1.8666950411487613E-2
81 36 3.24531157989725E-2
81 37 2.3597521678878523E-2
81 47 1.831563888873418E-2
81 52 1.95650110920527E-2
81 54 2.407708548009583E-2
81 55 1.956238697818051E-2
81 84 1.828014800914037E-2
81 85 1.64623590125054E-1
81 125 2.4969902030095113E-2
81 158 2.3439006305663177E-2
82 14 1.732938334917117E-2
82 16 2.0961180331727274E-2
82 52 1.969634471128041E-2
82 79 2.7092423359799236E-2
82 80 1.1177334294026224E-1
82 87 5.7876959659448855E-2
82 142 2.9836002095746543E-2
82 147 2.8923700241357764E-2
82 151 1.831563888873418E-2
82 154 1.9304758302557633E-2
83 6 3.1309808116676524E-2
83 17 3.441370558989674E-2
83 23 1.6109699754410883E-2
83 28 2.877952623637777E-2
83 39 3.659129368475807E-2
83 50 4.943808230203251E-2
83 61 1.831563888873418E-2
83 94 2.0308727192382726E-2
83 105 1.831563888873418E-2
83 127 2.952076559795259E-2
83 149 4.425358389148626E-2
84 13 2.2461684956738767E-2
84 24 2.1332169672301574E-2
84 29 2.0336942470844336E-2
84 30 2.3275693419213327E-2
84 32 1.831563888873418E-2
84 35 1.983752680738287E-2
84 46 2.278848644422409E-2
84 55 2.6576626298510944E-2
84 78 2.4872729869549432E-2
84 79 3.2073257539510715E-2
84 81 1.828014800914037E-2
84 92 1.7429750902331866E-2
84 110 2.3259359689996262E-2
84 120 3.144805955893862E-2
84 145 2.4211052236110146E-2
84 151 2.166106087447826E-2
85 26 2.254016529055733E-2
85 36 1.831563888873418E-2
85 46 1.9653354707962298E-2
85 79 1.7767734732430977E-2
85 80 3.1684509155515454E-2
85 81 1.64623590125054E-1
85 86 3.409444827429283E-2
85 92 2.861704594113909E-2
85 124 2.0083905551976707E-2
85 131 2.937505561467356E-2
85 157 1.861508570319945E-2
85 158 3.27491138284327E-2
86 20 3.4541584924739535E-2
86 31 1.961308430400721E-2
86 42 1.831563888873418E-2
86 53 6.363303339605987E-2
86 59 1.8238437596817682E-2
86 63 2.5259327470054733E-2
86 64 1.9073288652042206E-2
86 85 3.409444827429283E-2
86 97 3.0812685240247183E-2
86 108 7.036865559586053E-2
86 152 2.189674554465204E-2
87 23 5.27111835201403E-2
87 45 3.8186230456095024E-2
87 46 2.3212259521580694E-2
87 79 3.864858048852335E-2
87 80 1.0676821858943567E-1
87 82 5.7876959659448855E-2
87 91 2.0471811488392666E-2
87 131 1.6444393580656868E-2
87 146 1.831563888873418E-2
87 149 1.9298107868867587E-2
88 37 2.4834234343475585E-2
88 44 2.3695202043760827E-2
88 52 1.8145371442027818E-2
88 54 2.254338129228429E-2
88 55 1.831563888873418E-2
88 139 2.1193843727296158E-2
88 147 5.5545113053989445E-2
88 150 2.0270848074911512E-2
88 151 2.1921089725767923E-2
88 154 1.8412135027049633E-2
89 10 1.8309863420377836E-2
89 12 1.2212009998480643E-1
89 29 3.506291631718229E-2
89 30 2.8601664567320557E-2
89 32 1.9383280325432628E-2
89 34 1.831563888873418E-2
89 56 3.9937858555959646E-2
89 78 2.920802269204954E-2
89 122 2.7534857623480395E-2
89 130 1.831563888873418E-2
89 144 2.7099944762470775E-2
89 162 2.3277432425051064E-2
90 13 2.4502173431481276E-2
90 21 2.599343011564038E-2
90 22 3.653604948486821E-2
90 29 1.9495891045359322E-2
90 30 1.831563888873418E-2
90 52 2.3359303292215618E-2
90 54 2.0162685124662637E-2
90 92 2.2102228006423773E-2
90 93 2.0867389611398966E-2
90 95 3.1301152300611756E-2
90 96 3.1301152300611756E-2
90 107 2.3216236849490292E-2
90 109 2.2206080100408795E-2
90 110 1.831563888873418E-2
90 156 7.287756682548577E-2
90 158 1.8655026855510654E-2
90 161 1.9541248134373218E-2
90 162 2.8431414984423527E-2
90 164 5.4724119547982585E-2
90 165 1.9707237692264366E-2
91 14 2.1081198283768764E-2
91 25 1.7303257465664953E-2
91 33 1.831563888873418E-2
91 87 2.0471811488392666E-2
91 93 1.8954615729807733E-2
91 95 6.445147302818699E-2
91 96 6.445147302818699E-2
91 99 9.99177148322915E-2
91 146 3.46106379637784E-2
91 151 2.3892700522397056E-2
91 154 2.321924418906226E-2
92 14 1.767168615960707E-2
92 15 7.187411288034273E-2
92 21 3.559288588746833E-2
92 22 3.7525897755471195E-2
92 46 2.7322709124005494E-2
92 52 2.2144965379552656E-2
92 54 1.9091396400783403E-2
92 55 2.5710176869914565E-2
92 65 1.8590648508417598E-2
92 84 1.7429750902331866E-2
92 85 2.861704594113909E-2
92 90 2.2102228006423773E-2
92 93 2.3057579813486134E-2
92 95 3.5534331145570426E-2
92 96 3.5534331145570426E-2
92 98 1.831563888873418E-2
92 99 3.815999493475335E-2
92 129 1.762624825099085E-2
92 157 2.3826062552473555E-2
92 158 2.0871887949065457E-2
93 14 3.937776522738165E-2
93 16 4.336024492573301E-2
93 18 3.110801682836121E-2
93 27 2.5453946015597143E-2
93 90 2.0867389611398966E-2
93 91 1.8954615729807733E-2
93 92 2.3057579813486134E-2
93 95 1.1480520440641394E-1
93 96 1.1480520440641394E-1
93 98 1.8912881781411588E-2
93 148 1.831563888873418E-2
93 157 2.8468789993956283E-2
93 159 1.803700928576253E-2
93 161 1.7353798320759582E-2
93 164 1.733062134463132E-2
94 6 6.51316796271196E-2
94 17 1.557968988503904E-1
94 28 6.89027735317784E-2
94 39 3.858329497947666E-2
94 50 8.259525744362883E-2
94 61 1.4606552149814444E-2
94 83 2.0308727192382726E-2
94 105 6.970043612288906E-2
94 127 7.840834711313009E-2
94 149 3.601064417106691E-2
94 160 1.0263905946127428E-2
95 14 1.832070693523879E-2
95 15 1.5802726516917633E-2
95 90 3.1301152300611756E-2
95 91 6.445147302818699E-2
95 92 3.5534331145570426E-2
95 93 1.1480520440641394E-1
95 96 1
95 98 1.0542534254657455E-1
95 99 1.5543635184771487E-1
95 161 1.831563888873418E-2
96 14 1.832070693523879E-2
96 15 1.5802726516917633E-2
96 90 3.1301152300611756E-2
96 91 6.445147302818699E-2
96 92 3.5534331145570426E-2
96 93 1.1480520440641394E-1
96 95 1
96 98 1.0542534254657455E-1
96 99 1.5543635184771487E-1
96 161 1.831563888873418E-2
97 9 8.603340032338173E-2
97 20 4.365077931889363E-2
97 31 3.147990600019714E-2
97 42 4.80821696978392E-2
97 53 2.633187874980955E-2
97 64 1.1782368833799589E-1
97 86 3.0812685240247183E-2
97 108 1.926728868313072E-2
97 119 2.5671540019577797E-2
97 130 5.778097262392635E-2
97 141 1.831563888873418E-2
97 152 6.55743773835715E-2
97 163 2.281803490015189E-1
98 14 2.37298730510382E-2
98 15 2.4192739505071607E-2
98 21 2.2644347528936994E-2
98 23 1.6595625794223093E-2
98 69 2.4309601130902796E-2
98 92 1.831563888873418E-2
98 93 1.8912881781411588E-2
98 95 1.0542534254657455E-1
98 96 1.0542534254657455E-1
98 99 6.769407885794727E-2
98 131 1.9371022695811882E-2
99 23 3.206862547127441E-2
99 33 1.9458473459274022E-2
99 91 9.99177148322915E-2
99 92 3.815999493475335E-2
99 95 1.5543635184771487E-1
99 96 1.5543635184771487E-1
99 98 6.769407885794727E-2
99 131 3.770614535182506E-2
99 146 1.8162863556848017E-2
99 165 2.3967264198960454E-2
100 1 3.726535043979081E-2
100 23 4.12483979880893E-2
100 45 1.916603082738423E-2
100 78 1.831563888873418E-2
100 101 2.2834295826073592E-2
100 102 1.9358216951483487E-2
100 103 3.873722741159916E-2
100 105 4.690419987665373E-2
100 107 3.7066190761970576E-2
100 109 2.2811519774031293E-2
100 145 1.831563888873418E-2
100 146 2.0928869631160717E-2
100 151 1.7825575459348007E-2
101 13 2.418213211574751E-2
101 57 3.420625935476956E-2
101 66 3.720626816037171E-2
101 100 2.2834295826073592E-2
101 102 2.9551165621834914E-2
101 103 6.771894238175477E-2
101 107 1.8201119491061624E-2
101 109 1.831563888873418E-2
101 110 2.552067711411688E-2
101 145 4.8635313870244994E-2
101 146 1.831563888873418E-2
102 57 2.2251506456573155E-2
102 100 1.9358216951483487E-2
102 101 2.9551165621834914E-2
102 103 1.6668396735375745E-2
102 104 2.5758636738921283E-2
102 106 1.831563888873418E-2
102 107 1.7022067952657285E-1
102 109 1.4228825125066621E-1
102 110 2.046298894379541E-1
102 146 2.4320014713683252E-2
103 13 2.077245368107828E-2
103 15 1.9697988150369623E-2
103 21 1.689640071691115E-2
103 57 2.8065211216471007E-2
103 59 2.444649837635547E-2
103 65 3.742272910073942E-2
103 66 2.520687157211786E-2
103 100 3.873722741159916E-2
103 101 6.771894238175477E-2
103 102 1.6668396735375745E-2
103 107 2.7046469683506713E-2
103 109 1.8443907589528474E-2
103 145 1.831563888873418E-2
104 16 1.755840043305836E-2
104 60 2.0260472805452807E-2
104 62 2.1496640442577132E-2
104 102 2.5758636738921283E-2
104 106 5.819512484585038E-2
104 107 4.47846417103433E-2
104 109 7.576883382659122E-2
104 110 5.440957185124859E-2
104 148 1.8562947358421386E-2
104 151 1.831563888873418E-2
105 6 2.8087929534415402E-2
105 17 6.545687434638899E-2
105 23 8.247650670709494E-3
105 28 2.299614480477952E-2
105 39 2.8201409725556292E-2
105 50 2.573733180135631E-2
105 61 2.873713367528641E-2
105 83 1.831563888873418E-2
105 94 6.970043612288906E-2
105 100 4.690419987665373E-2
105 127 3.656900687519303E-2
105 149 2.520770528431945E-2
106 18 2.3148680874114952E-2
106 63 3.0488809841256233E-2
106 102 1.831563888873418E-2
106 104 5.819512484585038E-2
106 107 5.1526256189348994E-2
106 108 1.573478671748219E-2
106 109 8.337777738672453E-2
106 110 3.717889809500187E-2
106 136 1.5501358460327186E-2
106 150 2.0762377234703137E-2
106 153 4.791802743900095E-2
107 13 1.831563888873418E-2
107 69 1.5821942738224667E-2
107 73 1.677460825082541E-2
107 74 1.762460205020701E-2
107 90 2.3216236849490292E-2
107 100 3.7066190761970576E-2
107 101 1.8201119491061624E-2
107 102 1.7022067952657285E-1
107 103 2.7046469683506713E-2
107 104 4.47846417103433E-2
107 106 5.1526256189348994E-2
107 109 4.7444087099393506E-1
107 110 2.2587256043334733E-1
108 9 1.831563888873418E-2
108 20 6.120832979577498E-2
108 42 2.485197796745674E-2
108 63 4.932879815654132E-2
108 64 7.15944393845576E-2
108 86 7.036865559586053E-2
108 97 1.926728868313072E-2
108 106 1.573478671748219E-2
108 141 1.1156009685946473E-2
108 152 4.042022416184517E-2
108 163 1.9350422979385596E-2
109 13 1.814860652666959E-2
109 90 2.2206080100408795E-2
109 100 2.2811519774031293E-2
109 101 1.831563888873418E-2
109 102 1.4228825125066621E-1
109 103 1.8443907589528474E-2
109 104 7.576883382659122E-2
109 106 8.337777738672453E-2
109 107 4.7444087099393506E-1
109 110 3.8359578680144835E-1
110 13 1.7418173247955714E-2
110 84 2.3259359689996262E-2
110 90 1.831563888873418E-2
110 101 2.552067711411688E-2
110 102 2.046298894379541E-1
110 104 5.440957185124859E-2
110 106 3.717889809500187E-2
110 107 2.2587256043334733E-1
110 109 3.8359578680144835E-1
110 154 2.166337715764976E-2
111 112 6.324231689720851E-2
111 113 1.1258794137454602E-1
111 114 9.584266544383796E-2
111 115 8.085608418038413E-2
111 117 9.615377527511565E-2
111 118 1.0228862857094785E-1
111 120 4.824932936120722E-2
111 121 5.968701436742406E-2
111 122 1.831563888873418E-2
111 144 1.8184501754280782E-2
112 1 2.6720982639305786E-2
112 111 6.324231689720851E-2
112 113 3.8956609959616514E-2
112 114 4.506433331439154E-2
112 115 8.159091249085682E-2
112 117 7.060554224571458E-2
112 118 8.162602711936755E-2
112 120 1.831563888873418E-2
112 121 5.239772968139008E-2
112 122 1.750624126930815E-2
113 66 1.6941654361581612E-2
113 111 1.1258794137454602E-1
113 112 3.8956609959616514E-2
113 114 1.966542568947109E-1
113 115 2.5344724728067947E-1
113 117 2.0958535205766232E-1
113 118 2.6012825841308074E-1
113 120 3.0742930028331605E-1
113 121 1.0056135306062142E-1
113 146 2.0709745537159218E-2
114 45 1.7612287419595692E-2
114 66 1.831563888873418E-2
114 111 9.584266544383796E-2
114 112 4.506433331439154E-2
114 113 1.966542568947109E-1
114 115 2.3695529466898788E-1
114 117 2.593655147503531E-1
114 118 4.2740358775758014E-1
114 120 1.2266846171969534E-1
114 121 2.0539292595488565E-1
115 66 1.831563888873418E-2
115 111 8.085608418038413E-2
115 112 8.159091249085682E-2
115 113 2.5344724728067947E-1
115 114 2.3695529466898788E-1
115 117 3.582651763506009E-1
115 118 4.321792041775387E-1
115 120 8.971337898598003E-2
115 121 1.9373169773222357E-1
115 146 1.3625838551235472E-2
116 6 6.49430634273899E-2
116 28 3.321989023028527E-2
116 39 4.051840779021777E-2
116 45 2.6006629637024763E-2
116 50 2.0159653002009236E-2
116 127 4.534484812813741E-2
116 128 1.831563888873418E-2
116 129 1.7727846307505058E-2
116 149 2.264147144221336E-2
116 160 2.9694093831680868E-2
117 66 1.831563888873418E-2
117 111 9.615377527511565E-2
117 112 7.060554224571458E-2
117 113 2.0958535205766232E-1
117 114 2.593655147503531E-1
117 115 3.582651763506009E-1
117 118 4.8258551694909646E-1
117 120 7.003785974386505E-2
117 121 1.514442811342943E-1
117 146 1.7029749325832934E-2
118 66 1.831563888873418E-2
118 111 1.0228862857094785E-1
118 112 8.162602711936755E-2
118 113 2.6012825841308074E-1
118 114 4.2740358775758014E-1
118 115 4.321792041775387E-1
118 117 4.8258551694909646E-1
118 120 1.2531070450813195E-1
118 121 2.0671801984318822E-1
118 146 1.6256090449540555E-2
119 9 7.942112980807017E-2
119 31 3.601606121246946E-2
119 42 4.0429881727929495E-2
119 53 2.264289031253692E-2
119 58 2.1719906425821268E-2
119 65 1.7273423602172946E-2
119 66 1.831563888873418E-2
119 97 2.5671540019577797E-2
119 152 3.234019984693707E-2
119 163 3.295673535613099E-2
120 35 1.5456290333408116E-2
120 84 3.144805955893862E-2
120 111 4.824932936120722E-2
120 112 1.831563888873418E-2
120 113 3.0742930028331605E-1
120 114 1.2266846171969534E-1
120 115 8.971337898598003E-2
120 117 7.003785974386505E-2
120 118 1.2531070450813195E-1
120 121 3.1003679882630024E-2
120 131 1.831563888873418E-2
121 1 1.831563888873418E-2
121 111 5.968701436742406E-2
121 112 5.239772968139008E-2
121 113 1.0056135306062142E-1
121 114 2.0539292595488565E-1
121 115 1.9373169773222357E-1
121 117 1.514442811342943E-1
121 118 2.0671801984318822E-1
121 120 3.1003679882630024E-2
121 122 1.7242754230301045E-2
122 1 5.788520534314805E-2
122 29 1.567836350096118E-2
122 32 1.831563888873418E-2
122 34 2.2686926052368578E-2
122 45 5.996780657869725E-2
122 56 6.337726283702944E-2
122 78 4.845652157411329E-2
122 89 2.7534857623480395E-2
122 111 1.831563888873418E-2
122 112 1.750624126930815E-2
122 121 1.7242754230301045E-2
122 130 6.547029698207314E-2
122 144 4.05749328344613E-2
123 13 2.8922636542126658E-2
123 35 2.5992339273485484E-2
123 46 2.936773978671752E-2
123 49 1.831563888873418E-2
123 57 2.7524211037483343E-2
123 58 2.9425226815673763E-2
123 67 2.127948214650675E-2
123 72 2.1794680882918728E-2
123 75 2.279725359928788E-2
123 125 1.9044077789301266E-2
123 128 8.608935310096155E-2
123 129 8.29051284564199E-2
123 131 4.0073157442368425E-2
123 132 3.667654132933351E-2
124 14 3.826250439464135E-2
124 15 2.535852276136559E-2
124 16 3.682542179076563E-2
124 23 2.6139580351186312E-2
124 26 2.8266202054704113E-2
124 59 1.8225162344167312E-2
124 63 2.2175848965653958E-2
124 65 1.9209030159669304E-2
124 85 2.0083905551976707E-2
124 125 2.4505574079265912E-2
124 126 2.2141604287983563E-2
124 129 1.831563888873418E-2
125 26 2.423589626050069E-2
125 36 1.831563888873418E-2
125 40 1.6544494967805704E-2
125 41 2.2643363151877108E-2
125 43 2.2643363151877108E-2
125 54 2.331589734065654E-2
125 58 1.8731938587499178E-2
125 63 1.3895092635622304E-2
125 65 2.2643074234625544E-2
125 81 2.4969902030095113E-2
125 123 1.9044077789301266E-2
125 124 2.4505574079265912E-2
125 126 1.831563888873418E-2
125 128 7.974518504192896E-2
125 129 8.164734213210527E-2
125 131 2.4266981048693806E-2
125 132 1.927968298432929E-2
125 155 3.051684071213277E-2
125 160 1.8440268441644054E-2
126 55 2.1413094273651744E-2
126 59 2.2753119466632134E-2
126 60 2.948622691613347E-2
126 62 1.4842281348496777E-2
126 63 1.831563888873418E-2
126 65 1.9704122855293184E-2
126 124 2.2141604287983563E-2
126 125 1.831563888873418E-2
126 128 1.8552604418721776E-2
126 129 2.2540628299869872E-2
126 131 2.8286747582223624E-2
126 132 3.285429475391096E-2
127 6 1.6085623443794755E-1
127 17 9.478004269676658E-2
127 28 6.016223214961186E-2
127 39 9.476418238558647E-2
127 45 1.777214379481781E-2
127 50 1.5873462623059603E-1
127 61 2.1112182214670577E-2
127 83 2.952076559795259E-2
127 94 7.840834711313009E-2
127 105 3.656900687519303E-2
127 116 4.534484812813741E-2
127 149 5.691336554608712E-2
127 160 1.831563888873418E-2
128 15 2.2817190739921528E-2
128 21 1.9003561749928965E-2
128 45 2.7812762379150598E-2
128 46 3.567818612716718E-2
128 48 1.831563888873418E-2
128 49 3.505095301810728E-2
128 54 1.5193075891992525E-2
128 55 1.735963201560399E-2
128 58 3.810793327707704E-2
128 65 1.831563888873418E-2
128 67 1.839096349549019E-2
128 72 2.798732479733902E-2
128 116 1.831563888873418E-2
128 123 8.608935310096155E-2
128 125 7.974518504192896E-2
128 126 1.8552604418721776E-2
128 129 7.909867349934816E-1
128 131 8.13175209261763E-2
128 132 5.142366046641638E-2
128 138 2.6792383289481983E-2
128 155 1.8005055272962374E-2
128 160 4.7668602463492395E-2
129 15 2.7602268477448334E-2
129 23 1.684278359672416E-2
129 45 2.8026184448213528E-2
129 46 3.923896799564494E-2
129 49 3.5364340340197545E-2
129 55 1.831563888873418E-2
129 58 3.447541722131418E-2
129 59 1.831563888873418E-2
129 65 1.9156720053378307E-2
129 66 1.8652216503590637E-2
129 67 1.783534850017453E-2
129 72 2.6743086975641456E-2
129 92 1.762624825099085E-2
129 116 1.7727846307505058E-2
129 123 8.29051284564199E-2
129 124 1.831563888873418E-2
129 125 8.164734213210527E-2
129 126 2.2540628299869872E-2
129 128 7.909867349934816E-1
129 131 1.245730694086762E-1
129 132 5.6767420937947684E-2
129 138 2.899785191166797E-2
129 160 5.396052390306535E-2
130 9 1.6060149646655805E-2
130 20 3.0338414417361854E-2
130 64 5.2979361295491426E-2
130 78 1.902783720569201E-2
130 89 1.831563888873418E-2
130 97 5.778097262392635E-2
130 122 6.547029698207314E-2
130 144 2.941375796902501E-2
130 152 1.854953545414044E-2
130 163 3.180872425942134E-2
131 15 1.7320534676473986E-2
131 23 2.659334262643383E-2
131 46 5.641982579846851E-2
131 49 2.207067603462269E-2
131 55 1.831563888873418E-2
131 58 2.313110110396431E-2
131 65 2.358440369211118E-2
131 85 2.937505561467356E-2
131 87 1.6444393580656868E-2
131 98 1.9371022695811882E-2
131 99 3.770614535182506E-2
131 120 1.831563888873418E-2
131 123 4.0073157442368425E-2
131 125 2.4266981048693806E-2
131 126 2.8286747582223624E-2
131 128 8.13175209261763E-2
131 129 1.245730694086762E-1
131 132 6.918524815812191E-2
131 138 1.828235678591812E-2
131 160 2.2161156255043557E-2
132 36 1.2156295514403899E-2
132 46 2.2971710339527912E-2
132 49 1.7422761859324117E-2
132 55 3.652871076646836E-2
132 58 1.831563888873418E-2
132 123 3.667654132933351E-2
132 125 1.927968298432929E-2
132 126 3.285429475391096E-2
132 128 5.142366046641638E-2
132 129 5.6767420937947684E-2
132 131 6.918524815812191E-2
132 160 2.2669488740670003E-2
133 20 4.543846161157761E-2
133 38 2.115781259545024E-2
133 62 1.996169261650701E-2
133 68 2.5339187753571916E-2
133 137 1.831563888873418E-2
133 139 4.134743749470993E-2
133 140 8.813523154914478E-2
133 141 8.715013792201273E-2
133 152 3.738004970756773E-2
133 155 1.813135757573202E-2
134 13 2.2803338125930158E-2
134 16 1.967039950568188E-2
134 22 1.523468912693029E-2
134 79 2.893776588678906E-2
134 135 1.831563888873418E-2
134 136 3.756711846548149E-2
134 137 3.26135300523468E-2
134 140 1.7889844967148145E-2
134 142 4.7452214520377886E-2
134 143 2.666587075699667E-2
134 147 3.23086006316167E-2
135 16 2.3862698704671784E-2
135 18 2.4101426281029036E-2
135 19 5.685759579401786E-2
135 77 3.7277420664073316E-2
135 134 1.831563888873418E-2
135 136 3.056398606833013E-1
135 137 2.2228566744555164E-1
135 139 1.488801731578395E-2
135 140 7.417934863728766E-2
135 142 1.8905769720913554E-1
135 143 2.9316027930419036E-1
136 16 2.628684490889035E-2
136 18 2.1129060229077647E-2
136 19 2.9399886423966504E-2
136 26 1.8599227213118345E-2
136 77 2.250235721402276E-2
136 106 1.5501358460327186E-2
136 134 3.756711846548149E-2
136 135 3.056398606833013E-1
136 137 1.4414715153628943E-1
136 140 6.697508749446215E-2
136 142 3.3377106084383845E-1
136 143 2.718786853227298E-1
136 153 1.2828884675579974E-2
137 16 1.831563888873418E-2
137 18 1.5102849978944533E-2
137 19 2.0351935861822365E-2
137 77 1.831563888873418E-2
137 133 1.831563888873418E-2
137 134 3.26135300523468E-2
137 135 2.2228566744555164E-1
137 136 1.4414715153628943E-1
137 139 2.333241892829429E-2
137 140 9.242914736306161E-2
137 142 1.4729352643318025E-1
137 143 1.4989938035149553E-1
138 13 1.831563888873418E-2
138 15 4.2154164414576666E-2
138 23 3.2235499078377944E-2
138 28 1.423466103599116E-1
138 67 3.218005306112183E-2
138 72 8.888087658772136E-2
138 128 2.6792383289481983E-2
138 129 2.899785191166797E-2
138 131 1.828235678591812E-2
138 160 1.3354172773304085E-1
139 13 3.353869137134791E-2
139 18 3.1117650950290177E-2
139 20 3.363290828749573E-2
139 22 1.0604946035480407E-1
139 44 1.831563888873418E-2
139 47 1.9868244213932296E-2
139 54 2.1115820050534414E-2
139 62 2.362658237720885E-2
139 68 3.812458726376077E-2
139 71 2.6672054806996463E-2
139 76 3.423963640583399E-2
139 88 2.1193843727296158E-2
139 133 4.134743749470993E-2
139 135 1.488801731578395E-2
139 137 2.333241892829429E-2
139 140 7.212538118986705E-2
139 143 1.326401611951085E-2
139 153 1.708605977723229E-2
140 18 3.405986852303018E-2
140 19 4.001667775537381E-2
140 20 2.2720812390662495E-2
140 22 1.831563888873418E-2
140 68 1.3849312049507715E-2
140 77 1.6721674616999953E-2
140 133 8.813523154914478E-2
140 134 1.7889844967148145E-2
140 135 7.417934863728766E-2
140 136 6.697508749446215E-2
140 137 9.242914736306161E-2
140 139 7.212538118986705E-2
140 142 1.831563888873418E-2
140 143 8.223224792454127E-2
141 9 6.792226784570024E-2
141 20 2.2570531644169035E-2
141 31 3.751185443767474E-2
141 42 8.186999209829417E-2
141 53 2.942923664507661E-2
141 97 1.831563888873418E-2
141 108 1.1156009685946473E-2
141 133 8.715013792201273E-2
141 152 1.0176743972362585E-1
141 163 2.1761821024566842E-2
142 16 4.739826025849275E-2
142 18 2.3867545695355194E-2
142 19 2.6633933511281797E-2
142 26 2.1561139573628957E-2
142 77 1.9743486168525705E-2
142 80 2.10516859271849E-2
142 82 2.9836002095746543E-2
142 134 4.7452214520377886E-2
142 135 1.8905769720913554E-1
142 136 3.3377106084383845E-1
142 137 1.4729352643318025E-1
142 140 1.831563888873418E-2
142 143 1.53554362947418E-1
142 147 1.6619117351918695E-2
143 16 2.2517538220274542E-2
143 18 2.66086735147093E-2
143 19 3.577929354701098E-2
143 77 2.152442248760651E-2
143 134 2.666587075699667E-2
143 135 2.9316027930419036E-1
143 136 2.718786853227298E-1
143 137 1.4989938035149553E-1
143 139 1.326401611951085E-2
143 140 8.223224792454127E-2
143 142 1.53554362947418E-1
144 12 1.990097435787601E-2
144 34 6.1894148893895704E-2
144 44 1.8543688555576053E-2
144 56 3.2722471239164115E-2
144 78 8.751350567060179E-2
144 89 2.7099944762470775E-2
144 111 1.8184501754280782E-2
144 122 4.05749328344613E-2
144 130 2.941375796902501E-2
144 145 2.6733572755298383E-2
144 146 1.831563888873418E-2
144 147 5.9289766047454985E-2
144 148 1.831563888873418E-2
144 150 2.245032706148329E-2
144 151 3.55502052544521E-2
144 154 2.5875799891358124E-2
145 13 1.9347391001529147E-2
145 21 1.831563888873418E-2
145 24 3.493178144319044E-2
145 32 2.392755737111793E-2
145 34 1.8742533623386574E-2
145 35 2.7750989384733533E-2
145 44 2.4076071117460178E-2
145 57 4.1664401587944114E-2
145 65 2.805993584560063E-2
145 78 2.1462725915648767E-2
145 84 2.4211052236110146E-2
145 100 1.831563888873418E-2
145 101 4.8635313870244994E-2
145 103 1.831563888873418E-2
145 144 2.6733572755298383E-2
145 146 6.933211881160904E-2
145 148 2.3964778772442588E-2
145 150 2.504556902501219E-2
145 151 1.0522071968598184E-1
145 154 6.220894903629843E-2
146 23 1.831563888873418E-2
146 24 2.138525838458514E-2
146 25 1.72516333041213E-2
146 33 2.3422911524336728E-2
146 59 1.8749202985718718E-2
146 65 1.6742378266770486E-2
146 66 1.831563888873418E-2
146 87 1.831563888873418E-2
146 91 3.46106379637784E-2
146 99 1.8162863556848017E-2
146 100 2.0928869631160717E-2
146 101 1.831563888873418E-2
146 102 2.4320014713683252E-2
146 113 2.0709745537159218E-2
146 115 1.3625838551235472E-2
146 117 1.7029749325832934E-2
146 118 1.6256090449540555E-2
146 144 1.831563888873418E-2
146 145 6.933211881160904E-2
146 147 5.511716727984886E-2
146 148 1.379370495026967E-1
146 150 1.515778244349177E-1
146 151 3.96358212329443E-1
146 153 3.3621038929957256E-2
146 154 4.34756472769626E-1
147 37 3.352177219291245E-2
147 59 3.4151839636306004E-2
147 60 1.831563888873418E-2
147 62 2.8797417210601077E-2
147 63 2.3461830105708875E-2
147 65 2.820070141271618E-2
147 79 3.0709768044498754E-2
147 80 2.5029733566045348E-2
147 82 2.8923700241357764E-2
147 88 5.5545113053989445E-2
147 134 3.23086006316167E-2
147 142 1.6619117351918695E-2
147 144 5.9289766047454985E-2
147 146 5.511716727984886E-2
147 148 6.555572865013509E-2
147 150 8.663124172130979E-2
147 151 1.2518589414363898E-1
147 153 3.579846293923062E-2
147 154 9.659342592791942E-2
148 27 2.2767522542553348E-2
148 33 1.80129173716263E-2
148 62 2.424956285127926E-2
148 93 1.831563888873418E-2
148 104 1.8562947358421386E-2
148 144 1.831563888873418E-2
148 145 2.3964778772442588E-2
148 146 1.379370495026967E-1
148 147 6.555572865013509E-2
148 150 4.67398096370965E-1
148 151 2.2348317225824432E-1
148 153 2.0779967576323752E-1
148 154 2.530712148808001E-1
149 6 6.054360299318878E-2
149 17 3.2874923384155576E-2
149 23 7.052614944182073E-2
149 28 9.324643489771381E-2
149 39 1.0079834676435094E-1
149 45 1.831563888873418E-2
149 50 6.51678658407467E-2
149 61 5.080818401950246E-2
149 83 4.425358389148626E-2
149 87 1.9298107868867587E-2
149 94 3.601064417106691E-2
149 105 2.520770528431945E-2
149 116 2.264147144221336E-2
149 127 5.691336554608712E-2
149 160 1.6585283434373013E-2
150 33 2.4003723219965592E-2
150 62 2.2478933942391408E-2
150 63 2.339640317444572E-2
150 88 2.0270848074911512E-2
150 106 2.0762377234703137E-2
150 144 2.245032706148329E-2
150 145 2.504556902501219E-2
150 146 1.515778244349177E-1
150 147 8.663124172130979E-2
150 148 4.67398096370965E-1
150 151 2.2476058756639922E-1
150 153 2.94100028828132E-1
150 154 2.7912496207662174E-1
151 24 2.2357927029192565E-2
151 25 2.0007609837889566E-2
151 29 1.831563888873418E-2
151 30 1.849009633891822E-2
151 32 1.783953046787394E-2
151 33 3.2129630762461496E-2
151 65 2.339213138979393E-2
151 78 1.8185890129186876E-2
151 82 1.831563888873418E-2
151 84 2.166106087447826E-2
151 88 2.1921089725767923E-2
151 91 2.3892700522397056E-2
151 100 1.7825575459348007E-2
151 104 1.831563888873418E-2
151 144 3.55502052544521E-2
151 145 1.0522071968598184E-1
151 146 3.96358212329443E-1
151 147 1.2518589414363898E-1
151 148 2.2348317225824432E-1
151 150 2.2476058756639922E-1
151 153 5.183292539968603E-2
151 154 5.393909109608487E-1
152 9 2.010304160609686E-1
152 20 8.576020624687622E-2
152 31 4.0086693514440774E-2
152 42 1.0664076279352348E-1
152 53 2.329714227849156E-2
152 64 6.095662730307839E-2
152 86 2.189674554465204E-2
152 97 6.55743773835715E-2
152 108 4.042022416184517E-2
152 119 3.234019984693707E-2
152 130 1.854953545414044E-2
152 133 3.738004970756773E-2
152 141 1.0176743972362585E-1
152 163 8.540503575359092E-2
153 19 1.3391686604493528E-2
153 44 1.7438246165264095E-2
153 62 1.8492365590116324E-2
153 63 2.6847231041788867E-2
153 106 4.791802743900095E-2
153 136 1.2828884675579974E-2
153 139 1.708605977723229E-2
153 146 3.3621038929957256E-2
153 147 3.579846293923062E-2
153 148 2.0779967576323752E-1
153 150 2.94100028828132E-1
153 151 5.183292539968603E-2
153 154 6.058788631487627E-2
154 24 1.831563888873418E-2
154 25 1.831563888873418E-2
154 33 3.503680744271654E-2
154 59 1.7854709596583654E-2
154 65 1.831563888873418E-2
154 82 1.9304758302557633E-2
154 88 1.8412135027049633E-2
154 91 2.321924418906226E-2
154 110 2.166337715764976E-2
154 144 2.5875799891358124E-2
154 145 6.220894903629843E-2
154 146 4.34756472769626E-1
154 147 9.659342592791942E-2
154 148 2.530712148808001E-1
154 150 2.7912496207662174E-1
154 151 5.393909109608487E-1
154 153 6.058788631487627E-2
155 9 1.6791757026948108E-2
155 31 4.3701588917534256E-2
155 35 1.831563888873418E-2
155 36 3.596170037428258E-2
155 37 2.0267289910998736E-2
155 38 2.150311986488542E-2
155 40 2.3103739651374598E-2
155 41 1.9958445137824767E-2
155 42 5.671717759649875E-2
155 43 1.9958445137824767E-2
155 44 2.1762472540361556E-2
155 53 1.831563888873418E-2
155 62 2.560517447192788E-2
155 68 1.957749257094935E-2
155 76 1.831563888873418E-2
155 125 3.051684071213277E-2
155 128 1.8005055272962374E-2
155 133 1.813135757573202E-2
155 158 1.8751641941321118E-2
155 163 2.009928889564593E-2
156 40 1.831563888873418E-2
156 52 1.7972927361667303E-2
156 90 7.287756682548577E-2
156 157 2.8394676556775512E-2
156 158 3.9680458637177715E-2
156 159 5.896433873933173E-2
156 161 1.360248372275154E-1
156 162 3.938222380319227E-2
156 164 1.4667177947245913E-1
156 165 4.343076977374273E-2
157 21 1.831563888873418E-2
157 30 1.4812267517936123E-2
157 32 2.7938856476979614E-2
157 47 1.771660140062074E-2
157 52 2.1249388363990086E-2
157 54 1.986835463836492E-2
157 85 1.861508570319945E-2
157 92 2.3826062552473555E-2
157 93 2.8468789993956283E-2
157 156 2.8394676556775512E-2
157 159 1.9267296502745963E-2
157 161 2.1656283205480742E-2
157 162 3.4219595048912664E-2
157 164 2.991106638802371E-2
157 165 1.831563888873418E-2
158 26 2.3291900379366917E-2
158 52 1.73244985492548E-2
158 81 2.3439006305663177E-2
158 85 3.27491138284327E-2
158 90 1.8655026855510654E-2
158 92 2.0871887949065457E-2
158 155 1.8751641941321118E-2
158 156 3.9680458637177715E-2
158 159 3.381330543113392E-2
158 161 5.164379375708687E-2
158 164 5.3079952429173585E-2
158 165 3.2853956552135834E-2
159 16 1.831563888873418E-2
159 27 1.90487135859646E-2
159 93 1.803700928576253E-2
159 156 5.896433873933173E-2
159 157 1.9267296502745963E-2
159 158 3.381330543113392E-2
159 161 1.2262601819935208E-1
159 162 2.2255500897113145E-2
159 164 9.962681862781597E-2
159 165 3.931344759005084E-2
160 23 2.8598757259566177E-2
160 28 1.9065817753568443E-1
160 72 6.683667288969464E-2
160 94 1.0263905946127428E-2
160 116 2.9694093831680868E-2
160 125 1.8440268441644054E-2
160 127 1.831563888873418E-2
160 128 4.7668602463492395E-2
160 129 5.396052390306535E-2
160 131 2.2161156255043557E-2
160 132 2.2669488740670003E-2
160 138 1.3354172773304085E-1
160 149 1.6585283434373013E-2
161 27 1.6944650697454464E-2
161 90 1.9541248134373218E-2
161 93 1.7353798320759582E-2
161 95 1.831563888873418E-2
161 96 1.831563888873418E-2
161 156 1.360248372275154E-1
161 157 2.1656283205480742E-2
161 158 5.164379375708687E-2
161 159 1.2262601819935208E-1
161 162 6.607038573831514E-2
161 164 2.2783531577801075E-1
161 165 6.563279661384723E-2
162 12 1.9985136837992044E-2
162 22 1.6580829755579164E-2
162 29 2.386520928278616E-2
162 30 2.03206068957686E-2
162 32 2.12566499083631E-2
162 40 1.831563888873418E-2
162 89 2.3277432425051064E-2
162 90 2.8431414984423527E-2
162 156 3.938222380319227E-2
162 157 3.4219595048912664E-2
162 159 2.2255500897113145E-2
162 161 6.607038573831514E-2
162 164 6.296991924028186E-2
162 165 1.6984169074160314E-2
163 9 1.3779433842676106E-1
163 20 1.831563888873418E-2
163 31 1.0952816318511158E-1
163 42 1.6056126586381025E-1
163 53 3.1560706072684026E-2
163 64 7.573715846829478E-2
163 97 2.281803490015189E-1
163 108 1.9350422979385596E-2
163 119 3.295673535613099E-2
163 130 3.180872425942134E-2
163 141 2.1761821024566842E-2
163 152 8.540503575359092E-2
163 155 2.009928889564593E-2
164 29 1.831563888873418E-2
164 90 5.4724119547982585E-2
164 93 1.733062134463132E-2
164 156 1.4667177947245913E-1
164 157 2.991106638802371E-2
164 158 5.3079952429173585E-2
164 159 9.962681862781597E-2
164 161 2.2783531577801075E-1
164 162 6.296991924028186E-2
164 165 5.904229505233037E-2
165 33 3.8444884053674785E-2
165 90 1.9707237692264366E-2
165 99 2.3967264198960454E-2
165 156 4.343076977374273E-2
165 157 1.831563888873418E-2
165 158 3.2853956552135834E-2
165 159 3.931344759005084E-2
165 161 6.563279661384723E-2
165 162 1.6984169074160314E-2
165 164 5.904229505233037E-2
